<?xml version="1.0"?>
<VTKFile type="UnstructuredGrid" version="0.1" byte_order="LittleEndian">
<UnstructuredGrid>
<Piece NumberOfPoints="30213" NumberOfCells="10548">
<Points>
<DataArray type="Float64" NumberOfComponents="3" format="ascii">
-0.5 -0.5 0 -0.45858193638586953 -0.49504955461797517 0 -0.44946655267028662 -0.49999999999999728 0 -0.5 -0.5 0 -0.47929096819293382 -0.47927828299753938 0 -0.45858193638586953 -0.49504955461797517 0 -0.5 -0.5 0 -0.47929096819293382 -0.47927828299753938 0 -0.49999999999999861 -0.46350701137710421 0 -0.47929096819293382 -0.47927828299753938 0 -0.49999999999999861 -0.46350701137710421 0 -0.47929096819293382 -0.47927828299753938 0 -0.46259520264281989 -0.47513842296917441 0 -0.47985826332737203 -0.45416439828180899 0 -0.47929096819293382 -0.47927828299753938 0 -0.45858193638586953 -0.49504955461797517 0 -0.46259520264281989 -0.47513842296917441 0 -0.44352824103889771 -0.4793354489760982 0 -0.45634837946784229 -0.45920470148177772 0 -0.47929096819293382 -0.47927828299753938 0 -0.45858193638586953 -0.49504955461797517 0 -0.46259520264281989 -0.47513842296917441 0 -0.45858193638586953 -0.49504955461797517 0 -0.46259520264281989 -0.47513842296917441 0 -0.44352824103889771 -0.4793354489760982 0 -0.44352824103889771 -0.4793354489760982 0 -0.43758992940750657 -0.45867089795219962 0 -0.45858193638586953 -0.49504955461797517 0 -0.44352824103889771 -0.4793354489760982 0 -0.44946655267028662 -0.49999999999999728 0 -0.44352824103889771 -0.4793354489760982 0 -0.44946655267028662 -0.49999999999999728 0 -0.44352824103889771 -0.4793354489760982 0 -0.44946655267028662 -0.49999999999999728 0 -0.43567531076101701 -0.4999999999999995 0 -0.43758992940750657 -0.45867089795219962 0 -0.45634837946784229 -0.45920470148177772 0 -0.46203875063193472 -0.44132219408239182 0 -0.43758992940750657 -0.45867089795219962 0 -0.46203875063193472 -0.44132219408239182 0 -0.43758992940750657 -0.45867089795219962 0 -0.46203875063193472 -0.44132219408239182 0 -0.43171907702726747 -0.43824109633586461 0 -0.44352824103889771 -0.4793354489760982 0 -0.43758992940750657 -0.45867089795219962 0 -0.45634837946784229 -0.45920470148177772 0 -0.46259520264281989 -0.47513842296917441 0 -0.45634837946784229 -0.45920470148177772 0 -0.47985826332737203 -0.45416439828180899 0 -0.45634837946784229 -0.45920470148177772 0 -0.46203875063193472 -0.44132219408239182 0 -0.47985826332737203 -0.45416439828180899 0 -0.46203875063193472 -0.44132219408239182 0 -0.48209614645391807 -0.44026952142698311 0 -0.47985826332737203 -0.45416439828180899 0 -0.47929096819293382 -0.47927828299753938 0 -0.47985826332737203 -0.45416439828180899 0 -0.49999999999999861 -0.46350701137710421 0 -0.48209614645391807 -0.44026952142698311 0 -0.47985826332737203 -0.45416439828180899 0 -0.5 -0.44161800313114358 0 -0.47985826332737203 -0.45416439828180899 0 -0.49999999999999861 -0.46350701137710421 0 -0.5 -0.44161800313114358 0 -0.5 -0.44161800313114358 0 -0.48648757185636549 -0.4239734902125879 0 -0.5 -0.41972899488518312 0 -0.48209614645391807 -0.44026952142698311 0 -0.5 -0.44161800313114358 0 -0.48648757185636549 -0.4239734902125879 0 -0.48648757185636549 -0.4239734902125879 0 -0.5 -0.41972899488518312 0 -0.49035791759395492 -0.41138909828302722 0 -0.5 -0.41972899488518312 0 -0.49035791759395492 -0.41138909828302722 0 -0.49999999999999939 -0.3978399866392226 0 -0.48648757185636549 -0.4239734902125879 0 -0.49035791759395492 -0.41138909828302722 0 -0.47941528393892091 -0.40375665849347531 0 -0.48648757185636549 -0.4239734902125879 0 -0.47941528393892091 -0.40375665849347531 0 -0.46640036527088818 -0.41856012727791397 0 -0.46203875063193472 -0.44132219408239182 0 -0.48209614645391807 -0.44026952142698311 0 -0.48648757185636549 -0.4239734902125879 0 -0.46203875063193472 -0.44132219408239182 0 -0.48648757185636549 -0.4239734902125879 0 -0.46203875063193472 -0.44132219408239182 0 -0.48648757185636549 -0.4239734902125879 0 -0.46640036527088818 -0.41856012727791397 0 -0.48463546452293871 -0.37519354313071163 0 -0.49999999999999939 -0.3978399866392226 0 -0.5 -0.3726929103767872 0 -0.48463546452293871 -0.37519354313071163 0 -0.49999999999999939 -0.3978399866392226 0 -0.49035791759395492 -0.41138909828302722 0 -0.49999999999999939 -0.3978399866392226 0 -0.47941528393892091 -0.40375665849347531 0 -0.48463546452293871 -0.37519354313071163 0 -0.49999999999999939 -0.3978399866392226 0 -0.47941528393892091 -0.40375665849347531 0 -0.48463546452293871 -0.37519354313071163 0 -0.47941528393892091 -0.40375665849347531 0 -0.46349689164547808 -0.37822119677520832 0 -0.46349689164547808 -0.37822119677520832 0 -0.45822785114093317 -0.40062133832212038 0 -0.44446391451040829 -0.38070603820386711 0 -0.47941528393892091 -0.40375665849347531 0 -0.46349689164547808 -0.37822119677520832 0 -0.45822785114093317 -0.40062133832212038 0 -0.45822785114093317 -0.40062133832212038 0 -0.43810554710717808 -0.40155168374247863 0 -0.44446391451040829 -0.38070603820386711 0 -0.43810554710717808 -0.40155168374247863 0 -0.44446391451040829 -0.38070603820386711 0 -0.43161353309829442 -0.38767170527319961 0 -0.46203875063193472 -0.44132219408239182 0 -0.46640036527088818 -0.41856012727791397 0 -0.44678479724064207 -0.42084560413766919 0 -0.47941528393892091 -0.40375665849347531 0 -0.45822785114093317 -0.40062133832212038 0 -0.46640036527088818 -0.41856012727791397 0 -0.45822785114093317 -0.40062133832212038 0 -0.46640036527088818 -0.41856012727791397 0 -0.44678479724064207 -0.42084560413766919 0 -0.45822785114093317 -0.40062133832212038 0 -0.43810554710717808 -0.40155168374247863 0 -0.44678479724064207 -0.42084560413766919 0 -0.46203875063193472 -0.44132219408239182 0 -0.44678479724064207 -0.42084560413766919 0 -0.43171907702726747 -0.43824109633586461 0 -0.42584822464702698 -0.41781129471952999 0 -0.41955507658974811 -0.42006134240176413 0 -0.43171907702726747 -0.43824109633586461 0 -0.42584822464702698 -0.41781129471952999 0 -0.43171907702726747 -0.43824109633586461 0 -0.44678479724064207 -0.42084560413766919 0 -0.42584822464702698 -0.41781129471952999 0 -0.43171907702726747 -0.43824109633586461 0 -0.42584822464702698 -0.41781129471952999 0 -0.41997737226678727 -0.39738149310319532 0 -0.43810554710717808 -0.40155168374247863 0 -0.44678479724064207 -0.42084560413766919 0 -0.42584822464702698 -0.41781129471952999 0 -0.42584822464702698 -0.41781129471952999 0 -0.41955507658974811 -0.42006134240176413 0 -0.41997737226678727 -0.39738149310319532 0 -0.41955507658974811 -0.42006134240176413 0 -0.41997737226678727 -0.39738149310319532 0 -0.41955507658974811 -0.42006134240176413 0 -0.40958390772456182 -0.40820187982514899 0 -0.41997737226678727 -0.39738149310319532 0 -0.41955507658974811 -0.42006134240176413 0 -0.40958390772456182 -0.40820187982514899 0 -0.40503406341772402 -0.42057186992168533 0 -0.41955507658974811 -0.42006134240176413 0 -0.41345375505944482 -0.43639815219283262 0 -0.43171907702726747 -0.43824109633586461 0 -0.41955507658974811 -0.42006134240176413 0 -0.41345375505944482 -0.43639815219283262 0 -0.40503406341772402 -0.42057186992168533 0 -0.43161353309829442 -0.38767170527319961 0 -0.42032112832424651 -0.37891969961936839 0 -0.4331242049343027 -0.36992399405912962 0 -0.44446391451040829 -0.38070603820386711 0 -0.43161353309829442 -0.38767170527319961 0 -0.4331242049343027 -0.36992399405912962 0 -0.43161353309829442 -0.38767170527319961 0 -0.41997737226678727 -0.39738149310319532 0 -0.42032112832424651 -0.37891969961936839 0 -0.43810554710717808 -0.40155168374247863 0 -0.43161353309829442 -0.38767170527319961 0 -0.41997737226678727 -0.39738149310319532 0 -0.43810554710717808 -0.40155168374247863 0 -0.42584822464702698 -0.41781129471952999 0 -0.41997737226678727 -0.39738149310319532 0 -0.40958390772456182 -0.40820187982514899 0 -0.40640417614742869 -0.39250767375121509 0 -0.41997737226678727 -0.39738149310319532 0 -0.40640417614742869 -0.39250767375121509 0 -0.41997737226678727 -0.39738149310319532 0 -0.41723507549227662 -0.38783865750662871 0 -0.41997737226678727 -0.39738149310319532 0 -0.41723507549227662 -0.38783865750662871 0 -0.41997737226678727 -0.39738149310319532 0 -0.42032112832424651 -0.37891969961936839 0 -0.41997737226678727 -0.39738149310319532 0 -0.41723507549227662 -0.38783865750662871 0 -0.42032112832424651 -0.37891969961936839 0 -0.40640417614742869 -0.39250767375121509 0 -0.41723507549227662 -0.38783865750662871 0 -0.41200391583912688 -0.38124139818414993 0 -0.40640417614742869 -0.39250767375121509 0 -0.41200391583912688 -0.38124139818414993 0 -0.40214679274244342 -0.37737468703117089 0 -0.41200391583912688 -0.38124139818414993 0 -0.40214679274244342 -0.37737468703117089 0 -0.41391240648923938 -0.36956627301236622 0 -0.41200391583912688 -0.38124139818414993 0 -0.42032112832424651 -0.37891969961936839 0 -0.41391240648923938 -0.36956627301236622 0 -0.41723507549227662 -0.38783865750662871 0 -0.41200391583912688 -0.38124139818414993 0 -0.42032112832424651 -0.37891969961936839 0 -0.40640417614742869 -0.39250767375121509 0 -0.40214679274244342 -0.37737468703117089 0 -0.38711554451442509 -0.38852428951493773 0 -0.40214679274244342 -0.37737468703117089 0 -0.38711554451442509 -0.38852428951493773 0 -0.38857530826680958 -0.36568059869350178 0 -0.40958390772456182 -0.40820187982514899 0 -0.40640417614742869 -0.39250767375121509 0 -0.39624944417912272 -0.40701852024572438 0 -0.40640417614742869 -0.39250767375121509 0 -0.38711554451442509 -0.38852428951493773 0 -0.39624944417912272 -0.40701852024572438 0 -0.38711554451442509 -0.38852428951493773 0 -0.39624944417912272 -0.40701852024572438 0 -0.37683162500655948 -0.40942847475355781 0 -0.38711554451442509 -0.38852428951493773 0 -0.38857530826680958 -0.36568059869350178 0 -0.36872528977584679 -0.37499285316289349 0 -0.38711554451442509 -0.38852428951493773 0 -0.36872528977584679 -0.37499285316289349 0 -0.39569651949875451 -0.43323238492402338 0 -0.40503406341772402 -0.42057186992168533 0 -0.38904050316440641 -0.42050682744641421 0 -0.41345375505944482 -0.43639815219283262 0 -0.39569651949875451 -0.43323238492402338 0 -0.40503406341772402 -0.42057186992168533 0 -0.40503406341772402 -0.42057186992168533 0 -0.39624944417912272 -0.40701852024572438 0 -0.38904050316440641 -0.42050682744641421 0 -0.40958390772456182 -0.40820187982514899 0 -0.40503406341772402 -0.42057186992168533 0 -0.39624944417912272 -0.40701852024572438 0 -0.38904050316440641 -0.42050682744641421 0 -0.37683162500655948 -0.40942847475355781 0 -0.37485224571084158 -0.43445899852372039 0 -0.39624944417912272 -0.40701852024572438 0 -0.38904050316440641 -0.42050682744641421 0 -0.37683162500655948 -0.40942847475355781 0 -0.39569651949875451 -0.43323238492402338 0 -0.38904050316440641 -0.42050682744641421 0 -0.37485224571084158 -0.43445899852372039 0 -0.39408109637919891 -0.4551793967641295 0 -0.37485224571084158 -0.43445899852372039 0 -0.39408109637919891 -0.4551793967641295 0 -0.37296796718052999 -0.46156648724241978 0 -0.37485224571084158 -0.43445899852372039 0 -0.39569651949875451 -0.43323238492402338 0 -0.39408109637919891 -0.4551793967641295 0 -0.37485224571084158 -0.43445899852372039 0 -0.41345375505944482 -0.43639815219283262 0 -0.39569651949875451 -0.43323238492402338 0 -0.39408109637919891 -0.4551793967641295 0 -0.39408109637919891 -0.4551793967641295 0 -0.3987135013669168 -0.47371491534216043 0 -0.4133099470475563 -0.4758997950045385 0 -0.39408109637919891 -0.4551793967641295 0 -0.4133099470475563 -0.4758997950045385 0 -0.39408109637919891 -0.4551793967641295 0 -0.38735936795866921 -0.47881972342998991 0 -0.37296796718052999 -0.46156648724241978 0 -0.38735936795866921 -0.47881972342998991 0 -0.38487081386873673 -0.5 0 -0.39834151574266508 -0.48652128385752708 0 -0.38735936795866921 -0.47881972342998991 0 -0.38487081386873673 -0.5 0 -0.37342391850394668 -0.48962091311957218 0 -0.38487081386873673 -0.5 0 -0.39834151574266508 -0.48652128385752708 0 -0.41027306231487692 -0.5 0 -0.39408109637919891 -0.4551793967641295 0 -0.38735936795866921 -0.47881972342998991 0 -0.3987135013669168 -0.47371491534216043 0 -0.38735936795866921 -0.47881972342998991 0 -0.39834151574266508 -0.48652128385752708 0 -0.3987135013669168 -0.47371491534216043 0 -0.39834151574266508 -0.48652128385752708 0 -0.3987135013669168 -0.47371491534216043 0 -0.4133099470475563 -0.4758997950045385 0 -0.39834151574266508 -0.48652128385752708 0 -0.4133099470475563 -0.4758997950045385 0 -0.39834151574266508 -0.48652128385752708 0 -0.4133099470475563 -0.4758997950045385 0 -0.41049170728583517 -0.48778610906701109 0 -0.4133099470475563 -0.4758997950045385 0 -0.41049170728583517 -0.48778610906701109 0 -0.42449262890428668 -0.48794989750226903 0 -0.4133099470475563 -0.4758997950045385 0 -0.42449262890428668 -0.48794989750226903 0 -0.39834151574266508 -0.48652128385752708 0 -0.41027306231487692 -0.5 0 -0.41049170728583517 -0.48778610906701109 0 -0.41027306231487692 -0.5 0 -0.41049170728583517 -0.48778610906701109 0 -0.42449262890428668 -0.48794989750226903 0 -0.44352824103889771 -0.4793354489760982 0 -0.42449262890428668 -0.48794989750226903 0 -0.43567531076101701 -0.4999999999999995 0 -0.41027306231487692 -0.5 0 -0.42449262890428668 -0.48794989750226903 0 -0.43567531076101701 -0.4999999999999995 0 -0.42449262890428668 -0.48794989750226903 0 -0.43567531076101701 -0.4999999999999995 0 -0.44352824103889771 -0.4793354489760982 0 -0.4133099470475563 -0.4758997950045385 0 -0.42449262890428668 -0.48794989750226903 0 -0.44352824103889771 -0.4793354489760982 0 -0.43758992940750657 -0.45867089795219962 0 -0.4133099470475563 -0.4758997950045385 0 -0.43758992940750657 -0.45867089795219962 0 -0.4133099470475563 -0.4758997950045385 0 -0.4160654247590056 -0.45406013416324759 0 -0.43758992940750657 -0.45867089795219962 0 -0.4133099470475563 -0.4758997950045385 0 -0.43758992940750657 -0.45867089795219962 0 -0.43171907702726747 -0.43824109633586461 0 -0.43758992940750657 -0.45867089795219962 0 -0.43171907702726747 -0.43824109633586461 0 -0.4160654247590056 -0.45406013416324759 0 -0.41345375505944482 -0.43639815219283262 0 -0.39408109637919891 -0.4551793967641295 0 -0.4160654247590056 -0.45406013416324759 0 -0.41345375505944482 -0.43639815219283262 0 -0.43171907702726747 -0.43824109633586461 0 -0.4160654247590056 -0.45406013416324759 0 -0.39408109637919891 -0.4551793967641295 0 -0.4133099470475563 -0.4758997950045385 0 -0.4160654247590056 -0.45406013416324759 0 -0.45540603302393468 -0.2531222969012123 0 -0.4369958025791012 -0.26562869093227948 0 -0.43671774811853581 -0.2462955089460456 0 -0.45722236565678293 -0.28103846613282307 0 -0.45540603302393468 -0.2531222969012123 0 -0.4369958025791012 -0.26562869093227948 0 -0.45722236565678293 -0.28103846613282307 0 -0.44089100749532162 -0.28505667658249101 0 -0.4369958025791012 -0.26562869093227948 0 -0.45722236565678293 -0.28103846613282307 0 -0.4369958025791012 -0.26562869093227948 0 -0.45540603302393468 -0.2531222969012123 0 -0.47455237031219483 -0.26169705396472459 0 -0.47567343178643012 -0.23696598380135181 0 -0.45722236565678293 -0.28103846613282307 0 -0.45540603302393468 -0.2531222969012123 0 -0.47455237031219483 -0.26169705396472459 0 -0.49999999999999639 -0.27427093258491553 0 -0.4860175487955356 -0.27132994029943341 0 -0.5 -0.24619626171738199 0 -0.47455237031219483 -0.26169705396472459 0 -0.4860175487955356 -0.27132994029943341 0 -0.5 -0.24619626171738199 0 -0.49999999999999639 -0.27427093258491553 0 -0.48872446436722949 -0.28535958695914038 0 -0.49999999999999639 -0.27427093258491553 0 -0.4860175487955356 -0.27132994029943341 0 -0.48872446436722949 -0.28535958695914038 0 -0.45722236565678293 -0.28103846613282307 0 -0.47455237031219483 -0.26169705396472459 0 -0.47679313557324138 -0.27917465773789768 0 -0.47455237031219483 -0.26169705396472459 0 -0.4860175487955356 -0.27132994029943341 0 -0.47679313557324138 -0.27917465773789768 0 -0.4860175487955356 -0.27132994029943341 0 -0.47679313557324138 -0.27917465773789768 0 -0.48872446436722949 -0.28535958695914038 0 -0.47679313557324138 -0.27917465773789768 0 -0.47744892873446421 -0.29644824133336711 0 -0.48872446436722949 -0.28535958695914038 0 -0.45722236565678293 -0.28103846613282307 0 -0.47679313557324138 -0.27917465773789768 0 -0.47744892873446421 -0.29644824133336711 0 -0.47744892873446421 -0.29644824133336711 0 -0.48872446436722949 -0.28535958695914038 0 -0.49999999999999639 -0.27427093258491553 0 -0.48872446436722949 -0.28535958695914038 0 -0.5 -0.29394994750133241 0 -0.47744892873446421 -0.29644824133336711 0 -0.48872446436722949 -0.28535958695914038 0 -0.5 -0.29394994750133241 0 -0.47744892873446421 -0.29644824133336711 0 -0.5 -0.29394994750133241 0 -0.49999999999999911 -0.31362896241774929 0 -0.47744892873446421 -0.29644824133336711 0 -0.48098469279461459 -0.3145688467110993 0 -0.49999999999999911 -0.31362896241774929 0 -0.47744892873446421 -0.29644824133336711 0 -0.49999999999999911 -0.31362896241774929 0 -0.47744892873446421 -0.29644824133336711 0 -0.46358190822706952 -0.31008542918987891 0 -0.48098469279461459 -0.3145688467110993 0 -0.47744892873446421 -0.29644824133336711 0 -0.46358190822706952 -0.31008542918987891 0 -0.46358190822706952 -0.31008542918987891 0 -0.45201119348549551 -0.30011779660937571 0 -0.44971488771967499 -0.32372261704639088 0 -0.46358190822706952 -0.31008542918987891 0 -0.46256609902595303 -0.29692248331636117 0 -0.45201119348549551 -0.30011779660937571 0 -0.47744892873446421 -0.29644824133336711 0 -0.46358190822706952 -0.31008542918987891 0 -0.46256609902595303 -0.29692248331636117 0 -0.45722236565678293 -0.28103846613282307 0 -0.47744892873446421 -0.29644824133336711 0 -0.46256609902595303 -0.29692248331636117 0 -0.45722236565678293 -0.28103846613282307 0 -0.47744892873446421 -0.29644824133336711 0 -0.45722236565678293 -0.28103846613282307 0 -0.46256609902595303 -0.29692248331636117 0 -0.45201119348549551 -0.30011779660937571 0 -0.44089100749532162 -0.28505667658249101 0 -0.45201119348549551 -0.30011779660937571 0 -0.43596993304377318 -0.30346334268956793 0 -0.45722236565678293 -0.28103846613282307 0 -0.44089100749532162 -0.28505667658249101 0 -0.45201119348549551 -0.30011779660937571 0 -0.45201119348549551 -0.30011779660937571 0 -0.44971488771967499 -0.32372261704639088 0 -0.43596993304377318 -0.30346334268956793 0 -0.44971488771967499 -0.32372261704639088 0 -0.43305272272028872 -0.32052958043614271 0 -0.43596993304377318 -0.30346334268956793 0 -0.44971488771967499 -0.32372261704639088 0 -0.43526733625305031 -0.33793071411467712 0 -0.43305272272028872 -0.32052958043614271 0 -0.44971488771967499 -0.32372261704639088 0 -0.43596993304377318 -0.30346334268956793 0 -0.44971488771967499 -0.32372261704639088 0 -0.43526733625305031 -0.33793071411467712 0 -0.44971488771967499 -0.32372261704639088 0 -0.4594929083827774 -0.33813485833429507 0 -0.43526733625305031 -0.33793071411467712 0 -0.44971488771967499 -0.32372261704639088 0 -0.4594929083827774 -0.33813485833429507 0 -0.46668851702680147 -0.32543345322996592 0 -0.4594929083827774 -0.33813485833429507 0 -0.46668851702680147 -0.32543345322996592 0 -0.47520810754489862 -0.34090316547162253 0 -0.44971488771967499 -0.32372261704639088 0 -0.4594929083827774 -0.33813485833429507 0 -0.46358190822706952 -0.31008542918987891 0 -0.44971488771967499 -0.32372261704639088 0 -0.46668851702680147 -0.32543345322996592 0 -0.46358190822706952 -0.31008542918987891 0 -0.44971488771967499 -0.32372261704639088 0 -0.46358190822706952 -0.31008542918987891 0 -0.46668851702680147 -0.32543345322996592 0 -0.48098469279461459 -0.3145688467110993 0 -0.46668851702680147 -0.32543345322996592 0 -0.48098469279461459 -0.3145688467110993 0 -0.47983318992937102 -0.32899935199820601 0 -0.48098469279461459 -0.3145688467110993 0 -0.48978973832358857 -0.32450048389647818 0 -0.47983318992937102 -0.32899935199820601 0 -0.48098469279461459 -0.3145688467110993 0 -0.49999999999999911 -0.31362896241774929 0 -0.48978973832358857 -0.32450048389647818 0 -0.49999999999999911 -0.31362896241774929 0 -0.48978973832358857 -0.32450048389647818 0 -0.5 -0.33058739826605071 0 -0.5 -0.33058739826605071 0 -0.48826332827671648 -0.33703342611919701 0 -0.50000000000000322 -0.34754583411435203 0 -0.48978973832358857 -0.32450048389647818 0 -0.5 -0.33058739826605071 0 -0.48826332827671648 -0.33703342611919701 0 -0.48978973832358857 -0.32450048389647818 0 -0.48826332827671648 -0.33703342611919701 0 -0.47983318992937102 -0.32899935199820601 0 -0.48826332827671648 -0.33703342611919701 0 -0.47520810754489862 -0.34090316547162253 0 -0.48463546452293987 -0.35004646686828211 0 -0.48826332827671648 -0.33703342611919701 0 -0.47983318992937102 -0.32899935199820601 0 -0.47520810754489862 -0.34090316547162253 0 -0.46668851702680147 -0.32543345322996592 0 -0.47983318992937102 -0.32899935199820601 0 -0.47520810754489862 -0.34090316547162253 0 -0.46927092904587497 -0.35254709962220238 0 -0.48463546452293987 -0.35004646686828211 0 -0.48906337540297412 -0.36108182429693059 0 -0.47520810754489862 -0.34090316547162253 0 -0.46927092904587497 -0.35254709962220238 0 -0.48463546452293987 -0.35004646686828211 0 -0.46927092904587497 -0.35254709962220238 0 -0.48463546452293987 -0.35004646686828211 0 -0.48826332827671648 -0.33703342611919701 0 -0.48463546452293987 -0.35004646686828211 0 -0.50000000000000322 -0.34754583411435203 0 -0.48463546452293987 -0.35004646686828211 0 -0.50000000000000322 -0.34754583411435203 0 -0.48906337540297412 -0.36108182429693059 0 -0.48463546452293987 -0.35004646686828211 0 -0.50000000000000322 -0.34754583411435203 0 -0.50000000000000322 -0.34754583411435203 0 -0.5 -0.3726929103767872 0 -0.48906337540297412 -0.36108182429693059 0 -0.48463546452293871 -0.37519354313071163 0 -0.5 -0.3726929103767872 0 -0.48906337540297412 -0.36108182429693059 0 -0.48463546452293871 -0.37519354313071163 0 -0.46927092904587497 -0.35254709962220238 0 -0.48906337540297412 -0.36108182429693059 0 -0.48463546452293871 -0.37519354313071163 0 -0.46349689164547808 -0.37822119677520832 0 -0.46927092904587497 -0.35254709962220238 0 -0.48463546452293871 -0.37519354313071163 0 -0.46927092904587497 -0.35254709962220238 0 -0.46349689164547808 -0.37822119677520832 0 -0.46927092904587497 -0.35254709962220238 0 -0.44496790671379022 -0.35650250287887508 0 -0.46927092904587497 -0.35254709962220238 0 -0.44496790671379022 -0.35650250287887508 0 -0.4594929083827774 -0.33813485833429507 0 -0.46927092904587497 -0.35254709962220238 0 -0.44496790671379022 -0.35650250287887508 0 -0.4594929083827774 -0.33813485833429507 0 -0.47520810754489862 -0.34090316547162253 0 -0.46927092904587497 -0.35254709962220238 0 -0.4594929083827774 -0.33813485833429507 0 -0.46927092904587497 -0.35254709962220238 0 -0.4594929083827774 -0.33813485833429507 0 -0.44496790671379022 -0.35650250287887508 0 -0.43526733625305031 -0.33793071411467712 0 -0.46349689164547808 -0.37822119677520832 0 -0.44446391451040829 -0.38070603820386711 0 -0.44496790671379022 -0.35650250287887508 0 -0.44446391451040829 -0.38070603820386711 0 -0.44496790671379022 -0.35650250287887508 0 -0.4331242049343027 -0.36992399405912962 0 -0.44496790671379022 -0.35650250287887508 0 -0.4331242049343027 -0.36992399405912962 0 -0.42066488438170441 -0.36045790613554168 0 -0.42032112832424651 -0.37891969961936839 0 -0.4331242049343027 -0.36992399405912962 0 -0.42066488438170441 -0.36045790613554168 0 -0.44496790671379022 -0.35650250287887508 0 -0.42066488438170441 -0.36045790613554168 0 -0.44496790671379022 -0.35650250287887508 0 -0.42081978478642579 -0.35213881118296347 0 -0.42066488438170441 -0.36045790613554168 0 -0.44496790671379022 -0.35650250287887508 0 -0.42081978478642579 -0.35213881118296347 0 -0.43526733625305031 -0.33793071411467712 0 -0.42081978478642579 -0.35213881118296347 0 -0.43526733625305031 -0.33793071411467712 0 -0.42081978478642579 -0.35213881118296347 0 -0.42066488438170441 -0.36045790613554168 0 -0.42081978478642579 -0.35213881118296347 0 -0.41785319434510859 -0.35505623321461038 0 -0.42066488438170441 -0.36045790613554168 0 -0.42081978478642579 -0.35213881118296347 0 -0.41785319434510859 -0.35505623321461038 0 -0.42081978478642579 -0.35213881118296347 0 -0.41785319434510859 -0.35505623321461038 0 -0.413932202482581 -0.34810215463481559 0 -0.40743416984122788 -0.35136670726317698 0 -0.413932202482581 -0.34810215463481559 0 -0.40711686359181881 -0.34000546381794799 0 -0.41785319434510859 -0.35505623321461038 0 -0.40743416984122788 -0.35136670726317698 0 -0.413932202482581 -0.34810215463481559 0 -0.41785319434510859 -0.35505623321461038 0 -0.40743416984122788 -0.35136670726317698 0 -0.40462009632425677 -0.3630692524145202 0 -0.42066488438170441 -0.36045790613554168 0 -0.41391240648923938 -0.36956627301236622 0 -0.40462009632425677 -0.3630692524145202 0 -0.41785319434510859 -0.35505623321461038 0 -0.42066488438170441 -0.36045790613554168 0 -0.40462009632425677 -0.3630692524145202 0 -0.42032112832424651 -0.37891969961936839 0 -0.42066488438170441 -0.36045790613554168 0 -0.42066488438170441 -0.36045790613554168 0 -0.40462009632425677 -0.3630692524145202 0 -0.42032112832424651 -0.37891969961936839 0 -0.42066488438170441 -0.36045790613554168 0 -0.41391240648923938 -0.36956627301236622 0 -0.40214679274244342 -0.37737468703117089 0 -0.41391240648923938 -0.36956627301236622 0 -0.40462009632425677 -0.3630692524145202 0 -0.40462009632425677 -0.3630692524145202 0 -0.38857530826680958 -0.36568059869350178 0 -0.40462009632425677 -0.3630692524145202 0 -0.38857530826680958 -0.36568059869350178 0 -0.38771921000108672 -0.3544921291760248 0 -0.40214679274244342 -0.37737468703117089 0 -0.40462009632425677 -0.3630692524145202 0 -0.38857530826680958 -0.36568059869350178 0 -0.38857530826680958 -0.36568059869350178 0 -0.37256351072374799 -0.35584559064551141 0 -0.36872528977584679 -0.37499285316289349 0 -0.38382977031941801 -0.34262075737958392 0 -0.37311565519961942 -0.33666320947462558 0 -0.37256351072374799 -0.35584559064551141 0 -0.38857530826680958 -0.36568059869350178 0 -0.38771921000108672 -0.3544921291760248 0 -0.37256351072374799 -0.35584559064551141 0 -0.38771921000108672 -0.3544921291760248 0 -0.38382977031941801 -0.34262075737958392 0 -0.37256351072374799 -0.35584559064551141 0 -0.38771921000108672 -0.3544921291760248 0 -0.39696910499078669 -0.3473289358502118 0 -0.38382977031941801 -0.34262075737958392 0 -0.40743416984122788 -0.35136670726317698 0 -0.40462009632425677 -0.3630692524145202 0 -0.39696910499078669 -0.3473289358502118 0 -0.40462009632425677 -0.3630692524145202 0 -0.38771921000108672 -0.3544921291760248 0 -0.39696910499078669 -0.3473289358502118 0 -0.40743416984122788 -0.35136670726317698 0 -0.39696910499078669 -0.3473289358502118 0 -0.40711686359181881 -0.34000546381794799 0 -0.39600615451372778 -0.33405354940137377 0 -0.40820653926868938 -0.32434603331370299 0 -0.40711686359181881 -0.34000546381794799 0 -0.39696910499078669 -0.3473289358502118 0 -0.39600615451372778 -0.33405354940137377 0 -0.40711686359181881 -0.34000546381794799 0 -0.39696910499078669 -0.3473289358502118 0 -0.39600615451372778 -0.33405354940137377 0 -0.38382977031941801 -0.34262075737958392 0 -0.39600615451372778 -0.33405354940137377 0 -0.38382977031941801 -0.34262075737958392 0 -0.38342869460024909 -0.32758979070449101 0 -0.38382977031941801 -0.34262075737958392 0 -0.38342869460024909 -0.32758979070449101 0 -0.37311565519961942 -0.33666320947462558 0 -0.38342869460024909 -0.32758979070449101 0 -0.36870267080942459 -0.31988299957371608 0 -0.37311565519961942 -0.33666320947462558 0 -0.38342869460024909 -0.32758979070449101 0 -0.38433900000461452 -0.31299973826461719 0 -0.36870267080942459 -0.31988299957371608 0 -0.38342869460024909 -0.32758979070449101 0 -0.38433900000461452 -0.31299973826461719 0 -0.39581152844373563 -0.32096613969425808 0 -0.38433900000461452 -0.31299973826461719 0 -0.39581152844373563 -0.32096613969425808 0 -0.39656962912762439 -0.3094774219528848 0 -0.39600615451372778 -0.33405354940137377 0 -0.38342869460024909 -0.32758979070449101 0 -0.39581152844373563 -0.32096613969425808 0 -0.39600615451372778 -0.33405354940137377 0 -0.39581152844373563 -0.32096613969425808 0 -0.40820653926868938 -0.32434603331370299 0 -0.39581152844373563 -0.32096613969425808 0 -0.40820653926868938 -0.32434603331370299 0 -0.40695564380043309 -0.31164486047306261 0 -0.39581152844373563 -0.32096613969425808 0 -0.40695564380043309 -0.31164486047306261 0 -0.39656962912762439 -0.3094774219528848 0 -0.42122425387732948 -0.33041635810951803 0 -0.42162872296823312 -0.30869390503607241 0 -0.40820653926868938 -0.32434603331370299 0 -0.42162872296823312 -0.30869390503607241 0 -0.40695564380043309 -0.31164486047306261 0 -0.40820653926868938 -0.32434603331370299 0 -0.42122425387732948 -0.33041635810951803 0 -0.42162872296823312 -0.30869390503607241 0 -0.40820653926868938 -0.32434603331370299 0 -0.42122425387732948 -0.33041635810951803 0 -0.40711686359181881 -0.34000546381794799 0 -0.42081978478642579 -0.35213881118296347 0 -0.42122425387732948 -0.33041635810951803 0 -0.413932202482581 -0.34810215463481559 0 -0.42122425387732948 -0.33041635810951803 0 -0.40711686359181881 -0.34000546381794799 0 -0.42081978478642579 -0.35213881118296347 0 -0.413932202482581 -0.34810215463481559 0 -0.42122425387732948 -0.33041635810951803 0 -0.42081978478642579 -0.35213881118296347 0 -0.42122425387732948 -0.33041635810951803 0 -0.43526733625305031 -0.33793071411467712 0 -0.42122425387732948 -0.33041635810951803 0 -0.43526733625305031 -0.33793071411467712 0 -0.43305272272028872 -0.32052958043614271 0 -0.42122425387732948 -0.33041635810951803 0 -0.43305272272028872 -0.32052958043614271 0 -0.42162872296823312 -0.30869390503607241 0 -0.43305272272028872 -0.32052958043614271 0 -0.43596993304377318 -0.30346334268956793 0 -0.42162872296823312 -0.30869390503607241 0 -0.43596993304377318 -0.30346334268956793 0 -0.42203319205913659 -0.28697145196262669 0 -0.42162872296823312 -0.30869390503607241 0 -0.43596993304377318 -0.30346334268956793 0 -0.43244155345297602 -0.28732270882188671 0 -0.42222497836786987 -0.28320406833274581 0 -0.43596993304377318 -0.30346334268956793 0 -0.42203319205913659 -0.28697145196262669 0 -0.42222497836786987 -0.28320406833274581 0 -0.43596993304377318 -0.30346334268956793 0 -0.42222497836786987 -0.28320406833274581 0 -0.44089100749532162 -0.28505667658249101 0 -0.43596993304377318 -0.30346334268956793 0 -0.43244155345297602 -0.28732270882188671 0 -0.44089100749532162 -0.28505667658249101 0 -0.43244155345297602 -0.28732270882188671 0 -0.43068029490493948 -0.27756674768274209 0 -0.43244155345297602 -0.28732270882188671 0 -0.42222497836786987 -0.28320406833274581 0 -0.43068029490493948 -0.27756674768274209 0 -0.42203319205913659 -0.28697145196262669 0 -0.4171295856555487 -0.29123813497021728 0 -0.42162872296823312 -0.30869390503607241 0 -0.4171295856555487 -0.29123813497021728 0 -0.41215637931009402 -0.28863194716311558 0 -0.41313122711392802 -0.29614600539022029 0 -0.4171295856555487 -0.29123813497021728 0 -0.4144539541383041 -0.28187187103766842 0 -0.41215637931009402 -0.28863194716311558 0 -0.4171295856555487 -0.29123813497021728 0 -0.41896042755521479 -0.28582138157581449 0 -0.4144539541383041 -0.28187187103766842 0 -0.42222497836786987 -0.28320406833274581 0 -0.41896042755521479 -0.28582138157581449 0 -0.4144539541383041 -0.28187187103766842 0 -0.42203319205913659 -0.28697145196262669 0 -0.4171295856555487 -0.29123813497021728 0 -0.41896042755521479 -0.28582138157581449 0 -0.42203319205913659 -0.28697145196262669 0 -0.42222497836786987 -0.28320406833274581 0 -0.41896042755521479 -0.28582138157581449 0 -0.41215637931009402 -0.28863194716311558 0 -0.40708266031748608 -0.28159552216748668 0 -0.40726587111186019 -0.29142333590965769 0 -0.4144539541383041 -0.28187187103766842 0 -0.41215637931009402 -0.28863194716311558 0 -0.40708266031748608 -0.28159552216748668 0 -0.41215637931009402 -0.28863194716311558 0 -0.41313122711392802 -0.29614600539022029 0 -0.40726587111186019 -0.29142333590965769 0 -0.40726587111186019 -0.29142333590965769 0 -0.40844090888373191 -0.29737230959764521 0 -0.40372079973323072 -0.29749546985036318 0 -0.41313122711392802 -0.29614600539022029 0 -0.40726587111186019 -0.29142333590965769 0 -0.40844090888373191 -0.29737230959764521 0 -0.4171295856555487 -0.29123813497021728 0 -0.41313122711392802 -0.29614600539022029 0 -0.42162872296823312 -0.30869390503607241 0 -0.42203319205913659 -0.28697145196262669 0 -0.42162872296823312 -0.30869390503607241 0 -0.40844090888373191 -0.29737230959764521 0 -0.41111812806770781 -0.3033707427495127 0 -0.4042630042413482 -0.30334756472367719 0 -0.41313122711392802 -0.29614600539022029 0 -0.40844090888373191 -0.29737230959764521 0 -0.41111812806770781 -0.3033707427495127 0 -0.41313122711392802 -0.29614600539022029 0 -0.41111812806770781 -0.3033707427495127 0 -0.42162872296823312 -0.30869390503607241 0 -0.41111812806770781 -0.3033707427495127 0 -0.40695564380043309 -0.31164486047306261 0 -0.4042630042413482 -0.30334756472367719 0 -0.41111812806770781 -0.3033707427495127 0 -0.42162872296823312 -0.30869390503607241 0 -0.40695564380043309 -0.31164486047306261 0 -0.40695564380043309 -0.31164486047306261 0 -0.4042630042413482 -0.30334756472367719 0 -0.39656962912762439 -0.3094774219528848 0 -0.4042630042413482 -0.30334756472367719 0 -0.39820926705398962 -0.30174991093426279 0 -0.39656962912762439 -0.3094774219528848 0 -0.40844090888373191 -0.29737230959764521 0 -0.40372079973323072 -0.29749546985036318 0 -0.4042630042413482 -0.30334756472367719 0 -0.40372079973323072 -0.29749546985036318 0 -0.4042630042413482 -0.30334756472367719 0 -0.39820926705398962 -0.30174991093426279 0 -0.40372079973323072 -0.29749546985036318 0 -0.39820926705398962 -0.30174991093426279 0 -0.39835955707199278 -0.29680879195588289 0 -0.39820926705398962 -0.30174991093426279 0 -0.3934949953895962 -0.29650912992801148 0 -0.39835955707199278 -0.29680879195588289 0 -0.39820926705398962 -0.30174991093426279 0 -0.39059182407556892 -0.30352434935272399 0 -0.3934949953895962 -0.29650912992801148 0 -0.39820926705398962 -0.30174991093426279 0 -0.39656962912762439 -0.3094774219528848 0 -0.39059182407556892 -0.30352434935272399 0 -0.38433900000461452 -0.31299973826461719 0 -0.39656962912762439 -0.3094774219528848 0 -0.39059182407556892 -0.30352434935272399 0 -0.38433900000461452 -0.31299973826461719 0 -0.37788648869550201 -0.29909379095515021 0 -0.36870267080942459 -0.31988299957371608 0 -0.38433900000461452 -0.31299973826461719 0 -0.39059182407556892 -0.30352434935272399 0 -0.38293223810199389 -0.30122834682443422 0 -0.39059182407556892 -0.30352434935272399 0 -0.3867374360719964 -0.29793960450394852 0 -0.3934949953895962 -0.29650912992801148 0 -0.39059182407556892 -0.30352434935272399 0 -0.3867374360719964 -0.29793960450394852 0 -0.38293223810199389 -0.30122834682443422 0 -0.38433900000461452 -0.31299973826461719 0 -0.38293223810199389 -0.30122834682443422 0 -0.37788648869550201 -0.29909379095515021 0 -0.3867374360719964 -0.29793960450394852 0 -0.38293223810199389 -0.30122834682443422 0 -0.37788648869550201 -0.29909379095515021 0 -0.38293223810199389 -0.30122834682443422 0 -0.37788648869550201 -0.29909379095515021 0 -0.37788648869550201 -0.29909379095515021 0 -0.38806430372143152 -0.27605449265024889 0 -0.36998978819774048 -0.28183763392024008 0 -0.37788648869550201 -0.29909379095515021 0 -0.38806430372143152 -0.27605449265024889 0 -0.37788648869550201 -0.29909379095515021 0 -0.3888241457941366 -0.2904673781217485 0 -0.38806430372143152 -0.27605449265024889 0 -0.3867374360719964 -0.29793960450394852 0 -0.37788648869550201 -0.29909379095515021 0 -0.3888241457941366 -0.2904673781217485 0 -0.3867374360719964 -0.29793960450394852 0 -0.3888241457941366 -0.2904673781217485 0 -0.3934949953895962 -0.29650912992801148 0 -0.3888241457941366 -0.2904673781217485 0 -0.39814156123687239 -0.28813974135054798 0 -0.38806430372143152 -0.27605449265024889 0 -0.3888241457941366 -0.2904673781217485 0 -0.39814156123687239 -0.28813974135054798 0 -0.3934949953895962 -0.29650912992801148 0 -0.39814156123687239 -0.28813974135054798 0 -0.3934949953895962 -0.29650912992801148 0 -0.39835955707199278 -0.29680879195588289 0 -0.40726587111186019 -0.29142333590965769 0 -0.40372079973323072 -0.29749546985036318 0 -0.39814156123687239 -0.28813974135054798 0 -0.40372079973323072 -0.29749546985036318 0 -0.39814156123687239 -0.28813974135054798 0 -0.39835955707199278 -0.29680879195588289 0 -0.40708266031748608 -0.28159552216748668 0 -0.40726587111186019 -0.29142333590965769 0 -0.39814156123687239 -0.28813974135054798 0 -0.39898033300680591 -0.27356116971385508 0 -0.38806430372143152 -0.27605449265024889 0 -0.38924912100373782 -0.25894014718292357 0 -0.40708266031748608 -0.28159552216748668 0 -0.39898033300680591 -0.27356116971385508 0 -0.40848002369196668 -0.26294479397592369 0 -0.40708266031748608 -0.28159552216748668 0 -0.39814156123687239 -0.28813974135054798 0 -0.39898033300680591 -0.27356116971385508 0 -0.39814156123687239 -0.28813974135054798 0 -0.39898033300680591 -0.27356116971385508 0 -0.38806430372143152 -0.27605449265024889 0 -0.38806430372143152 -0.27605449265024889 0 -0.38924912100373782 -0.25894014718292357 0 -0.36697682855123132 -0.2579397511407564 0 -0.38924912100373782 -0.25894014718292357 0 -0.36697682855123132 -0.2579397511407564 0 -0.3767973705569283 -0.24112323216075551 0 -0.39898033300680591 -0.27356116971385508 0 -0.38924912100373782 -0.25894014718292357 0 -0.40848002369196668 -0.26294479397592369 0 -0.40848002369196668 -0.26294479397592369 0 -0.39473506901606342 -0.24268551961910159 0 -0.38924912100373782 -0.25894014718292357 0 -0.40848002369196668 -0.26294479397592369 0 -0.39473506901606342 -0.24268551961910159 0 -0.41676923950141981 -0.25021891573173599 0 -0.40848002369196668 -0.26294479397592369 0 -0.39473506901606342 -0.24268551961910159 0 -0.41676923950141981 -0.25021891573173599 0 -0.40848002369196668 -0.26294479397592369 0 -0.42235817069396903 -0.26832141728469971 0 -0.42222497836786987 -0.28320406833274581 0 -0.40848002369196668 -0.26294479397592369 0 -0.42222497836786987 -0.28320406833274581 0 -0.40848002369196668 -0.26294479397592369 0 -0.42235817069396903 -0.26832141728469971 0 -0.42222497836786987 -0.28320406833274581 0 -0.4144539541383041 -0.28187187103766842 0 -0.40848002369196668 -0.26294479397592369 0 -0.4144539541383041 -0.28187187103766842 0 -0.40708266031748608 -0.28159552216748668 0 -0.40848002369196668 -0.26294479397592369 0 -0.44089100749532162 -0.28505667658249101 0 -0.43068029490493948 -0.27756674768274209 0 -0.4369958025791012 -0.26562869093227948 0 -0.42222497836786987 -0.28320406833274581 0 -0.42235817069396903 -0.26832141728469971 0 -0.43068029490493948 -0.27756674768274209 0 -0.42235817069396903 -0.26832141728469971 0 -0.43068029490493948 -0.27756674768274209 0 -0.4369958025791012 -0.26562869093227948 0 -0.41676923950141981 -0.25021891573173599 0 -0.42235817069396903 -0.26832141728469971 0 -0.4369958025791012 -0.26562869093227948 0 -0.41676923950141981 -0.25021891573173599 0 -0.4369958025791012 -0.26562869093227948 0 -0.41676923950141981 -0.25021891573173599 0 -0.4369958025791012 -0.26562869093227948 0 -0.43671774811853581 -0.2462955089460456 0 -0.32144586109570311 -0.2560533286399938 0 -0.32632677128476378 -0.27728194725243788 0 -0.30054691257939542 -0.2663760254010798 0 -0.32632677128476378 -0.27728194725243788 0 -0.30054691257939542 -0.2663760254010798 0 -0.32632677128476378 -0.27728194725243788 0 -0.33974311574663402 -0.25738553055922281 0 -0.35373949187277282 -0.2696500498908409 0 -0.32144586109570311 -0.2560533286399938 0 -0.32632677128476378 -0.27728194725243788 0 -0.33974311574663402 -0.25738553055922281 0 -0.33974311574663402 -0.25738553055922281 0 -0.36697682855123132 -0.2579397511407564 0 -0.35373949187277282 -0.2696500498908409 0 -0.38806430372143152 -0.27605449265024889 0 -0.36697682855123132 -0.2579397511407564 0 -0.36998978819774048 -0.28183763392024008 0 -0.36697682855123132 -0.2579397511407564 0 -0.35373949187277282 -0.2696500498908409 0 -0.36998978819774048 -0.28183763392024008 0 -0.32632677128476378 -0.27728194725243788 0 -0.35373949187277282 -0.2696500498908409 0 -0.35210662999013198 -0.28818786910379601 0 -0.35373949187277282 -0.2696500498908409 0 -0.35210662999013198 -0.28818786910379601 0 -0.36998978819774048 -0.28183763392024008 0 -0.37788648869550201 -0.29909379095515021 0 -0.35210662999013198 -0.28818786910379601 0 -0.37788648869550201 -0.29909379095515021 0 -0.35210662999013198 -0.28818786910379601 0 -0.36998978819774048 -0.28183763392024008 0 -0.37788648869550201 -0.29909379095515021 0 -0.36051767235779919 -0.30542767532780379 0 -0.36870267080942459 -0.31988299957371608 0 -0.37788648869550201 -0.29909379095515021 0 -0.36870267080942459 -0.31988299957371608 0 -0.37788648869550201 -0.29909379095515021 0 -0.35210662999013198 -0.28818786910379601 0 -0.36051767235779919 -0.30542767532780379 0 -0.36051767235779919 -0.30542767532780379 0 -0.34644534461629051 -0.30915085074523652 0 -0.35258112996053842 -0.32151098948337931 0 -0.35210662999013198 -0.28818786910379601 0 -0.36051767235779919 -0.30542767532780379 0 -0.34644534461629051 -0.30915085074523652 0 -0.34644534461629051 -0.30915085074523652 0 -0.3299212036747573 -0.30489744040171912 0 -0.33788746548564869 -0.32154921755166038 0 -0.35210662999013198 -0.28818786910379601 0 -0.34644534461629051 -0.30915085074523652 0 -0.3299212036747573 -0.30489744040171912 0 -0.32632677128476378 -0.27728194725243788 0 -0.35210662999013198 -0.28818786910379601 0 -0.32632677128476378 -0.27728194725243788 0 -0.35210662999013198 -0.28818786910379601 0 -0.3299212036747573 -0.30489744040171912 0 -0.32632677128476378 -0.27728194725243788 0 -0.3299212036747573 -0.30489744040171912 0 -0.31213778502428557 -0.29909099471600031 0 -0.32632677128476378 -0.27728194725243788 0 -0.31213778502428557 -0.29909099471600031 0 -0.3071590778169353 -0.28334701425030068 0 -0.3299212036747573 -0.30489744040171912 0 -0.31165345630254471 -0.31242627531325989 0 -0.31213778502428557 -0.29909099471600031 0 -0.3299212036747573 -0.30489744040171912 0 -0.32379671618599642 -0.32494215653769332 0 -0.31165345630254471 -0.31242627531325989 0 -0.32379671618599642 -0.32494215653769332 0 -0.31692177349128781 -0.33687614442877689 0 -0.2991718660388526 -0.3201958703040288 0 -0.31692177349128781 -0.33687614442877689 0 -0.33028617729918952 -0.33460945771608619 0 -0.3336284042642782 -0.34916878061981299 0 -0.31692177349128781 -0.33687614442877689 0 -0.3336284042642782 -0.34916878061981299 0 -0.32379671618599642 -0.32494215653769332 0 -0.31692177349128781 -0.33687614442877689 0 -0.33028617729918952 -0.33460945771608619 0 -0.33028617729918952 -0.33460945771608619 0 -0.34241477357072042 -0.33238298550957701 0 -0.3336284042642782 -0.34916878061981299 0 -0.33028617729918952 -0.33460945771608619 0 -0.34241477357072042 -0.33238298550957701 0 -0.33788746548564869 -0.32154921755166038 0 -0.3299212036747573 -0.30489744040171912 0 -0.32379671618599642 -0.32494215653769332 0 -0.33788746548564869 -0.32154921755166038 0 -0.32379671618599642 -0.32494215653769332 0 -0.33028617729918952 -0.33460945771608619 0 -0.33788746548564869 -0.32154921755166038 0 -0.34644534461629051 -0.30915085074523652 0 -0.33788746548564869 -0.32154921755166038 0 -0.35258112996053842 -0.32151098948337931 0 -0.34241477357072042 -0.33238298550957701 0 -0.33788746548564869 -0.32154921755166038 0 -0.35258112996053842 -0.32151098948337931 0 -0.36051767235779919 -0.30542767532780379 0 -0.35258112996053842 -0.32151098948337931 0 -0.36870267080942459 -0.31988299957371608 0 -0.35258112996053842 -0.32151098948337931 0 -0.36870267080942459 -0.31988299957371608 0 -0.35951885292334718 -0.34067220819228211 0 -0.36870267080942459 -0.31988299957371608 0 -0.35951885292334718 -0.34067220819228211 0 -0.36870267080942459 -0.31988299957371608 0 -0.35951885292334718 -0.34067220819228211 0 -0.37311565519961942 -0.33666320947462558 0 -0.34241477357072042 -0.33238298550957701 0 -0.35951885292334718 -0.34067220819228211 0 -0.3336284042642782 -0.34916878061981299 0 -0.34241477357072042 -0.33238298550957701 0 -0.35258112996053842 -0.32151098948337931 0 -0.35951885292334718 -0.34067220819228211 0 -0.35951885292334718 -0.34067220819228211 0 -0.35033503503726948 -0.36146141681084792 0 -0.3336284042642782 -0.34916878061981299 0 -0.35951885292334718 -0.34067220819228211 0 -0.35033503503726948 -0.36146141681084792 0 -0.35951885292334718 -0.34067220819228211 0 -0.37311565519961942 -0.33666320947462558 0 -0.37256351072374799 -0.35584559064551141 0 -0.35951885292334718 -0.34067220819228211 0 -0.37256351072374799 -0.35584559064551141 0 -0.35033503503726948 -0.36146141681084792 0 -0.37256351072374799 -0.35584559064551141 0 -0.36872528977584679 -0.37499285316289349 0 -0.35033503503726948 -0.36146141681084792 0 -0.36872528977584679 -0.37499285316289349 0 -0.35033503503726948 -0.36146141681084792 0 -0.36872528977584679 -0.37499285316289349 0 -0.35033503503726948 -0.36146141681084792 0 -0.34336478970569861 -0.37723980942687502 0 -0.35033503503726948 -0.36146141681084792 0 -0.34336478970569861 -0.37723980942687502 0 -0.33244139342984769 -0.36559328719085599 0 -0.34336478970569861 -0.37723980942687502 0 -0.32264629524730598 -0.37820352580825489 0 -0.35033503503726948 -0.36146141681084792 0 -0.33244139342984769 -0.36559328719085599 0 -0.34336478970569861 -0.37723980942687502 0 -0.35033503503726948 -0.36146141681084792 0 -0.3336284042642782 -0.34916878061981299 0 -0.33244139342984769 -0.36559328719085599 0 -0.3336284042642782 -0.34916878061981299 0 -0.32085011908009381 -0.35549921302246312 0 -0.35033503503726948 -0.36146141681084792 0 -0.33244139342984769 -0.36559328719085599 0 -0.3336284042642782 -0.34916878061981299 0 -0.31692177349128781 -0.33687614442877689 0 -0.32085011908009381 -0.35549921302246312 0 -0.30981181557741921 -0.34823875756259681 0 -0.31692177349128781 -0.33687614442877689 0 -0.3336284042642782 -0.34916878061981299 0 -0.32085011908009381 -0.35549921302246312 0 -0.32085011908009381 -0.35549921302246312 0 -0.31423450996779162 -0.3574543260360627 0 -0.30981181557741921 -0.34823875756259681 0 -0.32085011908009381 -0.35549921302246312 0 -0.31423450996779162 -0.3574543260360627 0 -0.31672383545433058 -0.36277895997470022 0 -0.31423450996779162 -0.3574543260360627 0 -0.31672383545433058 -0.36277895997470022 0 -0.30955226975932282 -0.36330037358449058 0 -0.32085011908009381 -0.35549921302246312 0 -0.31672383545433058 -0.36277895997470022 0 -0.32252843281089499 -0.36809649093046409 0 -0.31420404816368902 -0.37437099744422703 0 -0.32252843281089499 -0.36809649093046409 0 -0.32264629524730598 -0.37820352580825489 0 -0.31672383545433058 -0.36277895997470022 0 -0.31420404816368902 -0.37437099744422703 0 -0.32252843281089499 -0.36809649093046409 0 -0.33244139342984769 -0.36559328719085599 0 -0.32252843281089499 -0.36809649093046409 0 -0.32264629524730598 -0.37820352580825489 0 -0.33244139342984769 -0.36559328719085599 0 -0.32085011908009381 -0.35549921302246312 0 -0.32252843281089499 -0.36809649093046409 0 -0.31672383545433058 -0.36277895997470022 0 -0.30955226975932282 -0.36330037358449058 0 -0.29756619856365712 -0.37908494683037158 0 -0.31672383545433058 -0.36277895997470022 0 -0.29756619856365712 -0.37908494683037158 0 -0.31672383545433058 -0.36277895997470022 0 -0.31420404816368902 -0.37437099744422703 0 -0.29756619856365712 -0.37908494683037158 0 -0.30955226975932282 -0.36330037358449058 0 -0.29641437970647772 -0.36750015320092372 0 -0.29756619856365712 -0.37908494683037158 0 -0.30955226975932282 -0.36330037358449058 0 -0.2940928203614625 -0.35624501427970701 0 -0.29641437970647772 -0.36750015320092372 0 -0.31423450996779162 -0.3574543260360627 0 -0.30955226975932282 -0.36330037358449058 0 -0.30981181557741921 -0.34823875756259681 0 -0.30955226975932282 -0.36330037358449058 0 -0.29204964282551632 -0.33937497882742679 0 -0.30955226975932282 -0.36330037358449058 0 -0.30981181557741921 -0.34823875756259681 0 -0.29204964282551632 -0.33937497882742679 0 -0.30955226975932282 -0.36330037358449058 0 -0.2940928203614625 -0.35624501427970701 0 -0.29204964282551632 -0.33937497882742679 0 -0.2940928203614625 -0.35624501427970701 0 -0.282288450051076 -0.35064429087169918 0 -0.29204964282551632 -0.33937497882742679 0 -0.2940928203614625 -0.35624501427970701 0 -0.282288450051076 -0.35064429087169918 0 -0.28631334655402618 -0.36263184310058721 0 -0.282288450051076 -0.35064429087169918 0 -0.28631334655402618 -0.36263184310058721 0 -0.27535508069817161 -0.36382584294562997 0 -0.28631334655402618 -0.36263184310058721 0 -0.28341600195294347 -0.37494391420497558 0 -0.27535508069817161 -0.36382584294562997 0 -0.2940928203614625 -0.35624501427970701 0 -0.28631334655402618 -0.36263184310058721 0 -0.29641437970647772 -0.36750015320092372 0 -0.29641437970647772 -0.36750015320092372 0 -0.28341600195294347 -0.37494391420497558 0 -0.29756619856365712 -0.37908494683037158 0 -0.28631334655402618 -0.36263184310058721 0 -0.29641437970647772 -0.36750015320092372 0 -0.28341600195294347 -0.37494391420497558 0 -0.28341600195294347 -0.37494391420497558 0 -0.27535508069817161 -0.36382584294562997 0 -0.27245943227174141 -0.37580640930438391 0 -0.27535508069817161 -0.36382584294562997 0 -0.26251805895263741 -0.37109191567945732 0 -0.26236278936197122 -0.35812461401415813 0 -0.27535508069817161 -0.36382584294562997 0 -0.26251805895263741 -0.37109191567945732 0 -0.27245943227174141 -0.37580640930438391 0 -0.26251805895263741 -0.37109191567945732 0 -0.24844509754671881 -0.38067795311205849 0 -0.2471238808729333 -0.36186225383658999 0 -0.26251805895263741 -0.37109191567945732 0 -0.26236278936197122 -0.35812461401415813 0 -0.2471238808729333 -0.36186225383658999 0 -0.2565318681264519 -0.34593743616912798 0 -0.26236278936197122 -0.35812461401415813 0 -0.2471238808729333 -0.36186225383658999 0 -0.2565318681264519 -0.34593743616912798 0 -0.26236278936197122 -0.35812461401415813 0 -0.26979294458908692 -0.35077954576507758 0 -0.2565318681264519 -0.34593743616912798 0 -0.26979294458908692 -0.35077954576507758 0 -0.27242653470776368 -0.33536554482477271 0 -0.27535508069817161 -0.36382584294562997 0 -0.26236278936197122 -0.35812461401415813 0 -0.26979294458908692 -0.35077954576507758 0 -0.282288450051076 -0.35064429087169918 0 -0.27535508069817161 -0.36382584294562997 0 -0.26979294458908692 -0.35077954576507758 0 -0.282288450051076 -0.35064429087169918 0 -0.26979294458908692 -0.35077954576507758 0 -0.27242653470776368 -0.33536554482477271 0 -0.27242653470776368 -0.33536554482477271 0 -0.27454701589170899 -0.31544958407036328 0 -0.29204964282551632 -0.33937497882742679 0 -0.2565318681264519 -0.34593743616912798 0 -0.26182882201817409 -0.32691712813971469 0 -0.24811306483497159 -0.32820725689031038 0 -0.2565318681264519 -0.34593743616912798 0 -0.27242653470776368 -0.33536554482477271 0 -0.26182882201817409 -0.32691712813971469 0 -0.26182882201817409 -0.32691712813971469 0 -0.25890466705203802 -0.31243461892270757 0 -0.24811306483497159 -0.32820725689031038 0 -0.26182882201817409 -0.32691712813971469 0 -0.27454701589170899 -0.31544958407036328 0 -0.25890466705203802 -0.31243461892270757 0 -0.25890466705203802 -0.31243461892270757 0 -0.24811306483497159 -0.32820725689031038 0 -0.2432623182123671 -0.30941965377505087 0 -0.27454701589170899 -0.31544958407036328 0 -0.25890466705203802 -0.31243461892270757 0 -0.27242653470776368 -0.33536554482477271 0 -0.26182882201817409 -0.32691712813971469 0 -0.27454701589170899 -0.31544958407036328 0 -0.27454701589170899 -0.31544958407036328 0 -0.29204964282551632 -0.33937497882742679 0 -0.27454701589170899 -0.31544958407036328 0 -0.29204964282551632 -0.33937497882742679 0 -0.2991718660388526 -0.3201958703040288 0 -0.27454701589170899 -0.31544958407036328 0 -0.2991718660388526 -0.3201958703040288 0 -0.29067769751485939 -0.3077671029064219 0 -0.27454701589170899 -0.31544958407036328 0 -0.2991718660388526 -0.3201958703040288 0 -0.282288450051076 -0.35064429087169918 0 -0.27242653470776368 -0.33536554482477271 0 -0.29204964282551632 -0.33937497882742679 0 -0.30981181557741921 -0.34823875756259681 0 -0.29204964282551632 -0.33937497882742679 0 -0.30458695985385548 -0.33841010272625988 0 -0.31692177349128781 -0.33687614442877689 0 -0.30458695985385548 -0.33841010272625988 0 -0.2991718660388526 -0.3201958703040288 0 -0.29204964282551632 -0.33937497882742679 0 -0.30458695985385548 -0.33841010272625988 0 -0.2991718660388526 -0.3201958703040288 0 -0.31692177349128781 -0.33687614442877689 0 -0.30981181557741921 -0.34823875756259681 0 -0.30458695985385548 -0.33841010272625988 0 -0.32379671618599642 -0.32494215653769332 0 -0.2991718660388526 -0.3201958703040288 0 -0.31165345630254471 -0.31242627531325989 0 -0.32379671618599642 -0.32494215653769332 0 -0.2991718660388526 -0.3201958703040288 0 -0.2991718660388526 -0.3201958703040288 0 -0.31165345630254471 -0.31242627531325989 0 -0.29067769751485939 -0.3077671029064219 0 -0.31165345630254471 -0.31242627531325989 0 -0.31213778502428557 -0.29909099471600031 0 -0.29067769751485939 -0.3077671029064219 0 -0.31213778502428557 -0.29909099471600031 0 -0.28962484237929659 -0.29063908963168511 0 -0.29067769751485939 -0.3077671029064219 0 -0.31213778502428557 -0.29909099471600031 0 -0.3071590778169353 -0.28334701425030068 0 -0.28962484237929659 -0.29063908963168511 0 -0.28962484237929659 -0.29063908963168511 0 -0.29067769751485939 -0.3077671029064219 0 -0.27678708293716497 -0.29858877172531822 0 -0.27454701589170899 -0.31544958407036328 0 -0.29067769751485939 -0.3077671029064219 0 -0.27678708293716497 -0.29858877172531822 0 -0.27454701589170899 -0.31544958407036328 0 -0.26047824755472959 -0.29621813741490199 0 -0.27454701589170899 -0.31544958407036328 0 -0.27678708293716497 -0.29858877172531822 0 -0.26047824755472959 -0.29621813741490199 0 -0.25890466705203802 -0.31243461892270757 0 -0.26047824755472959 -0.29621813741490199 0 -0.2432623182123671 -0.30941965377505087 0 -0.27454701589170899 -0.31544958407036328 0 -0.25890466705203802 -0.31243461892270757 0 -0.26047824755472959 -0.29621813741490199 0 -0.25890466705203802 -0.31243461892270757 0 -0.2432623182123671 -0.30941965377505087 0 -0.26047824755472959 -0.29621813741490199 0 -0.25919633776424078 -0.27571400894131493 0 -0.24640947921774939 -0.27698669075944121 0 -0.26047824755472959 -0.29621813741490199 0 -0.24640947921774939 -0.27698669075944121 0 -0.26047824755472959 -0.29621813741490199 0 -0.27349940340312112 -0.27912268812157731 0 -0.25919633776424078 -0.27571400894131493 0 -0.27678708293716497 -0.29858877172531822 0 -0.26047824755472959 -0.29621813741490199 0 -0.27349940340312112 -0.27912268812157731 0 -0.28962484237929659 -0.29063908963168511 0 -0.27678708293716497 -0.29858877172531822 0 -0.27349940340312112 -0.27912268812157731 0 -0.27349940340312112 -0.27912268812157731 0 -0.26170441846864229 -0.2620921107494269 0 -0.28055215674720962 -0.259307170174222 0 -0.27349940340312112 -0.27912268812157731 0 -0.25919633776424078 -0.27571400894131493 0 -0.26170441846864229 -0.2620921107494269 0 -0.25919633776424078 -0.27571400894131493 0 -0.25138033831998602 -0.26645247001797862 0 -0.24640947921774939 -0.27698669075944121 0 -0.25919633776424078 -0.27571400894131493 0 -0.25138033831998602 -0.26645247001797862 0 -0.26170441846864229 -0.2620921107494269 0 -0.26170441846864229 -0.2620921107494269 0 -0.27008861651860572 -0.24452686936845 0 -0.25652616337425588 -0.24696241029445379 0 -0.26170441846864229 -0.2620921107494269 0 -0.24905552470647371 -0.25623064153363512 0 -0.25652616337425588 -0.24696241029445379 0 -0.25138033831998602 -0.26645247001797862 0 -0.26170441846864229 -0.2620921107494269 0 -0.24905552470647371 -0.25623064153363512 0 -0.26170441846864229 -0.2620921107494269 0 -0.28055215674720962 -0.259307170174222 0 -0.27008861651860572 -0.24452686936845 0 -0.28055215674720962 -0.259307170174222 0 -0.30054691257939542 -0.2663760254010798 0 -0.28963298834919088 -0.24225856961697509 0 -0.27349940340312112 -0.27912268812157731 0 -0.28055215674720962 -0.259307170174222 0 -0.30054691257939542 -0.2663760254010798 0 -0.28962484237929659 -0.29063908963168511 0 -0.27349940340312112 -0.27912268812157731 0 -0.30054691257939542 -0.2663760254010798 0 -0.32632677128476378 -0.27728194725243788 0 -0.3071590778169353 -0.28334701425030068 0 -0.30054691257939542 -0.2663760254010798 0 -0.3071590778169353 -0.28334701425030068 0 -0.28962484237929659 -0.29063908963168511 0 -0.30054691257939542 -0.2663760254010798 0 -0.32144586109570311 -0.2560533286399938 0 -0.30054691257939542 -0.2663760254010798 0 -0.31050647450060431 -0.2410285869008367 0 -0.3332280491996773 -0.46505434301354792 0 -0.3382879842714378 -0.45227903052199919 0 -0.32438997831038041 -0.45762742341230372 0 -0.3332280491996773 -0.46505434301354792 0 -0.3382879842714378 -0.45227903052199919 0 -0.34885146730486249 -0.4661389191583023 0 -0.3382879842714378 -0.45227903052199919 0 -0.3200921258644106 -0.44353382793155532 0 -0.34268441404810329 -0.43235549530656853 0 -0.3382879842714378 -0.45227903052199919 0 -0.3200921258644106 -0.44353382793155532 0 -0.32438997831038041 -0.45762742341230372 0 -0.3200921258644106 -0.44353382793155532 0 -0.31437187140482981 -0.45681618200404639 0 -0.30820471371475139 -0.44934037367827823 0 -0.3200921258644106 -0.44353382793155532 0 -0.31437187140482981 -0.45681618200404639 0 -0.32438997831038041 -0.45762742341230372 0 -0.3332280491996773 -0.46505434301354792 0 -0.32438997831038041 -0.45762742341230372 0 -0.31797633053880647 -0.46871820730852592 0 -0.31437187140482981 -0.45681618200404639 0 -0.32438997831038041 -0.45762742341230372 0 -0.31797633053880647 -0.46871820730852592 0 -0.33663448557289938 -0.48050813466660852 0 -0.31127204438001438 -0.48135234028491769 0 -0.32265922886492171 -0.49046511873788162 0 -0.33663448557289938 -0.48050813466660852 0 -0.31127204438001438 -0.48135234028491769 0 -0.31797633053880647 -0.46871820730852592 0 -0.33663448557289938 -0.48050813466660852 0 -0.31127204438001438 -0.48135234028491769 0 -0.32265922886492171 -0.49046511873788162 0 -0.33406631697645661 -0.5 0 -0.30866406853031653 -0.5 0 -0.32265922886492171 -0.49046511873788162 0 -0.30866406853031653 -0.5 0 -0.31127204438001438 -0.48135234028491769 0 -0.33406631697645661 -0.5 0 -0.33663448557289938 -0.48050813466660852 0 -0.34767753583160349 -0.49053310563514552 0 -0.32265922886492171 -0.49046511873788162 0 -0.33406631697645661 -0.5 0 -0.33663448557289938 -0.48050813466660852 0 -0.3332280491996773 -0.46505434301354792 0 -0.31797633053880647 -0.46871820730852592 0 -0.33663448557289938 -0.48050813466660852 0 -0.3332280491996773 -0.46505434301354792 0 -0.33663448557289938 -0.48050813466660852 0 -0.34885146730486249 -0.4661389191583023 0 -0.33663448557289938 -0.48050813466660852 0 -0.36199692676578432 -0.47966392904829919 0 -0.33663448557289938 -0.48050813466660852 0 -0.36199692676578432 -0.47966392904829919 0 -0.34885146730486249 -0.4661389191583023 0 -0.33663448557289938 -0.48050813466660852 0 -0.34767753583160349 -0.49053310563514552 0 -0.36199692676578432 -0.47966392904829919 0 -0.34767753583160349 -0.49053310563514552 0 -0.35946856542259659 -0.5 0 -0.36199692676578432 -0.47966392904829919 0 -0.33406631697645661 -0.5 0 -0.34767753583160349 -0.49053310563514552 0 -0.35946856542259659 -0.5 0 -0.37342391850394668 -0.48962091311957218 0 -0.35946856542259659 -0.5 0 -0.36199692676578432 -0.47966392904829919 0 -0.38487081386873673 -0.5 0 -0.37342391850394668 -0.48962091311957218 0 -0.35946856542259659 -0.5 0 -0.36199692676578432 -0.47966392904829919 0 -0.37296796718052999 -0.46156648724241978 0 -0.34885146730486249 -0.4661389191583023 0 -0.38735936795866921 -0.47881972342998991 0 -0.36199692676578432 -0.47966392904829919 0 -0.38735936795866921 -0.47881972342998991 0 -0.36199692676578432 -0.47966392904829919 0 -0.37296796718052999 -0.46156648724241978 0 -0.38735936795866921 -0.47881972342998991 0 -0.37342391850394668 -0.48962091311957218 0 -0.36199692676578432 -0.47966392904829919 0 -0.37296796718052999 -0.46156648724241978 0 -0.34885146730486249 -0.4661389191583023 0 -0.35753160558366498 -0.44830214832858761 0 -0.35753160558366498 -0.44830214832858761 0 -0.37485224571084158 -0.43445899852372039 0 -0.34268441404810329 -0.43235549530656853 0 -0.3382879842714378 -0.45227903052199919 0 -0.34885146730486249 -0.4661389191583023 0 -0.35753160558366498 -0.44830214832858761 0 -0.3382879842714378 -0.45227903052199919 0 -0.35753160558366498 -0.44830214832858761 0 -0.34268441404810329 -0.43235549530656853 0 -0.37296796718052999 -0.46156648724241978 0 -0.35753160558366498 -0.44830214832858761 0 -0.37485224571084158 -0.43445899852372039 0 -0.37485224571084158 -0.43445899852372039 0 -0.3556233950424843 -0.41373860028331111 0 -0.37485224571084158 -0.43445899852372039 0 -0.3556233950424843 -0.41373860028331111 0 -0.34268441404810329 -0.43235549530656853 0 -0.37683162500655948 -0.40942847475355781 0 -0.37485224571084158 -0.43445899852372039 0 -0.3556233950424843 -0.41373860028331111 0 -0.38711554451442509 -0.38852428951493773 0 -0.36872528977584679 -0.37499285316289349 0 -0.35882973867619589 -0.39277696899403919 0 -0.38711554451442509 -0.38852428951493773 0 -0.37683162500655948 -0.40942847475355781 0 -0.35882973867619589 -0.39277696899403919 0 -0.37683162500655948 -0.40942847475355781 0 -0.3556233950424843 -0.41373860028331111 0 -0.35882973867619589 -0.39277696899403919 0 -0.3556233950424843 -0.41373860028331111 0 -0.33639454437412708 -0.39301820204290172 0 -0.3556233950424843 -0.41373860028331111 0 -0.35882973867619589 -0.39277696899403919 0 -0.33639454437412708 -0.39301820204290172 0 -0.36872528977584679 -0.37499285316289349 0 -0.35882973867619589 -0.39277696899403919 0 -0.34336478970569861 -0.37723980942687502 0 -0.35882973867619589 -0.39277696899403919 0 -0.34336478970569861 -0.37723980942687502 0 -0.33639454437412708 -0.39301820204290172 0 -0.34336478970569861 -0.37723980942687502 0 -0.33639454437412708 -0.39301820204290172 0 -0.32264629524730598 -0.37820352580825489 0 -0.34336478970569861 -0.37723980942687502 0 -0.33639454437412708 -0.39301820204290172 0 -0.33639454437412708 -0.39301820204290172 0 -0.32264629524730598 -0.37820352580825489 0 -0.33639454437412708 -0.39301820204290172 0 -0.32420176086600139 -0.39791773161129279 0 -0.32921656584835302 -0.40926683576833051 0 -0.3556233950424843 -0.41373860028331111 0 -0.33639454437412708 -0.39301820204290172 0 -0.32921656584835302 -0.40926683576833051 0 -0.33639454437412708 -0.39301820204290172 0 -0.32921656584835302 -0.40926683576833051 0 -0.32420176086600139 -0.39791773161129279 0 -0.3122092893334748 -0.41288173807033068 0 -0.30912561784154191 -0.40172072829335659 0 -0.31380792644858913 -0.3926012856927048 0 -0.32420176086600139 -0.39791773161129279 0 -0.30912561784154191 -0.40172072829335659 0 -0.33639454437412708 -0.39301820204290172 0 -0.32420176086600139 -0.39791773161129279 0 -0.32264629524730598 -0.37820352580825489 0 -0.31380792644858913 -0.3926012856927048 0 -0.32420176086600139 -0.39791773161129279 0 -0.32264629524730598 -0.37820352580825489 0 -0.31380792644858913 -0.3926012856927048 0 -0.32264629524730598 -0.37820352580825489 0 -0.31035204693408791 -0.38285013217488179 0 -0.31420404816368902 -0.37437099744422703 0 -0.32264629524730598 -0.37820352580825489 0 -0.31035204693408791 -0.38285013217488179 0 -0.34268441404810329 -0.43235549530656853 0 -0.32921656584835302 -0.40926683576833051 0 -0.32203858732257862 -0.42551546949375901 0 -0.3200921258644106 -0.44353382793155532 0 -0.34268441404810329 -0.43235549530656853 0 -0.32203858732257862 -0.42551546949375901 0 -0.3556233950424843 -0.41373860028331111 0 -0.34268441404810329 -0.43235549530656853 0 -0.32921656584835302 -0.40926683576833051 0 -0.32921656584835302 -0.40926683576833051 0 -0.32203858732257862 -0.42551546949375901 0 -0.32420176086600139 -0.39791773161129279 0 -0.32921656584835302 -0.40926683576833051 0 -0.3122092893334748 -0.41288173807033068 0 -0.32921656584835302 -0.40926683576833051 0 -0.32203858732257862 -0.42551546949375901 0 -0.3122092893334748 -0.41288173807033068 0 -0.32203858732257862 -0.42551546949375901 0 -0.30827710054172969 -0.42322984518891971 0 -0.3122092893334748 -0.41288173807033068 0 -0.32203858732257862 -0.42551546949375901 0 -0.30752489653300541 -0.43291667118157012 0 -0.30827710054172969 -0.42322984518891971 0 -0.3200921258644106 -0.44353382793155532 0 -0.32203858732257862 -0.42551546949375901 0 -0.30752489653300541 -0.43291667118157012 0 -0.30752489653300541 -0.43291667118157012 0 -0.30116182224770149 -0.42530737044491568 0 -0.29299899138645308 -0.43372149202771237 0 -0.30752489653300541 -0.43291667118157012 0 -0.29299899138645308 -0.43372149202771237 0 -0.30497982464674461 -0.4415926680772469 0 -0.30116182224770149 -0.42530737044491568 0 -0.30827710054172969 -0.42322984518891971 0 -0.30288306098899842 -0.41820744672695592 0 -0.30752489653300541 -0.43291667118157012 0 -0.30116182224770149 -0.42530737044491568 0 -0.30827710054172969 -0.42322984518891971 0 -0.3122092893334748 -0.41288173807033068 0 -0.30287031674607312 -0.41123780185957082 0 -0.30288306098899842 -0.41820744672695592 0 -0.30827710054172969 -0.42322984518891971 0 -0.3122092893334748 -0.41288173807033068 0 -0.30288306098899842 -0.41820744672695592 0 -0.3122092893334748 -0.41288173807033068 0 -0.30287031674607312 -0.41123780185957082 0 -0.30912561784154191 -0.40172072829335659 0 -0.30287031674607312 -0.41123780185957082 0 -0.29523776855471939 -0.4184826915805725 0 -0.29747654572298471 -0.40324389113343229 0 -0.30287031674607312 -0.41123780185957082 0 -0.30288306098899842 -0.41820744672695592 0 -0.29523776855471939 -0.4184826915805725 0 -0.30116182224770149 -0.42530737044491568 0 -0.30288306098899842 -0.41820744672695592 0 -0.29523776855471939 -0.4184826915805725 0 -0.28696648926496038 -0.41787348898359211 0 -0.27840856167298322 -0.39539093368604278 0 -0.29523776855471939 -0.4184826915805725 0 -0.29364750261086281 -0.41540942939496051 0 -0.28696648926496038 -0.41787348898359211 0 -0.29364750261086281 -0.41540942939496051 0 -0.28696648926496038 -0.41787348898359211 0 -0.29523776855471939 -0.4184826915805725 0 -0.29364750261086281 -0.41540942939496051 0 -0.29747654572298471 -0.40324389113343229 0 -0.29523776855471939 -0.4184826915805725 0 -0.29747654572298471 -0.40324389113343229 0 -0.29364750261086281 -0.41540942939496051 0 -0.28696648926496038 -0.41787348898359211 0 -0.29747654572298471 -0.40324389113343229 0 -0.28696648926496038 -0.41787348898359211 0 -0.29299899138645308 -0.43372149202771237 0 -0.28150973428600351 -0.43018631266622731 0 -0.27152160931622499 -0.43562026093742262 0 -0.29161589722637737 -0.44313587064644161 0 -0.29523776855471939 -0.4184826915805725 0 -0.28696648926496038 -0.41787348898359211 0 -0.29299899138645308 -0.43372149202771237 0 -0.28696648926496038 -0.41787348898359211 0 -0.28150973428600351 -0.43018631266622731 0 -0.29299899138645308 -0.43372149202771237 0 -0.28150973428600351 -0.43018631266622731 0 -0.29299899138645308 -0.43372149202771237 0 -0.29161589722637737 -0.44313587064644161 0 -0.30116182224770149 -0.42530737044491568 0 -0.29523776855471939 -0.4184826915805725 0 -0.29299899138645308 -0.43372149202771237 0 -0.29523776855471939 -0.4184826915805725 0 -0.29299899138645308 -0.43372149202771237 0 -0.31420404816368902 -0.37437099744422703 0 -0.29756619856365712 -0.37908494683037158 0 -0.31035204693408791 -0.38285013217488179 0 -0.31380792644858913 -0.3926012856927048 0 -0.31035204693408791 -0.38285013217488179 0 -0.30290863990902972 -0.39245282639985429 0 -0.29756619856365712 -0.37908494683037158 0 -0.30290863990902972 -0.39245282639985429 0 -0.29296739660339599 -0.39293965847140783 0 -0.29756619856365712 -0.37908494683037158 0 -0.31035204693408791 -0.38285013217488179 0 -0.30290863990902972 -0.39245282639985429 0 -0.30290863990902972 -0.39245282639985429 0 -0.29747654572298471 -0.40324389113343229 0 -0.29296739660339599 -0.39293965847140783 0 -0.31380792644858913 -0.3926012856927048 0 -0.30290863990902972 -0.39245282639985429 0 -0.30912561784154191 -0.40172072829335659 0 -0.30290863990902972 -0.39245282639985429 0 -0.30912561784154191 -0.40172072829335659 0 -0.29747654572298471 -0.40324389113343229 0 -0.30287031674607312 -0.41123780185957082 0 -0.30912561784154191 -0.40172072829335659 0 -0.29747654572298471 -0.40324389113343229 0 -0.29747654572298471 -0.40324389113343229 0 -0.29296739660339599 -0.39293965847140783 0 -0.27840856167298322 -0.39539093368604278 0 -0.28696648926496038 -0.41787348898359211 0 -0.29747654572298471 -0.40324389113343229 0 -0.27840856167298322 -0.39539093368604278 0 -0.28341600195294347 -0.37494391420497558 0 -0.29756619856365712 -0.37908494683037158 0 -0.27531437508186812 -0.38726218751613017 0 -0.29756619856365712 -0.37908494683037158 0 -0.27531437508186812 -0.38726218751613017 0 -0.27840856167298322 -0.39539093368604278 0 -0.29756619856365712 -0.37908494683037158 0 -0.27840856167298322 -0.39539093368604278 0 -0.29756619856365712 -0.37908494683037158 0 -0.29296739660339599 -0.39293965847140783 0 -0.27840856167298322 -0.39539093368604278 0 -0.26569364467308609 -0.38190818617572603 0 -0.27245943227174141 -0.37580640930438391 0 -0.27531437508186812 -0.38726218751613017 0 -0.26251805895263741 -0.37109191567945732 0 -0.26569364467308609 -0.38190818617572603 0 -0.27245943227174141 -0.37580640930438391 0 -0.28341600195294347 -0.37494391420497558 0 -0.27245943227174141 -0.37580640930438391 0 -0.27531437508186812 -0.38726218751613017 0 -0.26569364467308609 -0.38190818617572603 0 -0.27531437508186812 -0.38726218751613017 0 -0.26765484655968141 -0.39258204300699617 0 -0.26765484655968141 -0.39258204300699617 0 -0.27840856167298322 -0.39539093368604278 0 -0.26612714426651918 -0.40584423917156021 0 -0.27531437508186812 -0.38726218751613017 0 -0.26765484655968141 -0.39258204300699617 0 -0.27840856167298322 -0.39539093368604278 0 -0.27531437508186812 -0.38726218751613017 0 -0.27840856167298322 -0.39539093368604278 0 -0.27840856167298322 -0.39539093368604278 0 -0.26612714426651918 -0.40584423917156021 0 -0.26765484655968141 -0.39258204300699617 0 -0.26612714426651918 -0.40584423917156021 0 -0.2610278151739947 -0.39896314796757743 0 -0.26612714426651918 -0.40584423917156021 0 -0.2610278151739947 -0.39896314796757743 0 -0.25504109963533078 -0.40402814620274752 0 -0.2610278151739947 -0.39896314796757743 0 -0.25504109963533078 -0.40402814620274752 0 -0.25285090396253701 -0.39475094466033861 0 -0.26765484655968141 -0.39258204300699617 0 -0.2610278151739947 -0.39896314796757743 0 -0.25285090396253701 -0.39475094466033861 0 -0.26251805895263741 -0.37109191567945732 0 -0.26569364467308609 -0.38190818617572603 0 -0.24844509754671881 -0.38067795311205849 0 -0.26569364467308609 -0.38190818617572603 0 -0.26765484655968141 -0.39258204300699617 0 -0.24844509754671881 -0.38067795311205849 0 -0.26765484655968141 -0.39258204300699617 0 -0.24844509754671881 -0.38067795311205849 0 -0.26765484655968141 -0.39258204300699617 0 -0.25285090396253701 -0.39475094466033861 0 -0.24844509754671881 -0.38067795311205849 0 -0.28696648926496038 -0.41787348898359211 0 -0.28150973428600351 -0.43018631266622731 0 -0.26327906522417338 -0.4266097721364307 0 -0.28150973428600351 -0.43018631266622731 0 -0.27152160931622499 -0.43562026093742262 0 -0.26327906522417338 -0.4266097721364307 0 -0.28696648926496038 -0.41787348898359211 0 -0.26327906522417338 -0.4266097721364307 0 -0.27152160931622499 -0.43562026093742262 0 -0.26327906522417338 -0.4266097721364307 0 -0.27152160931622499 -0.43562026093742262 0 -0.27411318404307738 -0.4384532885551613 0 -0.28696648926496038 -0.41787348898359211 0 -0.27840856167298322 -0.39539093368604278 0 -0.26612714426651918 -0.40584423917156021 0 -0.28696648926496038 -0.41787348898359211 0 -0.26612714426651918 -0.40584423917156021 0 -0.26433169423644137 -0.41617606516100181 0 -0.28696648926496038 -0.41787348898359211 0 -0.26433169423644137 -0.41617606516100181 0 -0.26327906522417338 -0.4266097721364307 0 -0.26433169423644137 -0.41617606516100181 0 -0.25384572686005491 -0.4162975446570773 0 -0.26327906522417338 -0.4266097721364307 0 -0.25384572686005491 -0.4162975446570773 0 -0.26327906522417338 -0.4266097721364307 0 -0.26612714426651918 -0.40584423917156021 0 -0.25504109963533078 -0.40402814620274752 0 -0.25384572686005491 -0.4162975446570773 0 -0.26612714426651918 -0.40584423917156021 0 -0.25384572686005491 -0.4162975446570773 0 -0.26612714426651918 -0.40584423917156021 0 -0.26433169423644137 -0.41617606516100181 0 -0.25384572686005491 -0.4162975446570773 0 -0.27152160931622499 -0.43562026093742262 0 -0.25529929100837978 -0.42955283453633047 0 -0.26055414628044771 -0.44022337226383079 0 -0.27152160931622499 -0.43562026093742262 0 -0.25529929100837978 -0.42955283453633047 0 -0.27152160931622499 -0.43562026093742262 0 -0.25529929100837978 -0.42955283453633047 0 -0.26327906522417338 -0.4266097721364307 0 -0.25384572686005491 -0.4162975446570773 0 -0.25529929100837978 -0.42955283453633047 0 -0.24347028502184179 -0.42512858259777569 0 -0.25384572686005491 -0.4162975446570773 0 -0.25529929100837978 -0.42955283453633047 0 -0.26327906522417338 -0.4266097721364307 0 -0.25529929100837978 -0.42955283453633047 0 -0.26327906522417338 -0.4266097721364307 0 -0.25529929100837978 -0.42955283453633047 0 -0.26055414628044771 -0.44022337226383079 0 -0.24909065315093301 -0.44289399940493762 0 -0.2563182000039661 -0.45228002107411158 0 -0.26055414628044771 -0.44022337226383079 0 -0.24909065315093301 -0.44289399940493762 0 -0.2563182000039661 -0.45228002107411158 0 -0.26055414628044771 -0.44022337226383079 0 -0.26758654179419689 -0.4498249664376871 0 -0.2563182000039661 -0.45228002107411158 0 -0.26601391985650019 -0.46186128463556092 0 -0.26758654179419689 -0.4498249664376871 0 -0.2563182000039661 -0.45228002107411158 0 -0.25166177816199159 -0.46509659108163232 0 -0.26601391985650019 -0.46186128463556092 0 -0.25166177816199159 -0.46509659108163232 0 -0.26601391985650019 -0.46186128463556092 0 -0.26363194845042748 -0.47544423059129481 0 -0.27885437790298179 -0.45578390103582539 0 -0.28743885865527669 -0.47156793532321961 0 -0.27383253734626678 -0.46997056735115211 0 -0.26601391985650019 -0.46186128463556092 0 -0.27885437790298179 -0.45578390103582539 0 -0.27383253734626678 -0.46997056735115211 0 -0.26601391985650019 -0.46186128463556092 0 -0.27885437790298179 -0.45578390103582539 0 -0.26758654179419689 -0.4498249664376871 0 -0.27152160931622499 -0.43562026093742262 0 -0.27411318404307738 -0.4384532885551613 0 -0.29161589722637737 -0.44313587064644161 0 -0.26055414628044771 -0.44022337226383079 0 -0.26916055872108652 -0.44203996561465853 0 -0.26758654179419689 -0.4498249664376871 0 -0.27152160931622499 -0.43562026093742262 0 -0.26055414628044771 -0.44022337226383079 0 -0.26916055872108652 -0.44203996561465853 0 -0.26916055872108652 -0.44203996561465853 0 -0.27430987245245753 -0.44568384734687327 0 -0.27411318404307738 -0.4384532885551613 0 -0.27152160931622499 -0.43562026093742262 0 -0.26916055872108652 -0.44203996561465853 0 -0.27411318404307738 -0.4384532885551613 0 -0.26916055872108652 -0.44203996561465853 0 -0.26758654179419689 -0.4498249664376871 0 -0.27430987245245753 -0.44568384734687327 0 -0.27885437790298179 -0.45578390103582539 0 -0.26758654179419689 -0.4498249664376871 0 -0.27430987245245753 -0.44568384734687327 0 -0.27885437790298179 -0.45578390103582539 0 -0.27430987245245753 -0.44568384734687327 0 -0.28154292826089838 -0.44573454688118158 0 -0.27430987245245753 -0.44568384734687327 0 -0.27411318404307738 -0.4384532885551613 0 -0.28154292826089838 -0.44573454688118158 0 -0.27411318404307738 -0.4384532885551613 0 -0.29161589722637737 -0.44313587064644161 0 -0.28154292826089838 -0.44573454688118158 0 -0.27152160931622499 -0.43562026093742262 0 -0.29161589722637737 -0.44313587064644161 0 -0.29299899138645308 -0.43372149202771237 0 -0.29740702624587328 -0.44530185262498728 0 -0.29299899138645308 -0.43372149202771237 0 -0.29161589722637737 -0.44313587064644161 0 -0.29299899138645308 -0.43372149202771237 0 -0.29161589722637737 -0.44313587064644161 0 -0.29740702624587328 -0.44530185262498728 0 -0.29161589722637737 -0.44313587064644161 0 -0.29740702624587328 -0.44530185262498728 0 -0.27885437790298179 -0.45578390103582539 0 -0.29161589722637737 -0.44313587064644161 0 -0.28154292826089838 -0.44573454688118158 0 -0.30383176645052362 -0.46218030542456978 0 -0.29740702624587328 -0.44530185262498728 0 -0.28743885865527669 -0.47156793532321961 0 -0.29161589722637737 -0.44313587064644161 0 -0.29740702624587328 -0.44530185262498728 0 -0.28743885865527669 -0.47156793532321961 0 -0.29161589722637737 -0.44313587064644161 0 -0.28743885865527669 -0.47156793532321961 0 -0.27885437790298179 -0.45578390103582539 0 -0.29161589722637737 -0.44313587064644161 0 -0.28743885865527669 -0.47156793532321961 0 -0.30383176645052362 -0.46218030542456978 0 -0.29740702624587328 -0.44530185262498728 0 -0.31797633053880647 -0.46871820730852592 0 -0.30383176645052362 -0.46218030542456978 0 -0.30149645675424958 -0.47433017849598952 0 -0.31437187140482981 -0.45681618200404639 0 -0.31797633053880647 -0.46871820730852592 0 -0.30383176645052362 -0.46218030542456978 0 -0.31437187140482981 -0.45681618200404639 0 -0.30383176645052362 -0.46218030542456978 0 -0.30820471371475139 -0.44934037367827823 0 -0.30383176645052362 -0.46218030542456978 0 -0.30820471371475139 -0.44934037367827823 0 -0.29740702624587328 -0.44530185262498728 0 -0.3200921258644106 -0.44353382793155532 0 -0.30820471371475139 -0.44934037367827823 0 -0.30497982464674461 -0.4415926680772469 0 -0.3200921258644106 -0.44353382793155532 0 -0.30752489653300541 -0.43291667118157012 0 -0.30497982464674461 -0.4415926680772469 0 -0.29299899138645308 -0.43372149202771237 0 -0.30497982464674461 -0.4415926680772469 0 -0.29740702624587328 -0.44530185262498728 0 -0.30820471371475139 -0.44934037367827823 0 -0.29740702624587328 -0.44530185262498728 0 -0.30820471371475139 -0.44934037367827823 0 -0.30497982464674461 -0.4415926680772469 0 -0.29740702624587328 -0.44530185262498728 0 -0.30866406853031653 -0.5 0 -0.29814621416068632 -0.48551615039557577 0 -0.31127204438001438 -0.48135234028491769 0 -0.30383176645052362 -0.46218030542456978 0 -0.30149645675424958 -0.47433017849598952 0 -0.28743885865527669 -0.47156793532321961 0 -0.31797633053880647 -0.46871820730852592 0 -0.31127204438001438 -0.48135234028491769 0 -0.30149645675424958 -0.47433017849598952 0 -0.29814621416068632 -0.48551615039557577 0 -0.31127204438001438 -0.48135234028491769 0 -0.30149645675424958 -0.47433017849598952 0 -0.29814621416068632 -0.48551615039557577 0 -0.30149645675424958 -0.47433017849598952 0 -0.28743885865527669 -0.47156793532321961 0 -0.30866406853031653 -0.5 0 -0.29814621416068632 -0.48551615039557577 0 -0.28326182008417639 -0.49999999999999778 0 -0.28743885865527669 -0.47156793532321961 0 -0.28326182008417639 -0.49999999999999778 0 -0.27322358186614781 -0.48519548516985922 0 -0.28743885865527669 -0.47156793532321961 0 -0.28326182008417639 -0.49999999999999778 0 -0.29814621416068632 -0.48551615039557577 0 -0.28743885865527669 -0.47156793532321961 0 -0.28326182008417639 -0.49999999999999778 0 -0.28326182008417639 -0.49999999999999778 0 -0.27322358186614781 -0.48519548516985922 0 -0.25743809431630349 -0.5 0 -0.28743885865527669 -0.47156793532321961 0 -0.27322358186614781 -0.48519548516985922 0 -0.27383253734626678 -0.46997056735115211 0 -0.27322358186614781 -0.48519548516985922 0 -0.27383253734626678 -0.46997056735115211 0 -0.26363194845042748 -0.47544423059129481 0 -0.26601391985650019 -0.46186128463556092 0 -0.27383253734626678 -0.46997056735115211 0 -0.26363194845042748 -0.47544423059129481 0 -0.26363194845042748 -0.47544423059129481 0 -0.25092743635829939 -0.47802903816288211 0 -0.25942245428801869 -0.48698720692601932 0 -0.27322358186614781 -0.48519548516985922 0 -0.26363194845042748 -0.47544423059129481 0 -0.25942245428801869 -0.48698720692601932 0 -0.25166177816199159 -0.46509659108163232 0 -0.26363194845042748 -0.47544423059129481 0 -0.25092743635829939 -0.47802903816288211 0 -0.27322358186614781 -0.48519548516985922 0 -0.25942245428801869 -0.48698720692601932 0 -0.25743809431630349 -0.5 0 -0.25092743635829939 -0.47802903816288211 0 -0.25942245428801869 -0.48698720692601932 0 -0.24965118988782911 -0.4953944140851424 0 -0.25942245428801869 -0.48698720692601932 0 -0.25743809431630349 -0.5 0 -0.24965118988782911 -0.4953944140851424 0 -0.24965118988782911 -0.4953944140851424 0 -0.23161436854843059 -0.5 0 -0.2301505094366241 -0.4858795047294916 0 -0.25743809431630349 -0.5 0 -0.24965118988782911 -0.4953944140851424 0 -0.23161436854843059 -0.5 0 -0.25166177816199159 -0.46509659108163232 0 -0.25092743635829939 -0.47802903816288211 0 -0.23483470868434039 -0.47024208582686122 0 -0.24965118988782911 -0.4953944140851424 0 -0.23483470868434039 -0.47024208582686122 0 -0.25092743635829939 -0.47802903816288211 0 -0.24965118988782911 -0.4953944140851424 0 -0.23483470868434039 -0.47024208582686122 0 -0.24965118988782911 -0.4953944140851424 0 -0.23483470868434039 -0.47024208582686122 0 -0.2301505094366241 -0.4858795047294916 0 -0.23483470868434039 -0.47024208582686122 0 -0.2301505094366241 -0.4858795047294916 0 -0.21042106180261569 -0.47555830769413171 0 -0.2301505094366241 -0.4858795047294916 0 -0.2187025056644942 -0.48978666399546428 0 -0.21042106180261569 -0.47555830769413171 0 -0.23161436854843059 -0.5 0 -0.2301505094366241 -0.4858795047294916 0 -0.2187025056644942 -0.48978666399546428 0 -0.23824445561841651 -0.45272288619908341 0 -0.22525263911870841 -0.44063449788017628 0 -0.24027596506354379 -0.43509366620825252 0 -0.2563182000039661 -0.45228002107411158 0 -0.23824445561841651 -0.45272288619908341 0 -0.24909065315093301 -0.44289399940493762 0 -0.23824445561841651 -0.45272288619908341 0 -0.24909065315093301 -0.44289399940493762 0 -0.24027596506354379 -0.43509366620825252 0 -0.2563182000039661 -0.45228002107411158 0 -0.25166177816199159 -0.46509659108163232 0 -0.23824445561841651 -0.45272288619908341 0 -0.25166177816199159 -0.46509659108163232 0 -0.23483470868434039 -0.47024208582686122 0 -0.23824445561841651 -0.45272288619908341 0 -0.23483470868434039 -0.47024208582686122 0 -0.22044518275843231 -0.45974217764260777 0 -0.22001822748085051 -0.44508975756858082 0 -0.23483470868434039 -0.47024208582686122 0 -0.22044518275843231 -0.45974217764260777 0 -0.21042106180261569 -0.47555830769413171 0 -0.23483470868434039 -0.47024208582686122 0 -0.22001822748085051 -0.44508975756858082 0 -0.23483470868434039 -0.47024208582686122 0 -0.23824445561841651 -0.45272288619908341 0 -0.22001822748085051 -0.44508975756858082 0 -0.23824445561841651 -0.45272288619908341 0 -0.22001822748085051 -0.44508975756858082 0 -0.22525263911870841 -0.44063449788017628 0 -0.22044518275843231 -0.45974217764260777 0 -0.22001822748085051 -0.44508975756858082 0 -0.21650673306592311 -0.44807855948085801 0 -0.22001822748085051 -0.44508975756858082 0 -0.22525263911870841 -0.44063449788017628 0 -0.22001822748085051 -0.44508975756858082 0 -0.22525263911870841 -0.44063449788017628 0 -0.2175240408982618 -0.4434849227432619 0 -0.22525263911870841 -0.44063449788017628 0 -0.2175240408982618 -0.4434849227432619 0 -0.21794722499214189 -0.44157404194728628 0 -0.22525263911870841 -0.44063449788017628 0 -0.2175240408982618 -0.4434849227432619 0 -0.22525263911870841 -0.44063449788017628 0 -0.24027596506354379 -0.43509366620825252 0 -0.21094360675724669 -0.43893400633464441 0 -0.2059763348625103 -0.445517483374539 0 -0.20066781742961859 -0.4367474310834038 0 -0.21094360675724669 -0.43893400633464441 0 -0.21244529023832559 -0.44584758074224651 0 -0.2059763348625103 -0.445517483374539 0 -0.21094360675724669 -0.43893400633464441 0 -0.21794722499214189 -0.44157404194728628 0 -0.214472007686144 -0.4416711160785135 0 -0.22001822748085051 -0.44508975756858082 0 -0.2175240408982618 -0.4434849227432619 0 -0.2175240408982618 -0.4434849227432619 0 -0.21794722499214189 -0.44157404194728628 0 -0.2175240408982618 -0.4434849227432619 0 -0.21794722499214189 -0.44157404194728628 0 -0.214472007686144 -0.4416711160785135 0 -0.2175240408982618 -0.4434849227432619 0 -0.214472007686144 -0.4416711160785135 0 -0.21503711676685461 -0.44552689433677589 0 -0.214472007686144 -0.4416711160785135 0 -0.21244529023832559 -0.44584758074224651 0 -0.21503711676685461 -0.44552689433677589 0 -0.21094360675724669 -0.43893400633464441 0 -0.214472007686144 -0.4416711160785135 0 -0.21244529023832559 -0.44584758074224651 0 -0.21244529023832559 -0.44584758074224651 0 -0.21650673306592311 -0.44807855948085801 0 -0.20873965166624081 -0.45468949630636041 0 -0.21244529023832559 -0.44584758074224651 0 -0.21503711676685461 -0.44552689433677589 0 -0.21650673306592311 -0.44807855948085801 0 -0.2175240408982618 -0.4434849227432619 0 -0.21650673306592311 -0.44807855948085801 0 -0.2175240408982618 -0.4434849227432619 0 -0.21503711676685461 -0.44552689433677589 0 -0.21650673306592311 -0.44807855948085801 0 -0.22001822748085051 -0.44508975756858082 0 -0.2175240408982618 -0.4434849227432619 0 -0.21650673306592311 -0.44807855948085801 0 -0.22001822748085051 -0.44508975756858082 0 -0.21650673306592311 -0.44807855948085801 0 -0.21650673306592311 -0.44807855948085801 0 -0.20873965166624081 -0.45468949630636041 0 -0.2059763348625103 -0.445517483374539 0 -0.20873965166624081 -0.45468949630636041 0 -0.19607427948622691 -0.44861594499949931 0 -0.21244529023832559 -0.44584758074224651 0 -0.2059763348625103 -0.445517483374539 0 -0.20873965166624081 -0.45468949630636041 0 -0.21650673306592311 -0.44807855948085801 0 -0.20873965166624081 -0.45468949630636041 0 -0.21042106180261569 -0.47555830769413171 0 -0.22044518275843231 -0.45974217764260777 0 -0.21650673306592311 -0.44807855948085801 0 -0.21042106180261569 -0.47555830769413171 0 -0.21650673306592311 -0.44807855948085801 0 -0.21042106180261569 -0.47555830769413171 0 -0.20873965166624081 -0.45468949630636041 0 -0.20061943601421359 -0.46544537266451169 0 -0.21042106180261569 -0.47555830769413171 0 -0.20061943601421359 -0.46544537266451169 0 -0.1876917643638106 -0.46125765745692338 0 -0.19607427948622691 -0.44861594499949931 0 -0.20873965166624081 -0.45468949630636041 0 -0.20061943601421359 -0.46544537266451169 0 -0.19607427948622691 -0.44861594499949931 0 -0.19607427948622691 -0.44861594499949931 0 -0.17968802188311531 -0.44193962725879532 0 -0.1892240038252046 -0.43331721450988753 0 -0.1876917643638106 -0.46125765745692338 0 -0.19607427948622691 -0.44861594499949931 0 -0.17968802188311531 -0.44193962725879532 0 -0.19607427948622691 -0.44861594499949931 0 -0.20066781742961859 -0.4367474310834038 0 -0.1892240038252046 -0.43331721450988753 0 -0.2059763348625103 -0.445517483374539 0 -0.19607427948622691 -0.44861594499949931 0 -0.20066781742961859 -0.4367474310834038 0 -0.20579064278055781 -0.5 0 -0.2187025056644942 -0.48978666399546428 0 -0.21042106180261569 -0.47555830769413171 0 -0.23161436854843059 -0.5 0 -0.20579064278055781 -0.5 0 -0.2187025056644942 -0.48978666399546428 0 -0.20061943601421359 -0.46544537266451169 0 -0.1876917643638106 -0.46125765745692338 0 -0.19214088938670659 -0.48206188290836421 0 -0.20061943601421359 -0.46544537266451169 0 -0.21042106180261569 -0.47555830769413171 0 -0.19214088938670659 -0.48206188290836421 0 -0.20579064278055781 -0.5 0 -0.19214088938670659 -0.48206188290836421 0 -0.17996691701268491 -0.5 0 -0.20579064278055781 -0.5 0 -0.21042106180261569 -0.47555830769413171 0 -0.19214088938670659 -0.48206188290836421 0 -0.19214088938670659 -0.48206188290836421 0 -0.17996691701268491 -0.5 0 -0.16663030657577771 -0.47173344781207011 0 -0.17996691701268491 -0.5 0 -0.16663030657577771 -0.47173344781207011 0 -0.15414319124481199 -0.5 0 -0.1876917643638106 -0.46125765745692338 0 -0.19214088938670659 -0.48206188290836421 0 -0.16663030657577771 -0.47173344781207011 0 -0.19214088938670659 -0.48206188290836421 0 -0.16663030657577771 -0.47173344781207011 0 -0.1876917643638106 -0.46125765745692338 0 -0.16663030657577771 -0.47173344781207011 0 -0.17405526901547361 -0.45578433551119008 0 -0.1876917643638106 -0.46125765745692338 0 -0.17405526901547361 -0.45578433551119008 0 -0.17968802188311531 -0.44193962725879532 0 -0.17968802188311531 -0.44193962725879532 0 -0.16063550719365699 -0.44730480034170672 0 -0.1647631880675719 -0.4292780623349966 0 -0.17405526901547361 -0.45578433551119008 0 -0.17968802188311531 -0.44193962725879532 0 -0.16063550719365699 -0.44730480034170672 0 -0.16663030657577771 -0.47173344781207011 0 -0.17405526901547361 -0.45578433551119008 0 -0.16063550719365699 -0.44730480034170672 0 -0.16663030657577771 -0.47173344781207011 0 -0.14111972376484891 -0.46140501271577589 0 -0.16663030657577771 -0.47173344781207011 0 -0.16063550719365699 -0.44730480034170672 0 -0.14111972376484891 -0.46140501271577589 0 -0.16063550719365699 -0.44730480034170672 0 -0.14513320508203459 -0.44171393400226328 0 -0.1526485557465862 -0.42904433661746388 0 -0.16063550719365699 -0.44730480034170672 0 -0.14111972376484891 -0.46140501271577589 0 -0.14513320508203459 -0.44171393400226328 0 -0.14111972376484891 -0.46140501271577589 0 -0.14513320508203459 -0.44171393400226328 0 -0.13082934616647801 -0.44237513111678362 0 -0.14111972376484891 -0.46140501271577589 0 -0.13082934616647801 -0.44237513111678362 0 -0.11560914095392 -0.45107657761948178 0 -0.14111972376484891 -0.46140501271577589 0 -0.1264080347198821 -0.46483928958176107 0 -0.11560914095392 -0.45107657761948178 0 -0.14111972376484891 -0.46140501271577589 0 -0.11560914095392 -0.45107657761948178 0 -0.1264080347198821 -0.46483928958176107 0 -0.1403766216795293 -0.48140033601360688 0 -0.1207158978103602 -0.47883313214023238 0 -0.14111972376484891 -0.46140501271577589 0 -0.1264080347198821 -0.46483928958176107 0 -0.1403766216795293 -0.48140033601360688 0 -0.1403766216795293 -0.48140033601360688 0 -0.1283194654769394 -0.50000000000000155 0 -0.1207158978103602 -0.47883313214023238 0 -0.1403766216795293 -0.48140033601360688 0 -0.1283194654769394 -0.50000000000000155 0 -0.15414319124481199 -0.5 0 -0.16663030657577771 -0.47173344781207011 0 -0.1403766216795293 -0.48140033601360688 0 -0.15414319124481199 -0.5 0 -0.16663030657577771 -0.47173344781207011 0 -0.14111972376484891 -0.46140501271577589 0 -0.1403766216795293 -0.48140033601360688 0 -0.14318390740961601 -0.39945966675777428 0 -0.15372145273113799 -0.3919428196789666 0 -0.14107642478553131 -0.38386226571611798 0 -0.14318390740961601 -0.39945966675777428 0 -0.1380473749674733 -0.40607329449010238 0 -0.14258676614726259 -0.40879688708181589 0 -0.14318390740961601 -0.39945966675777428 0 -0.1493869209170868 -0.40445160069196878 0 -0.14258676614726259 -0.40879688708181589 0 -0.14318390740961601 -0.39945966675777428 0 -0.1493869209170868 -0.40445160069196878 0 -0.15372145273113799 -0.3919428196789666 0 -0.1493869209170868 -0.40445160069196878 0 -0.15372145273113799 -0.3919428196789666 0 -0.15907331894126089 -0.40331326144670349 0 -0.1493869209170868 -0.40445160069196878 0 -0.15379138732331771 -0.41061889896097042 0 -0.15907331894126089 -0.40331326144670349 0 -0.15372145273113799 -0.3919428196789666 0 -0.14107642478553131 -0.38386226571611798 0 -0.16162748812186339 -0.3715369760827652 0 -0.14107642478553131 -0.38386226571611798 0 -0.1254728502257636 -0.37859699181811141 0 -0.1240730681738034 -0.39141110973529591 0 -0.14107642478553131 -0.38386226571611798 0 -0.1254728502257636 -0.37859699181811141 0 -0.13208873459415571 -0.36815624444617862 0 -0.14318390740961601 -0.39945966675777428 0 -0.14107642478553131 -0.38386226571611798 0 -0.13363276589634421 -0.4035078790287977 0 -0.14107642478553131 -0.38386226571611798 0 -0.13363276589634421 -0.4035078790287977 0 -0.1240730681738034 -0.39141110973529591 0 -0.14107642478553131 -0.38386226571611798 0 -0.13363276589634421 -0.4035078790287977 0 -0.14318390740961601 -0.39945966675777428 0 -0.13363276589634421 -0.4035078790287977 0 -0.1380473749674733 -0.40607329449010238 0 -0.13363276589634421 -0.4035078790287977 0 -0.13641036220129529 -0.41522053635804002 0 -0.1246209534251322 -0.42729222832413971 0 -0.13363276589634421 -0.4035078790287977 0 -0.1246209534251322 -0.42729222832413971 0 -0.1204975607507127 -0.41417525473537542 0 -0.13363276589634421 -0.4035078790287977 0 -0.1246209534251322 -0.42729222832413971 0 -0.13641036220129529 -0.41522053635804002 0 -0.1403018309748211 -0.42700044130721299 0 -0.1431374973723317 -0.41584674232891072 0 -0.13363276589634421 -0.4035078790287977 0 -0.1380473749674733 -0.40607329449010238 0 -0.13641036220129529 -0.41522053635804002 0 -0.1380473749674733 -0.40607329449010238 0 -0.13641036220129529 -0.41522053635804002 0 -0.14258676614726259 -0.40879688708181589 0 -0.13082934616647801 -0.44237513111678362 0 -0.1403018309748211 -0.42700044130721299 0 -0.1246209534251322 -0.42729222832413971 0 -0.13641036220129529 -0.41522053635804002 0 -0.1403018309748211 -0.42700044130721299 0 -0.1246209534251322 -0.42729222832413971 0 -0.14513320508203459 -0.44171393400226328 0 -0.13082934616647801 -0.44237513111678362 0 -0.1403018309748211 -0.42700044130721299 0 -0.14513320508203459 -0.44171393400226328 0 -0.1403018309748211 -0.42700044130721299 0 -0.1526485557465862 -0.42904433661746388 0 -0.1403018309748211 -0.42700044130721299 0 -0.1526485557465862 -0.42904433661746388 0 -0.14992435983947769 -0.41824937580160682 0 -0.1493869209170868 -0.40445160069196878 0 -0.14764709371797771 -0.41144486189331131 0 -0.14258676614726259 -0.40879688708181589 0 -0.14764709371797771 -0.41144486189331131 0 -0.14258676614726259 -0.40879688708181589 0 -0.1431374973723317 -0.41584674232891072 0 -0.13641036220129529 -0.41522053635804002 0 -0.14258676614726259 -0.40879688708181589 0 -0.1431374973723317 -0.41584674232891072 0 -0.1403018309748211 -0.42700044130721299 0 -0.1431374973723317 -0.41584674232891072 0 -0.14992435983947769 -0.41824937580160682 0 -0.14764709371797771 -0.41144486189331131 0 -0.1431374973723317 -0.41584674232891072 0 -0.14992435983947769 -0.41824937580160682 0 -0.1526485557465862 -0.42904433661746388 0 -0.14992435983947769 -0.41824937580160682 0 -0.16190491642559129 -0.41601327504236452 0 -0.14992435983947769 -0.41824937580160682 0 -0.15379138732331771 -0.41061889896097042 0 -0.16190491642559129 -0.41601327504236452 0 -0.14764709371797771 -0.41144486189331131 0 -0.14992435983947769 -0.41824937580160682 0 -0.15379138732331771 -0.41061889896097042 0 -0.1493869209170868 -0.40445160069196878 0 -0.14764709371797771 -0.41144486189331131 0 -0.15379138732331771 -0.41061889896097042 0 -0.16190491642559129 -0.41601327504236452 0 -0.16860431271717261 -0.40757291887883362 0 -0.15907331894126089 -0.40331326144670349 0 -0.15379138732331771 -0.41061889896097042 0 -0.16190491642559129 -0.41601327504236452 0 -0.15907331894126089 -0.40331326144670349 0 -0.16190491642559129 -0.41601327504236452 0 -0.1647631880675719 -0.4292780623349966 0 -0.1743985100946788 -0.41732381133147961 0 -0.16190491642559129 -0.41601327504236452 0 -0.16860431271717261 -0.40757291887883362 0 -0.1743985100946788 -0.41732381133147961 0 -0.16063550719365699 -0.44730480034170672 0 -0.1526485557465862 -0.42904433661746388 0 -0.1647631880675719 -0.4292780623349966 0 -0.1526485557465862 -0.42904433661746388 0 -0.16190491642559129 -0.41601327504236452 0 -0.1647631880675719 -0.4292780623349966 0 -0.17968802188311531 -0.44193962725879532 0 -0.1647631880675719 -0.4292780623349966 0 -0.17772016287692211 -0.42912635945993322 0 -0.1647631880675719 -0.4292780623349966 0 -0.17772016287692211 -0.42912635945993322 0 -0.1743985100946788 -0.41732381133147961 0 -0.17772016287692211 -0.42912635945993322 0 -0.1849879023330018 -0.42305284241103142 0 -0.1743985100946788 -0.41732381133147961 0 -0.17772016287692211 -0.42912635945993322 0 -0.1849879023330018 -0.42305284241103142 0 -0.1892240038252046 -0.43331721450988753 0 -0.17968802188311531 -0.44193962725879532 0 -0.17772016287692211 -0.42912635945993322 0 -0.1892240038252046 -0.43331721450988753 0 -0.16860431271717261 -0.40757291887883362 0 -0.1743985100946788 -0.41732381133147961 0 -0.17815797823511501 -0.40287653554703751 0 -0.1743985100946788 -0.41732381133147961 0 -0.1861736666569323 -0.41209964249860348 0 -0.17815797823511501 -0.40287653554703751 0 -0.1849879023330018 -0.42305284241103142 0 -0.1743985100946788 -0.41732381133147961 0 -0.1861736666569323 -0.41209964249860348 0 -0.17815797823511501 -0.40287653554703751 0 -0.16765448027579291 -0.39157883604602178 0 -0.18248181593257781 -0.38548557241264048 0 -0.17815797823511501 -0.40287653554703751 0 -0.18248181593257781 -0.38548557241264048 0 -0.18930337551832579 -0.40096720487365373 0 -0.1861736666569323 -0.41209964249860348 0 -0.17815797823511501 -0.40287653554703751 0 -0.18930337551832579 -0.40096720487365373 0 -0.16860431271717261 -0.40757291887883362 0 -0.17815797823511501 -0.40287653554703751 0 -0.16765448027579291 -0.39157883604602178 0 -0.16860431271717261 -0.40757291887883362 0 -0.16765448027579291 -0.39157883604602178 0 -0.15907331894126089 -0.40331326144670349 0 -0.15372145273113799 -0.3919428196789666 0 -0.16765448027579291 -0.39157883604602178 0 -0.15907331894126089 -0.40331326144670349 0 -0.16765448027579291 -0.39157883604602178 0 -0.18248181593257781 -0.38548557241264048 0 -0.16162748812186339 -0.3715369760827652 0 -0.15372145273113799 -0.3919428196789666 0 -0.16765448027579291 -0.39157883604602178 0 -0.16162748812186339 -0.3715369760827652 0 -0.18248181593257781 -0.38548557241264048 0 -0.16162748812186339 -0.3715369760827652 0 -0.18248181593257781 -0.38548557241264048 0 -0.19775677636036171 -0.38629548037199157 0 -0.19510881715905309 -0.37348263457516639 0 -0.18248181593257781 -0.38548557241264048 0 -0.19775677636036171 -0.38629548037199157 0 -0.2033361437432922 -0.3994341687425158 0 -0.19775677636036171 -0.38629548037199157 0 -0.20347386267021261 -0.38217201080446528 0 -0.19510881715905309 -0.37348263457516639 0 -0.20347386267021261 -0.38217201080446528 0 -0.19510881715905309 -0.37348263457516639 0 -0.2029578887159102 -0.37294262769038838 0 -0.19775677636036171 -0.38629548037199157 0 -0.20438324229667279 -0.39090301532517002 0 -0.20347386267021261 -0.38217201080446528 0 -0.18248181593257781 -0.38548557241264048 0 -0.18930337551832579 -0.40096720487365373 0 -0.2033361437432922 -0.3994341687425158 0 -0.18248181593257781 -0.38548557241264048 0 -0.2033361437432922 -0.3994341687425158 0 -0.1861736666569323 -0.41209964249860348 0 -0.18930337551832579 -0.40096720487365373 0 -0.19636727302371179 -0.40494010516747109 0 -0.19636727302371179 -0.40494010516747109 0 -0.2033361437432922 -0.3994341687425158 0 -0.2038744718292522 -0.4072787537527871 0 -0.18930337551832579 -0.40096720487365373 0 -0.19636727302371179 -0.40494010516747109 0 -0.2033361437432922 -0.3994341687425158 0 -0.19775677636036171 -0.38629548037199157 0 -0.20438324229667279 -0.39090301532517002 0 -0.2033361437432922 -0.3994341687425158 0 -0.2033361437432922 -0.3994341687425158 0 -0.21754499660183771 -0.40145429329817522 0 -0.22419047155400729 -0.4133827650723898 0 -0.20438324229667279 -0.39090301532517002 0 -0.21092879385002161 -0.39595014681299889 0 -0.2033361437432922 -0.3994341687425158 0 -0.20438324229667279 -0.39090301532517002 0 -0.21092879385002161 -0.39595014681299889 0 -0.21103401278606471 -0.39062497441292032 0 -0.21092879385002161 -0.39595014681299889 0 -0.2033361437432922 -0.3994341687425158 0 -0.21754499660183771 -0.40145429329817522 0 -0.21092879385002161 -0.39595014681299889 0 -0.21103401278606471 -0.39062497441292032 0 -0.21909402146559859 -0.39252461485210838 0 -0.21092879385002161 -0.39595014681299889 0 -0.21754499660183771 -0.40145429329817522 0 -0.21909402146559859 -0.39252461485210838 0 -0.21103401278606471 -0.39062497441292032 0 -0.21081880191548871 -0.38068817570180141 0 -0.21909402146559859 -0.39252461485210838 0 -0.21081880191548871 -0.38068817570180141 0 -0.22211035571406951 -0.38160543951178572 0 -0.21909402146559859 -0.39252461485210838 0 -0.21081880191548871 -0.38068817570180141 0 -0.22211035571406951 -0.38160543951178572 0 -0.20624267014107669 -0.36425938693914001 0 -0.20347386267021261 -0.38217201080446528 0 -0.21081880191548871 -0.38068817570180141 0 -0.2029578887159102 -0.37294262769038838 0 -0.20438324229667279 -0.39090301532517002 0 -0.21103401278606471 -0.39062497441292032 0 -0.20347386267021261 -0.38217201080446528 0 -0.21103401278606471 -0.39062497441292032 0 -0.20347386267021261 -0.38217201080446528 0 -0.21081880191548871 -0.38068817570180141 0 -0.20066781742961859 -0.4367474310834038 0 -0.1892240038252046 -0.43331721450988753 0 -0.1940963187127327 -0.4222357182046293 0 -0.1849879023330018 -0.42305284241103142 0 -0.1892240038252046 -0.43331721450988753 0 -0.1940963187127327 -0.4222357182046293 0 -0.20066781742961859 -0.4367474310834038 0 -0.1940963187127327 -0.4222357182046293 0 -0.20715724900792731 -0.42325707355737852 0 -0.1861736666569323 -0.41209964249860348 0 -0.19636727302371179 -0.40494010516747109 0 -0.1940963187127327 -0.4222357182046293 0 -0.19636727302371179 -0.40494010516747109 0 -0.20715724900792731 -0.42325707355737852 0 -0.19636727302371179 -0.40494010516747109 0 -0.2038744718292522 -0.4072787537527871 0 -0.20715724900792731 -0.42325707355737852 0 -0.19636727302371179 -0.40494010516747109 0 -0.1940963187127327 -0.4222357182046293 0 -0.20715724900792731 -0.42325707355737852 0 -0.1849879023330018 -0.42305284241103142 0 -0.1861736666569323 -0.41209964249860348 0 -0.1940963187127327 -0.4222357182046293 0 -0.2038744718292522 -0.4072787537527871 0 -0.20958709138718501 -0.41225956698169108 0 -0.20715724900792731 -0.42325707355737852 0 -0.2033361437432922 -0.3994341687425158 0 -0.2162217153590846 -0.41138527340051029 0 -0.22419047155400729 -0.4133827650723898 0 -0.2033361437432922 -0.3994341687425158 0 -0.22419047155400729 -0.4133827650723898 0 -0.2033361437432922 -0.3994341687425158 0 -0.2038744718292522 -0.4072787537527871 0 -0.20958709138718501 -0.41225956698169108 0 -0.2033361437432922 -0.3994341687425158 0 -0.20958709138718501 -0.41225956698169108 0 -0.2136400460026342 -0.41204545626272898 0 -0.2033361437432922 -0.3994341687425158 0 -0.2162217153590846 -0.41138527340051029 0 -0.2136400460026342 -0.41204545626272898 0 -0.2162217153590846 -0.41138527340051029 0 -0.2136400460026342 -0.41204545626272898 0 -0.21757298824056451 -0.41699649656790772 0 -0.20958709138718501 -0.41225956698169108 0 -0.2136400460026342 -0.41204545626272898 0 -0.2141343561411673 -0.4189401776044207 0 -0.21757298824056451 -0.41699649656790772 0 -0.2168987468032596 -0.42580250175163908 0 -0.21976325099371349 -0.41637053667208251 0 -0.21757298824056451 -0.41699649656790772 0 -0.2141343561411673 -0.4189401776044207 0 -0.2168987468032596 -0.42580250175163908 0 -0.2162217153590846 -0.41138527340051029 0 -0.21757298824056451 -0.41699649656790772 0 -0.21976325099371349 -0.41637053667208251 0 -0.2136400460026342 -0.41204545626272898 0 -0.21757298824056451 -0.41699649656790772 0 -0.2141343561411673 -0.4189401776044207 0 -0.20958709138718501 -0.41225956698169108 0 -0.2141343561411673 -0.4189401776044207 0 -0.20715724900792731 -0.42325707355737852 0 -0.21094360675724669 -0.43893400633464441 0 -0.20066781742961859 -0.4367474310834038 0 -0.20715724900792731 -0.42325707355737852 0 -0.21794722499214189 -0.44157404194728628 0 -0.20715724900792731 -0.42325707355737852 0 -0.2168987468032596 -0.42580250175163908 0 -0.21094360675724669 -0.43893400633464441 0 -0.21794722499214189 -0.44157404194728628 0 -0.20715724900792731 -0.42325707355737852 0 -0.21794722499214189 -0.44157404194728628 0 -0.20715724900792731 -0.42325707355737852 0 -0.2141343561411673 -0.4189401776044207 0 -0.20715724900792731 -0.42325707355737852 0 -0.2168987468032596 -0.42580250175163908 0 -0.21794722499214189 -0.44157404194728628 0 -0.2248161991816823 -0.42269872205449288 0 -0.22419047155400729 -0.4133827650723898 0 -0.21794722499214189 -0.44157404194728628 0 -0.22419047155400729 -0.4133827650723898 0 -0.22525263911870841 -0.44063449788017628 0 -0.24347028502184179 -0.42512858259777569 0 -0.21794722499214189 -0.44157404194728628 0 -0.22547388670510921 -0.42927176463858979 0 -0.2248161991816823 -0.42269872205449288 0 -0.22525263911870841 -0.44063449788017628 0 -0.2305991551007513 -0.42246419615996061 0 -0.2363263140061389 -0.42245661441623727 0 -0.22525263911870841 -0.44063449788017628 0 -0.22547388670510921 -0.42927176463858979 0 -0.2305991551007513 -0.42246419615996061 0 -0.21794722499214189 -0.44157404194728628 0 -0.2168987468032596 -0.42580250175163908 0 -0.22419047155400729 -0.4133827650723898 0 -0.22525263911870841 -0.44063449788017628 0 -0.21794722499214189 -0.44157404194728628 0 -0.22547388670510921 -0.42927176463858979 0 -0.22547388670510921 -0.42927176463858979 0 -0.2248161991816823 -0.42269872205449288 0 -0.22736171540494221 -0.42268533224243332 0 -0.22547388670510921 -0.42927176463858979 0 -0.22736171540494221 -0.42268533224243332 0 -0.2305991551007513 -0.42246419615996061 0 -0.2305991551007513 -0.42246419615996061 0 -0.23331103741745171 -0.41541580149626339 0 -0.2363263140061389 -0.42245661441623727 0 -0.23331103741745171 -0.41541580149626339 0 -0.22946815887116079 -0.4159171128472306 0 -0.22896895582759819 -0.41326008120738722 0 -0.2305991551007513 -0.42246419615996061 0 -0.23331103741745171 -0.41541580149626339 0 -0.22946815887116079 -0.4159171128472306 0 -0.22946815887116079 -0.4159171128472306 0 -0.22706979952753839 -0.41558189375014021 0 -0.22896895582759819 -0.41326008120738722 0 -0.22706979952753839 -0.41558189375014021 0 -0.22626049216691449 -0.41364928323392958 0 -0.22896895582759819 -0.41326008120738722 0 -0.22946815887116079 -0.4159171128472306 0 -0.22706979952753839 -0.41558189375014021 0 -0.2274290577710382 -0.41845742487295079 0 -0.2305991551007513 -0.42246419615996061 0 -0.22946815887116079 -0.4159171128472306 0 -0.2274290577710382 -0.41845742487295079 0 -0.22736171540494221 -0.42268533224243332 0 -0.2305991551007513 -0.42246419615996061 0 -0.2274290577710382 -0.41845742487295079 0 -0.2248161991816823 -0.42269872205449288 0 -0.2274290577710382 -0.41845742487295079 0 -0.2252100621082869 -0.41706070154034541 0 -0.2168987468032596 -0.42580250175163908 0 -0.21976325099371349 -0.41637053667208251 0 -0.22419047155400729 -0.4133827650723898 0 -0.2248161991816823 -0.42269872205449288 0 -0.22736171540494221 -0.42268533224243332 0 -0.2274290577710382 -0.41845742487295079 0 -0.2248161991816823 -0.42269872205449288 0 -0.2252100621082869 -0.41706070154034541 0 -0.22419047155400729 -0.4133827650723898 0 -0.22706979952753839 -0.41558189375014021 0 -0.2274290577710382 -0.41845742487295079 0 -0.2252100621082869 -0.41706070154034541 0 -0.2252100621082869 -0.41706070154034541 0 -0.22626049216691449 -0.41364928323392958 0 -0.22419047155400729 -0.4133827650723898 0 -0.22706979952753839 -0.41558189375014021 0 -0.2252100621082869 -0.41706070154034541 0 -0.22626049216691449 -0.41364928323392958 0 -0.22626049216691449 -0.41364928323392958 0 -0.22642050725291141 -0.41180987779929118 0 -0.22419047155400729 -0.4133827650723898 0 -0.22642050725291141 -0.41180987779929118 0 -0.22419047155400729 -0.4133827650723898 0 -0.22711309576314809 -0.40925904557747511 0 -0.2162217153590846 -0.41138527340051029 0 -0.21976325099371349 -0.41637053667208251 0 -0.22419047155400729 -0.4133827650723898 0 -0.22642050725291141 -0.41180987779929118 0 -0.22896895582759819 -0.41326008120738722 0 -0.22855989353901721 -0.41111314215530897 0 -0.22642050725291141 -0.41180987779929118 0 -0.22711309576314809 -0.40925904557747511 0 -0.22855989353901721 -0.41111314215530897 0 -0.22711309576314809 -0.40925904557747511 0 -0.22855989353901721 -0.41111314215530897 0 -0.23173701531241109 -0.4101235640370825 0 -0.22626049216691449 -0.41364928323392958 0 -0.22642050725291141 -0.41180987779929118 0 -0.22896895582759819 -0.41326008120738722 0 -0.22896895582759819 -0.41326008120738722 0 -0.22855989353901721 -0.41111314215530897 0 -0.23173701531241109 -0.4101235640370825 0 -0.23331103741745171 -0.41541580149626339 0 -0.22896895582759819 -0.41326008120738722 0 -0.23173701531241109 -0.4101235640370825 0 -0.22711309576314809 -0.40925904557747511 0 -0.23173701531241109 -0.4101235640370825 0 -0.23297336156511481 -0.40383205391701082 0 -0.25384572686005491 -0.4162975446570773 0 -0.23859686606719749 -0.40927389107853551 0 -0.23797804128706221 -0.39895149208443142 0 -0.25504109963533078 -0.40402814620274752 0 -0.25384572686005491 -0.4162975446570773 0 -0.23797804128706221 -0.39895149208443142 0 -0.25384572686005491 -0.4162975446570773 0 -0.23797804128706221 -0.39895149208443142 0 -0.23173701531241109 -0.4101235640370825 0 -0.23859686606719749 -0.40927389107853551 0 -0.23297336156511481 -0.40383205391701082 0 -0.23331103741745171 -0.41541580149626339 0 -0.23173701531241109 -0.4101235640370825 0 -0.23859686606719749 -0.40927389107853551 0 -0.25384572686005491 -0.4162975446570773 0 -0.2411100458745371 -0.417714486849178 0 -0.24347028502184179 -0.42512858259777569 0 -0.25384572686005491 -0.4162975446570773 0 -0.24347028502184179 -0.42512858259777569 0 -0.25384572686005491 -0.4162975446570773 0 -0.23859686606719749 -0.40927389107853551 0 -0.2411100458745371 -0.417714486849178 0 -0.2411100458745371 -0.417714486849178 0 -0.2363263140061389 -0.42245661441623727 0 -0.24347028502184179 -0.42512858259777569 0 -0.23331103741745171 -0.41541580149626339 0 -0.23859686606719749 -0.40927389107853551 0 -0.2411100458745371 -0.417714486849178 0 -0.23331103741745171 -0.41541580149626339 0 -0.2411100458745371 -0.417714486849178 0 -0.2363263140061389 -0.42245661441623727 0 -0.22525263911870841 -0.44063449788017628 0 -0.24347028502184179 -0.42512858259777569 0 -0.24027596506354379 -0.43509366620825252 0 -0.22525263911870841 -0.44063449788017628 0 -0.2363263140061389 -0.42245661441623727 0 -0.24347028502184179 -0.42512858259777569 0 -0.2363263140061389 -0.42245661441623727 0 -0.24347028502184179 -0.42512858259777569 0 -0.25529929100837978 -0.42955283453633047 0 -0.24347028502184179 -0.42512858259777569 0 -0.25529929100837978 -0.42955283453633047 0 -0.24909065315093301 -0.44289399940493762 0 -0.24027596506354379 -0.43509366620825252 0 -0.25529929100837978 -0.42955283453633047 0 -0.24027596506354379 -0.43509366620825252 0 -0.25529929100837978 -0.42955283453633047 0 -0.24347028502184179 -0.42512858259777569 0 -0.24027596506354379 -0.43509366620825252 0 -0.22211035571406951 -0.38160543951178572 0 -0.23797804128706221 -0.39895149208443142 0 -0.22211035571406951 -0.38160543951178572 0 -0.23797804128706221 -0.39895149208443142 0 -0.23599668104387919 -0.38474757172596541 0 -0.22211035571406951 -0.38160543951178572 0 -0.23599668104387919 -0.38474757172596541 0 -0.22923534853375621 -0.3687738632171208 0 -0.22211035571406951 -0.38160543951178572 0 -0.21909402146559859 -0.39252461485210838 0 -0.22873972959464259 -0.39284066542471308 0 -0.22419047155400729 -0.4133827650723898 0 -0.22711309576314809 -0.40925904557747511 0 -0.22873972959464259 -0.39284066542471308 0 -0.22419047155400729 -0.4133827650723898 0 -0.2231348060328924 -0.40147379767564351 0 -0.22873972959464259 -0.39284066542471308 0 -0.22211035571406951 -0.38160543951178572 0 -0.22873972959464259 -0.39284066542471308 0 -0.23797804128706221 -0.39895149208443142 0 -0.22711309576314809 -0.40925904557747511 0 -0.23297336156511481 -0.40383205391701082 0 -0.22873972959464259 -0.39284066542471308 0 -0.22206402638108191 -0.39821746690729581 0 -0.2231348060328924 -0.40147379767564351 0 -0.22873972959464259 -0.39284066542471308 0 -0.22419047155400729 -0.4133827650723898 0 -0.22873972959464259 -0.39284066542471308 0 -0.21909402146559859 -0.39252461485210838 0 -0.22206402638108191 -0.39821746690729581 0 -0.22873972959464259 -0.39284066542471308 0 -0.21754499660183771 -0.40145429329817522 0 -0.21909402146559859 -0.39252461485210838 0 -0.22206402638108191 -0.39821746690729581 0 -0.21754499660183771 -0.40145429329817522 0 -0.22419047155400729 -0.4133827650723898 0 -0.2231348060328924 -0.40147379767564351 0 -0.21754499660183771 -0.40145429329817522 0 -0.22206402638108191 -0.39821746690729581 0 -0.2231348060328924 -0.40147379767564351 0 -0.23297336156511481 -0.40383205391701082 0 -0.22873972959464259 -0.39284066542471308 0 -0.23797804128706221 -0.39895149208443142 0 -0.23797804128706221 -0.39895149208443142 0 -0.2438176809600493 -0.38978199039569839 0 -0.23599668104387919 -0.38474757172596541 0 -0.25504109963533078 -0.40402814620274752 0 -0.25285090396253701 -0.39475094466033861 0 -0.23797804128706221 -0.39895149208443142 0 -0.23859686606719749 -0.40927389107853551 0 -0.23297336156511481 -0.40383205391701082 0 -0.23797804128706221 -0.39895149208443142 0 -0.25285090396253701 -0.39475094466033861 0 -0.23797804128706221 -0.39895149208443142 0 -0.2438176809600493 -0.38978199039569839 0 -0.25285090396253701 -0.39475094466033861 0 -0.2438176809600493 -0.38978199039569839 0 -0.24844509754671881 -0.38067795311205849 0 -0.23599668104387919 -0.38474757172596541 0 -0.24844509754671881 -0.38067795311205849 0 -0.22923534853375621 -0.3687738632171208 0 -0.2438176809600493 -0.38978199039569839 0 -0.23599668104387919 -0.38474757172596541 0 -0.24844509754671881 -0.38067795311205849 0 -0.24844509754671881 -0.38067795311205849 0 -0.2471238808729333 -0.36186225383658999 0 -0.22923534853375621 -0.3687738632171208 0 -0.24844509754671881 -0.38067795311205849 0 -0.22923534853375621 -0.3687738632171208 0 -0.2471238808729333 -0.36186225383658999 0 -0.22923534853375621 -0.3687738632171208 0 -0.23467608643063029 -0.35591139559462998 0 -0.22923534853375621 -0.3687738632171208 0 -0.21002559952079361 -0.35686977332218323 0 -0.22211035571406951 -0.38160543951178572 0 -0.22923534853375621 -0.3687738632171208 0 -0.20624267014107669 -0.36425938693914001 0 -0.22923534853375621 -0.3687738632171208 0 -0.2239898824603439 -0.35458406944727489 0 -0.21002559952079361 -0.35686977332218323 0 -0.22923534853375621 -0.3687738632171208 0 -0.2239898824603439 -0.35458406944727489 0 -0.23467608643063029 -0.35591139559462998 0 -0.2239898824603439 -0.35458406944727489 0 -0.2285459733168321 -0.34232144521097002 0 -0.2166821227012028 -0.34483970428045441 0 -0.2239898824603439 -0.35458406944727489 0 -0.23467608643063029 -0.35591139559462998 0 -0.2285459733168321 -0.34232144521097002 0 -0.23467608643063029 -0.35591139559462998 0 -0.24279169714789539 -0.34213077275920462 0 -0.2285459733168321 -0.34232144521097002 0 -0.2565318681264519 -0.34593743616912798 0 -0.2471238808729333 -0.36186225383658999 0 -0.24279169714789539 -0.34213077275920462 0 -0.2471238808729333 -0.36186225383658999 0 -0.23467608643063029 -0.35591139559462998 0 -0.24279169714789539 -0.34213077275920462 0 -0.24279169714789539 -0.34213077275920462 0 -0.23406460059063999 -0.32273088103140057 0 -0.2285459733168321 -0.34232144521097002 0 -0.2565318681264519 -0.34593743616912798 0 -0.24811306483497159 -0.32820725689031038 0 -0.24279169714789539 -0.34213077275920462 0 -0.24811306483497159 -0.32820725689031038 0 -0.24279169714789539 -0.34213077275920462 0 -0.23406460059063999 -0.32273088103140057 0 -0.24811306483497159 -0.32820725689031038 0 -0.23406460059063999 -0.32273088103140057 0 -0.2432623182123671 -0.30941965377505087 0 -0.23406460059063999 -0.32273088103140057 0 -0.2196097139177613 -0.3273703881205135 0 -0.223853379572095 -0.30416534011500268 0 -0.2196097139177613 -0.3273703881205135 0 -0.223853379572095 -0.30416534011500268 0 -0.2196097139177613 -0.3273703881205135 0 -0.2285459733168321 -0.34232144521097002 0 -0.2166821227012028 -0.34483970428045441 0 -0.23406460059063999 -0.32273088103140057 0 -0.2196097139177613 -0.3273703881205135 0 -0.2285459733168321 -0.34232144521097002 0 -0.2196097139177613 -0.3273703881205135 0 -0.20835868042385819 -0.33443302128478131 0 -0.2166821227012028 -0.34483970428045441 0 -0.20835868042385819 -0.33443302128478131 0 -0.2166821227012028 -0.34483970428045441 0 -0.20875823269260671 -0.34530509444791668 0 -0.20835868042385819 -0.33443302128478131 0 -0.20137420522894811 -0.34300720783797001 0 -0.20875823269260671 -0.34530509444791668 0 -0.20835868042385819 -0.33443302128478131 0 -0.20926533145133089 -0.31533021376755571 0 -0.1956695131006552 -0.32352324558958812 0 -0.2196097139177613 -0.3273703881205135 0 -0.20926533145133089 -0.31533021376755571 0 -0.223853379572095 -0.30416534011500268 0 -0.2196097139177613 -0.3273703881205135 0 -0.20835868042385819 -0.33443302128478131 0 -0.20926533145133089 -0.31533021376755571 0 -0.20926533145133089 -0.31533021376755571 0 -0.1956695131006552 -0.32352324558958812 0 -0.2005231756934788 -0.30208080775193108 0 -0.1956695131006552 -0.32352324558958812 0 -0.2005231756934788 -0.30208080775193108 0 -0.1956695131006552 -0.32352324558958812 0 -0.18568448282947569 -0.34178582604931118 0 -0.183202122517856 -0.3390721881799732 0 -0.1956695131006552 -0.32352324558958812 0 -0.19081585050783131 -0.34496568342724521 0 -0.18568448282947569 -0.34178582604931118 0 -0.1956695131006552 -0.32352324558958812 0 -0.19081585050783131 -0.34496568342724521 0 -0.1956695131006552 -0.32352324558958812 0 -0.20137420522894811 -0.34300720783797001 0 -0.19081585050783131 -0.34496568342724521 0 -0.20835868042385819 -0.33443302128478131 0 -0.1956695131006552 -0.32352324558958812 0 -0.20137420522894811 -0.34300720783797001 0 -0.19081585050783131 -0.34496568342724521 0 -0.18568448282947569 -0.34178582604931118 0 -0.19081585050783131 -0.34496568342724521 0 -0.21002559952079361 -0.35686977332218323 0 -0.19037498456808491 -0.34691333436649352 0 -0.20624267014107669 -0.36425938693914001 0 -0.21002559952079361 -0.35686977332218323 0 -0.19037498456808491 -0.34691333436649352 0 -0.19631831792547769 -0.36396622326150052 0 -0.18690722904326479 -0.36223313273631319 0 -0.19037498456808491 -0.34691333436649352 0 -0.20624267014107669 -0.36425938693914001 0 -0.19037498456808491 -0.34691333436649352 0 -0.19081585050783131 -0.34496568342724521 0 -0.18568448282947569 -0.34178582604931118 0 -0.19037498456808491 -0.34691333436649352 0 -0.18568448282947569 -0.34178582604931118 0 -0.20137420522894811 -0.34300720783797001 0 -0.19081585050783131 -0.34496568342724521 0 -0.21002559952079361 -0.35686977332218323 0 -0.19037498456808491 -0.34691333436649352 0 -0.19081585050783131 -0.34496568342724521 0 -0.21002559952079361 -0.35686977332218323 0 -0.19037498456808491 -0.34691333436649352 0 -0.19631831792547769 -0.36396622326150052 0 -0.20624267014107669 -0.36425938693914001 0 -0.19037498456808491 -0.34691333436649352 0 -0.19081585050783131 -0.34496568342724521 0 -0.19037498456808491 -0.34691333436649352 0 -0.18690722904326479 -0.36223313273631319 0 -0.19510881715905309 -0.37348263457516639 0 -0.19631831792547769 -0.36396622326150052 0 -0.18690722904326479 -0.36223313273631319 0 -0.18248181593257781 -0.38548557241264048 0 -0.19510881715905309 -0.37348263457516639 0 -0.18690722904326479 -0.36223313273631319 0 -0.19510881715905309 -0.37348263457516639 0 -0.2029578887159102 -0.37294262769038838 0 -0.19631831792547769 -0.36396622326150052 0 -0.2029578887159102 -0.37294262769038838 0 -0.19631831792547769 -0.36396622326150052 0 -0.20624267014107669 -0.36425938693914001 0 -0.22923534853375621 -0.3687738632171208 0 -0.20624267014107669 -0.36425938693914001 0 -0.21002559952079361 -0.35686977332218323 0 -0.22211035571406951 -0.38160543951178572 0 -0.20624267014107669 -0.36425938693914001 0 -0.21081880191548871 -0.38068817570180141 0 -0.2029578887159102 -0.37294262769038838 0 -0.20624267014107669 -0.36425938693914001 0 -0.2239898824603439 -0.35458406944727489 0 -0.2166821227012028 -0.34483970428045441 0 -0.21002559952079361 -0.35686977332218323 0 -0.2166821227012028 -0.34483970428045441 0 -0.20875823269260671 -0.34530509444791668 0 -0.21002559952079361 -0.35686977332218323 0 -0.20137420522894811 -0.34300720783797001 0 -0.20875823269260671 -0.34530509444791668 0 -0.21002559952079361 -0.35686977332218323 0 -0.22495618121018399 -0.26207964812671469 0 -0.23248403902798259 -0.25697150268612517 0 -0.2150788959845735 -0.25684973906357189 0 -0.23248403902798259 -0.25697150268612517 0 -0.2084423165344233 -0.2442297109220444 0 -0.23248403902798259 -0.25697150268612517 0 -0.22523528010301411 -0.2480424028876469 0 -0.23248403902798259 -0.25697150268612517 0 -0.2405359314428237 -0.26123889810607459 0 -0.24640947921774939 -0.27698669075944121 0 -0.23248403902798259 -0.25697150268612517 0 -0.24180708320988101 -0.25522574438811452 0 -0.24294271272773121 -0.246967672793176 0 -0.24180708320988101 -0.25522574438811452 0 -0.24905552470647371 -0.25623064153363512 0 -0.2405359314428237 -0.26123889810607459 0 -0.24905552470647371 -0.25623064153363512 0 -0.24294271272773121 -0.246967672793176 0 -0.25652616337425588 -0.24696241029445379 0 -0.24180708320988101 -0.25522574438811452 0 -0.24905552470647371 -0.25623064153363512 0 -0.24294271272773121 -0.246967672793176 0 -0.25138033831998602 -0.26645247001797862 0 -0.24905552470647371 -0.25623064153363512 0 -0.2405359314428237 -0.26123889810607459 0 -0.23248403902798259 -0.25697150268612517 0 -0.24180708320988101 -0.25522574438811452 0 -0.2405359314428237 -0.26123889810607459 0 -0.23248403902798259 -0.25697150268612517 0 -0.2405359314428237 -0.26123889810607459 0 -0.23248403902798259 -0.25697150268612517 0 -0.24640947921774939 -0.27698669075944121 0 -0.22809704522642871 -0.28096029210949203 0 -0.25138033831998602 -0.26645247001797862 0 -0.2405359314428237 -0.26123889810607459 0 -0.24640947921774939 -0.27698669075944121 0 -0.23248403902798259 -0.25697150268612517 0 -0.24640947921774939 -0.27698669075944121 0 -0.22495618121018399 -0.26207964812671469 0 -0.22809704522642871 -0.28096029210949203 0 -0.21435544616879151 -0.26811083439099792 0 -0.22495618121018399 -0.26207964812671469 0 -0.23248403902798259 -0.25697150268612517 0 -0.22809704522642871 -0.28096029210949203 0 -0.23248403902798259 -0.25697150268612517 0 -0.22809704522642871 -0.28096029210949203 0 -0.22809704522642871 -0.28096029210949203 0 -0.223853379572095 -0.30416534011500268 0 -0.22809704522642871 -0.28096029210949203 0 -0.2415770646381207 -0.29344076419812348 0 -0.223853379572095 -0.30416534011500268 0 -0.22809704522642871 -0.28096029210949203 0 -0.223853379572095 -0.30416534011500268 0 -0.21507174180044211 -0.29164294871773427 0 -0.26047824755472959 -0.29621813741490199 0 -0.24640947921774939 -0.27698669075944121 0 -0.2415770646381207 -0.29344076419812348 0 -0.24640947921774939 -0.27698669075944121 0 -0.22809704522642871 -0.28096029210949203 0 -0.2415770646381207 -0.29344076419812348 0 -0.26047824755472959 -0.29621813741490199 0 -0.2415770646381207 -0.29344076419812348 0 -0.2432623182123671 -0.30941965377505087 0 -0.2415770646381207 -0.29344076419812348 0 -0.2432623182123671 -0.30941965377505087 0 -0.223853379572095 -0.30416534011500268 0 -0.23406460059063999 -0.32273088103140057 0 -0.2432623182123671 -0.30941965377505087 0 -0.223853379572095 -0.30416534011500268 0 -0.223853379572095 -0.30416534011500268 0 -0.2005231756934788 -0.30208080775193108 0 -0.21507174180044211 -0.29164294871773427 0 -0.20926533145133089 -0.31533021376755571 0 -0.223853379572095 -0.30416534011500268 0 -0.2005231756934788 -0.30208080775193108 0 -0.1956695131006552 -0.32352324558958812 0 -0.2005231756934788 -0.30208080775193108 0 -0.18658001877482541 -0.30664562753471941 0 -0.2005231756934788 -0.30208080775193108 0 -0.1864869536070754 -0.28628204658941692 0 -0.18658001877482541 -0.30664562753471941 0 -0.2005231756934788 -0.30208080775193108 0 -0.20537683828630249 -0.2806383699142741 0 -0.1864869536070754 -0.28628204658941692 0 -0.2005231756934788 -0.30208080775193108 0 -0.20537683828630249 -0.2806383699142741 0 -0.2005231756934788 -0.30208080775193108 0 -0.21507174180044211 -0.29164294871773427 0 -0.20537683828630249 -0.2806383699142741 0 -0.22809704522642871 -0.28096029210949203 0 -0.21507174180044211 -0.29164294871773427 0 -0.20537683828630249 -0.2806383699142741 0 -0.22809704522642871 -0.28096029210949203 0 -0.20537683828630249 -0.2806383699142741 0 -0.21435544616879151 -0.26811083439099792 0 -0.20537683828630249 -0.2806383699142741 0 -0.21435544616879151 -0.26811083439099792 0 -0.1987791353539258 -0.26174948641475759 0 -0.20537683828630249 -0.2806383699142741 0 -0.1987791353539258 -0.26174948641475759 0 -0.1864869536070754 -0.28628204658941692 0 -0.1987791353539258 -0.26174948641475759 0 -0.18464749888115431 -0.25117866146288659 0 -0.2084423165344233 -0.2442297109220444 0 -0.1987791353539258 -0.26174948641475759 0 -0.2150788959845735 -0.25684973906357189 0 -0.2084423165344233 -0.2442297109220444 0 -0.23248403902798259 -0.25697150268612517 0 -0.2150788959845735 -0.25684973906357189 0 -0.2084423165344233 -0.2442297109220444 0 -0.21435544616879151 -0.26811083439099792 0 -0.1987791353539258 -0.26174948641475759 0 -0.2150788959845735 -0.25684973906357189 0 -0.22495618121018399 -0.26207964812671469 0 -0.21435544616879151 -0.26811083439099792 0 -0.2150788959845735 -0.25684973906357189 0 -0.17451067476644841 -0.26562477811855512 0 -0.15595395949789231 -0.26666278620458123 0 -0.16858055678937059 -0.24688773341995571 0 -0.15595395949789231 -0.26666278620458123 0 -0.14810028601662309 -0.24576510341654359 0 -0.16858055678937059 -0.24688773341995571 0 -0.18464749888115431 -0.25117866146288659 0 -0.17451067476644841 -0.26562477811855512 0 -0.16858055678937059 -0.24688773341995571 0 -0.1987791353539258 -0.26174948641475759 0 -0.18464749888115431 -0.25117866146288659 0 -0.17451067476644841 -0.26562477811855512 0 -0.17451067476644841 -0.26562477811855512 0 -0.16804406586175241 -0.28212562990072237 0 -0.1864869536070754 -0.28628204658941692 0 -0.1987791353539258 -0.26174948641475759 0 -0.17451067476644841 -0.26562477811855512 0 -0.1864869536070754 -0.28628204658941692 0 -0.16804406586175241 -0.28212562990072237 0 -0.15111215198085351 -0.2907372674514519 0 -0.15595395949789231 -0.26666278620458123 0 -0.17451067476644841 -0.26562477811855512 0 -0.16804406586175241 -0.28212562990072237 0 -0.15595395949789231 -0.26666278620458123 0 -0.16804406586175241 -0.28212562990072237 0 -0.17215658945649259 -0.30132127113960733 0 -0.15111215198085351 -0.2907372674514519 0 -0.16804406586175241 -0.28212562990072237 0 -0.1864869536070754 -0.28628204658941692 0 -0.17215658945649259 -0.30132127113960733 0 -0.18658001877482541 -0.30664562753471941 0 -0.17215658945649259 -0.30132127113960733 0 -0.17806386201642491 -0.32002076660305362 0 -0.1864869536070754 -0.28628204658941692 0 -0.18658001877482541 -0.30664562753471941 0 -0.17215658945649259 -0.30132127113960733 0 -0.17215658945649259 -0.30132127113960733 0 -0.17806386201642491 -0.32002076660305362 0 -0.16316201811532999 -0.31299928516034148 0 -0.17215658945649259 -0.30132127113960733 0 -0.15111215198085351 -0.2907372674514519 0 -0.16316201811532999 -0.31299928516034148 0 -0.15111215198085351 -0.2907372674514519 0 -0.16316201811532999 -0.31299928516034148 0 -0.14796569668188131 -0.3184118704226192 0 -0.12910630360808431 -0.30672489260927288 0 -0.15111215198085351 -0.2907372674514519 0 -0.14796569668188131 -0.3184118704226192 0 -0.1253183864756465 -0.28922289245519028 0 -0.15111215198085351 -0.2907372674514519 0 -0.1335741120428999 -0.27333228765380191 0 -0.12910630360808431 -0.30672489260927288 0 -0.1253183864756465 -0.28922289245519028 0 -0.15111215198085351 -0.2907372674514519 0 -0.15111215198085351 -0.2907372674514519 0 -0.1335741120428999 -0.27333228765380191 0 -0.15111215198085351 -0.2907372674514519 0 -0.15595395949789231 -0.26666278620458123 0 -0.1335741120428999 -0.27333228765380191 0 -0.1335741120428999 -0.27333228765380191 0 -0.14810028601662309 -0.24576510341654359 0 -0.12978142356864469 -0.244097016543221 0 -0.1335741120428999 -0.27333228765380191 0 -0.11603607210494681 -0.25592730785615109 0 -0.12978142356864469 -0.244097016543221 0 -0.15595395949789231 -0.26666278620458123 0 -0.1335741120428999 -0.27333228765380191 0 -0.14810028601662309 -0.24576510341654359 0 -0.1708148575266058 -0.35158096126926819 0 -0.1621071356059984 -0.35615892462160598 0 -0.17331291149335951 -0.36410289517030792 0 -0.1708148575266058 -0.35158096126926819 0 -0.16352660706424821 -0.34382011511497962 0 -0.1621071356059984 -0.35615892462160598 0 -0.1708148575266058 -0.35158096126926819 0 -0.16352660706424821 -0.34382011511497962 0 -0.17314344655071071 -0.34112024875869867 0 -0.16352660706424821 -0.34382011511497962 0 -0.1621071356059984 -0.35615892462160598 0 -0.15346823138804161 -0.34819731969574691 0 -0.1621071356059984 -0.35615892462160598 0 -0.16162748812186339 -0.3715369760827652 0 -0.1523167035304579 -0.35625116274503038 0 -0.1621071356059984 -0.35615892462160598 0 -0.16162748812186339 -0.3715369760827652 0 -0.17331291149335951 -0.36410289517030792 0 -0.18248181593257781 -0.38548557241264048 0 -0.16162748812186339 -0.3715369760827652 0 -0.17331291149335951 -0.36410289517030792 0 -0.18248181593257781 -0.38548557241264048 0 -0.17331291149335951 -0.36410289517030792 0 -0.18690722904326479 -0.36223313273631319 0 -0.17331291149335951 -0.36410289517030792 0 -0.18690722904326479 -0.36223313273631319 0 -0.1790819230089544 -0.35411810169712732 0 -0.18690722904326479 -0.36223313273631319 0 -0.1790819230089544 -0.35411810169712732 0 -0.18427068730888141 -0.34971200575910227 0 -0.19037498456808491 -0.34691333436649352 0 -0.18690722904326479 -0.36223313273631319 0 -0.18427068730888141 -0.34971200575910227 0 -0.1708148575266058 -0.35158096126926819 0 -0.17331291149335951 -0.36410289517030792 0 -0.1790819230089544 -0.35411810169712732 0 -0.1708148575266058 -0.35158096126926819 0 -0.1790819230089544 -0.35411810169712732 0 -0.1785990794449257 -0.34766342870670153 0 -0.1708148575266058 -0.35158096126926819 0 -0.1785990794449257 -0.34766342870670153 0 -0.17314344655071071 -0.34112024875869867 0 -0.1785990794449257 -0.34766342870670153 0 -0.18427068730888141 -0.34971200575910227 0 -0.18568448282947569 -0.34178582604931118 0 -0.19037498456808491 -0.34691333436649352 0 -0.18427068730888141 -0.34971200575910227 0 -0.18568448282947569 -0.34178582604931118 0 -0.1790819230089544 -0.35411810169712732 0 -0.1785990794449257 -0.34766342870670153 0 -0.18427068730888141 -0.34971200575910227 0 -0.183202122517856 -0.3390721881799732 0 -0.17806386201642491 -0.32002076660305362 0 -0.16682508975567831 -0.33009884823596553 0 -0.18568448282947569 -0.34178582604931118 0 -0.16682508975567831 -0.33009884823596553 0 -0.18568448282947569 -0.34178582604931118 0 -0.183202122517856 -0.3390721881799732 0 -0.16682508975567831 -0.33009884823596553 0 -0.18568448282947569 -0.34178582604931118 0 -0.17314344655071071 -0.34112024875869867 0 -0.16682508975567831 -0.33009884823596553 0 -0.18568448282947569 -0.34178582604931118 0 -0.183202122517856 -0.3390721881799732 0 -0.1785990794449257 -0.34766342870670153 0 -0.18568448282947569 -0.34178582604931118 0 -0.17314344655071071 -0.34112024875869867 0 -0.1956695131006552 -0.32352324558958812 0 -0.183202122517856 -0.3390721881799732 0 -0.17806386201642491 -0.32002076660305362 0 -0.1956695131006552 -0.32352324558958812 0 -0.18658001877482541 -0.30664562753471941 0 -0.17806386201642491 -0.32002076660305362 0 -0.16682508975567831 -0.33009884823596553 0 -0.14796569668188131 -0.3184118704226192 0 -0.16316201811532999 -0.31299928516034148 0 -0.16682508975567831 -0.33009884823596553 0 -0.14796569668188131 -0.3184118704226192 0 -0.17806386201642491 -0.32002076660305362 0 -0.16316201811532999 -0.31299928516034148 0 -0.16682508975567831 -0.33009884823596553 0 -0.16682508975567831 -0.33009884823596553 0 -0.1548008815584544 -0.33576438810859272 0 -0.14796569668188131 -0.3184118704226192 0 -0.16352660706424821 -0.34382011511497962 0 -0.17314344655071071 -0.34112024875869867 0 -0.16682508975567831 -0.33009884823596553 0 -0.16352660706424821 -0.34382011511497962 0 -0.1548008815584544 -0.33576438810859272 0 -0.15346823138804161 -0.34819731969574691 0 -0.16352660706424821 -0.34382011511497962 0 -0.16682508975567831 -0.33009884823596553 0 -0.1548008815584544 -0.33576438810859272 0 -0.1548008815584544 -0.33576438810859272 0 -0.1423737747007931 -0.33763373684248948 0 -0.14796569668188131 -0.3184118704226192 0 -0.1548008815584544 -0.33576438810859272 0 -0.1423737747007931 -0.33763373684248948 0 -0.15346823138804161 -0.34819731969574691 0 -0.12910630360808431 -0.30672489260927288 0 -0.14796569668188131 -0.3184118704226192 0 -0.13160973051704031 -0.32605280870839848 0 -0.12910630360808431 -0.30672489260927288 0 -0.13160973051704031 -0.32605280870839848 0 -0.11765123814695851 -0.31841909192022461 0 -0.1423737747007931 -0.33763373684248948 0 -0.14796569668188131 -0.3184118704226192 0 -0.13160973051704031 -0.32605280870839848 0 -0.12910630360808431 -0.30672489260927288 0 -0.14796569668188131 -0.3184118704226192 0 -0.1423737747007931 -0.33763373684248948 0 -0.13147075677848591 -0.33795655831943072 0 -0.1334249563422287 -0.34695744478621621 0 -0.1423737747007931 -0.33763373684248948 0 -0.13160973051704031 -0.32605280870839848 0 -0.13147075677848591 -0.33795655831943072 0 -0.13160973051704031 -0.32605280870839848 0 -0.13147075677848591 -0.33795655831943072 0 -0.1207119625778717 -0.32936961187661218 0 -0.13147075677848591 -0.33795655831943072 0 -0.12682902998755299 -0.3421513120057274 0 -0.1225015743290629 -0.3400514614942482 0 -0.13147075677848591 -0.33795655831943072 0 -0.12682902998755299 -0.3421513120057274 0 -0.1334249563422287 -0.34695744478621621 0 -0.1334249563422287 -0.34695744478621621 0 -0.140773160311149 -0.35758837975288987 0 -0.1199188325004347 -0.3436397834230146 0 -0.12656150897867879 -0.356272209440681 0 -0.140773160311149 -0.35758837975288987 0 -0.1199188325004347 -0.3436397834230146 0 -0.12682902998755299 -0.3421513120057274 0 -0.1334249563422287 -0.34695744478621621 0 -0.1199188325004347 -0.3436397834230146 0 -0.140773160311149 -0.35758837975288987 0 -0.1199188325004347 -0.3436397834230146 0 -0.1423737747007931 -0.33763373684248948 0 -0.1334249563422287 -0.34695744478621621 0 -0.1436075022252371 -0.34777421357214422 0 -0.1334249563422287 -0.34695744478621621 0 -0.1436075022252371 -0.34777421357214422 0 -0.140773160311149 -0.35758837975288987 0 -0.1423737747007931 -0.33763373684248948 0 -0.1436075022252371 -0.34777421357214422 0 -0.15346823138804161 -0.34819731969574691 0 -0.1436075022252371 -0.34777421357214422 0 -0.140773160311149 -0.35758837975288987 0 -0.1523167035304579 -0.35625116274503038 0 -0.1621071356059984 -0.35615892462160598 0 -0.1523167035304579 -0.35625116274503038 0 -0.15346823138804161 -0.34819731969574691 0 -0.1436075022252371 -0.34777421357214422 0 -0.1523167035304579 -0.35625116274503038 0 -0.15346823138804161 -0.34819731969574691 0 -0.16162748812186339 -0.3715369760827652 0 -0.140773160311149 -0.35758837975288987 0 -0.1523167035304579 -0.35625116274503038 0 -0.14107642478553131 -0.38386226571611798 0 -0.16162748812186339 -0.3715369760827652 0 -0.14852008367471861 -0.36421665240343848 0 -0.14107642478553131 -0.38386226571611798 0 -0.14852008367471861 -0.36421665240343848 0 -0.1403575712365471 -0.36591542807861349 0 -0.16162748812186339 -0.3715369760827652 0 -0.140773160311149 -0.35758837975288987 0 -0.14107642478553131 -0.38386226571611798 0 -0.14852008367471861 -0.36421665240343848 0 -0.16162748812186339 -0.3715369760827652 0 -0.140773160311149 -0.35758837975288987 0 -0.14852008367471861 -0.36421665240343848 0 -0.140773160311149 -0.35758837975288987 0 -0.14852008367471861 -0.36421665240343848 0 -0.1403575712365471 -0.36591542807861349 0 -0.14107642478553131 -0.38386226571611798 0 -0.1403575712365471 -0.36591542807861349 0 -0.13208873459415571 -0.36815624444617862 0 -0.140773160311149 -0.35758837975288987 0 -0.1403575712365471 -0.36591542807861349 0 -0.13208873459415571 -0.36815624444617862 0 -0.12656150897867879 -0.356272209440681 0 -0.140773160311149 -0.35758837975288987 0 -0.13208873459415571 -0.36815624444617862 0 -0.12656150897867879 -0.356272209440681 0 -0.13208873459415571 -0.36815624444617862 0 -0.1186265748277594 -0.36813560515636928 0 -0.1254728502257636 -0.37859699181811141 0 -0.13208873459415571 -0.36815624444617862 0 -0.1186265748277594 -0.36813560515636928 0 -0.1186265748277594 -0.36813560515636928 0 -0.1041796968115891 -0.37231377715865932 0 -0.1121708143485584 -0.38428656060801658 0 -0.12656150897867879 -0.356272209440681 0 -0.1186265748277594 -0.36813560515636928 0 -0.11785232074624349 -0.35898346445605989 0 -0.1186265748277594 -0.36813560515636928 0 -0.1117064256374718 -0.36238497166641997 0 -0.11785232074624349 -0.35898346445605989 0 -0.1186265748277594 -0.36813560515636928 0 -0.1117064256374718 -0.36238497166641997 0 -0.1041796968115891 -0.37231377715865932 0 -0.1117064256374718 -0.36238497166641997 0 -0.1041796968115891 -0.37231377715865932 0 -0.1040331799836675 -0.35759318551026931 0 -0.1041796968115891 -0.37231377715865932 0 -0.1040331799836675 -0.35759318551026931 0 -0.093404888554274715 -0.36242830580742591 0 -0.1041796968115891 -0.37231377715865932 0 -0.094717258379341751 -0.37407517400153117 0 -0.093404888554274715 -0.36242830580742591 0 -0.095546861799430699 -0.34378711740618789 0 -0.094123542964745177 -0.35129517618278577 0 -0.10319497146368831 -0.34720303098649968 0 -0.094123542964745177 -0.35129517618278577 0 -0.1040331799836675 -0.35759318551026931 0 -0.10319497146368831 -0.34720303098649968 0 -0.094123542964745177 -0.35129517618278577 0 -0.1040331799836675 -0.35759318551026931 0 -0.093404888554274715 -0.36242830580742591 0 -0.1040331799836675 -0.35759318551026931 0 -0.1088442981837954 -0.35088786194902383 0 -0.10319497146368831 -0.34720303098649968 0 -0.1040331799836675 -0.35759318551026931 0 -0.1088442981837954 -0.35088786194902383 0 -0.1138403558180993 -0.35489882605074208 0 -0.1088442981837954 -0.35088786194902383 0 -0.10319497146368831 -0.34720303098649968 0 -0.1112493567412378 -0.34518238283357278 0 -0.10319497146368831 -0.34720303098649968 0 -0.1112493567412378 -0.34518238283357278 0 -0.10683608572066609 -0.3407768325525008 0 -0.1088442981837954 -0.35088786194902383 0 -0.1112493567412378 -0.34518238283357278 0 -0.1155869691716159 -0.34815499320039428 0 -0.1088442981837954 -0.35088786194902383 0 -0.1155869691716159 -0.34815499320039428 0 -0.1138403558180993 -0.35489882605074208 0 -0.1155869691716159 -0.34815499320039428 0 -0.1199188325004347 -0.3436397834230146 0 -0.1150212682764498 -0.34330444153333323 0 -0.1112493567412378 -0.34518238283357278 0 -0.1155869691716159 -0.34815499320039428 0 -0.1150212682764498 -0.34330444153333323 0 -0.1117064256374718 -0.36238497166641997 0 -0.1040331799836675 -0.35759318551026931 0 -0.1138403558180993 -0.35489882605074208 0 -0.1138403558180993 -0.35489882605074208 0 -0.11785232074624349 -0.35898346445605989 0 -0.1193197294322559 -0.35216982345558351 0 -0.1155869691716159 -0.34815499320039428 0 -0.1138403558180993 -0.35489882605074208 0 -0.1193197294322559 -0.35216982345558351 0 -0.1117064256374718 -0.36238497166641997 0 -0.1138403558180993 -0.35489882605074208 0 -0.11785232074624349 -0.35898346445605989 0 -0.12656150897867879 -0.356272209440681 0 -0.11785232074624349 -0.35898346445605989 0 -0.1193197294322559 -0.35216982345558351 0 -0.1155869691716159 -0.34815499320039428 0 -0.1193197294322559 -0.35216982345558351 0 -0.1199188325004347 -0.3436397834230146 0 -0.12656150897867879 -0.356272209440681 0 -0.1193197294322559 -0.35216982345558351 0 -0.1199188325004347 -0.3436397834230146 0 -0.1225015743290629 -0.3400514614942482 0 -0.1207119625778717 -0.32936961187661218 0 -0.1003265131178117 -0.32436813894075822 0 -0.1225015743290629 -0.3400514614942482 0 -0.111213101769634 -0.33728072166225032 0 -0.1003265131178117 -0.32436813894075822 0 -0.1225015743290629 -0.3400514614942482 0 -0.1003265131178117 -0.32436813894075822 0 -0.12682902998755299 -0.3421513120057274 0 -0.1225015743290629 -0.3400514614942482 0 -0.1199188325004347 -0.3436397834230146 0 -0.1199188325004347 -0.3436397834230146 0 -0.11731522476860751 -0.34078724817399442 0 -0.1150212682764498 -0.34330444153333323 0 -0.1225015743290629 -0.3400514614942482 0 -0.1199188325004347 -0.3436397834230146 0 -0.11731522476860751 -0.34078724817399442 0 -0.13147075677848591 -0.33795655831943072 0 -0.1225015743290629 -0.3400514614942482 0 -0.1207119625778717 -0.32936961187661218 0 -0.111213101769634 -0.33728072166225032 0 -0.1118780088726901 -0.34152845185673181 0 -0.1141792176041128 -0.34053378971229109 0 -0.1225015743290629 -0.3400514614942482 0 -0.11731522476860751 -0.34078724817399442 0 -0.111213101769634 -0.33728072166225032 0 -0.111213101769634 -0.33728072166225032 0 -0.1118780088726901 -0.34152845185673181 0 -0.10683608572066609 -0.3407768325525008 0 -0.1112493567412378 -0.34518238283357278 0 -0.1118780088726901 -0.34152845185673181 0 -0.10683608572066609 -0.3407768325525008 0 -0.1112493567412378 -0.34518238283357278 0 -0.1118780088726901 -0.34152845185673181 0 -0.1150212682764498 -0.34330444153333323 0 -0.1118780088726901 -0.34152845185673181 0 -0.1141792176041128 -0.34053378971229109 0 -0.1150212682764498 -0.34330444153333323 0 -0.11731522476860751 -0.34078724817399442 0 -0.1141792176041128 -0.34053378971229109 0 -0.1150212682764498 -0.34330444153333323 0 -0.11731522476860751 -0.34078724817399442 0 -0.111213101769634 -0.33728072166225032 0 -0.1141792176041128 -0.34053378971229109 0 -0.1207119625778717 -0.32936961187661218 0 -0.11765123814695851 -0.31841909192022461 0 -0.1003265131178117 -0.32436813894075822 0 -0.13160973051704031 -0.32605280870839848 0 -0.1207119625778717 -0.32936961187661218 0 -0.11765123814695851 -0.31841909192022461 0 -0.1003265131178117 -0.32436813894075822 0 -0.1055630327801909 -0.30155452857922271 0 -0.11765123814695851 -0.31841909192022461 0 -0.1003265131178117 -0.32436813894075822 0 -0.1055630327801909 -0.30155452857922271 0 -0.1003265131178117 -0.32436813894075822 0 -0.09875956036999288 -0.33119478177770062 0 -0.10319497146368831 -0.34720303098649968 0 -0.10683608572066609 -0.3407768325525008 0 -0.1009204486509294 -0.33927863594012442 0 -0.10683608572066609 -0.3407768325525008 0 -0.10358793190409429 -0.33479854343024451 0 -0.1009204486509294 -0.33927863594012442 0 -0.111213101769634 -0.33728072166225032 0 -0.10683608572066609 -0.3407768325525008 0 -0.10358793190409429 -0.33479854343024451 0 -0.111213101769634 -0.33728072166225032 0 -0.1003265131178117 -0.32436813894075822 0 -0.10358793190409429 -0.33479854343024451 0 -0.1003265131178117 -0.32436813894075822 0 -0.09875956036999288 -0.33119478177770062 0 -0.089883501095625984 -0.32894684513927658 0 -0.09875956036999288 -0.33119478177770062 0 -0.093031703906374469 -0.33735429204710099 0 -0.089883501095625984 -0.32894684513927658 0 -0.10358793190409429 -0.33479854343024451 0 -0.09875956036999288 -0.33119478177770062 0 -0.1009204486509294 -0.33927863594012442 0 -0.1003265131178117 -0.32436813894075822 0 -0.10358793190409429 -0.33479854343024451 0 -0.09875956036999288 -0.33119478177770062 0 -0.095546861799430699 -0.34378711740618789 0 -0.1009204486509294 -0.33927863594012442 0 -0.093031703906374469 -0.33735429204710099 0 -0.095546861799430699 -0.34378711740618789 0 -0.10319497146368831 -0.34720303098649968 0 -0.1009204486509294 -0.33927863594012442 0 -0.09875956036999288 -0.33119478177770062 0 -0.1009204486509294 -0.33927863594012442 0 -0.093031703906374469 -0.33735429204710099 0 -0.095546861799430699 -0.34378711740618789 0 -0.093031703906374469 -0.33735429204710099 0 -0.086463642011416014 -0.34380445187442848 0 -0.093031703906374469 -0.33735429204710099 0 -0.08584649415022233 -0.334921990814813 0 -0.086463642011416014 -0.34380445187442848 0 -0.093031703906374469 -0.33735429204710099 0 -0.089883501095625984 -0.32894684513927658 0 -0.08584649415022233 -0.334921990814813 0 -0.08584649415022233 -0.334921990814813 0 -0.078163105799473914 -0.33671683420225151 0 -0.081690517938221283 -0.32778753081100742 0 -0.089883501095625984 -0.32894684513927658 0 -0.08584649415022233 -0.334921990814813 0 -0.081690517938221283 -0.32778753081100742 0 -0.08584649415022233 -0.334921990814813 0 -0.078163105799473914 -0.33671683420225151 0 -0.086463642011416014 -0.34380445187442848 0 -0.078163105799473914 -0.33671683420225151 0 -0.077614507333010674 -0.34978873559481499 0 -0.086463642011416014 -0.34380445187442848 0 -0.1003265131178117 -0.32436813894075822 0 -0.083644684026095734 -0.32143334728399442 0 -0.076528885654062878 -0.30753725563603218 0 -0.1003265131178117 -0.32436813894075822 0 -0.089883501095625984 -0.32894684513927658 0 -0.083644684026095734 -0.32143334728399442 0 -0.1003265131178117 -0.32436813894075822 0 -0.076528885654062878 -0.30753725563603218 0 -0.089883501095625984 -0.32894684513927658 0 -0.083644684026095734 -0.32143334728399442 0 -0.081690517938221283 -0.32778753081100742 0 -0.083644684026095734 -0.32143334728399442 0 -0.081690517938221283 -0.32778753081100742 0 -0.069794002324756965 -0.31852696589289559 0 -0.078163105799473914 -0.33671683420225151 0 -0.081690517938221283 -0.32778753081100742 0 -0.069794002324756965 -0.31852696589289559 0 -0.069794002324756965 -0.31852696589289559 0 -0.076528885654062878 -0.30753725563603218 0 -0.083644684026095734 -0.32143334728399442 0 -0.069794002324756965 -0.31852696589289559 0 -0.076528885654062878 -0.30753725563603218 0 -0.069794002324756965 -0.31852696589289559 0 -0.057582179281549788 -0.33845372488646602 0 -0.069794002324756965 -0.31852696589289559 0 -0.068294940215389358 -0.34593620344240078 0 -0.069794002324756965 -0.31852696589289559 0 -0.068294940215389358 -0.34593620344240078 0 -0.057582179281549788 -0.33845372488646602 0 -0.078163105799473914 -0.33671683420225151 0 -0.069794002324756965 -0.31852696589289559 0 -0.068294940215389358 -0.34593620344240078 0 -0.078163105799473914 -0.33671683420225151 0 -0.068294940215389358 -0.34593620344240078 0 -0.077614507333010674 -0.34978873559481499 0 -0.068294940215389358 -0.34593620344240078 0 -0.077614507333010674 -0.34978873559481499 0 -0.066862334441236931 -0.35954813339273778 0 -0.077614507333010674 -0.34978873559481499 0 -0.066862334441236931 -0.35954813339273778 0 -0.080645701800902594 -0.36086573745532569 0 -0.068294940215389358 -0.34593620344240078 0 -0.066862334441236931 -0.35954813339273778 0 -0.057716913806678059 -0.35378731856611501 0 -0.066862334441236931 -0.35954813339273778 0 -0.065030183681898598 -0.37258708183683531 0 -0.056325468411699643 -0.36702528685951719 0 -0.066862334441236931 -0.35954813339273778 0 -0.065030183681898598 -0.37258708183683531 0 -0.074724733945228813 -0.36937174723928951 0 -0.065030183681898598 -0.37258708183683531 0 -0.074724733945228813 -0.36937174723928951 0 -0.073216960568858194 -0.38218345114903102 0 -0.066862334441236931 -0.35954813339273778 0 -0.074724733945228813 -0.36937174723928951 0 -0.080645701800902594 -0.36086573745532569 0 -0.074724733945228813 -0.36937174723928951 0 -0.080645701800902594 -0.36086573745532569 0 -0.084541147489030938 -0.37470937631336032 0 -0.094717258379341751 -0.37407517400153117 0 -0.084541147489030938 -0.37470937631336032 0 -0.093404888554274715 -0.36242830580742591 0 -0.080645701800902594 -0.36086573745532569 0 -0.084541147489030938 -0.37470937631336032 0 -0.093404888554274715 -0.36242830580742591 0 -0.080645701800902594 -0.36086573745532569 0 -0.093404888554274715 -0.36242830580742591 0 -0.08645045653286984 -0.35363648138295622 0 -0.094123542964745177 -0.35129517618278577 0 -0.093404888554274715 -0.36242830580742591 0 -0.08645045653286984 -0.35363648138295622 0 -0.094123542964745177 -0.35129517618278577 0 -0.08645045653286984 -0.35363648138295622 0 -0.086463642011416014 -0.34380445187442848 0 -0.095546861799430699 -0.34378711740618789 0 -0.094123542964745177 -0.35129517618278577 0 -0.086463642011416014 -0.34380445187442848 0 -0.077614507333010674 -0.34978873559481499 0 -0.08645045653286984 -0.35363648138295622 0 -0.086463642011416014 -0.34380445187442848 0 -0.077614507333010674 -0.34978873559481499 0 -0.080645701800902594 -0.36086573745532569 0 -0.08645045653286984 -0.35363648138295622 0 -0.094957610330884179 -0.2630968525194749 0 -0.11603607210494681 -0.25592730785615109 0 -0.098079048774341149 -0.23810652346970809 0 -0.1335741120428999 -0.27333228765380191 0 -0.11603607210494681 -0.25592730785615109 0 -0.1335741120428999 -0.27333228765380191 0 -0.11603607210494681 -0.25592730785615109 0 -0.1107995524425696 -0.27874091821768721 0 -0.11603607210494681 -0.25592730785615109 0 -0.1107995524425696 -0.27874091821768721 0 -0.1253183864756465 -0.28922289245519028 0 -0.1335741120428999 -0.27333228765380191 0 -0.1107995524425696 -0.27874091821768721 0 -0.094957610330884179 -0.2630968525194749 0 -0.1107995524425696 -0.27874091821768721 0 -0.09136887835645946 -0.28697040789084127 0 -0.094957610330884179 -0.2630968525194749 0 -0.11603607210494681 -0.25592730785615109 0 -0.1107995524425696 -0.27874091821768721 0 -0.1107995524425696 -0.27874091821768721 0 -0.1055630327801909 -0.30155452857922271 0 -0.1107995524425696 -0.27874091821768721 0 -0.1055630327801909 -0.30155452857922271 0 -0.09136887835645946 -0.28697040789084127 0 -0.1253183864756465 -0.28922289245519028 0 -0.1107995524425696 -0.27874091821768721 0 -0.1055630327801909 -0.30155452857922271 0 -0.12910630360808431 -0.30672489260927288 0 -0.1253183864756465 -0.28922289245519028 0 -0.1055630327801909 -0.30155452857922271 0 -0.12910630360808431 -0.30672489260927288 0 -0.11765123814695851 -0.31841909192022461 0 -0.1055630327801909 -0.30155452857922271 0 -0.1055630327801909 -0.30155452857922271 0 -0.088761987638580231 -0.30242729080414071 0 -0.09136887835645946 -0.28697040789084127 0 -0.1003265131178117 -0.32436813894075822 0 -0.1055630327801909 -0.30155452857922271 0 -0.088761987638580231 -0.30242729080414071 0 -0.1003265131178117 -0.32436813894075822 0 -0.088761987638580231 -0.30242729080414071 0 -0.076528885654062878 -0.30753725563603218 0 -0.088761987638580231 -0.30242729080414071 0 -0.079156298360525693 -0.30324994983467152 0 -0.079995720356801608 -0.29321651625249318 0 -0.088761987638580231 -0.30242729080414071 0 -0.079156298360525693 -0.30324994983467152 0 -0.076528885654062878 -0.30753725563603218 0 -0.07062347620026832 -0.30336065200044632 0 -0.054963449275257252 -0.2922850905342721 0 -0.079156298360525693 -0.30324994983467152 0 -0.076528885654062878 -0.30753725563603218 0 -0.07062347620026832 -0.30336065200044632 0 -0.069794002324756965 -0.31852696589289559 0 -0.076528885654062878 -0.30753725563603218 0 -0.07062347620026832 -0.30336065200044632 0 -0.079156298360525693 -0.30324994983467152 0 -0.076528885654062878 -0.30753725563603218 0 -0.076528885654062878 -0.30753725563603218 0 -0.07062347620026832 -0.30336065200044632 0 -0.069794002324756965 -0.31852696589289559 0 -0.07062347620026832 -0.30336065200044632 0 -0.059890685074804308 -0.31101126070966773 0 -0.069794002324756965 -0.31852696589289559 0 -0.07062347620026832 -0.30336065200044632 0 -0.079156298360525693 -0.30324994983467152 0 -0.07062347620026832 -0.30336065200044632 0 -0.079995720356801608 -0.29321651625249318 0 -0.07062347620026832 -0.30336065200044632 0 -0.071831494641146923 -0.28127293181641588 0 -0.07062347620026832 -0.30336065200044632 0 -0.071831494641146923 -0.28127293181641588 0 -0.054963449275257252 -0.2922850905342721 0 -0.07062347620026832 -0.30336065200044632 0 -0.071831494641146923 -0.28127293181641588 0 -0.079995720356801608 -0.29321651625249318 0 -0.071831494641146923 -0.28127293181641588 0 -0.079995720356801608 -0.29321651625249318 0 -0.09136887835645946 -0.28697040789084127 0 -0.088761987638580231 -0.30242729080414071 0 -0.079995720356801608 -0.29321651625249318 0 -0.09136887835645946 -0.28697040789084127 0 -0.094957610330884179 -0.2630968525194749 0 -0.071831494641146923 -0.28127293181641588 0 -0.09136887835645946 -0.28697040789084127 0 -0.094957610330884179 -0.2630968525194749 0 -0.071831494641146923 -0.28127293181641588 0 -0.07303951308202547 -0.25918521163238561 0 -0.071831494641146923 -0.28127293181641588 0 -0.07303951308202547 -0.25918521163238561 0 -0.071831494641146923 -0.28127293181641588 0 -0.064605490399081589 -0.26469129099131411 0 -0.07303951308202547 -0.25918521163238561 0 -0.071831494641146923 -0.28127293181641588 0 -0.064605490399081589 -0.26469129099131411 0 -0.054963449275257252 -0.2922850905342721 0 -0.064605490399081589 -0.26469129099131411 0 -0.07303951308202547 -0.25918521163238561 0 -0.074247531522904406 -0.23709749144835529 0 -0.064605490399081589 -0.26469129099131411 0 -0.074247531522904406 -0.23709749144835529 0 -0.094957610330884179 -0.2630968525194749 0 -0.085254706571689862 -0.24920827118798741 0 -0.098079048774341149 -0.23810652346970809 0 -0.094957610330884179 -0.2630968525194749 0 -0.07303951308202547 -0.25918521163238561 0 -0.085254706571689862 -0.24920827118798741 0 -0.045824369193649003 -0.26482920365183799 0 -0.032283332528187388 -0.25215055097616063 0 -0.044323546347883352 -0.2472224278796166 0 -0.045824369193649003 -0.26482920365183799 0 -0.032283332528187388 -0.25215055097616063 0 -0.029798420075602731 -0.26634881997135451 0 -0.064605490399081589 -0.26469129099131411 0 -0.045824369193649003 -0.26482920365183799 0 -0.044323546347883352 -0.2472224278796166 0 -0.064605490399081589 -0.26469129099131411 0 -0.058096375251159592 -0.24033715372808259 0 -0.044323546347883352 -0.2472224278796166 0 -0.064605490399081589 -0.26469129099131411 0 -0.045824369193649003 -0.26482920365183799 0 -0.054963449275257252 -0.2922850905342721 0 -0.064605490399081589 -0.26469129099131411 0 -0.054963449275257252 -0.2922850905342721 0 -0.045824369193649003 -0.26482920365183799 0 -0.038541705050387169 -0.28067080414670081 0 -0.029798420075602731 -0.26634881997135451 0 -0.045824369193649003 -0.26482920365183799 0 -0.038541705050387169 -0.28067080414670081 0 -0.054963449275257252 -0.2922850905342721 0 -0.038541705050387169 -0.28067080414670081 0 -0.025933094004952788 -0.27542612542473088 0 -0.029798420075602731 -0.26634881997135451 0 -0.038541705050387169 -0.28067080414670081 0 -0.040343030028469777 -0.2967529636232461 0 -0.025922493590749 -0.29281876326491912 0 -0.038541705050387169 -0.28067080414670081 0 -0.040343030028469777 -0.2967529636232461 0 -0.054963449275257252 -0.2922850905342721 0 -0.038541705050387169 -0.28067080414670081 0 -0.054963449275257252 -0.2922850905342721 0 -0.054963449275257252 -0.2922850905342721 0 -0.046605008657650888 -0.31620545469079209 0 -0.054963449275257252 -0.2922850905342721 0 -0.059890685074804308 -0.31101126070966773 0 -0.046605008657650888 -0.31620545469079209 0 -0.07062347620026832 -0.30336065200044632 0 -0.054963449275257252 -0.2922850905342721 0 -0.059890685074804308 -0.31101126070966773 0 -0.040343030028469777 -0.2967529636232461 0 -0.054963449275257252 -0.2922850905342721 0 -0.046605008657650888 -0.31620545469079209 0 -0.040343030028469777 -0.2967529636232461 0 -0.033558158626634513 -0.30721313725494198 0 -0.046605008657650888 -0.31620545469079209 0 -0.040343030028469777 -0.2967529636232461 0 -0.033558158626634513 -0.30721313725494198 0 -0.025922493590749 -0.29281876326491912 0 -0.033558158626634513 -0.30721313725494198 0 -0.020094855586095198 -0.30907749277751589 0 -0.025922493590749 -0.29281876326491912 0 -0.015939553253148071 -0.29947558796390472 0 -0.020094855586095198 -0.30907749277751589 0 -0.025922493590749 -0.29281876326491912 0 -0.020094855586095198 -0.30907749277751589 0 -0.0065519152164444268 -0.3033245168890632 0 -0.0086149977727318812 -0.31435966777040242 0 -0.0065519152164444268 -0.3033245168890632 0 -5.9311289176037681e-06 -0.31236656648630162 0 0.0035997542519150211 -0.30175886436002369 0 -0.0065519152164444268 -0.3033245168890632 0 -0.0086149977727318812 -0.31435966777040242 0 -5.9311289176037681e-06 -0.31236656648630162 0 -0.0065519152164444268 -0.3033245168890632 0 -0.0001997628994672238 -0.29157893335398249 0 0.0035997542519150211 -0.30175886436002369 0 -0.015939553253148071 -0.29947558796390472 0 -0.020094855586095198 -0.30907749277751589 0 -0.0065519152164444268 -0.3033245168890632 0 -0.015939553253148071 -0.29947558796390472 0 -0.0065519152164444268 -0.3033245168890632 0 -0.01118894861930364 -0.2926815789241205 0 -0.0065519152164444268 -0.3033245168890632 0 -0.01118894861930364 -0.2926815789241205 0 -0.0001997628994672238 -0.29157893335398249 0 -0.01118894861930364 -0.2926815789241205 0 -0.0001997628994672238 -0.29157893335398249 0 -0.0068090150567823486 -0.28670200701390752 0 -0.0001997628994672238 -0.29157893335398249 0 -0.003350663523099567 -0.28093286320183891 0 0.0020885245221143561 -0.27710954205386301 0 -0.0001997628994672238 -0.29157893335398249 0 -0.0068090150567823486 -0.28670200701390752 0 -0.003350663523099567 -0.28093286320183891 0 -0.01118894861930364 -0.2926815789241205 0 -0.0068090150567823486 -0.28670200701390752 0 -0.016211669778486551 -0.27921958273129371 0 -0.0068090150567823486 -0.28670200701390752 0 -0.016211669778486551 -0.27921958273129371 0 -0.003350663523099567 -0.28093286320183891 0 -0.025922493590749 -0.29281876326491912 0 -0.025933094004952788 -0.27542612542473088 0 -0.016211669778486551 -0.27921958273129371 0 -0.038541705050387169 -0.28067080414670081 0 -0.025922493590749 -0.29281876326491912 0 -0.025933094004952788 -0.27542612542473088 0 -0.01118894861930364 -0.2926815789241205 0 -0.025922493590749 -0.29281876326491912 0 -0.016211669778486551 -0.27921958273129371 0 -0.025922493590749 -0.29281876326491912 0 -0.016211669778486551 -0.27921958273129371 0 -0.015939553253148071 -0.29947558796390472 0 -0.01118894861930364 -0.2926815789241205 0 -0.025922493590749 -0.29281876326491912 0 -0.025933094004952788 -0.27542612542473088 0 -0.029798420075602731 -0.26634881997135451 0 -0.017648579944192139 -0.26792680768334332 0 -0.025933094004952788 -0.27542612542473088 0 -0.017648579944192139 -0.26792680768334332 0 -0.016211669778486551 -0.27921958273129371 0 -0.016211669778486551 -0.27921958273129371 0 -0.003350663523099567 -0.28093286320183891 0 -0.0065008459662223399 -0.26562040219766958 0 -0.003350663523099567 -0.28093286320183891 0 -0.0065008459662223399 -0.26562040219766958 0 0.0020885245221143561 -0.27710954205386301 0 -0.003350663523099567 -0.28093286320183891 0 0.0020885245221143561 -0.27710954205386301 0 -0.0065008459662223399 -0.26562040219766958 0 0.0020885245221143561 -0.27710954205386301 0 -0.016211669778486551 -0.27921958273129371 0 -0.0065008459662223399 -0.26562040219766958 0 -0.017648579944192139 -0.26792680768334332 0 -0.016211669778486551 -0.27921958273129371 0 -0.0065008459662223399 -0.26562040219766958 0 -0.017648579944192139 -0.26792680768334332 0 -0.0065008459662223399 -0.26562040219766958 0 -0.021127768454421759 -0.25978693485800308 0 -0.0065008459662223399 -0.26562040219766958 0 -0.0079783989778275544 -0.25169792079002812 0 0.0095294292409746698 -0.2431713689579636 0 -0.0065008459662223399 -0.26562040219766958 0 -0.0079783989778275544 -0.25169792079002812 0 -0.020913906741365468 -0.2463414956437508 0 -0.0065008459662223399 -0.26562040219766958 0 -0.020913906741365468 -0.2463414956437508 0 -0.0065008459662223399 -0.26562040219766958 0 -0.021127768454421759 -0.25978693485800308 0 -0.020913906741365468 -0.2463414956437508 0 -0.029798420075602731 -0.26634881997135451 0 -0.017648579944192139 -0.26792680768334332 0 -0.021127768454421759 -0.25978693485800308 0 -0.032283332528187388 -0.25215055097616063 0 -0.029798420075602731 -0.26634881997135451 0 -0.021127768454421759 -0.25978693485800308 0 -0.032283332528187388 -0.25215055097616063 0 -0.021127768454421759 -0.25978693485800308 0 -0.020913906741365468 -0.2463414956437508 0 -0.04537035623834354 -0.35838048388003702 0 -0.044174159871890002 -0.34739502088090751 0 -0.035497535927623378 -0.3526200559098156 0 -0.044174159871890002 -0.34739502088090751 0 -0.035497535927623378 -0.3526200559098156 0 -0.038246568040043262 -0.34012581884731169 0 -0.035497535927623378 -0.3526200559098156 0 -0.038246568040043262 -0.34012581884731169 0 -0.025466680398351531 -0.34893616063201999 0 -0.035497535927623378 -0.3526200559098156 0 -0.035064840183835877 -0.36282721988644667 0 -0.026232935374239291 -0.36200109688232651 0 -0.04537035623834354 -0.35838048388003702 0 -0.035497535927623378 -0.3526200559098156 0 -0.035064840183835877 -0.36282721988644667 0 -0.04537035623834354 -0.35838048388003702 0 -0.033158533195137327 -0.37830724287360779 0 -0.04537035623834354 -0.35838048388003702 0 -0.035064840183835877 -0.36282721988644667 0 -0.033158533195137327 -0.37830724287360779 0 -0.04537035623834354 -0.35838048388003702 0 -0.042355185648555171 -0.36586037833266899 0 -0.033158533195137327 -0.37830724287360779 0 -0.035064840183835877 -0.36282721988644667 0 -0.026232935374239291 -0.36200109688232651 0 -0.033158533195137327 -0.37830724287360779 0 -0.04537035623834354 -0.35838048388003702 0 -0.042355185648555171 -0.36586037833266899 0 -0.048684047565986571 -0.36401946713473249 0 -0.042355185648555171 -0.36586037833266899 0 -0.048684047565986571 -0.36401946713473249 0 -0.050316021533047567 -0.37006392978745478 0 -0.04537035623834354 -0.35838048388003702 0 -0.048684047565986571 -0.36401946713473249 0 -0.054325961705631809 -0.36026136458966568 0 -0.048684047565986571 -0.36401946713473249 0 -0.054325961705631809 -0.36026136458966568 0 -0.056325468411699643 -0.36702528685951719 0 -0.048684047565986571 -0.36401946713473249 0 -0.050316021533047567 -0.37006392978745478 0 -0.056325468411699643 -0.36702528685951719 0 -0.042355185648555171 -0.36586037833266899 0 -0.050316021533047567 -0.37006392978745478 0 -0.048800927626862438 -0.37828251843802219 0 -0.050316021533047567 -0.37006392978745478 0 -0.055866435304266902 -0.37462987936771819 0 -0.048800927626862438 -0.37828251843802219 0 -0.050316021533047567 -0.37006392978745478 0 -0.055866435304266902 -0.37462987936771819 0 -0.056325468411699643 -0.36702528685951719 0 -0.065030183681898598 -0.37258708183683531 0 -0.055866435304266902 -0.37462987936771819 0 -0.056325468411699643 -0.36702528685951719 0 -0.066862334441236931 -0.35954813339273778 0 -0.054325961705631809 -0.36026136458966568 0 -0.056325468411699643 -0.36702528685951719 0 -0.04537035623834354 -0.35838048388003702 0 -0.057582179281549788 -0.33845372488646602 0 -0.066862334441236931 -0.35954813339273778 0 -0.054325961705631809 -0.36026136458966568 0 -0.057716913806678059 -0.35378731856611501 0 -0.04537035623834354 -0.35838048388003702 0 -0.044174159871890002 -0.34739502088090751 0 -0.057582179281549788 -0.33845372488646602 0 -0.04537035623834354 -0.35838048388003702 0 -0.057716913806678059 -0.35378731856611501 0 -0.057582179281549788 -0.33845372488646602 0 -0.04537035623834354 -0.35838048388003702 0 -0.054325961705631809 -0.36026136458966568 0 -0.057716913806678059 -0.35378731856611501 0 -0.068294940215389358 -0.34593620344240078 0 -0.057716913806678059 -0.35378731856611501 0 -0.057582179281549788 -0.33845372488646602 0 -0.057582179281549788 -0.33845372488646602 0 -0.057467488916089472 -0.32467814042992832 0 -0.038246568040043262 -0.34012581884731169 0 -0.057467488916089472 -0.32467814042992832 0 -0.046605008657650888 -0.31620545469079209 0 -0.038246568040043262 -0.34012581884731169 0 -0.069794002324756965 -0.31852696589289559 0 -0.057582179281549788 -0.33845372488646602 0 -0.057467488916089472 -0.32467814042992832 0 -0.069794002324756965 -0.31852696589289559 0 -0.059890685074804308 -0.31101126070966773 0 -0.057467488916089472 -0.32467814042992832 0 -0.059890685074804308 -0.31101126070966773 0 -0.057467488916089472 -0.32467814042992832 0 -0.046605008657650888 -0.31620545469079209 0 -0.033558158626634513 -0.30721313725494198 0 -0.046605008657650888 -0.31620545469079209 0 -0.029481390066711629 -0.32198354769400489 0 -0.046605008657650888 -0.31620545469079209 0 -0.038246568040043262 -0.34012581884731169 0 -0.029481390066711629 -0.32198354769400489 0 -0.044174159871890002 -0.34739502088090751 0 -0.057582179281549788 -0.33845372488646602 0 -0.038246568040043262 -0.34012581884731169 0 -0.046605008657650888 -0.31620545469079209 0 -0.038246568040043262 -0.34012581884731169 0 -0.038246568040043262 -0.34012581884731169 0 -0.02251215179798665 -0.33591018035802539 0 -0.029481390066711629 -0.32198354769400489 0 -0.038246568040043262 -0.34012581884731169 0 -0.02251215179798665 -0.33591018035802539 0 -0.025466680398351531 -0.34893616063201999 0 -0.02251215179798665 -0.33591018035802539 0 -0.01450825788358804 -0.34587869015237133 0 -0.025466680398351531 -0.34893616063201999 0 -0.033558158626634513 -0.30721313725494198 0 -0.020094855586095198 -0.30907749277751589 0 -0.029481390066711629 -0.32198354769400489 0 -0.02251215179798665 -0.33591018035802539 0 -0.029481390066711629 -0.32198354769400489 0 -0.0158715976918593 -0.32336920223544269 0 -0.020094855586095198 -0.30907749277751589 0 -0.029481390066711629 -0.32198354769400489 0 -0.0158715976918593 -0.32336920223544269 0 -0.020094855586095198 -0.30907749277751589 0 -0.0158715976918593 -0.32336920223544269 0 -0.0086149977727318812 -0.31435966777040242 0 -0.0158715976918593 -0.32336920223544269 0 -0.0086149977727318812 -0.31435966777040242 0 -0.0041781846208717921 -0.32265759814764838 0 -0.0158715976918593 -0.32336920223544269 0 -0.0041781846208717921 -0.32265759814764838 0 -0.0081765032875971699 -0.33225097969027928 0 -0.0041781846208717921 -0.32265759814764838 0 -0.0081765032875971699 -0.33225097969027928 0 -0.00050422992947994551 -0.32905922693348189 0 -0.0086149977727318812 -0.31435966777040242 0 -0.0041781846208717921 -0.32265759814764838 0 -5.9311289176037681e-06 -0.31236656648630162 0 -0.02251215179798665 -0.33591018035802539 0 -0.0081765032875971699 -0.33225097969027928 0 -0.01450825788358804 -0.34587869015237133 0 -0.0081765032875971699 -0.33225097969027928 0 -0.002908285929325368 -0.33749859650698749 0 -0.01450825788358804 -0.34587869015237133 0 -0.02251215179798665 -0.33591018035802539 0 -0.0158715976918593 -0.32336920223544269 0 -0.0081765032875971699 -0.33225097969027928 0 -0.0081765032875971699 -0.33225097969027928 0 -0.00050422992947994551 -0.32905922693348189 0 -0.002908285929325368 -0.33749859650698749 0 -0.002908285929325368 -0.33749859650698749 0 -0.0014969289215187439 -0.35035850517997769 0 -0.01450825788358804 -0.34587869015237133 0 -0.0014969289215187439 -0.35035850517997769 0 -0.01450825788358804 -0.34587869015237133 0 -0.0014969289215187439 -0.35035850517997769 0 -0.01450825788358804 -0.34587869015237133 0 -0.016066738103916681 -0.35610249839144831 0 -0.01450825788358804 -0.34587869015237133 0 -0.016066738103916681 -0.35610249839144831 0 -0.025466680398351531 -0.34893616063201999 0 -0.016066738103916681 -0.35610249839144831 0 -0.025466680398351531 -0.34893616063201999 0 -0.026232935374239291 -0.36200109688232651 0 -0.035497535927623378 -0.3526200559098156 0 -0.025466680398351531 -0.34893616063201999 0 -0.026232935374239291 -0.36200109688232651 0 -0.016066738103916681 -0.35610249839144831 0 -0.026232935374239291 -0.36200109688232651 0 -0.012628887941885819 -0.37333803911054592 0 -0.026232935374239291 -0.36200109688232651 0 -0.012628887941885819 -0.37333803911054592 0 -0.033158533195137327 -0.37830724287360779 0 -0.0014969289215187439 -0.35035850517997769 0 -0.016066738103916681 -0.35610249839144831 0 -0.012628887941885819 -0.37333803911054592 0 -0.0014969289215187439 -0.35035850517997769 0 -0.012628887941885819 -0.37333803911054592 0 0.0044250660384099003 -0.36745488184495573 0 -0.0014969289215187439 -0.35035850517997769 0 -0.012628887941885819 -0.37333803911054592 0 -0.012628887941885819 -0.37333803911054592 0 0.0034525236969518698 -0.38184759442032512 0 0.0044250660384099003 -0.36745488184495573 0 -0.012628887941885819 -0.37333803911054592 0 -0.0067425754456081639 -0.39069410610154642 0 -0.02376084696225263 -0.39631757304111381 0 -0.012628887941885819 -0.37333803911054592 0 -0.0067425754456081639 -0.39069410610154642 0 0.0034525236969518698 -0.38184759442032512 0 -0.0067425754456081639 -0.39069410610154642 0 -0.011096506347694679 -0.40392014882932192 0 -0.02376084696225263 -0.39631757304111381 0 -0.011096506347694679 -0.40392014882932192 0 -0.0012591713889099571 -0.4124205754594602 0 0.00086455765575302746 -0.4009210970433339 0 -0.0067425754456081639 -0.39069410610154642 0 -0.011096506347694679 -0.40392014882932192 0 0.00086455765575302746 -0.4009210970433339 0 -0.0067425754456081639 -0.39069410610154642 0 0.00086455765575302746 -0.4009210970433339 0 0.0048063767630042971 -0.39138561965762242 0 -0.011096506347694679 -0.40392014882932192 0 -0.02376084696225263 -0.39631757304111381 0 -0.0198766542443919 -0.41238528011152992 0 -0.012628887941885819 -0.37333803911054592 0 -0.02376084696225263 -0.39631757304111381 0 -0.012628887941885819 -0.37333803911054592 0 -0.02376084696225263 -0.39631757304111381 0 -0.033158533195137327 -0.37830724287360779 0 -0.02376084696225263 -0.39631757304111381 0 -0.033158533195137327 -0.37830724287360779 0 -0.043257766839042172 -0.3918377694232168 0 -0.042355185648555171 -0.36586037833266899 0 -0.043257766839042172 -0.3918377694232168 0 -0.048800927626862438 -0.37828251843802219 0 -0.042355185648555171 -0.36586037833266899 0 -0.043257766839042172 -0.3918377694232168 0 -0.042355185648555171 -0.36586037833266899 0 -0.033158533195137327 -0.37830724287360779 0 -0.043257766839042172 -0.3918377694232168 0 -0.043257766839042172 -0.3918377694232168 0 -0.044160348029529228 -0.41781516051376438 0 -0.02376084696225263 -0.39631757304111381 0 -0.036760342623882267 -0.40595402798807251 0 -0.043257766839042172 -0.3918377694232168 0 -0.036760342623882267 -0.40595402798807251 0 -0.043257766839042172 -0.3918377694232168 0 -0.044160348029529228 -0.41781516051376438 0 -0.043257766839042172 -0.3918377694232168 0 -0.056656378193397861 -0.40088131971707242 0 -0.058859575267826231 -0.38519057991676148 0 -0.043257766839042172 -0.3918377694232168 0 -0.056656378193397861 -0.40088131971707242 0 -0.044160348029529228 -0.41781516051376438 0 -0.056656378193397861 -0.40088131971707242 0 -0.058859575267826231 -0.38519057991676148 0 -0.068291426303286204 -0.3961884548762884 0 -0.065030183681898598 -0.37258708183683531 0 -0.055866435304266902 -0.37462987936771819 0 -0.058859575267826231 -0.38519057991676148 0 -0.055866435304266902 -0.37462987936771819 0 -0.058859575267826231 -0.38519057991676148 0 -0.048800927626862438 -0.37828251843802219 0 -0.043257766839042172 -0.3918377694232168 0 -0.058859575267826231 -0.38519057991676148 0 -0.048800927626862438 -0.37828251843802219 0 -0.059778667945751179 -0.4295138196138415 0 -0.044160348029529228 -0.41781516051376438 0 -0.044898360973241368 -0.4390560760909592 0 -0.059778667945751179 -0.4295138196138415 0 -0.044898360973241368 -0.4390560760909592 0 -0.057051029656487687 -0.44213175899149387 0 -0.059778667945751179 -0.4295138196138415 0 -0.044160348029529228 -0.41781516051376438 0 -0.066528452496233098 -0.41423834014252331 0 -0.044160348029529228 -0.41781516051376438 0 -0.066528452496233098 -0.41423834014252331 0 -0.056656378193397861 -0.40088131971707242 0 -0.044160348029529228 -0.41781516051376438 0 -0.066528452496233098 -0.41423834014252331 0 -0.044160348029529228 -0.41781516051376438 0 -0.034892805982619721 -0.41929710697168182 0 -0.044160348029529228 -0.41781516051376438 0 -0.03942361573747679 -0.42144435023613969 0 -0.034892805982619721 -0.41929710697168182 0 -0.02376084696225263 -0.39631757304111381 0 -0.036760342623882267 -0.40595402798807251 0 -0.034892805982619721 -0.41929710697168182 0 -0.036760342623882267 -0.40595402798807251 0 -0.044160348029529228 -0.41781516051376438 0 -0.034892805982619721 -0.41929710697168182 0 -0.03942361573747679 -0.42144435023613969 0 -0.034892805982619721 -0.41929710697168182 0 -0.036153064966486889 -0.4218986404509284 0 -0.034892805982619721 -0.41929710697168182 0 -0.036153064966486889 -0.4218986404509284 0 -0.034892805982619721 -0.41929710697168182 0 -0.033901986791507521 -0.42219463841010618 0 -0.030049680900962421 -0.42354241353526417 0 -0.034892805982619721 -0.41929710697168182 0 -0.033901986791507521 -0.42219463841010618 0 -0.036153064966486889 -0.4218986404509284 0 -0.044160348029529228 -0.41781516051376438 0 -0.03984733595051624 -0.42642788893401778 0 -0.044898360973241368 -0.4390560760909592 0 -0.03459609334103457 -0.42428975903838329 0 -0.033901986791507521 -0.42219463841010618 0 -0.030049680900962421 -0.42354241353526417 0 -0.044160348029529228 -0.41781516051376438 0 -0.044898360973241368 -0.4390560760909592 0 -0.03459609334103457 -0.42428975903838329 0 -0.033028398095699782 -0.42738521386159972 0 -0.030049680900962421 -0.42354241353526417 0 -0.03459609334103457 -0.42428975903838329 0 -0.033901986791507521 -0.42219463841010618 0 -0.036153064966486889 -0.4218986404509284 0 -0.03459609334103457 -0.42428975903838329 0 -0.033028398095699782 -0.42738521386159972 0 -0.03984733595051624 -0.42642788893401778 0 -0.033028398095699782 -0.42738521386159972 0 -0.03984733595051624 -0.42642788893401778 0 -0.035169271838949523 -0.43351610976192612 0 -0.03459609334103457 -0.42428975903838329 0 -0.036153064966486889 -0.4218986404509284 0 -0.03984733595051624 -0.42642788893401778 0 -0.03942361573747679 -0.42144435023613969 0 -0.036153064966486889 -0.4218986404509284 0 -0.03984733595051624 -0.42642788893401778 0 -0.044160348029529228 -0.41781516051376438 0 -0.03942361573747679 -0.42144435023613969 0 -0.03984733595051624 -0.42642788893401778 0 -0.03984733595051624 -0.42642788893401778 0 -0.035169271838949523 -0.43351610976192612 0 -0.044898360973241368 -0.4390560760909592 0 -0.035169271838949523 -0.43351610976192612 0 -0.029606229116903832 -0.43383654357136231 0 -0.033005643017075058 -0.44274940665531698 0 -0.035169271838949523 -0.43351610976192612 0 -0.029606229116903832 -0.43383654357136231 0 -0.030557621564023849 -0.4304869395992279 0 -0.033028398095699782 -0.42738521386159972 0 -0.035169271838949523 -0.43351610976192612 0 -0.030557621564023849 -0.4304869395992279 0 -0.034892805982619721 -0.41929710697168182 0 -0.023129991299035261 -0.42509502878109467 0 -0.007764678382879947 -0.42363508918992521 0 -0.023922585784294188 -0.43267531309919383 0 -0.01374469013453624 -0.43239940952779748 0 -0.033005643017075058 -0.44274940665531698 0 -0.029606229116903832 -0.43383654357136231 0 -0.023922585784294188 -0.43267531309919383 0 -0.033005643017075058 -0.44274940665531698 0 -0.029606229116903832 -0.43383654357136231 0 -0.023922585784294188 -0.43267531309919383 0 -0.026819983885029111 -0.43001961950197459 0 -0.023922585784294188 -0.43267531309919383 0 -0.026819983885029111 -0.43001961950197459 0 -0.022926286247836939 -0.42874072649724182 0 -0.029606229116903832 -0.43383654357136231 0 -0.026819983885029111 -0.43001961950197459 0 -0.030557621564023849 -0.4304869395992279 0 -0.029002153858660749 -0.42748895256876318 0 -0.030049680900962421 -0.42354241353526417 0 -0.025431712205402929 -0.42669513476986848 0 -0.034892805982619721 -0.41929710697168182 0 -0.030049680900962421 -0.42354241353526417 0 -0.023129991299035261 -0.42509502878109467 0 -0.033028398095699782 -0.42738521386159972 0 -0.030557621564023849 -0.4304869395992279 0 -0.029002153858660749 -0.42748895256876318 0 -0.033028398095699782 -0.42738521386159972 0 -0.029002153858660749 -0.42748895256876318 0 -0.030049680900962421 -0.42354241353526417 0 -0.026819983885029111 -0.43001961950197459 0 -0.030557621564023849 -0.4304869395992279 0 -0.029002153858660749 -0.42748895256876318 0 -0.030049680900962421 -0.42354241353526417 0 -0.025431712205402929 -0.42669513476986848 0 -0.023129991299035261 -0.42509502878109467 0 -0.026819983885029111 -0.43001961950197459 0 -0.029002153858660749 -0.42748895256876318 0 -0.025431712205402929 -0.42669513476986848 0 -0.025431712205402929 -0.42669513476986848 0 -0.022926286247836939 -0.42874072649724182 0 -0.023129991299035261 -0.42509502878109467 0 -0.026819983885029111 -0.43001961950197459 0 -0.025431712205402929 -0.42669513476986848 0 -0.022926286247836939 -0.42874072649724182 0 -0.022926286247836939 -0.42874072649724182 0 -0.023129991299035261 -0.42509502878109467 0 -0.01771478407450966 -0.42865970172258677 0 -0.023129991299035261 -0.42509502878109467 0 -0.01771478407450966 -0.42865970172258677 0 -0.007764678382879947 -0.42363508918992521 0 -0.023922585784294188 -0.43267531309919383 0 -0.01771478407450966 -0.42865970172258677 0 -0.01374469013453624 -0.43239940952779748 0 -0.023922585784294188 -0.43267531309919383 0 -0.022926286247836939 -0.42874072649724182 0 -0.01771478407450966 -0.42865970172258677 0 -0.034892805982619721 -0.41929710697168182 0 -0.007764678382879947 -0.42363508918992521 0 -0.02376084696225263 -0.39631757304111381 0 -0.034892805982619721 -0.41929710697168182 0 -0.0198766542443919 -0.41238528011152992 0 -0.02376084696225263 -0.39631757304111381 0 -0.034892805982619721 -0.41929710697168182 0 -0.034892805982619721 -0.41929710697168182 0 -0.0198766542443919 -0.41238528011152992 0 -0.007764678382879947 -0.42363508918992521 0 -0.011096506347694679 -0.40392014882932192 0 -0.0198766542443919 -0.41238528011152992 0 -0.009999252590969121 -0.41309027339755933 0 -0.0198766542443919 -0.41238528011152992 0 -0.009999252590969121 -0.41309027339755933 0 -0.007764678382879947 -0.42363508918992521 0 -0.0012591713889099571 -0.4124205754594602 0 -0.007764678382879947 -0.42363508918992521 0 0.0055162627480025237 -0.42204941240027782 0 -0.009999252590969121 -0.41309027339755933 0 -0.0012591713889099571 -0.4124205754594602 0 -0.007764678382879947 -0.42363508918992521 0 -0.011096506347694679 -0.40392014882932192 0 -0.009999252590969121 -0.41309027339755933 0 -0.0012591713889099571 -0.4124205754594602 0 -0.01374469013453624 -0.43239940952779748 0 0.0055162627480025237 -0.42204941240027782 0 -0.0081655997390583726 -0.43239112205441432 0 -0.01374469013453624 -0.43239940952779748 0 0.0055162627480025237 -0.42204941240027782 0 -0.01374469013453624 -0.43239940952779748 0 -0.007764678382879947 -0.42363508918992521 0 0.0055162627480025237 -0.42204941240027782 0 -0.01374469013453624 -0.43239940952779748 0 -0.01094675755610741 -0.43804161334453628 0 -0.017941527997629301 -0.44144895223608649 0 -0.0081655997390583726 -0.43239112205441432 0 -0.01374469013453624 -0.43239940952779748 0 -0.01094675755610741 -0.43804161334453628 0 -0.0081655997390583726 -0.43239112205441432 0 -0.0049935051577852142 -0.43766129595670861 0 -0.01094675755610741 -0.43804161334453628 0 -0.01771478407450966 -0.42865970172258677 0 -0.01374469013453624 -0.43239940952779748 0 -0.007764678382879947 -0.42363508918992521 0 -0.0081655997390583726 -0.43239112205441432 0 0.0012858825624279221 -0.43243677009768711 0 0.0055162627480025237 -0.42204941240027782 0 -0.0081655997390583726 -0.43239112205441432 0 0.0055162627480025237 -0.42204941240027782 0 -0.0081655997390583726 -0.43239112205441432 0 -0.0049935051577852142 -0.43766129595670861 0 0.0012858825624279221 -0.43243677009768711 0 -0.0049935051577852142 -0.43766129595670861 0 0.0012858825624279221 -0.43243677009768711 0 0.002520803108117585 -0.44016184106386741 0 -0.0049935051577852142 -0.43766129595670861 0 -0.0096618541643057922 -0.4452751332230378 0 0.002520803108117585 -0.44016184106386741 0 -0.0096618541643057922 -0.4452751332230378 0 -0.013367933825525501 -0.457718950194684 0 0.0028077999786123601 -0.45433988706049089 0 -0.0049935051577852142 -0.43766129595670861 0 -0.01094675755610741 -0.43804161334453628 0 -0.0096618541643057922 -0.4452751332230378 0 -0.01094675755610741 -0.43804161334453628 0 -0.0096618541643057922 -0.4452751332230378 0 -0.017941527997629301 -0.44144895223608649 0 -0.0096618541643057922 -0.4452751332230378 0 -0.013367933825525501 -0.457718950194684 0 -0.02234869511612202 -0.44877919842974417 0 -0.0096618541643057922 -0.4452751332230378 0 0.002520803108117585 -0.44016184106386741 0 0.0028077999786123601 -0.45433988706049089 0 -0.0049027206756070661 -0.46690035482721132 0 -0.013367933825525501 -0.457718950194684 0 0.0028077999786123601 -0.45433988706049089 0 -0.0049027206756070661 -0.46690035482721132 0 -0.013367933825525501 -0.457718950194684 0 -0.01707822014331464 -0.47039157403821291 0 -0.013367933825525501 -0.457718950194684 0 -0.02816019355695688 -0.45955674050940021 0 -0.02234869511612202 -0.44877919842974417 0 -0.013367933825525501 -0.457718950194684 0 -0.02816019355695688 -0.45955674050940021 0 -0.01707822014331464 -0.47039157403821291 0 -0.01374469013453624 -0.43239940952779748 0 -0.017941527997629301 -0.44144895223608649 0 -0.033005643017075058 -0.44274940665531698 0 -0.01374469013453624 -0.43239940952779748 0 -0.033005643017075058 -0.44274940665531698 0 -0.02816019355695688 -0.45955674050940021 0 -0.02234869511612202 -0.44877919842974417 0 -0.033005643017075058 -0.44274940665531698 0 -0.017941527997629301 -0.44144895223608649 0 -0.02234869511612202 -0.44877919842974417 0 -0.033005643017075058 -0.44274940665531698 0 -0.0096618541643057922 -0.4452751332230378 0 -0.017941527997629301 -0.44144895223608649 0 -0.02234869511612202 -0.44877919842974417 0 -0.007051701975383606 -0.48324500904034501 0 -0.02119460486973862 -0.5 0 0.0055866102820615327 -0.5 0 -0.0049027206756070661 -0.46690035482721132 0 -0.007051701975383606 -0.48324500904034501 0 -0.01707822014331464 -0.47039157403821291 0 -0.0049027206756070661 -0.46690035482721132 0 -0.007051701975383606 -0.48324500904034501 0 0.010176452587576049 -0.46880635380232327 0 -0.007051701975383606 -0.48324500904034501 0 -0.01707822014331464 -0.47039157403821291 0 -0.033118167479146143 -0.48298828127153881 0 -0.02816019355695688 -0.45955674050940021 0 -0.01707822014331464 -0.47039157403821291 0 -0.033118167479146143 -0.48298828127153881 0 -0.007051701975383606 -0.48324500904034501 0 -0.033118167479146143 -0.48298828127153881 0 -0.007051701975383606 -0.48324500904034501 0 -0.02119460486973862 -0.5 0 -0.033118167479146143 -0.48298828127153881 0 -0.033118167479146143 -0.48298828127153881 0 -0.059184632982908637 -0.48273155350273261 0 -0.047975820021538829 -0.5 0 -0.02119460486973862 -0.5 0 -0.033118167479146143 -0.48298828127153881 0 -0.047975820021538829 -0.5 0 -0.033118167479146143 -0.48298828127153881 0 -0.059184632982908637 -0.48273155350273261 0 -0.045636373916953583 -0.46029699166815391 0 -0.033118167479146143 -0.48298828127153881 0 -0.059184632982908637 -0.48273155350273261 0 -0.059184632982908637 -0.48273155350273261 0 -0.045636373916953583 -0.46029699166815391 0 -0.064879310145882829 -0.4663493459592592 0 -0.059184632982908637 -0.48273155350273261 0 -0.047975820021538829 -0.5 0 -0.074757035173339037 -0.5 0 -0.044898360973241368 -0.4390560760909592 0 -0.045636373916953583 -0.46029699166815391 0 -0.044898360973241368 -0.4390560760909592 0 -0.033005643017075058 -0.44274940665531698 0 -0.045636373916953583 -0.46029699166815391 0 -0.035169271838949523 -0.43351610976192612 0 -0.044898360973241368 -0.4390560760909592 0 -0.033005643017075058 -0.44274940665531698 0 -0.02816019355695688 -0.45955674050940021 0 -0.033118167479146143 -0.48298828127153881 0 -0.045636373916953583 -0.46029699166815391 0 -0.02816019355695688 -0.45955674050940021 0 -0.033005643017075058 -0.44274940665531698 0 -0.045636373916953583 -0.46029699166815391 0 -0.045636373916953583 -0.46029699166815391 0 -0.063477343987731888 -0.45227240964938642 0 -0.064879310145882829 -0.4663493459592592 0 -0.045636373916953583 -0.46029699166815391 0 -0.057051029656487687 -0.44213175899149387 0 -0.063477343987731888 -0.45227240964938642 0 -0.044898360973241368 -0.4390560760909592 0 -0.045636373916953583 -0.46029699166815391 0 -0.057051029656487687 -0.44213175899149387 0 -0.057051029656487687 -0.44213175899149387 0 -0.072954326043246059 -0.44046712364751778 0 -0.063477343987731888 -0.45227240964938642 0 -0.072954326043246059 -0.44046712364751778 0 -0.063477343987731888 -0.45227240964938642 0 -0.076089347917636482 -0.45356915722577951 0 -0.064879310145882829 -0.4663493459592592 0 -0.076089347917636482 -0.45356915722577951 0 -0.080988249622641478 -0.46592117871547439 0 -0.063477343987731888 -0.45227240964938642 0 -0.064879310145882829 -0.4663493459592592 0 -0.076089347917636482 -0.45356915722577951 0 -0.076089347917636482 -0.45356915722577951 0 -0.080988249622641478 -0.46592117871547439 0 -0.090809988430568048 -0.4586396415644588 0 -0.080988249622641478 -0.46592117871547439 0 -0.092409252116776155 -0.46807772700192551 0 -0.090809988430568048 -0.4586396415644588 0 -0.090809988430568048 -0.4586396415644588 0 -0.08680723358104192 -0.44597222692230187 0 -0.098042310961642398 -0.45006492427097122 0 -0.08680723358104192 -0.44597222692230187 0 -0.096970756129259664 -0.44112660523503971 0 -0.087582481857188796 -0.43604945839231718 0 -0.072954326043246059 -0.44046712364751778 0 -0.08680723358104192 -0.44597222692230187 0 -0.087582481857188796 -0.43604945839231718 0 -0.072954326043246059 -0.44046712364751778 0 -0.076089347917636482 -0.45356915722577951 0 -0.08680723358104192 -0.44597222692230187 0 -0.076089347917636482 -0.45356915722577951 0 -0.090809988430568048 -0.4586396415644588 0 -0.08680723358104192 -0.44597222692230187 0 -0.059184632982908637 -0.48273155350273261 0 -0.074757035173339037 -0.5 0 -0.08139072142876852 -0.48087009553278021 0 -0.064879310145882829 -0.4663493459592592 0 -0.080988249622641478 -0.46592117871547439 0 -0.08139072142876852 -0.48087009553278021 0 -0.059184632982908637 -0.48273155350273261 0 -0.064879310145882829 -0.4663493459592592 0 -0.08139072142876852 -0.48087009553278021 0 -0.092409252116776155 -0.46807772700192551 0 -0.08139072142876852 -0.48087009553278021 0 -0.098099826464549622 -0.47746667830522488 0 -0.080988249622641478 -0.46592117871547439 0 -0.092409252116776155 -0.46807772700192551 0 -0.08139072142876852 -0.48087009553278021 0 -0.08139072142876852 -0.48087009553278021 0 -0.1015382503251392 -0.5 0 -0.098099826464549622 -0.47746667830522488 0 -0.074757035173339037 -0.5 0 -0.08139072142876852 -0.48087009553278021 0 -0.1015382503251392 -0.5 0 -0.1015382503251392 -0.5 0 -0.098099826464549622 -0.47746667830522488 0 -0.1094420409806215 -0.48659681172346608 0 -0.098099826464549622 -0.47746667830522488 0 -0.107983360330518 -0.47468078166630079 0 -0.1094420409806215 -0.48659681172346608 0 -0.092409252116776155 -0.46807772700192551 0 -0.098099826464549622 -0.47746667830522488 0 -0.1023595732779405 -0.46755469094442648 0 -0.098099826464549622 -0.47746667830522488 0 -0.107983360330518 -0.47468078166630079 0 -0.1023595732779405 -0.46755469094442648 0 -0.107983360330518 -0.47468078166630079 0 -0.1207158978103602 -0.47883313214023238 0 -0.11126750384920139 -0.4625352063628263 0 -0.107983360330518 -0.47468078166630079 0 -0.1207158978103602 -0.47883313214023238 0 -0.1094420409806215 -0.48659681172346608 0 -0.1283194654769394 -0.50000000000000155 0 -0.1207158978103602 -0.47883313214023238 0 -0.1283194654769394 -0.50000000000000155 0 -0.1015382503251392 -0.5 0 -0.1094420409806215 -0.48659681172346608 0 -0.1283194654769394 -0.50000000000000155 0 -0.1207158978103602 -0.47883313214023238 0 -0.1094420409806215 -0.48659681172346608 0 -0.1053156212063068 -0.446909054226794 0 -0.10460740746027131 -0.45279235054291739 0 -0.098042310961642398 -0.45006492427097122 0 -0.1053156212063068 -0.446909054226794 0 -0.10460740746027131 -0.45279235054291739 0 -0.1109637033804666 -0.4516849012186262 0 -0.1053156212063068 -0.446909054226794 0 -0.1042152782096701 -0.43761144547187592 0 -0.096970756129259664 -0.44112660523503971 0 -0.1053156212063068 -0.446909054226794 0 -0.1042152782096701 -0.43761144547187592 0 -0.1122541843833622 -0.43922584981092311 0 -0.08680723358104192 -0.44597222692230187 0 -0.096970756129259664 -0.44112660523503971 0 -0.098042310961642398 -0.45006492427097122 0 -0.1053156212063068 -0.446909054226794 0 -0.096970756129259664 -0.44112660523503971 0 -0.098042310961642398 -0.45006492427097122 0 -0.10460740746027131 -0.45279235054291739 0 -0.098042310961642398 -0.45006492427097122 0 -0.10080715347618879 -0.45801407694918839 0 -0.090809988430568048 -0.4586396415644588 0 -0.098042310961642398 -0.45006492427097122 0 -0.10080715347618879 -0.45801407694918839 0 -0.092409252116776155 -0.46807772700192551 0 -0.090809988430568048 -0.4586396415644588 0 -0.10080715347618879 -0.45801407694918839 0 -0.092409252116776155 -0.46807772700192551 0 -0.10080715347618879 -0.45801407694918839 0 -0.1023595732779405 -0.46755469094442648 0 -0.10080715347618879 -0.45801407694918839 0 -0.1023595732779405 -0.46755469094442648 0 -0.1055856197200206 -0.46134819257636223 0 -0.107983360330518 -0.47468078166630079 0 -0.1023595732779405 -0.46755469094442648 0 -0.11126750384920139 -0.4625352063628263 0 -0.1023595732779405 -0.46755469094442648 0 -0.1055856197200206 -0.46134819257636223 0 -0.11126750384920139 -0.4625352063628263 0 -0.10460740746027131 -0.45279235054291739 0 -0.10080715347618879 -0.45801407694918839 0 -0.10790824827675199 -0.45728879604900741 0 -0.10080715347618879 -0.45801407694918839 0 -0.1055856197200206 -0.46134819257636223 0 -0.10790824827675199 -0.45728879604900741 0 -0.1055856197200206 -0.46134819257636223 0 -0.10790824827675199 -0.45728879604900741 0 -0.11126750384920139 -0.4625352063628263 0 -0.10460740746027131 -0.45279235054291739 0 -0.10790824827675199 -0.45728879604900741 0 -0.1109637033804666 -0.4516849012186262 0 -0.1207158978103602 -0.47883313214023238 0 -0.1131123301437796 -0.45766626428046381 0 -0.11126750384920139 -0.4625352063628263 0 -0.1264080347198821 -0.46483928958176107 0 -0.1207158978103602 -0.47883313214023238 0 -0.1131123301437796 -0.45766626428046381 0 -0.10790824827675199 -0.45728879604900741 0 -0.1131123301437796 -0.45766626428046381 0 -0.1109637033804666 -0.4516849012186262 0 -0.1207158978103602 -0.47883313214023238 0 -0.1131123301437796 -0.45766626428046381 0 -0.1131123301437796 -0.45766626428046381 0 -0.1109637033804666 -0.4516849012186262 0 -0.1131123301437796 -0.45766626428046381 0 -0.11560914095392 -0.45107657761948178 0 -0.1109637033804666 -0.4516849012186262 0 -0.1131123301437796 -0.45766626428046381 0 -0.11126750384920139 -0.4625352063628263 0 -0.10790824827675199 -0.45728879604900741 0 -0.1131123301437796 -0.45766626428046381 0 -0.11126750384920139 -0.4625352063628263 0 -0.1131123301437796 -0.45766626428046381 0 -0.11560914095392 -0.45107657761948178 0 -0.1264080347198821 -0.46483928958176107 0 -0.1131123301437796 -0.45766626428046381 0 -0.11560914095392 -0.45107657761948178 0 -0.13082934616647801 -0.44237513111678362 0 -0.11560914095392 -0.45107657761948178 0 -0.1246209534251322 -0.42729222832413971 0 -0.11560914095392 -0.45107657761948178 0 -0.1122541843833622 -0.43922584981092311 0 -0.1246209534251322 -0.42729222832413971 0 -0.11560914095392 -0.45107657761948178 0 -0.1246209534251322 -0.42729222832413971 0 -0.1053156212063068 -0.446909054226794 0 -0.11560914095392 -0.45107657761948178 0 -0.1053156212063068 -0.446909054226794 0 -0.11560914095392 -0.45107657761948178 0 -0.1109637033804666 -0.4516849012186262 0 -0.1053156212063068 -0.446909054226794 0 -0.11560914095392 -0.45107657761948178 0 -0.1122541843833622 -0.43922584981092311 0 -0.1246209534251322 -0.42729222832413971 0 -0.1096271882664656 -0.43160602387774749 0 -0.1072873703100676 -0.42012352797013047 0 -0.1122541843833622 -0.43922584981092311 0 -0.1246209534251322 -0.42729222832413971 0 -0.1096271882664656 -0.43160602387774749 0 -0.1042152782096701 -0.43761144547187592 0 -0.1122541843833622 -0.43922584981092311 0 -0.1096271882664656 -0.43160602387774749 0 -0.1042152782096701 -0.43761144547187592 0 -0.1096271882664656 -0.43160602387774749 0 -0.09690864106295613 -0.42918969420887559 0 -0.1096271882664656 -0.43160602387774749 0 -0.09690864106295613 -0.42918969420887559 0 -0.1072873703100676 -0.42012352797013047 0 -0.1042152782096701 -0.43761144547187592 0 -0.096970756129259664 -0.44112660523503971 0 -0.09690864106295613 -0.42918969420887559 0 -0.096970756129259664 -0.44112660523503971 0 -0.09690864106295613 -0.42918969420887559 0 -0.087582481857188796 -0.43604945839231718 0 -0.09690864106295613 -0.42918969420887559 0 -0.1072873703100676 -0.42012352797013047 0 -0.088896556962936898 -0.41066151977128162 0 -0.1072873703100676 -0.42012352797013047 0 -0.1112646614296406 -0.40708469940003988 0 -0.088896556962936898 -0.41066151977128162 0 -0.1112646614296406 -0.40708469940003988 0 -0.088896556962936898 -0.41066151977128162 0 -0.1246209534251322 -0.42729222832413971 0 -0.1072873703100676 -0.42012352797013047 0 -0.1204975607507127 -0.41417525473537542 0 -0.13363276589634421 -0.4035078790287977 0 -0.1112646614296406 -0.40708469940003988 0 -0.1204975607507127 -0.41417525473537542 0 -0.1072873703100676 -0.42012352797013047 0 -0.1112646614296406 -0.40708469940003988 0 -0.1204975607507127 -0.41417525473537542 0 -0.1112646614296406 -0.40708469940003988 0 -0.1240730681738034 -0.39141110973529591 0 -0.1121708143485584 -0.38428656060801658 0 -0.13363276589634421 -0.4035078790287977 0 -0.1112646614296406 -0.40708469940003988 0 -0.13363276589634421 -0.4035078790287977 0 -0.1112646614296406 -0.40708469940003988 0 -0.1240730681738034 -0.39141110973529591 0 -0.1254728502257636 -0.37859699181811141 0 -0.1186265748277594 -0.36813560515636928 0 -0.1121708143485584 -0.38428656060801658 0 -0.1254728502257636 -0.37859699181811141 0 -0.1240730681738034 -0.39141110973529591 0 -0.1121708143485584 -0.38428656060801658 0 -0.1041796968115891 -0.37231377715865932 0 -0.1121708143485584 -0.38428656060801658 0 -0.096743300662472276 -0.38684923672667942 0 -0.1041796968115891 -0.37231377715865932 0 -0.094717258379341751 -0.37407517400153117 0 -0.096743300662472276 -0.38684923672667942 0 -0.1112646614296406 -0.40708469940003988 0 -0.1121708143485584 -0.38428656060801658 0 -0.096743300662472276 -0.38684923672667942 0 -0.1112646614296406 -0.40708469940003988 0 -0.085675813625831834 -0.39641919767624678 0 -0.088896556962936898 -0.41066151977128162 0 -0.1112646614296406 -0.40708469940003988 0 -0.096743300662472276 -0.38684923672667942 0 -0.085675813625831834 -0.39641919767624678 0 -0.084541147489030938 -0.37470937631336032 0 -0.085675813625831834 -0.39641919767624678 0 -0.073216960568858194 -0.38218345114903102 0 -0.084541147489030938 -0.37470937631336032 0 -0.096743300662472276 -0.38684923672667942 0 -0.085675813625831834 -0.39641919767624678 0 -0.094717258379341751 -0.37407517400153117 0 -0.084541147489030938 -0.37470937631336032 0 -0.096743300662472276 -0.38684923672667942 0 -0.074724733945228813 -0.36937174723928951 0 -0.084541147489030938 -0.37470937631336032 0 -0.073216960568858194 -0.38218345114903102 0 -0.058859575267826231 -0.38519057991676148 0 -0.073216960568858194 -0.38218345114903102 0 -0.068291426303286204 -0.3961884548762884 0 -0.065030183681898598 -0.37258708183683531 0 -0.058859575267826231 -0.38519057991676148 0 -0.073216960568858194 -0.38218345114903102 0 -0.085675813625831834 -0.39641919767624678 0 -0.073216960568858194 -0.38218345114903102 0 -0.068291426303286204 -0.3961884548762884 0 -0.085675813625831834 -0.39641919767624678 0 -0.068291426303286204 -0.3961884548762884 0 -0.066528452496233098 -0.41423834014252331 0 -0.056656378193397861 -0.40088131971707242 0 -0.068291426303286204 -0.3961884548762884 0 -0.066528452496233098 -0.41423834014252331 0 -0.066528452496233098 -0.41423834014252331 0 -0.088896556962936898 -0.41066151977128162 0 -0.059778667945751179 -0.4295138196138415 0 -0.066528452496233098 -0.41423834014252331 0 -0.079134348270550242 -0.42671288171172639 0 -0.059778667945751179 -0.4295138196138415 0 -0.072954326043246059 -0.44046712364751778 0 -0.079134348270550242 -0.42671288171172639 0 -0.059778667945751179 -0.4295138196138415 0 -0.057051029656487687 -0.44213175899149387 0 -0.072954326043246059 -0.44046712364751778 0 -0.09690864106295613 -0.42918969420887559 0 -0.079134348270550242 -0.42671288171172639 0 -0.088896556962936898 -0.41066151977128162 0 -0.09690864106295613 -0.42918969420887559 0 -0.079134348270550242 -0.42671288171172639 0 -0.087582481857188796 -0.43604945839231718 0 -0.072954326043246059 -0.44046712364751778 0 -0.079134348270550242 -0.42671288171172639 0 -0.087582481857188796 -0.43604945839231718 0 -0.085675813625831834 -0.39641919767624678 0 -0.066528452496233098 -0.41423834014252331 0 -0.088896556962936898 -0.41066151977128162 0 -0.066528452496233098 -0.41423834014252331 0 -0.079134348270550242 -0.42671288171172639 0 -0.088896556962936898 -0.41066151977128162 0 -0.09187578666093496 -0.081198502856243054 0 -0.065713651042146007 -0.085732225355633046 0 -0.087387193317419704 -0.096626012552065821 0 -0.09187578666093496 -0.081198502856243054 0 -0.072416624756126036 -0.071862579431547793 0 -0.079639852527184141 -0.059148153673286442 0 -0.09187578666093496 -0.081198502856243054 0 -0.079639852527184141 -0.059148153673286442 0 -0.09187578666093496 -0.081198502856243054 0 -0.10064817839509731 -0.055729620347379979 0 -0.079639852527184141 -0.059148153673286442 0 -0.072416624756126036 -0.071862579431547793 0 -0.065713651042146007 -0.085732225355633046 0 -0.056674679628205007 -0.06288511060093005 0 -0.072416624756126036 -0.071862579431547793 0 -0.079639852527184141 -0.059148153673286442 0 -0.056674679628205007 -0.06288511060093005 0 -0.09187578666093496 -0.081198502856243054 0 -0.072416624756126036 -0.071862579431547793 0 -0.065713651042146007 -0.085732225355633046 0 -0.074335042877658464 -0.10936427727092909 0 -0.070514576021606726 -0.1145267827158299 0 -0.056519296825689971 -0.09988645904640546 0 -0.074335042877658464 -0.10936427727092909 0 -0.056519296825689971 -0.09988645904640546 0 -0.065713651042146007 -0.085732225355633046 0 -0.074335042877658464 -0.10936427727092909 0 -0.065713651042146007 -0.085732225355633046 0 -0.074335042877658464 -0.10936427727092909 0 -0.082898784665822262 -0.1050825619312499 0 -0.065713651042146007 -0.085732225355633046 0 -0.074335042877658464 -0.10936427727092909 0 -0.056519296825689971 -0.09988645904640546 0 -0.070514576021606726 -0.1145267827158299 0 -0.061987945118678008 -0.1237802624065155 0 -0.075372229765933635 -0.12512645953002011 0 -0.070514576021606726 -0.1145267827158299 0 -0.061987945118678008 -0.1237802624065155 0 -0.05859385093190507 -0.1134386561181167 0 -0.074335042877658464 -0.10936427727092909 0 -0.070514576021606726 -0.1145267827158299 0 -0.082950019801275893 -0.1139473682653975 0 -0.070514576021606726 -0.1145267827158299 0 -0.082950019801275893 -0.1139473682653975 0 -0.075372229765933635 -0.12512645953002011 0 -0.082950019801275893 -0.1139473682653975 0 -0.090362837873872032 -0.13188504197233511 0 -0.075372229765933635 -0.12512645953002011 0 -0.082950019801275893 -0.1139473682653975 0 -0.095920180122398654 -0.11179978750606639 0 -0.1017553112166327 -0.1180909995633217 0 -0.074335042877658464 -0.10936427727092909 0 -0.082950019801275893 -0.1139473682653975 0 -0.082898784665822262 -0.1050825619312499 0 -0.074335042877658464 -0.10936427727092909 0 -0.082950019801275893 -0.1139473682653975 0 -0.082950019801275893 -0.1139473682653975 0 -0.090653579740320567 -0.10614091645879579 0 -0.095920180122398654 -0.11179978750606639 0 -0.065713651042146007 -0.085732225355633046 0 -0.082898784665822262 -0.1050825619312499 0 -0.087387193317419704 -0.096626012552065821 0 -0.082950019801275893 -0.1139473682653975 0 -0.082898784665822262 -0.1050825619312499 0 -0.090653579740320567 -0.10614091645879579 0 -0.082898784665822262 -0.1050825619312499 0 -0.090653579740320567 -0.10614091645879579 0 -0.087387193317419704 -0.096626012552065821 0 -0.090653579740320567 -0.10614091645879579 0 -0.087387193317419704 -0.096626012552065821 0 -0.10411172079468629 -0.1032488520391992 0 -0.090653579740320567 -0.10614091645879579 0 -0.10411172079468629 -0.1032488520391992 0 -0.095920180122398654 -0.11179978750606639 0 -0.082950019801275893 -0.1139473682653975 0 -0.1017553112166327 -0.1180909995633217 0 -0.1093807427768583 -0.12800827748439661 0 -0.10411172079468629 -0.1032488520391992 0 -0.1017553112166327 -0.1180909995633217 0 -0.1113586020809627 -0.12536269336486261 0 -0.082950019801275893 -0.1139473682653975 0 -0.1093807427768583 -0.12800827748439661 0 -0.082950019801275893 -0.1139473682653975 0 -0.090362837873872032 -0.13188504197233511 0 -0.1093807427768583 -0.12800827748439661 0 -0.10411172079468629 -0.1032488520391992 0 -0.095920180122398654 -0.11179978750606639 0 -0.1017553112166327 -0.1180909995633217 0 -0.1017553112166327 -0.1180909995633217 0 -0.1093807427768583 -0.12800827748439661 0 -0.1113586020809627 -0.12536269336486261 0 -0.10411172079468629 -0.1032488520391992 0 -0.1113586020809627 -0.12536269336486261 0 -0.1303847750182198 -0.10773643821383649 0 -0.1113586020809627 -0.12536269336486261 0 -0.12603337572644699 -0.1368673298976614 0 -0.1303847750182198 -0.10773643821383649 0 -0.10411172079468629 -0.1032488520391992 0 -0.1195403803683202 -0.092073109965608288 0 -0.1303847750182198 -0.10773643821383649 0 -0.1195403803683202 -0.092073109965608288 0 -0.1129817940210827 -0.074186643230661917 0 -0.1347361743099933 -0.078605546530011824 0 -0.09187578666093496 -0.081198502856243054 0 -0.087387193317419704 -0.096626012552065821 0 -0.10411172079468629 -0.1032488520391992 0 -0.09187578666093496 -0.081198502856243054 0 -0.10411172079468629 -0.1032488520391992 0 -0.09187578666093496 -0.081198502856243054 0 -0.10411172079468629 -0.1032488520391992 0 -0.1195403803683202 -0.092073109965608288 0 -0.09187578666093496 -0.081198502856243054 0 -0.1195403803683202 -0.092073109965608288 0 -0.1129817940210827 -0.074186643230661917 0 -0.09187578666093496 -0.081198502856243054 0 -0.1129817940210827 -0.074186643230661917 0 -0.10064817839509731 -0.055729620347379979 0 -0.1129817940210827 -0.074186643230661917 0 -0.1162910760231937 -0.060659668857786703 0 -0.10064817839509731 -0.055729620347379979 0 -0.1129817940210827 -0.074186643230661917 0 -0.12376213601859951 -0.066982849024258689 0 -0.1347361743099933 -0.078605546530011824 0 -0.1129817940210827 -0.074186643230661917 0 -0.12376213601859951 -0.066982849024258689 0 -0.1162910760231937 -0.060659668857786703 0 -0.12376213601859951 -0.066982849024258689 0 -0.1162910760231937 -0.060659668857786703 0 -0.12240676741817839 -0.054088144665157413 0 -0.1216565042630109 -0.052311087021476903 0 -0.10064817839509731 -0.055729620347379979 0 -0.1162910760231937 -0.060659668857786703 0 -0.12240676741817839 -0.054088144665157413 0 -0.1216565042630109 -0.052311087021476903 0 -0.1162910760231937 -0.060659668857786703 0 -0.1216565042630109 -0.052311087021476903 0 -0.10064817839509731 -0.055729620347379979 0 -0.12240676741817839 -0.054088144665157413 0 -0.1216565042630109 -0.052311087021476903 0 -0.1216565042630109 -0.052311087021476903 0 -0.11153965868919791 -0.028348537837174979 0 -0.1216565042630109 -0.052311087021476903 0 -0.10064817839509731 -0.055729620347379979 0 -0.11153965868919791 -0.028348537837174979 0 -0.1216565042630109 -0.052311087021476903 0 -0.11153965868919791 -0.028348537837174979 0 -0.1280472677748169 -0.031270983682370253 0 -0.10064817839509731 -0.055729620347379979 0 -0.11153965868919791 -0.028348537837174979 0 -0.089904844829133315 -0.033708432802493103 0 -0.12470345280778559 -0.0046060833266749566 0 -0.11153965868919791 -0.028348537837174979 0 -0.1014228131153851 -0.0043859886528729566 0 -0.12470345280778559 -0.0046060833266749566 0 -0.1014228131153851 -0.0043859886528729566 0 -0.11011813711497111 0.0083671370953676306 0 -0.12470345280778559 -0.0046060833266749566 0 -0.11153965868919791 -0.028348537837174979 0 -0.1280472677748169 -0.031270983682370253 0 -0.11153965868919791 -0.028348537837174979 0 -0.1014228131153851 -0.0043859886528729566 0 -0.11153965868919791 -0.028348537837174979 0 -0.09604622353530376 -0.019880859677410889 0 -0.1014228131153851 -0.0043859886528729566 0 -0.11153965868919791 -0.028348537837174979 0 -0.09604622353530376 -0.019880859677410889 0 -0.089904844829133315 -0.033708432802493103 0 -0.1014228131153851 -0.0043859886528729566 0 -0.081317577507498739 -0.01308047941710251 0 -0.084275503061411641 0.0039398238969450472 0 -0.081317577507498739 -0.01308047941710251 0 -0.084275503061411641 0.0039398238969450472 0 -0.071365404289364456 0.00062721705378197237 0 -0.09604622353530376 -0.019880859677410889 0 -0.1014228131153851 -0.0043859886528729566 0 -0.081317577507498739 -0.01308047941710251 0 -0.09604622353530376 -0.019880859677410889 0 -0.081317577507498739 -0.01308047941710251 0 -0.089904844829133315 -0.033708432802493103 0 -0.081317577507498739 -0.01308047941710251 0 -0.071091193552826115 -0.0235403881706381 0 -0.089904844829133315 -0.033708432802493103 0 -0.071091193552826115 -0.0235403881706381 0 -0.068108283006370063 -0.038367138363627172 0 -0.056576713485556547 -0.017586123053967569 0 -0.071091193552826115 -0.0235403881706381 0 -0.067552156544132533 -0.012035518828365861 0 -0.056576713485556547 -0.017586123053967569 0 -0.081317577507498739 -0.01308047941710251 0 -0.071091193552826115 -0.0235403881706381 0 -0.067552156544132533 -0.012035518828365861 0 -0.081317577507498739 -0.01308047941710251 0 -0.067552156544132533 -0.012035518828365861 0 -0.071365404289364456 0.00062721705378197237 0 -0.067552156544132533 -0.012035518828365861 0 -0.057409893885416799 -0.0065978205539030804 0 -0.071365404289364456 0.00062721705378197237 0 -0.10064817839509731 -0.055729620347379979 0 -0.079639852527184141 -0.059148153673286442 0 -0.10064817839509731 -0.055729620347379979 0 -0.079639852527184141 -0.059148153673286442 0 -0.080892804037922816 -0.044862887073672093 0 -0.089904844829133315 -0.033708432802493103 0 -0.080892804037922816 -0.044862887073672093 0 -0.068108283006370063 -0.038367138363627172 0 -0.10064817839509731 -0.055729620347379979 0 -0.089904844829133315 -0.033708432802493103 0 -0.080892804037922816 -0.044862887073672093 0 -0.071091193552826115 -0.0235403881706381 0 -0.089904844829133315 -0.033708432802493103 0 -0.068108283006370063 -0.038367138363627172 0 -0.079639852527184141 -0.059148153673286442 0 -0.056674679628205007 -0.06288511060093005 0 -0.079639852527184141 -0.059148153673286442 0 -0.064205824520309679 -0.051710541580700278 0 -0.056674679628205007 -0.06288511060093005 0 -0.079639852527184141 -0.059148153673286442 0 -0.068108283006370063 -0.038367138363627172 0 -0.064205824520309679 -0.051710541580700278 0 -0.079639852527184141 -0.059148153673286442 0 -0.068108283006370063 -0.038367138363627172 0 -0.079639852527184141 -0.059148153673286442 0 -0.080892804037922816 -0.044862887073672093 0 -0.068108283006370063 -0.038367138363627172 0 -0.05002651177101565 -0.054688976992587603 0 -0.039851728054663103 -0.056954225057831528 0 -0.056674679628205007 -0.06288511060093005 0 -0.05002651177101565 -0.054688976992587603 0 -0.050978605326457253 -0.048487580476806798 0 -0.056674679628205007 -0.06288511060093005 0 -0.050978605326457253 -0.048487580476806798 0 -0.056674679628205007 -0.06288511060093005 0 -0.05002651177101565 -0.054688976992587603 0 -0.050978605326457253 -0.048487580476806798 0 -0.041786838318551303 -0.050159009323511902 0 -0.05002651177101565 -0.054688976992587603 0 -0.050978605326457253 -0.048487580476806798 0 -0.064205824520309679 -0.051710541580700278 0 -0.050978605326457253 -0.048487580476806798 0 -0.056674679628205007 -0.06288511060093005 0 -0.050978605326457253 -0.048487580476806798 0 -0.054194249605936218 -0.0275427005153548 0 -0.068108283006370063 -0.038367138363627172 0 -0.064205824520309679 -0.051710541580700278 0 -0.050978605326457253 -0.048487580476806798 0 -0.068108283006370063 -0.038367138363627172 0 -0.050978605326457253 -0.048487580476806798 0 -0.054194249605936218 -0.0275427005153548 0 -0.050978605326457253 -0.048487580476806798 0 -0.045186325036601312 -0.033846877855525287 0 -0.054194249605936218 -0.0275427005153548 0 -0.050978605326457253 -0.048487580476806798 0 -0.045186325036601312 -0.033846877855525287 0 -0.050978605326457253 -0.048487580476806798 0 -0.038238062178047663 -0.040912545744748723 0 -0.041786838318551303 -0.050159009323511902 0 -0.050978605326457253 -0.048487580476806798 0 -0.045186325036601312 -0.033846877855525287 0 -0.038238062178047663 -0.040912545744748723 0 -0.045186325036601312 -0.033846877855525287 0 -0.038238062178047663 -0.040912545744748723 0 -0.036483723815629643 -0.028324295721285409 0 -0.038238062178047663 -0.040912545744748723 0 -0.036483723815629643 -0.028324295721285409 0 -0.02680073896870909 -0.02942936250966189 0 -0.038238062178047663 -0.040912545744748723 0 -0.032213099571377683 -0.048780318305047338 0 -0.02427818865719196 -0.043175177334062703 0 -0.038238062178047663 -0.040912545744748723 0 -0.032213099571377683 -0.048780318305047338 0 -0.041786838318551303 -0.050159009323511902 0 -0.039851728054663103 -0.056954225057831528 0 -0.029359549618589512 -0.067329904670974702 0 -0.056674679628205007 -0.06288511060093005 0 -0.032213099571377683 -0.048780318305047338 0 -0.039851728054663103 -0.056954225057831528 0 -0.02886493270646532 -0.056566080972933412 0 -0.032213099571377683 -0.048780318305047338 0 -0.039851728054663103 -0.056954225057831528 0 -0.041786838318551303 -0.050159009323511902 0 -0.039851728054663103 -0.056954225057831528 0 -0.02886493270646532 -0.056566080972933412 0 -0.029359549618589512 -0.067329904670974702 0 -0.05002651177101565 -0.054688976992587603 0 -0.039851728054663103 -0.056954225057831528 0 -0.041786838318551303 -0.050159009323511902 0 -0.057409893885416799 -0.0065978205539030804 0 -0.055147189569754992 -0.0021387397046248322 0 -0.04605894116109862 -0.0095540874935492476 0 -0.067552156544132533 -0.012035518828365861 0 -0.057409893885416799 -0.0065978205539030804 0 -0.056576713485556547 -0.017586123053967569 0 -0.057409893885416799 -0.0065978205539030804 0 -0.048448690887159397 -0.01934953233051534 0 -0.04605894116109862 -0.0095540874935492476 0 -0.057409893885416799 -0.0065978205539030804 0 -0.054194249605936218 -0.0275427005153548 0 -0.068108283006370063 -0.038367138363627172 0 -0.056576713485556547 -0.017586123053967569 0 -0.054194249605936218 -0.0275427005153548 0 -0.057409893885416799 -0.0065978205539030804 0 -0.056576713485556547 -0.017586123053967569 0 -0.054194249605936218 -0.0275427005153548 0 -0.057409893885416799 -0.0065978205539030804 0 -0.048448690887159397 -0.01934953233051534 0 -0.054194249605936218 -0.0275427005153548 0 -0.068108283006370063 -0.038367138363627172 0 -0.056576713485556547 -0.017586123053967569 0 -0.045186325036601312 -0.033846877855525287 0 -0.048448690887159397 -0.01934953233051534 0 -0.054194249605936218 -0.0275427005153548 0 -0.045186325036601312 -0.033846877855525287 0 -0.039394044746744072 -0.0192061752342443 0 -0.045186325036601312 -0.033846877855525287 0 -0.036483723815629643 -0.028324295721285409 0 -0.039394044746744072 -0.0192061752342443 0 -0.045186325036601312 -0.033846877855525287 0 -0.048448690887159397 -0.01934953233051534 0 -0.039394044746744072 -0.0192061752342443 0 -0.036483723815629643 -0.028324295721285409 0 -0.039394044746744072 -0.0192061752342443 0 -0.029523556575541211 -0.017125276443708572 0 -0.039394044746744072 -0.0192061752342443 0 -0.036110107418424152 -0.012308076070809901 0 -0.029523556575541211 -0.017125276443708572 0 -0.048448690887159397 -0.01934953233051534 0 -0.039394044746744072 -0.0192061752342443 0 -0.04605894116109862 -0.0095540874935492476 0 -0.04605894116109862 -0.0095540874935492476 0 -0.036110107418424152 -0.012308076070809901 0 -0.029463887190312722 -0.0033467651117375062 0 -0.055147189569754992 -0.0021387397046248322 0 -0.04605894116109862 -0.0095540874935492476 0 -0.029463887190312722 -0.0033467651117375062 0 -0.055147189569754992 -0.0021387397046248322 0 -0.029463887190312722 -0.0033467651117375062 0 -0.039394044746744072 -0.0192061752342443 0 -0.04605894116109862 -0.0095540874935492476 0 -0.036110107418424152 -0.012308076070809901 0 -0.036110107418424152 -0.012308076070809901 0 -0.029463887190312722 -0.0033467651117375062 0 -0.029523556575541211 -0.017125276443708572 0 -0.029463887190312722 -0.0033467651117375062 0 -0.01858831943490822 -0.010925015614601271 0 -0.0037805848108704472 -0.0045547905188501802 0 -0.029463887190312722 -0.0033467651117375062 0 -0.0037805848108704472 -0.0045547905188501802 0 -0.029463887190312722 -0.0033467651117375062 0 -0.01858831943490822 -0.010925015614601271 0 -0.029523556575541211 -0.017125276443708572 0 -0.01858831943490822 -0.010925015614601271 0 -0.017347577700434609 -0.01937195198580487 0 -0.029523556575541211 -0.017125276443708572 0 -0.017347577700434609 -0.01937195198580487 0 -0.029523556575541211 -0.017125276443708572 0 -0.02680073896870909 -0.02942936250966189 0 -0.036483723815629643 -0.028324295721285409 0 -0.029523556575541211 -0.017125276443708572 0 -0.02680073896870909 -0.02942936250966189 0 -0.017347577700434609 -0.01937195198580487 0 -0.02680073896870909 -0.02942936250966189 0 -0.01696027679802644 -0.031424342846260549 0 -0.017347577700434609 -0.01937195198580487 0 -0.001564206153295278 -0.01656327972664837 0 -0.0099288418183203914 -0.0120216093890079 0 -0.017347577700434609 -0.01937195198580487 0 -0.0046318109277885136 -0.02826267259872681 0 -0.001564206153295278 -0.01656327972664837 0 -0.017347577700434609 -0.01937195198580487 0 -0.0046318109277885136 -0.02826267259872681 0 -0.01696027679802644 -0.031424342846260549 0 -0.029463887190312722 -0.0033467651117375062 0 -0.0037805848108704472 -0.0045547905188501802 0 -0.0055700370245055711 0.0049628098732567346 0 -0.01858831943490822 -0.010925015614601271 0 -0.017347577700434609 -0.01937195198580487 0 -0.0099288418183203914 -0.0120216093890079 0 -0.01858831943490822 -0.010925015614601271 0 -0.0099288418183203914 -0.0120216093890079 0 -0.0037805848108704472 -0.0045547905188501802 0 -0.001564206153295278 -0.01656327972664837 0 -0.0099288418183203914 -0.0120216093890079 0 -0.0016118125342605861 -0.01082199789130114 0 -0.0099288418183203914 -0.0120216093890079 0 -0.0016118125342605861 -0.01082199789130114 0 -0.0037805848108704472 -0.0045547905188501802 0 -0.02886493270646532 -0.056566080972933412 0 -0.02427818865719196 -0.043175177334062703 0 -0.01555411667276726 -0.055711885858077882 0 -0.02886493270646532 -0.056566080972933412 0 -0.01555411667276726 -0.055711885858077882 0 -0.029359549618589512 -0.067329904670974702 0 -0.032213099571377683 -0.048780318305047338 0 -0.02886493270646532 -0.056566080972933412 0 -0.02427818865719196 -0.043175177334062703 0 -0.02427818865719196 -0.043175177334062703 0 -0.0101854543166134 -0.039425701308933032 0 -0.01555411667276726 -0.055711885858077882 0 -0.038238062178047663 -0.040912545744748723 0 -0.02680073896870909 -0.02942936250966189 0 -0.02427818865719196 -0.043175177334062703 0 -0.02680073896870909 -0.02942936250966189 0 -0.02427818865719196 -0.043175177334062703 0 -0.01696027679802644 -0.031424342846260549 0 -0.02427818865719196 -0.043175177334062703 0 -0.01696027679802644 -0.031424342846260549 0 -0.0101854543166134 -0.039425701308933032 0 -0.0101854543166134 -0.039425701308933032 0 -0.001131409320910022 -0.052669670764717437 0 0.007371522745366091 -0.039158275089500767 0 -0.0046318109277885136 -0.02826267259872681 0 -0.0101854543166134 -0.039425701308933032 0 0.007371522745366091 -0.039158275089500767 0 -0.0046318109277885136 -0.02826267259872681 0 -0.01696027679802644 -0.031424342846260549 0 -0.0101854543166134 -0.039425701308933032 0 -0.001131409320910022 -0.052669670764717437 0 -0.01555411667276726 -0.055711885858077882 0 -0.0020444196089744182 -0.071774698741020118 0 -0.0101854543166134 -0.039425701308933032 0 -0.001131409320910022 -0.052669670764717437 0 -0.01555411667276726 -0.055711885858077882 0 -0.0020444196089744182 -0.071774698741020118 0 -0.014427303730361749 -0.083823033002359396 0 -0.029359549618589512 -0.067329904670974702 0 -0.0020444196089744182 -0.071774698741020118 0 -0.014427303730361749 -0.083823033002359396 0 0.0083263271382496232 -0.094540275567429041 0 -0.030282513462040729 -0.080305794091505248 0 -0.018776363100453719 -0.1051644919408678 0 -0.014427303730361749 -0.083823033002359396 0 -0.030282513462040729 -0.080305794091505248 0 -0.018776363100453719 -0.1051644919408678 0 -0.014427303730361749 -0.083823033002359396 0 -0.030282513462040729 -0.080305794091505248 0 -0.029359549618589512 -0.067329904670974702 0 -0.01555411667276726 -0.055711885858077882 0 -0.0020444196089744182 -0.071774698741020118 0 -0.029359549618589512 -0.067329904670974702 0 -0.0020444196089744182 -0.071774698741020118 0 -0.029359549618589512 -0.067329904670974702 0 -0.029359549618589512 -0.067329904670974702 0 -0.056674679628205007 -0.06288511060093005 0 -0.029359549618589512 -0.067329904670974702 0 -0.041098881614311453 -0.073310462040158217 0 -0.056674679628205007 -0.06288511060093005 0 -0.030282513462040729 -0.080305794091505248 0 -0.029359549618589512 -0.067329904670974702 0 -0.041098881614311453 -0.073310462040158217 0 -0.030282513462040729 -0.080305794091505248 0 -0.048078783748410708 -0.082721038797223631 0 -0.039188479352310512 -0.096626201915147342 0 -0.030282513462040729 -0.080305794091505248 0 -0.041098881614311453 -0.073310462040158217 0 -0.048078783748410708 -0.082721038797223631 0 -0.048078783748410708 -0.082721038797223631 0 -0.056519296825689971 -0.09988645904640546 0 -0.039188479352310512 -0.096626201915147342 0 -0.065713651042146007 -0.085732225355633046 0 -0.048078783748410708 -0.082721038797223631 0 -0.056519296825689971 -0.09988645904640546 0 -0.041098881614311453 -0.073310462040158217 0 -0.048078783748410708 -0.082721038797223631 0 -0.056674679628205007 -0.06288511060093005 0 -0.065713651042146007 -0.085732225355633046 0 -0.048078783748410708 -0.082721038797223631 0 -0.056674679628205007 -0.06288511060093005 0 -0.065713651042146007 -0.085732225355633046 0 -0.056674679628205007 -0.06288511060093005 0 -0.05859385093190507 -0.1134386561181167 0 -0.056519296825689971 -0.09988645904640546 0 -0.045353585761645589 -0.1155611203037159 0 -0.061987945118678008 -0.1237802624065155 0 -0.05859385093190507 -0.1134386561181167 0 -0.045353585761645589 -0.1155611203037159 0 -0.056519296825689971 -0.09988645904640546 0 -0.039188479352310512 -0.096626201915147342 0 -0.045353585761645589 -0.1155611203037159 0 -0.070514576021606726 -0.1145267827158299 0 -0.05859385093190507 -0.1134386561181167 0 -0.056519296825689971 -0.09988645904640546 0 -0.039188479352310512 -0.096626201915147342 0 -0.045353585761645589 -0.1155611203037159 0 -0.018776363100453719 -0.1051644919408678 0 -0.018776363100453719 -0.1051644919408678 0 -0.0072702127388667073 -0.13002318979023039 0 -0.029340904287693401 -0.13386456276557721 0 -0.045353585761645589 -0.1155611203037159 0 -0.018776363100453719 -0.1051644919408678 0 -0.029340904287693401 -0.13386456276557721 0 -0.030282513462040729 -0.080305794091505248 0 -0.039188479352310512 -0.096626201915147342 0 -0.018776363100453719 -0.1051644919408678 0 -0.018776363100453719 -0.1051644919408678 0 0.0095227933737201485 -0.1166750713313939 0 0.0083263271382496232 -0.094540275567429041 0 -0.014427303730361749 -0.083823033002359396 0 -0.018776363100453719 -0.1051644919408678 0 0.0083263271382496232 -0.094540275567429041 0 -0.018776363100453719 -0.1051644919408678 0 -0.0072702127388667073 -0.13002318979023039 0 -0.018776363100453719 -0.1051644919408678 0 -0.0072702127388667073 -0.13002318979023039 0 0.0095227933737201485 -0.1166750713313939 0 -0.0072702127388667073 -0.13002318979023039 0 -0.029340904287693401 -0.13386456276557721 0 -0.01527124274969174 -0.15527370089842299 0 -0.029340904287693401 -0.13386456276557721 0 -0.01527124274969174 -0.15527370089842299 0 -0.033889590094826047 -0.15085947320153439 0 -0.0072702127388667073 -0.13002318979023039 0 0.0042359376227203427 -0.1548818876395931 0 -0.0072702127388667073 -0.13002318979023039 0 -0.01527124274969174 -0.15527370089842299 0 0.0042359376227203427 -0.1548818876395931 0 -0.01527124274969174 -0.15527370089842299 0 -0.00987874032603492 -0.17544934764309619 0 0.0023115879498421211 -0.16915809622511249 0 -0.01527124274969174 -0.15527370089842299 0 0.0023115879498421211 -0.16915809622511249 0 0.0042359376227203427 -0.1548818876395931 0 -7.2502180123992725e-05 -0.18242754928670071 0 -0.01079841321475635 -0.1862824631306495 0 -0.0033902693685317338 -0.1900224435201405 0 -7.2502180123992725e-05 -0.18242754928670071 0 -0.00987874032603492 -0.17544934764309619 0 -0.01079841321475635 -0.1862824631306495 0 -7.2502180123992725e-05 -0.18242754928670071 0 -0.00987874032603492 -0.17544934764309619 0 0.0023115879498421211 -0.16915809622511249 0 -0.00987874032603492 -0.17544934764309619 0 -0.01079841321475635 -0.1862824631306495 0 -0.024069656841237661 -0.18324350322197 0 -0.00987874032603492 -0.17544934764309619 0 -0.024069656841237661 -0.18324350322197 0 -0.0328472309921366 -0.16877395923009381 0 -0.01527124274969174 -0.15527370089842299 0 -0.00987874032603492 -0.17544934764309619 0 -0.0328472309921366 -0.16877395923009381 0 -0.01527124274969174 -0.15527370089842299 0 -0.0328472309921366 -0.16877395923009381 0 -0.033889590094826047 -0.15085947320153439 0 -0.0328472309921366 -0.16877395923009381 0 -0.046516021933861139 -0.15724858428267929 0 -0.053486907303959767 -0.1711639252225424 0 -0.0328472309921366 -0.16877395923009381 0 -0.046516021933861139 -0.15724858428267929 0 -0.033889590094826047 -0.15085947320153439 0 -0.024069656841237661 -0.18324350322197 0 -0.0328472309921366 -0.16877395923009381 0 -0.04189734283237654 -0.18240543052481051 0 -0.024069656841237661 -0.18324350322197 0 -0.04189734283237654 -0.18240543052481051 0 -0.037251225364148891 -0.19568837145639251 0 -0.0328472309921366 -0.16877395923009381 0 -0.04189734283237654 -0.18240543052481051 0 -0.053486907303959767 -0.1711639252225424 0 -0.05635094476132306 -0.18426045514179601 0 -0.053486907303959767 -0.1711639252225424 0 -0.074670148295814434 -0.17443716013956981 0 -0.04189734283237654 -0.18240543052481051 0 -0.05635094476132306 -0.18426045514179601 0 -0.047897375138549622 -0.19098577694222921 0 -0.04189734283237654 -0.18240543052481051 0 -0.05635094476132306 -0.18426045514179601 0 -0.053486907303959767 -0.1711639252225424 0 -0.046516021933861139 -0.15724858428267929 0 -0.053486907303959767 -0.1711639252225424 0 -0.064680894860674992 -0.156269270227718 0 -0.046516021933861139 -0.15724858428267929 0 -0.049878422324669193 -0.13921602823211771 0 -0.064680894860674992 -0.156269270227718 0 -0.049878422324669193 -0.13921602823211771 0 -0.071650555114202361 -0.13858805994524481 0 -0.064680894860674992 -0.156269270227718 0 -0.061987945118678008 -0.1237802624065155 0 -0.045353585761645589 -0.1155611203037159 0 -0.049878422324669193 -0.13921602823211771 0 -0.061987945118678008 -0.1237802624065155 0 -0.049878422324669193 -0.13921602823211771 0 -0.071650555114202361 -0.13858805994524481 0 -0.045353585761645589 -0.1155611203037159 0 -0.029340904287693401 -0.13386456276557721 0 -0.049878422324669193 -0.13921602823211771 0 -0.046516021933861139 -0.15724858428267929 0 -0.049878422324669193 -0.13921602823211771 0 -0.033889590094826047 -0.15085947320153439 0 -0.029340904287693401 -0.13386456276557721 0 -0.049878422324669193 -0.13921602823211771 0 -0.033889590094826047 -0.15085947320153439 0 -0.01595553083255585 -0.2401920953602511 0 -0.020913906741365468 -0.2463414956437508 0 -0.035326967516509163 -0.22706258908983251 0 -0.020913906741365468 -0.2463414956437508 0 -0.035326967516509163 -0.22706258908983251 0 -0.032283332528187388 -0.25215055097616063 0 -0.020913906741365468 -0.2463414956437508 0 -0.035326967516509163 -0.22706258908983251 0 -0.01595553083255585 -0.2401920953602511 0 -0.020913906741365468 -0.2463414956437508 0 -0.013561834430324269 -0.24502326922305689 0 -0.0079783989778275544 -0.25169792079002812 0 -0.013561834430324269 -0.24502326922305689 0 -0.009861465004613941 -0.24282266745756709 0 -0.0079783989778275544 -0.25169792079002812 0 -0.020913906741365468 -0.2463414956437508 0 -0.013561834430324269 -0.24502326922305689 0 -0.0079783989778275544 -0.25169792079002812 0 -0.0037240369044004179 -0.23806801751691031 0 0.0095294292409746698 -0.2431713689579636 0 -0.01595553083255585 -0.2401920953602511 0 -0.013561834430324269 -0.24502326922305689 0 -0.009861465004613941 -0.24282266745756709 0 -0.0079783989778275544 -0.25169792079002812 0 -0.009861465004613941 -0.24282266745756709 0 -0.0037240369044004179 -0.23806801751691031 0 -0.01595553083255585 -0.2401920953602511 0 -0.009861465004613941 -0.24282266745756709 0 -0.0037240369044004179 -0.23806801751691031 0 -0.01595553083255585 -0.2401920953602511 0 -0.003667722801450707 -0.216757636362539 0 -0.01595553083255585 -0.2401920953602511 0 -0.0037240369044004179 -0.23806801751691031 0 -0.003667722801450707 -0.216757636362539 0 -0.01595553083255585 -0.2401920953602511 0 -0.018877548170378761 -0.22114143769074759 0 -0.003667722801450707 -0.216757636362539 0 -0.0037240369044004179 -0.23806801751691031 0 -0.003667722801450707 -0.216757636362539 0 0.0051275031140051606 -0.23472751853248211 0 -0.01595553083255585 -0.2401920953602511 0 -0.018877548170378761 -0.22114143769074759 0 -0.035326967516509163 -0.22706258908983251 0 -0.018877548170378761 -0.22114143769074759 0 -0.020559971530999331 -0.20055342995036779 0 -0.035326967516509163 -0.22706258908983251 0 -0.018877548170378761 -0.22114143769074759 0 -0.003667722801450707 -0.216757636362539 0 -0.020559971530999331 -0.20055342995036779 0 -0.003667722801450707 -0.216757636362539 0 -0.020559971530999331 -0.20055342995036779 0 0.0086200852296540835 -0.19332317736482679 0 -0.020559971530999331 -0.20055342995036779 0 0.0086200852296540835 -0.19332317736482679 0 -0.0033902693685317338 -0.1900224435201405 0 -0.020559971530999331 -0.20055342995036779 0 0.0086200852296540835 -0.19332317736482679 0 -0.01079841321475635 -0.1862824631306495 0 -0.0033902693685317338 -0.1900224435201405 0 -0.020559971530999331 -0.20055342995036779 0 -0.01079841321475635 -0.1862824631306495 0 -0.024069656841237661 -0.18324350322197 0 -0.020559971530999331 -0.20055342995036779 0 -0.024069656841237661 -0.18324350322197 0 -0.020559971530999331 -0.20055342995036779 0 -0.037251225364148891 -0.19568837145639251 0 -0.020559971530999331 -0.20055342995036779 0 -0.037251225364148891 -0.19568837145639251 0 -0.049740028291651597 -0.20778368253591331 0 -0.037251225364148891 -0.19568837145639251 0 -0.049364763186671247 -0.19759485166457011 0 -0.049740028291651597 -0.20778368253591331 0 -0.04189734283237654 -0.18240543052481051 0 -0.037251225364148891 -0.19568837145639251 0 -0.047897375138549622 -0.19098577694222921 0 -0.037251225364148891 -0.19568837145639251 0 -0.047897375138549622 -0.19098577694222921 0 -0.049364763186671247 -0.19759485166457011 0 -0.05635094476132306 -0.18426045514179601 0 -0.047897375138549622 -0.19098577694222921 0 -0.054622599548228387 -0.19497977592357671 0 -0.047897375138549622 -0.19098577694222921 0 -0.054622599548228387 -0.19497977592357671 0 -0.049364763186671247 -0.19759485166457011 0 -0.05635094476132306 -0.18426045514179601 0 -0.054622599548228387 -0.19497977592357671 0 -0.057314851055291598 -0.1976516014671558 0 -0.054622599548228387 -0.19497977592357671 0 -0.057314851055291598 -0.1976516014671558 0 -0.057314851055291598 -0.1976516014671558 0 -0.049364763186671247 -0.19759485166457011 0 -0.049740028291651597 -0.20778368253591331 0 -0.057314851055291598 -0.1976516014671558 0 -0.049740028291651597 -0.20778368253591331 0 -0.054622599548228387 -0.19497977592357671 0 -0.057314851055291598 -0.1976516014671558 0 -0.049364763186671247 -0.19759485166457011 0 -0.057314851055291598 -0.1976516014671558 0 -0.049740028291651597 -0.20778368253591331 0 -0.073442237945038097 -0.2136566307633628 0 -0.049740028291651597 -0.20778368253591331 0 -0.073442237945038097 -0.2136566307633628 0 -0.049740028291651597 -0.20778368253591331 0 -0.060809550920881812 -0.2209502623053835 0 -0.073442237945038097 -0.2136566307633628 0 -0.020559971530999331 -0.20055342995036779 0 -0.049740028291651597 -0.20778368253591331 0 -0.049740028291651597 -0.20778368253591331 0 -0.035326967516509163 -0.22706258908983251 0 -0.020559971530999331 -0.20055342995036779 0 -0.049740028291651597 -0.20778368253591331 0 -0.035326967516509163 -0.22706258908983251 0 -0.049740028291651597 -0.20778368253591331 0 -0.035326967516509163 -0.22706258908983251 0 -0.050154412834989823 -0.22964059145698221 0 -0.049740028291651597 -0.20778368253591331 0 -0.060809550920881812 -0.2209502623053835 0 -0.050154412834989823 -0.22964059145698221 0 -0.050154412834989823 -0.22964059145698221 0 -0.058096375251159592 -0.24033715372808259 0 -0.064591074741213436 -0.23152837914238319 0 -0.060809550920881812 -0.2209502623053835 0 -0.050154412834989823 -0.22964059145698221 0 -0.064591074741213436 -0.23152837914238319 0 -0.050154412834989823 -0.22964059145698221 0 -0.058096375251159592 -0.24033715372808259 0 -0.044323546347883352 -0.2472224278796166 0 -0.035326967516509163 -0.22706258908983251 0 -0.050154412834989823 -0.22964059145698221 0 -0.044323546347883352 -0.2472224278796166 0 -0.032283332528187388 -0.25215055097616063 0 -0.035326967516509163 -0.22706258908983251 0 -0.044323546347883352 -0.2472224278796166 0 -0.085254706571689862 -0.24920827118798741 0 -0.074247531522904406 -0.23709749144835529 0 -0.098079048774341149 -0.23810652346970809 0 -0.07303951308202547 -0.25918521163238561 0 -0.074247531522904406 -0.23709749144835529 0 -0.064605490399081589 -0.26469129099131411 0 -0.058096375251159592 -0.24033715372808259 0 -0.074247531522904406 -0.23709749144835529 0 -0.07303951308202547 -0.25918521163238561 0 -0.085254706571689862 -0.24920827118798741 0 -0.074247531522904406 -0.23709749144835529 0 -0.058096375251159592 -0.24033715372808259 0 -0.074247531522904406 -0.23709749144835529 0 -0.064591074741213436 -0.23152837914238319 0 -0.074247531522904406 -0.23709749144835529 0 -0.074712251843607233 -0.22860042545980869 0 -0.074247531522904406 -0.23709749144835529 0 -0.074712251843607233 -0.22860042545980869 0 -0.080122025443735839 -0.22028573908326471 0 -0.074247531522904406 -0.23709749144835529 0 -0.074712251843607233 -0.22860042545980869 0 -0.064591074741213436 -0.23152837914238319 0 -0.074247531522904406 -0.23709749144835529 0 -0.080122025443735839 -0.22028573908326471 0 -0.074712251843607233 -0.22860042545980869 0 -0.064591074741213436 -0.23152837914238319 0 -0.070010041487826399 -0.22261114895487541 0 -0.060809550920881812 -0.2209502623053835 0 -0.070010041487826399 -0.22261114895487541 0 -0.073442237945038097 -0.2136566307633628 0 -0.060809550920881812 -0.2209502623053835 0 -0.064591074741213436 -0.23152837914238319 0 -0.070010041487826399 -0.22261114895487541 0 -0.074712251843607233 -0.22860042545980869 0 -0.070010041487826399 -0.22261114895487541 0 -0.080122025443735839 -0.22028573908326471 0 -0.070010041487826399 -0.22261114895487541 0 -0.080122025443735839 -0.22028573908326471 0 -0.073442237945038097 -0.2136566307633628 0 -0.080122025443735839 -0.22028573908326471 0 -0.097444052454965638 -0.2196038152682287 0 -0.098079048774341149 -0.23810652346970809 0 -0.080122025443735839 -0.22028573908326471 0 -0.098079048774341149 -0.23810652346970809 0 -0.074247531522904406 -0.23709749144835529 0 -0.080122025443735839 -0.22028573908326471 0 -0.098079048774341149 -0.23810652346970809 0 -0.080122025443735839 -0.22028573908326471 0 -0.08172158268792673 -0.21570809194539359 0 -0.097444052454965638 -0.2196038152682287 0 -0.08172158268792673 -0.21570809194539359 0 -0.087644594916551216 -0.19875748884919539 0 -0.097308673641827451 -0.2074594174920473 0 -0.079821971224500729 -0.20564186053232519 0 -0.08172158268792673 -0.21570809194539359 0 -0.087644594916551216 -0.19875748884919539 0 -0.08172158268792673 -0.21570809194539359 0 -0.097444052454965638 -0.2196038152682287 0 -0.08172158268792673 -0.21570809194539359 0 -0.097308673641827451 -0.2074594174920473 0 -0.097444052454965638 -0.2196038152682287 0 -0.08172158268792673 -0.21570809194539359 0 -0.087644594916551216 -0.19875748884919539 0 -0.080122025443735839 -0.22028573908326471 0 -0.08172158268792673 -0.21570809194539359 0 -0.073442237945038097 -0.2136566307633628 0 -0.079821971224500729 -0.20564186053232519 0 -0.08172158268792673 -0.21570809194539359 0 -0.073442237945038097 -0.2136566307633628 0 -0.080122025443735839 -0.22028573908326471 0 -0.08172158268792673 -0.21570809194539359 0 -0.057314851055291598 -0.1976516014671558 0 -0.073442237945038097 -0.2136566307633628 0 -0.080122025443735839 -0.22028573908326471 0 -0.073442237945038097 -0.2136566307633628 0 -0.08172158268792673 -0.21570809194539359 0 -0.073442237945038097 -0.2136566307633628 0 -0.057314851055291598 -0.1976516014671558 0 -0.073442237945038097 -0.2136566307633628 0 -0.072468590286814141 -0.1985098673075178 0 -0.079821971224500729 -0.20564186053232519 0 -0.073442237945038097 -0.2136566307633628 0 -0.072468590286814141 -0.1985098673075178 0 -0.057314851055291598 -0.1976516014671558 0 -0.072468590286814141 -0.1985098673075178 0 -0.074670148295814434 -0.17443716013956981 0 -0.08208773516108879 -0.18837785051232001 0 -0.087644594916551216 -0.19875748884919539 0 -0.093567607145175397 -0.18180688575299711 0 -0.072468590286814141 -0.1985098673075178 0 -0.08208773516108879 -0.18837785051232001 0 -0.087644594916551216 -0.19875748884919539 0 -0.087644594916551216 -0.19875748884919539 0 -0.093567607145175397 -0.18180688575299711 0 -0.079821971224500729 -0.20564186053232519 0 -0.072468590286814141 -0.1985098673075178 0 -0.087644594916551216 -0.19875748884919539 0 -0.087644594916551216 -0.19875748884919539 0 -0.1043466722010421 -0.19508352508284771 0 -0.093567607145175397 -0.18180688575299711 0 -0.087644594916551216 -0.19875748884919539 0 -0.1043466722010421 -0.19508352508284771 0 -0.097308673641827451 -0.2074594174920473 0 -0.1043466722010421 -0.19508352508284771 0 -0.11538646594865121 -0.20814416631457111 0 -0.1189354358745829 -0.18438522084226791 0 -0.11538646594865121 -0.20814416631457111 0 -0.1189354358745829 -0.18438522084226791 0 -0.13897181292662919 -0.18759207232702579 0 -0.11538646594865121 -0.20814416631457111 0 -0.1189354358745829 -0.18438522084226791 0 -0.11538646594865121 -0.20814416631457111 0 -0.097308673641827451 -0.2074594174920473 0 -0.097444052454965638 -0.2196038152682287 0 -0.1043466722010421 -0.19508352508284771 0 -0.11538646594865121 -0.20814416631457111 0 -0.097308673641827451 -0.2074594174920473 0 -0.097444052454965638 -0.2196038152682287 0 -0.1118374960227196 -0.2319031117868742 0 -0.098079048774341149 -0.23810652346970809 0 -0.11538646594865121 -0.20814416631457111 0 -0.097444052454965638 -0.2196038152682287 0 -0.1118374960227196 -0.2319031117868742 0 -0.11538646594865121 -0.20814416631457111 0 -0.1118374960227196 -0.2319031117868742 0 -0.11538646594865121 -0.20814416631457111 0 -0.1227310843103224 -0.2267595762964946 0 -0.1118374960227196 -0.2319031117868742 0 -0.11603607210494681 -0.25592730785615109 0 -0.1227310843103224 -0.2267595762964946 0 -0.11603607210494681 -0.25592730785615109 0 -0.1227310843103224 -0.2267595762964946 0 -0.12978142356864469 -0.244097016543221 0 -0.11603607210494681 -0.25592730785615109 0 -0.1227310843103224 -0.2267595762964946 0 -0.1118374960227196 -0.2319031117868742 0 -0.11603607210494681 -0.25592730785615109 0 -0.098079048774341149 -0.23810652346970809 0 -0.11603607210494681 -0.25592730785615109 0 -0.1118374960227196 -0.2319031117868742 0 -0.098079048774341149 -0.23810652346970809 0 -0.090362837873872032 -0.13188504197233511 0 -0.071650555114202361 -0.13858805994524481 0 -0.075372229765933635 -0.12512645953002011 0 -0.09202544553633675 -0.15122271881198371 0 -0.090362837873872032 -0.13188504197233511 0 -0.071650555114202361 -0.13858805994524481 0 -0.061987945118678008 -0.1237802624065155 0 -0.071650555114202361 -0.13858805994524481 0 -0.075372229765933635 -0.12512645953002011 0 -0.09202544553633675 -0.15122271881198371 0 -0.071650555114202361 -0.13858805994524481 0 -0.064680894860674992 -0.156269270227718 0 -0.053486907303959767 -0.1711639252225424 0 -0.064680894860674992 -0.156269270227718 0 -0.074670148295814434 -0.17443716013956981 0 -0.09202544553633675 -0.15122271881198371 0 -0.064680894860674992 -0.156269270227718 0 -0.074670148295814434 -0.17443716013956981 0 -0.057314851055291598 -0.1976516014671558 0 -0.074670148295814434 -0.17443716013956981 0 -0.072468590286814141 -0.1985098673075178 0 -0.08208773516108879 -0.18837785051232001 0 -0.074670148295814434 -0.17443716013956981 0 -0.05635094476132306 -0.18426045514179601 0 -0.057314851055291598 -0.1976516014671558 0 -0.074670148295814434 -0.17443716013956981 0 -0.08208773516108879 -0.18837785051232001 0 -0.074670148295814434 -0.17443716013956981 0 -0.093567607145175397 -0.18180688575299711 0 -0.09202544553633675 -0.15122271881198371 0 -0.074670148295814434 -0.17443716013956981 0 -0.09202544553633675 -0.15122271881198371 0 -0.074670148295814434 -0.17443716013956981 0 -0.093567607145175397 -0.18180688575299711 0 -0.09202544553633675 -0.15122271881198371 0 -0.093567607145175397 -0.18180688575299711 0 -0.1075280273649564 -0.17053671528201211 0 -0.09202544553633675 -0.15122271881198371 0 -0.1075280273649564 -0.17053671528201211 0 -0.11110795474235451 -0.14864863833945879 0 -0.1043466722010421 -0.19508352508284771 0 -0.093567607145175397 -0.18180688575299711 0 -0.1075280273649564 -0.17053671528201211 0 -0.1189354358745829 -0.18438522084226791 0 -0.1224844058005146 -0.1606262753699646 0 -0.1043466722010421 -0.19508352508284771 0 -0.1075280273649564 -0.17053671528201211 0 -0.1189354358745829 -0.18438522084226791 0 -0.1075280273649564 -0.17053671528201211 0 -0.1189354358745829 -0.18438522084226791 0 -0.1224844058005146 -0.1606262753699646 0 -0.1075280273649564 -0.17053671528201211 0 -0.1224844058005146 -0.1606262753699646 0 -0.11110795474235451 -0.14864863833945879 0 -0.1224844058005146 -0.1606262753699646 0 -0.12603337572644699 -0.1368673298976614 0 -0.1224844058005146 -0.1606262753699646 0 -0.11110795474235451 -0.14864863833945879 0 -0.12603337572644699 -0.1368673298976614 0 -0.09202544553633675 -0.15122271881198371 0 -0.11110795474235451 -0.14864863833945879 0 -0.1093807427768583 -0.12800827748439661 0 -0.09202544553633675 -0.15122271881198371 0 -0.090362837873872032 -0.13188504197233511 0 -0.1093807427768583 -0.12800827748439661 0 -0.09202544553633675 -0.15122271881198371 0 -0.1093807427768583 -0.12800827748439661 0 -0.1093807427768583 -0.12800827748439661 0 -0.1113586020809627 -0.12536269336486261 0 -0.12603337572644699 -0.1368673298976614 0 -0.11110795474235451 -0.14864863833945879 0 -0.1093807427768583 -0.12800827748439661 0 -0.12603337572644699 -0.1368673298976614 0 -0.1093807427768583 -0.12800827748439661 0 -0.1113586020809627 -0.12536269336486261 0 -0.1093807427768583 -0.12800827748439661 0 -0.12603337572644699 -0.1368673298976614 0 -0.12603337572644699 -0.1368673298976614 0 -0.1443171630234851 -0.12535623658683251 0 -0.14358861918211299 -0.1462065630611038 0 -0.1443171630234851 -0.12535623658683251 0 -0.14358861918211299 -0.1462065630611038 0 -0.15672989340554269 -0.13749085328159599 0 -0.1443171630234851 -0.12535623658683251 0 -0.15672989340554269 -0.13749085328159599 0 -0.16248036550564049 -0.1208905593516605 0 -0.14358861918211299 -0.1462065630611038 0 -0.1554093515881895 -0.1574803896830011 0 -0.15672989340554269 -0.13749085328159599 0 -0.12603337572644699 -0.1368673298976614 0 -0.14358861918211299 -0.1462065630611038 0 -0.1224844058005146 -0.1606262753699646 0 -0.12603337572644699 -0.1368673298976614 0 -0.14358861918211299 -0.1462065630611038 0 -0.1189354358745829 -0.18438522084226791 0 -0.1224844058005146 -0.1606262753699646 0 -0.13991612292217601 -0.16817866488639971 0 -0.1224844058005146 -0.1606262753699646 0 -0.14358861918211299 -0.1462065630611038 0 -0.13991612292217601 -0.16817866488639971 0 -0.1189354358745829 -0.18438522084226791 0 -0.13991612292217601 -0.16817866488639971 0 -0.13897181292662919 -0.18759207232702579 0 -0.13991612292217601 -0.16817866488639971 0 -0.15725554694818869 -0.17883991890083659 0 -0.13897181292662919 -0.18759207232702579 0 -0.14358861918211299 -0.1462065630611038 0 -0.13991612292217601 -0.16817866488639971 0 -0.1554093515881895 -0.1574803896830011 0 -0.13991612292217601 -0.16817866488639971 0 -0.1554093515881895 -0.1574803896830011 0 -0.15725554694818869 -0.17883991890083659 0 -0.1554093515881895 -0.1574803896830011 0 -0.17213146985191671 -0.16578553948748359 0 -0.16765256041009041 -0.14948559278079049 0 -0.1554093515881895 -0.1574803896830011 0 -0.15725554694818869 -0.17883991890083659 0 -0.17213146985191671 -0.16578553948748359 0 -0.15725554694818869 -0.17883991890083659 0 -0.17213146985191671 -0.16578553948748359 0 -0.17975186944619159 -0.19028168233578829 0 -0.17213146985191671 -0.16578553948748359 0 -0.17975186944619159 -0.19028168233578829 0 -0.19046018592870531 -0.17070990168635419 0 -0.17213146985191671 -0.16578553948748359 0 -0.1820785251608758 -0.15169938672157579 0 -0.19046018592870531 -0.17070990168635419 0 -0.1820785251608758 -0.15169938672157579 0 -0.1728947361847748 -0.13530620510706021 0 -0.16765256041009041 -0.14948559278079049 0 -0.17213146985191671 -0.16578553948748359 0 -0.1820785251608758 -0.15169938672157579 0 -0.16765256041009041 -0.14948559278079049 0 -0.1820785251608758 -0.15169938672157579 0 -0.1728947361847748 -0.13530620510706021 0 -0.18989641382437511 -0.1353966106162027 0 -0.1728947361847748 -0.13530620510706021 0 -0.18153161793419581 -0.1215946825872664 0 -0.16248036550564049 -0.1208905593516605 0 -0.1728947361847748 -0.13530620510706021 0 -0.18989641382437511 -0.1353966106162027 0 -0.18153161793419581 -0.1215946825872664 0 -0.1728947361847748 -0.13530620510706021 0 -0.15672989340554269 -0.13749085328159599 0 -0.16248036550564049 -0.1208905593516605 0 -0.1554093515881895 -0.1574803896830011 0 -0.15672989340554269 -0.13749085328159599 0 -0.16765256041009041 -0.14948559278079049 0 -0.1728947361847748 -0.13530620510706021 0 -0.15672989340554269 -0.13749085328159599 0 -0.16765256041009041 -0.14948559278079049 0 -0.14810028601662309 -0.24576510341654359 0 -0.12978142356864469 -0.244097016543221 0 -0.14201068467226741 -0.22702288767489931 0 -0.1227310843103224 -0.2267595762964946 0 -0.14201068467226741 -0.22702288767489931 0 -0.13982860503968261 -0.20786536039512329 0 -0.1227310843103224 -0.2267595762964946 0 -0.12978142356864469 -0.244097016543221 0 -0.14201068467226741 -0.22702288767489931 0 -0.14810028601662309 -0.24576510341654359 0 -0.14201068467226741 -0.22702288767489931 0 -0.16269984220459621 -0.21998681057076369 0 -0.13982860503968261 -0.20786536039512329 0 -0.16269984220459621 -0.21998681057076369 0 -0.14201068467226741 -0.22702288767489931 0 -0.13982860503968261 -0.20786536039512329 0 -0.16269984220459621 -0.21998681057076369 0 -0.13982860503968261 -0.20786536039512329 0 -0.16035890659192939 -0.1994835514406052 0 -0.16269984220459621 -0.21998681057076369 0 -0.11538646594865121 -0.20814416631457111 0 -0.1227310843103224 -0.2267595762964946 0 -0.13982860503968261 -0.20786536039512329 0 -0.11538646594865121 -0.20814416631457111 0 -0.13982860503968261 -0.20786536039512329 0 -0.13897181292662919 -0.18759207232702579 0 -0.15725554694818869 -0.17883991890083659 0 -0.13897181292662919 -0.18759207232702579 0 -0.16035890659192939 -0.1994835514406052 0 -0.13982860503968261 -0.20786536039512329 0 -0.13897181292662919 -0.18759207232702579 0 -0.16035890659192939 -0.1994835514406052 0 -0.15725554694818869 -0.17883991890083659 0 -0.16035890659192939 -0.1994835514406052 0 -0.17975186944619159 -0.19028168233578829 0 -0.16035890659192939 -0.1994835514406052 0 -0.17975186944619159 -0.19028168233578829 0 -0.1831187600655155 -0.21211883953006369 0 -0.16035890659192939 -0.1994835514406052 0 -0.1831187600655155 -0.21211883953006369 0 -0.16269984220459621 -0.21998681057076369 0 -0.16269984220459621 -0.21998681057076369 0 -0.1855710793695097 -0.232108260746404 0 -0.1831187600655155 -0.21211883953006369 0 -0.16269984220459621 -0.21998681057076369 0 -0.1855710793695097 -0.232108260746404 0 -0.16269984220459621 -0.21998681057076369 0 -0.1855710793695097 -0.232108260746404 0 -0.16858055678937059 -0.24688773341995571 0 -0.18464749888115431 -0.25117866146288659 0 -0.1855710793695097 -0.232108260746404 0 -0.16858055678937059 -0.24688773341995571 0 -0.14810028601662309 -0.24576510341654359 0 -0.16269984220459621 -0.21998681057076369 0 -0.16858055678937059 -0.24688773341995571 0 -0.2084423165344233 -0.2442297109220444 0 -0.22011698355556261 -0.23345904301565179 0 -0.22523528010301411 -0.2480424028876469 0 -0.2084423165344233 -0.2442297109220444 0 -0.20518343634494049 -0.2302869958319417 0 -0.22011698355556261 -0.23345904301565179 0 -0.18464749888115431 -0.25117866146288659 0 -0.1855710793695097 -0.232108260746404 0 -0.2084423165344233 -0.2442297109220444 0 -0.1855710793695097 -0.232108260746404 0 -0.2084423165344233 -0.2442297109220444 0 -0.1855710793695097 -0.232108260746404 0 -0.2084423165344233 -0.2442297109220444 0 -0.20518343634494049 -0.2302869958319417 0 -0.1855710793695097 -0.232108260746404 0 -0.19829747345332949 -0.22055613780690239 0 -0.20518343634494049 -0.2302869958319417 0 -0.1831187600655155 -0.21211883953006369 0 -0.1855710793695097 -0.232108260746404 0 -0.19829747345332949 -0.22055613780690239 0 -0.19829747345332949 -0.22055613780690239 0 -0.20518343634494049 -0.2302869958319417 0 -0.21348932881187729 -0.2210818266687061 0 -0.20518343634494049 -0.2302869958319417 0 -0.21348932881187729 -0.2210818266687061 0 -0.22011698355556261 -0.23345904301565179 0 -0.21348932881187729 -0.2210818266687061 0 -0.20237390862979371 -0.2061831911705575 0 -0.22352227614047679 -0.21025702738805371 0 -0.20237390862979371 -0.2061831911705575 0 -0.21701859415684741 -0.19808030632400009 0 -0.22352227614047679 -0.21025702738805371 0 -0.19829747345332949 -0.22055613780690239 0 -0.21348932881187729 -0.2210818266687061 0 -0.20237390862979371 -0.2061831911705575 0 -0.1831187600655155 -0.21211883953006369 0 -0.19829747345332949 -0.22055613780690239 0 -0.20237390862979371 -0.2061831911705575 0 -0.17975186944619159 -0.19028168233578829 0 -0.20237390862979371 -0.2061831911705575 0 -0.20116727876561821 -0.18656671697285229 0 -0.17975186944619159 -0.19028168233578829 0 -0.1831187600655155 -0.21211883953006369 0 -0.20237390862979371 -0.2061831911705575 0 -0.20237390862979371 -0.2061831911705575 0 -0.21701859415684741 -0.19808030632400009 0 -0.20116727876561821 -0.18656671697285229 0 -0.21701859415684741 -0.19808030632400009 0 -0.20116727876561821 -0.18656671697285229 0 -0.21744595751764159 -0.18378239743576441 0 -0.21701859415684741 -0.19808030632400009 0 -0.2333023450733889 -0.20051430359624711 0 -0.23010028786790521 -0.1880825977723698 0 -0.21701859415684741 -0.19808030632400009 0 -0.2333023450733889 -0.20051430359624711 0 -0.22352227614047679 -0.21025702738805371 0 -0.21701859415684741 -0.19808030632400009 0 -0.23010028786790521 -0.1880825977723698 0 -0.21744595751764159 -0.18378239743576441 0 -0.2333023450733889 -0.20051430359624711 0 -0.23010028786790521 -0.1880825977723698 0 -0.23507064390352281 -0.19138301678291769 0 -0.23010028786790521 -0.1880825977723698 0 -0.23858856254826721 -0.18791541400944001 0 -0.23010028786790521 -0.1880825977723698 0 -0.23507064390352281 -0.19138301678291769 0 -0.23858856254826721 -0.18791541400944001 0 -0.2333023450733889 -0.20051430359624711 0 -0.23507064390352281 -0.19138301678291769 0 -0.23858856254826721 -0.18791541400944001 0 -0.2333023450733889 -0.20051430359624711 0 -0.23858856254826721 -0.18791541400944001 0 -0.24513638240692309 -0.18778644914859291 0 -0.2333023450733889 -0.20051430359624711 0 -0.24513638240692309 -0.18778644914859291 0 -0.24091893461394329 -0.21084813366110369 0 -0.24513638240692309 -0.18778644914859291 0 -0.24091893461394329 -0.21084813366110369 0 -0.25674122321858822 -0.2008090524472641 0 -0.24513638240692309 -0.18778644914859291 0 -0.24091893461394329 -0.21084813366110369 0 -0.23858856254826721 -0.18791541400944001 0 -0.24513638240692309 -0.18778644914859291 0 -0.2333023450733889 -0.20051430359624711 0 -0.24091893461394329 -0.21084813366110369 0 -0.22352227614047679 -0.21025702738805371 0 -0.24091893461394329 -0.21084813366110369 0 -0.22352227614047679 -0.21025702738805371 0 -0.22694980198856479 -0.221911169781426 0 -0.21348932881187729 -0.2210818266687061 0 -0.22352227614047679 -0.21025702738805371 0 -0.22694980198856479 -0.221911169781426 0 -0.22011698355556261 -0.23345904301565179 0 -0.22694980198856479 -0.221911169781426 0 -0.23670148682096401 -0.23390981817361459 0 -0.21348932881187729 -0.2210818266687061 0 -0.22011698355556261 -0.23345904301565179 0 -0.22694980198856479 -0.221911169781426 0 -0.24091893461394329 -0.21084813366110369 0 -0.23670148682096401 -0.23390981817361459 0 -0.23670148682096401 -0.23390981817361459 0 -0.25537346791776128 -0.23337518287370021 0 -0.25352312128131133 -0.21865805486894821 0 -0.24091893461394329 -0.21084813366110369 0 -0.23670148682096401 -0.23390981817361459 0 -0.25352312128131133 -0.21865805486894821 0 -0.24091893461394329 -0.21084813366110369 0 -0.22694980198856479 -0.221911169781426 0 -0.23670148682096401 -0.23390981817361459 0 -0.23248403902798259 -0.25697150268612517 0 -0.23670148682096401 -0.23390981817361459 0 -0.23248403902798259 -0.25697150268612517 0 -0.23670148682096401 -0.23390981817361459 0 -0.24294271272773121 -0.246967672793176 0 -0.23670148682096401 -0.23390981817361459 0 -0.24294271272773121 -0.246967672793176 0 -0.25537346791776128 -0.23337518287370021 0 -0.22011698355556261 -0.23345904301565179 0 -0.23670148682096401 -0.23390981817361459 0 -0.22523528010301411 -0.2480424028876469 0 -0.23248403902798259 -0.25697150268612517 0 -0.23670148682096401 -0.23390981817361459 0 -0.22523528010301411 -0.2480424028876469 0 -0.23248403902798259 -0.25697150268612517 0 -0.2084423165344233 -0.2442297109220444 0 -0.22523528010301411 -0.2480424028876469 0 -0.20947198983365781 -0.13915613514366271 0 -0.19943578476539239 -0.1535124706515639 0 -0.21991209386834609 -0.1566393722335708 0 -0.20947198983365781 -0.13915613514366271 0 -0.21991209386834609 -0.1566393722335708 0 -0.20947198983365781 -0.13915613514366271 0 -0.23061031571554461 -0.12781646638976951 0 -0.21609388629610621 -0.12293112853727731 0 -0.20947198983365781 -0.13915613514366271 0 -0.21609388629610621 -0.12293112853727731 0 -0.200491295645431 -0.1241168591744692 0 -0.20947198983365781 -0.13915613514366271 0 -0.200491295645431 -0.1241168591744692 0 -0.20947198983365781 -0.13915613514366271 0 -0.18989641382437511 -0.1353966106162027 0 -0.20947198983365781 -0.13915613514366271 0 -0.18989641382437511 -0.1353966106162027 0 -0.200491295645431 -0.1241168591744692 0 -0.18989641382437511 -0.1353966106162027 0 -0.200491295645431 -0.1241168591744692 0 -0.18153161793419581 -0.1215946825872664 0 -0.1820785251608758 -0.15169938672157579 0 -0.18989641382437511 -0.1353966106162027 0 -0.19943578476539239 -0.1535124706515639 0 -0.20947198983365781 -0.13915613514366271 0 -0.18989641382437511 -0.1353966106162027 0 -0.19943578476539239 -0.1535124706515639 0 -0.1820785251608758 -0.15169938672157579 0 -0.19943578476539239 -0.1535124706515639 0 -0.19046018592870531 -0.17070990168635419 0 -0.19943578476539239 -0.1535124706515639 0 -0.19046018592870531 -0.17070990168635419 0 -0.21040619191586951 -0.17241625550491679 0 -0.19046018592870531 -0.17070990168635419 0 -0.21040619191586951 -0.17241625550491679 0 -0.17975186944619159 -0.19028168233578829 0 -0.19046018592870531 -0.17070990168635419 0 -0.20116727876561821 -0.18656671697285229 0 -0.19046018592870531 -0.17070990168635419 0 -0.20116727876561821 -0.18656671697285229 0 -0.21040619191586951 -0.17241625550491679 0 -0.20116727876561821 -0.18656671697285229 0 -0.21040619191586951 -0.17241625550491679 0 -0.21744595751764159 -0.18378239743576441 0 -0.19943578476539239 -0.1535124706515639 0 -0.21040619191586951 -0.17241625550491679 0 -0.21991209386834609 -0.1566393722335708 0 -0.21040619191586951 -0.17241625550491679 0 -0.21991209386834609 -0.1566393722335708 0 -0.2303521979030336 -0.17412260932347931 0 -0.21991209386834609 -0.1566393722335708 0 -0.2303521979030336 -0.17412260932347931 0 -0.21991209386834609 -0.1566393722335708 0 -0.23381749085254999 -0.160079813120067 0 -0.2303521979030336 -0.17412260932347931 0 -0.21040619191586951 -0.17241625550491679 0 -0.21744595751764159 -0.18378239743576441 0 -0.2303521979030336 -0.17412260932347931 0 -0.21040619191586951 -0.17241625550491679 0 -0.2303521979030336 -0.17412260932347931 0 -0.23010028786790521 -0.1880825977723698 0 -0.21744595751764159 -0.18378239743576441 0 -0.2303521979030336 -0.17412260932347931 0 -0.23010028786790521 -0.1880825977723698 0 -0.23858856254826721 -0.18791541400944001 0 -0.2303521979030336 -0.17412260932347931 0 -0.2303521979030336 -0.17412260932347931 0 -0.24136983124480529 -0.18098355164987981 0 -0.2473689572304858 -0.17557837005455751 0 -0.2303521979030336 -0.17412260932347931 0 -0.2473689572304858 -0.17557837005455751 0 -0.2406912527221915 -0.16885593815159999 0 -0.2303521979030336 -0.17412260932347931 0 -0.2473689572304858 -0.17557837005455751 0 -0.23858856254826721 -0.18791541400944001 0 -0.2303521979030336 -0.17412260932347931 0 -0.24136983124480529 -0.18098355164987981 0 -0.23858856254826721 -0.18791541400944001 0 -0.2303521979030336 -0.17412260932347931 0 -0.23858856254826721 -0.18791541400944001 0 -0.24513638240692309 -0.18778644914859291 0 -0.24136983124480529 -0.18098355164987981 0 -0.24772804976076321 -0.17361479420240991 0 -0.2473689572304858 -0.17557837005455751 0 -0.25478101089251032 -0.16758650605975309 0 -0.24772804976076321 -0.17361479420240991 0 -0.2473689572304858 -0.17557837005455751 0 -0.2406912527221915 -0.16885593815159999 0 -0.24772804976076321 -0.17361479420240991 0 -0.2473689572304858 -0.17557837005455751 0 -0.24513638240692309 -0.18778644914859291 0 -0.2473689572304858 -0.17557837005455751 0 -0.25590860217853789 -0.1831402325901734 0 -0.24513638240692309 -0.18778644914859291 0 -0.24136983124480529 -0.18098355164987981 0 -0.2473689572304858 -0.17557837005455751 0 -0.24513638240692309 -0.18778644914859291 0 -0.2473689572304858 -0.17557837005455751 0 -0.2447712860700815 -0.16765217587600079 0 -0.2440445534241916 -0.15468792797012171 0 -0.25708486447101919 -0.14830027322354331 0 -0.23381749085254999 -0.160079813120067 0 -0.2401095345162351 -0.16208786633308589 0 -0.2406912527221915 -0.16885593815159999 0 -0.23381749085254999 -0.160079813120067 0 -0.2401095345162351 -0.16208786633308589 0 -0.2440445534241916 -0.15468792797012171 0 -0.23381749085254999 -0.160079813120067 0 -0.2303521979030336 -0.17412260932347931 0 -0.2406912527221915 -0.16885593815159999 0 -0.2401095345162351 -0.16208786633308589 0 -0.2406912527221915 -0.16885593815159999 0 -0.2447712860700815 -0.16765217587600079 0 -0.24772804976076321 -0.17361479420240991 0 -0.2447712860700815 -0.16765217587600079 0 -0.25478101089251032 -0.16758650605975309 0 -0.24772804976076321 -0.17361479420240991 0 -0.2406912527221915 -0.16885593815159999 0 -0.2447712860700815 -0.16765217587600079 0 -0.2401095345162351 -0.16208786633308589 0 -0.2447712860700815 -0.16765217587600079 0 -0.2440445534241916 -0.15468792797012171 0 -0.23327842715233851 -0.1437282041836033 0 -0.25708486447101919 -0.14830027322354331 0 -0.2440445534241916 -0.15468792797012171 0 -0.23327842715233851 -0.1437282041836033 0 -0.25708486447101919 -0.14830027322354331 0 -0.23381749085254999 -0.160079813120067 0 -0.2440445534241916 -0.15468792797012171 0 -0.23327842715233851 -0.1437282041836033 0 -0.23327842715233851 -0.1437282041836033 0 -0.24772293239154089 -0.13133889465524731 0 -0.25708486447101919 -0.14830027322354331 0 -0.20947198983365781 -0.13915613514366271 0 -0.21991209386834609 -0.1566393722335708 0 -0.23327842715233851 -0.1437282041836033 0 -0.21991209386834609 -0.1566393722335708 0 -0.23381749085254999 -0.160079813120067 0 -0.23327842715233851 -0.1437282041836033 0 -0.20947198983365781 -0.13915613514366271 0 -0.23327842715233851 -0.1437282041836033 0 -0.20947198983365781 -0.13915613514366271 0 -0.23327842715233851 -0.1437282041836033 0 -0.23061031571554461 -0.12781646638976951 0 -0.23327842715233851 -0.1437282041836033 0 -0.23061031571554461 -0.12781646638976951 0 -0.24772293239154089 -0.13133889465524731 0 -0.23061031571554461 -0.12781646638976951 0 -0.24772293239154089 -0.13133889465524731 0 -0.24503735981605329 -0.1125827072853236 0 -0.23061031571554461 -0.12781646638976951 0 -0.24503735981605329 -0.1125827072853236 0 -0.2282529487034872 -0.113699692663698 0 -0.24503735981605329 -0.1125827072853236 0 -0.23294755926475411 -0.096954790314265654 0 -0.2282529487034872 -0.113699692663698 0 -0.24503735981605329 -0.1125827072853236 0 -0.23294755926475411 -0.096954790314265654 0 -0.25688603403414789 -0.092606720963067407 0 -0.23294755926475411 -0.096954790314265654 0 -0.2282529487034872 -0.113699692663698 0 -0.21104789704844881 -0.1088929224334049 0 -0.23061031571554461 -0.12781646638976951 0 -0.2282529487034872 -0.113699692663698 0 -0.21609388629610621 -0.12293112853727731 0 -0.23173667754679009 -0.075722093402801477 0 -0.25365450743115009 -0.060939001971624267 0 -0.25688603403414789 -0.092606720963067407 0 -0.23173667754679009 -0.075722093402801477 0 -0.25365450743115009 -0.060939001971624267 0 -0.23294755926475411 -0.096954790314265654 0 -0.23173667754679009 -0.075722093402801477 0 -0.25688603403414789 -0.092606720963067407 0 -0.23173667754679009 -0.075722093402801477 0 -0.20981884766243011 -0.09050518483397868 0 -0.23294755926475411 -0.096954790314265654 0 -0.23173667754679009 -0.075722093402801477 0 -0.20981884766243011 -0.09050518483397868 0 -0.20981884766243011 -0.09050518483397868 0 -0.19089081917784911 -0.065799402277868707 0 -0.2133052861117696 -0.058449919329566412 0 -0.23173667754679009 -0.075722093402801477 0 -0.20981884766243011 -0.09050518483397868 0 -0.2133052861117696 -0.058449919329566412 0 -0.20981884766243011 -0.09050518483397868 0 -0.19089081917784911 -0.065799402277868707 0 -0.1843490277149705 -0.088261513355310836 0 -0.2282529487034872 -0.113699692663698 0 -0.21609388629610621 -0.12293112853727731 0 -0.21104789704844881 -0.1088929224334049 0 -0.21609388629610621 -0.12293112853727731 0 -0.21104789704844881 -0.1088929224334049 0 -0.200491295645431 -0.1241168591744692 0 -0.20981884766243011 -0.09050518483397868 0 -0.21104789704844881 -0.1088929224334049 0 -0.19151060145720331 -0.1090775832052763 0 -0.23294755926475411 -0.096954790314265654 0 -0.20981884766243011 -0.09050518483397868 0 -0.21104789704844881 -0.1088929224334049 0 -0.20981884766243011 -0.09050518483397868 0 -0.19151060145720331 -0.1090775832052763 0 -0.1843490277149705 -0.088261513355310836 0 -0.21104789704844881 -0.1088929224334049 0 -0.19151060145720331 -0.1090775832052763 0 -0.200491295645431 -0.1241168591744692 0 -0.19151060145720331 -0.1090775832052763 0 -0.200491295645431 -0.1241168591744692 0 -0.18153161793419581 -0.1215946825872664 0 -0.19151060145720331 -0.1090775832052763 0 -0.200491295645431 -0.1241168591744692 0 -0.18153161793419581 -0.1215946825872664 0 -0.16248036550564049 -0.1208905593516605 0 -0.17338554373272841 -0.104722307349814 0 -0.19151060145720331 -0.1090775832052763 0 -0.18153161793419581 -0.1215946825872664 0 -0.17338554373272841 -0.104722307349814 0 -0.16248036550564049 -0.1208905593516605 0 -0.17338554373272841 -0.104722307349814 0 -0.15109184998453529 -0.1031125753028788 0 -0.17338554373272841 -0.104722307349814 0 -0.16227299556432889 -0.085535758781070087 0 -0.15109184998453529 -0.1031125753028788 0 -0.19151060145720331 -0.1090775832052763 0 -0.17338554373272841 -0.104722307349814 0 -0.1843490277149705 -0.088261513355310836 0 -0.1843490277149705 -0.088261513355310836 0 -0.17208636647076159 -0.071429881998651606 0 -0.16227299556432889 -0.085535758781070087 0 -0.17338554373272841 -0.104722307349814 0 -0.1843490277149705 -0.088261513355310836 0 -0.16227299556432889 -0.085535758781070087 0 -0.19089081917784911 -0.065799402277868707 0 -0.1843490277149705 -0.088261513355310836 0 -0.17208636647076159 -0.071429881998651606 0 -0.17208636647076159 -0.071429881998651606 0 -0.16227299556432889 -0.085535758781070087 0 -0.155124569585951 -0.065981390761876799 0 -0.16227299556432889 -0.085535758781070087 0 -0.1347361743099933 -0.078605546530011824 0 -0.15109184998453529 -0.1031125753028788 0 -0.16227299556432889 -0.085535758781070087 0 -0.155124569585951 -0.065981390761876799 0 -0.1347361743099933 -0.078605546530011824 0 -0.155124569585951 -0.065981390761876799 0 -0.1347361743099933 -0.078605546530011824 0 -0.13908757360176691 -0.049474654846187169 0 -0.1347361743099933 -0.078605546530011824 0 -0.13908757360176691 -0.049474654846187169 0 -0.12376213601859951 -0.066982849024258689 0 -0.1347361743099933 -0.078605546530011824 0 -0.13908757360176691 -0.049474654846187169 0 -0.1195403803683202 -0.092073109965608288 0 -0.1347361743099933 -0.078605546530011824 0 -0.1303847750182198 -0.10773643821383649 0 -0.1347361743099933 -0.078605546530011824 0 -0.1303847750182198 -0.10773643821383649 0 -0.1347361743099933 -0.078605546530011824 0 -0.1303847750182198 -0.10773643821383649 0 -0.15109184998453529 -0.1031125753028788 0 -0.12603337572644699 -0.1368673298976614 0 -0.1443171630234851 -0.12535623658683251 0 -0.1303847750182198 -0.10773643821383649 0 -0.12603337572644699 -0.1368673298976614 0 -0.1303847750182198 -0.10773643821383649 0 -0.1443171630234851 -0.12535623658683251 0 -0.1303847750182198 -0.10773643821383649 0 -0.15109184998453529 -0.1031125753028788 0 -0.1443171630234851 -0.12535623658683251 0 -0.16248036550564049 -0.1208905593516605 0 -0.15109184998453529 -0.1031125753028788 0 -0.14324914951232329 -0.02161455538033865 0 -0.15197120636494621 -0.036238192358491642 0 -0.1612896103418609 -0.017757633644541401 0 -0.14324914951232329 -0.02161455538033865 0 -0.14741072542287981 0.0062455440855098826 0 -0.14324914951232329 -0.02161455538033865 0 -0.1612896103418609 -0.017757633644541401 0 -0.14741072542287981 0.0062455440855098826 0 -0.12470345280778559 -0.0046060833266749566 0 -0.14324914951232329 -0.02161455538033865 0 -0.14741072542287981 0.0062455440855098826 0 -0.12470345280778559 -0.0046060833266749566 0 -0.14324914951232329 -0.02161455538033865 0 -0.1280472677748169 -0.031270983682370253 0 -0.1216565042630109 -0.052311087021476903 0 -0.1280472677748169 -0.031270983682370253 0 -0.13908757360176691 -0.049474654846187169 0 -0.14324914951232329 -0.02161455538033865 0 -0.1280472677748169 -0.031270983682370253 0 -0.13908757360176691 -0.049474654846187169 0 -0.1216565042630109 -0.052311087021476903 0 -0.13908757360176691 -0.049474654846187169 0 -0.12376213601859951 -0.066982849024258689 0 -0.12240676741817839 -0.054088144665157413 0 -0.13908757360176691 -0.049474654846187169 0 -0.12240676741817839 -0.054088144665157413 0 -0.1216565042630109 -0.052311087021476903 0 -0.13908757360176691 -0.049474654846187169 0 -0.13908757360176691 -0.049474654846187169 0 -0.1674397379829041 -0.044861111653463223 0 -0.155124569585951 -0.065981390761876799 0 -0.13908757360176691 -0.049474654846187169 0 -0.1674397379829041 -0.044861111653463223 0 -0.13908757360176691 -0.049474654846187169 0 -0.15197120636494621 -0.036238192358491642 0 -0.1674397379829041 -0.044861111653463223 0 -0.14324914951232329 -0.02161455538033865 0 -0.13908757360176691 -0.049474654846187169 0 -0.15197120636494621 -0.036238192358491642 0 -0.14324914951232329 -0.02161455538033865 0 -0.13908757360176691 -0.049474654846187169 0 -0.15197120636494621 -0.036238192358491642 0 -0.1674397379829041 -0.044861111653463223 0 -0.1612896103418609 -0.017757633644541401 0 -0.17208636647076159 -0.071429881998651606 0 -0.155124569585951 -0.065981390761876799 0 -0.1674397379829041 -0.044861111653463223 0 -0.19089081917784911 -0.065799402277868707 0 -0.1674397379829041 -0.044861111653463223 0 -0.19579190236404129 -0.040247568460739208 0 -0.19089081917784911 -0.065799402277868707 0 -0.17208636647076159 -0.071429881998651606 0 -0.1674397379829041 -0.044861111653463223 0 -0.1674397379829041 -0.044861111653463223 0 -0.19579190236404129 -0.040247568460739208 0 -0.1674397379829041 -0.044861111653463223 0 -0.17923962961243561 -0.027034139361650191 0 -0.19579190236404129 -0.040247568460739208 0 -0.17923962961243561 -0.027034139361650191 0 -0.1612896103418609 -0.017757633644541401 0 -0.17580682899312269 -0.0061346579875049198 0 -0.17923962961243561 -0.027034139361650191 0 -0.17580682899312269 -0.0061346579875049198 0 -0.19693754069751959 -0.01439955587470536 0 -0.1674397379829041 -0.044861111653463223 0 -0.17923962961243561 -0.027034139361650191 0 -0.1612896103418609 -0.017757633644541401 0 -0.1612896103418609 -0.017757633644541401 0 -0.14741072542287981 0.0062455440855098826 0 -0.1639099945044146 0.0053336771441489048 0 -0.1612896103418609 -0.017757633644541401 0 -0.17580682899312269 -0.0061346579875049198 0 -0.1639099945044146 0.0053336771441489048 0 -0.19693754069751959 -0.01439955587470536 0 -0.19082965241075781 0.0065390538441611546 0 -0.20691016890114819 0.0055059637443243548 0 -0.17580682899312269 -0.0061346579875049198 0 -0.19693754069751959 -0.01439955587470536 0 -0.19082965241075781 0.0065390538441611546 0 -0.19693754069751959 -0.01439955587470536 0 -0.2109031286337695 -0.025255983677518822 0 -0.19579190236404129 -0.040247568460739208 0 -0.17923962961243561 -0.027034139361650191 0 -0.19693754069751959 -0.01439955587470536 0 -0.19579190236404129 -0.040247568460739208 0 -0.19693754069751959 -0.01439955587470536 0 -0.2109031286337695 -0.025255983677518822 0 -0.21996096074885901 -0.011079176325400109 0 -0.2109031286337695 -0.025255983677518822 0 -0.21996096074885901 -0.011079176325400109 0 -0.22200497718109419 -0.02490837541651467 0 -0.21996096074885901 -0.011079176325400109 0 -0.20691016890114819 0.0055059637443243548 0 -0.21996096074885901 -0.011079176325400109 0 -0.20691016890114819 0.0055059637443243548 0 -0.22778700167026009 0.001198131637768274 0 -0.19693754069751959 -0.01439955587470536 0 -0.21996096074885901 -0.011079176325400109 0 -0.20691016890114819 0.0055059637443243548 0 -0.19089081917784911 -0.065799402277868707 0 -0.19579190236404129 -0.040247568460739208 0 -0.2133052861117696 -0.058449919329566412 0 -0.19579190236404129 -0.040247568460739208 0 -0.22414406674517851 -0.035634025268015193 0 -0.2109031286337695 -0.025255983677518822 0 -0.19579190236404129 -0.040247568460739208 0 -0.22414406674517851 -0.035634025268015193 0 -0.19579190236404129 -0.040247568460739208 0 -0.2133052861117696 -0.058449919329566412 0 -0.22414406674517851 -0.035634025268015193 0 -0.2133052861117696 -0.058449919329566412 0 -0.2264332684530197 -0.051660007978800979 0 -0.22414406674517851 -0.035634025268015193 0 -0.23173667754679009 -0.075722093402801477 0 -0.2133052861117696 -0.058449919329566412 0 -0.2264332684530197 -0.051660007978800979 0 -0.23173667754679009 -0.075722093402801477 0 -0.2264332684530197 -0.051660007978800979 0 -0.24123298848395461 -0.049926787526349839 0 -0.2264332684530197 -0.051660007978800979 0 -0.22414406674517851 -0.035634025268015193 0 -0.24123298848395461 -0.049926787526349839 0 -0.22414406674517851 -0.035634025268015193 0 -0.25249623112631581 -0.031020482075291171 0 -0.22414406674517851 -0.035634025268015193 0 -0.23301175259656989 -0.02766431639512457 0 -0.25249623112631581 -0.031020482075291171 0 -0.22414406674517851 -0.035634025268015193 0 -0.24123298848395461 -0.049926787526349839 0 -0.25249623112631581 -0.031020482075291171 0 -0.23173667754679009 -0.075722093402801477 0 -0.24123298848395461 -0.049926787526349839 0 -0.25365450743115009 -0.060939001971624267 0 -0.21996096074885901 -0.011079176325400109 0 -0.2350979178344092 -0.011639730406129291 0 -0.22778700167026009 0.001198131637768274 0 -0.2350979178344092 -0.011639730406129291 0 -0.22778700167026009 0.001198131637768274 0 -0.2397929814435005 0.001308928103204989 0 -0.21996096074885901 -0.011079176325400109 0 -0.22200497718109419 -0.02490837541651467 0 -0.23301175259656989 -0.02766431639512457 0 -0.21996096074885901 -0.011079176325400109 0 -0.23301175259656989 -0.02766431639512457 0 -0.21996096074885901 -0.011079176325400109 0 -0.23301175259656989 -0.02766431639512457 0 -0.2350979178344092 -0.011639730406129291 0 -0.22414406674517851 -0.035634025268015193 0 -0.22200497718109419 -0.02490837541651467 0 -0.23301175259656989 -0.02766431639512457 0 -0.2109031286337695 -0.025255983677518822 0 -0.22414406674517851 -0.035634025268015193 0 -0.22200497718109419 -0.02490837541651467 0 -0.23301175259656989 -0.02766431639512457 0 -0.24458212390572309 -0.019406751194195011 0 -0.2350979178344092 -0.011639730406129291 0 -0.23301175259656989 -0.02766431639512457 0 -0.24458212390572309 -0.019406751194195011 0 -0.25249623112631581 -0.031020482075291171 0 -0.24458212390572309 -0.019406751194195011 0 -0.24617050408342431 -0.01070556722276971 0 -0.25613421388789659 -0.01600365987166031 0 -0.24458212390572309 -0.019406751194195011 0 -0.24617050408342431 -0.01070556722276971 0 -0.2350979178344092 -0.011639730406129291 0 -0.24617050408342431 -0.01070556722276971 0 -0.2350979178344092 -0.011639730406129291 0 -0.2397929814435005 0.001308928103204989 0 -0.24617050408342431 -0.01070556722276971 0 -0.25537996419202591 -0.0033143468573220759 0 -0.2397929814435005 0.001308928103204989 0 -0.24617050408342431 -0.01070556722276971 0 -0.25537996419202591 -0.0033143468573220759 0 -0.25613421388789659 -0.01600365987166031 0 -0.25613421388789659 -0.01600365987166031 0 -0.26740964759094799 -0.018783394967796921 0 -0.26863379257836201 -0.0075323160215806364 0 -0.25537996419202591 -0.0033143468573220759 0 -0.25613421388789659 -0.01600365987166031 0 -0.26863379257836201 -0.0075323160215806364 0 -0.25537996419202591 -0.0033143468573220759 0 -0.26863379257836201 -0.0075323160215806364 0 -0.26514382374020828 0.0054859781629250631 0 -0.24458212390572309 -0.019406751194195011 0 -0.25249623112631581 -0.031020482075291171 0 -0.25613421388789659 -0.01600365987166031 0 -0.25249623112631581 -0.031020482075291171 0 -0.25613421388789659 -0.01600365987166031 0 -0.26740964759094799 -0.018783394967796921 0 -0.25249623112631581 -0.031020482075291171 0 -0.26740964759094799 -0.018783394967796921 0 -0.28084839550745311 -0.026406938882567139 0 -0.25249623112631581 -0.031020482075291171 0 -0.28084839550745311 -0.026406938882567139 0 -0.26740964759094799 -0.018783394967796921 0 -0.28084839550745311 -0.026406938882567139 0 -0.27893560485471269 -0.012953577987885351 0 -0.26863379257836201 -0.0075323160215806364 0 -0.26514382374020828 0.0054859781629250631 0 -0.28202086463559128 0.00085761427244706039 0 -0.26740964759094799 -0.018783394967796921 0 -0.26863379257836201 -0.0075323160215806364 0 -0.27893560485471269 -0.012953577987885351 0 -0.26863379257836201 -0.0075323160215806364 0 -0.27893560485471269 -0.012953577987885351 0 -0.28202086463559128 0.00085761427244706039 0 -0.27893560485471269 -0.012953577987885351 0 -0.29291448666874648 -0.011133384489182409 0 -0.28202086463559128 0.00085761427244706039 0 -0.29291448666874648 -0.011133384489182409 0 -0.28202086463559128 0.00085761427244706039 0 -0.29949908819018478 0.0071836852143538294 0 -0.28084839550745311 -0.026406938882567139 0 -0.30920055988859041 -0.021793395689843089 0 -0.28084839550745311 -0.026406938882567139 0 -0.29291448666874648 -0.011133384489182409 0 -0.30920055988859041 -0.021793395689843089 0 -0.28084839550745311 -0.026406938882567139 0 -0.27893560485471269 -0.012953577987885351 0 -0.29291448666874648 -0.011133384489182409 0 -0.28084839550745311 -0.026406938882567139 0 -0.30920055988859041 -0.021793395689843089 0 -0.29749016719987031 -0.03137281910926986 0 -0.30920055988859041 -0.021793395689843089 0 -0.30967158545253187 -0.036315295396067031 0 -0.29749016719987031 -0.03137281910926986 0 -0.30920055988859041 -0.021793395689843089 0 -0.30565178628296208 -0.0059818783442715153 0 -0.32099301038432648 0.001815581587585604 0 -0.29291448666874648 -0.011133384489182409 0 -0.30565178628296208 -0.0059818783442715153 0 -0.29949908819018478 0.0071836852143538294 0 -0.29291448666874648 -0.011133384489182409 0 -0.30920055988859041 -0.021793395689843089 0 -0.30565178628296208 -0.0059818783442715153 0 -0.29910650244009152 -0.049593349686303738 0 -0.31410225282291088 -0.063002324753473338 0 -0.3195299278177503 -0.046367972817906652 0 -0.29910650244009152 -0.049593349686303738 0 -0.29745987114069439 -0.065179178813476915 0 -0.31410225282291088 -0.063002324753473338 0 -0.29910650244009152 -0.049593349686303738 0 -0.30967158545253187 -0.036315295396067031 0 -0.3195299278177503 -0.046367972817906652 0 -0.29910650244009152 -0.049593349686303738 0 -0.30967158545253187 -0.036315295396067031 0 -0.29749016719987031 -0.03137281910926986 0 -0.29910650244009152 -0.049593349686303738 0 -0.29749016719987031 -0.03137281910926986 0 -0.27557233731551017 -0.046155910540447057 0 -0.28084839550745311 -0.026406938882567139 0 -0.29749016719987031 -0.03137281910926986 0 -0.27557233731551017 -0.046155910540447057 0 -0.29749016719987031 -0.03137281910926986 0 -0.27557233731551017 -0.046155910540447057 0 -0.29910650244009152 -0.049593349686303738 0 -0.28144688577142718 -0.063362282128270053 0 -0.29745987114069439 -0.065179178813476915 0 -0.29910650244009152 -0.049593349686303738 0 -0.27557233731551017 -0.046155910540447057 0 -0.28144688577142718 -0.063362282128270053 0 -0.27557233731551017 -0.046155910540447057 0 -0.25365450743115009 -0.060939001971624267 0 -0.28144688577142718 -0.063362282128270053 0 -0.28084839550745311 -0.026406938882567139 0 -0.27557233731551017 -0.046155910540447057 0 -0.25934544250558911 -0.045737000160778467 0 -0.24123298848395461 -0.049926787526349839 0 -0.25249623112631581 -0.031020482075291171 0 -0.25934544250558911 -0.045737000160778467 0 -0.25249623112631581 -0.031020482075291171 0 -0.28084839550745311 -0.026406938882567139 0 -0.25934544250558911 -0.045737000160778467 0 -0.24123298848395461 -0.049926787526349839 0 -0.25934544250558911 -0.045737000160778467 0 -0.25365450743115009 -0.060939001971624267 0 -0.27557233731551017 -0.046155910540447057 0 -0.25934544250558911 -0.045737000160778467 0 -0.25365450743115009 -0.060939001971624267 0 -0.27557233731551017 -0.046155910540447057 0 -0.25365450743115009 -0.060939001971624267 0 -0.25365450743115009 -0.060939001971624267 0 -0.25688603403414789 -0.092606720963067407 0 -0.27367447851371368 -0.079876043474549893 0 -0.25688603403414789 -0.092606720963067407 0 -0.27367447851371368 -0.079876043474549893 0 -0.28617807769762299 -0.1025776561356017 0 -0.25365450743115009 -0.060939001971624267 0 -0.27367447851371368 -0.079876043474549893 0 -0.28144688577142718 -0.063362282128270053 0 -0.24503735981605329 -0.1125827072853236 0 -0.25688603403414789 -0.092606720963067407 0 -0.27163147108432112 -0.12543896467957261 0 -0.25688603403414789 -0.092606720963067407 0 -0.28617807769762299 -0.1025776561356017 0 -0.27163147108432112 -0.12543896467957261 0 -0.24772293239154089 -0.13133889465524731 0 -0.24503735981605329 -0.1125827072853236 0 -0.27163147108432112 -0.12543896467957261 0 -0.28617807769762299 -0.1025776561356017 0 -0.27163147108432112 -0.12543896467957261 0 -0.28617807769762299 -0.1025776561356017 0 -0.30204109523775191 -0.11588242641978801 0 -0.27163147108432112 -0.12543896467957261 0 -0.28617807769762299 -0.1025776561356017 0 -0.30204109523775191 -0.11588242641978801 0 -0.30800628651075568 -0.086769864664818508 0 -0.30204109523775191 -0.11588242641978801 0 -0.30800628651075568 -0.086769864664818508 0 -0.32050133005592779 -0.10650842149919949 0 -0.27367447851371368 -0.079876043474549893 0 -0.28144688577142718 -0.063362282128270053 0 -0.29091636609623228 -0.080940518953448393 0 -0.28144688577142718 -0.063362282128270053 0 -0.29091636609623228 -0.080940518953448393 0 -0.29745987114069439 -0.065179178813476915 0 -0.27367447851371368 -0.079876043474549893 0 -0.28617807769762299 -0.1025776561356017 0 -0.29091636609623228 -0.080940518953448393 0 -0.28617807769762299 -0.1025776561356017 0 -0.29091636609623228 -0.080940518953448393 0 -0.30800628651075568 -0.086769864664818508 0 -0.29091636609623228 -0.080940518953448393 0 -0.30800628651075568 -0.086769864664818508 0 -0.29745987114069439 -0.065179178813476915 0 -0.30800628651075568 -0.086769864664818508 0 -0.29745987114069439 -0.065179178813476915 0 -0.31410225282291088 -0.063002324753473338 0 -0.30800628651075568 -0.086769864664818508 0 -0.31410225282291088 -0.063002324753473338 0 -0.32830887133568309 -0.072996170550863992 0 -0.31410225282291088 -0.063002324753473338 0 -0.32830887133568309 -0.072996170550863992 0 -0.32988591926644062 -0.056544420237666232 0 -0.30800628651075568 -0.086769864664818508 0 -0.32849145931956297 -0.090259263497117465 0 -0.32830887133568309 -0.072996170550863992 0 -0.32849145931956297 -0.090259263497117465 0 -0.32830887133568309 -0.072996170550863992 0 -0.34992556006681952 -0.083517317777766095 0 -0.32849145931956297 -0.090259263497117465 0 -0.33986261005728741 -0.1021781997566102 0 -0.34992556006681952 -0.083517317777766095 0 -0.32830887133568309 -0.072996170550863992 0 -0.34992556006681952 -0.083517317777766095 0 -0.34934681113064192 -0.059061293029027413 0 -0.32830887133568309 -0.072996170550863992 0 -0.34934681113064192 -0.059061293029027413 0 -0.32988591926644062 -0.056544420237666232 0 -0.32050133005592779 -0.10650842149919949 0 -0.33459243554469081 -0.1175211127864776 0 -0.31763087271419421 -0.12765483662631591 0 -0.30204109523775191 -0.11588242641978801 0 -0.32050133005592779 -0.10650842149919949 0 -0.31763087271419421 -0.12765483662631591 0 -0.30800628651075568 -0.086769864664818508 0 -0.32849145931956297 -0.090259263497117465 0 -0.32050133005592779 -0.10650842149919949 0 -0.32849145931956297 -0.090259263497117465 0 -0.32050133005592779 -0.10650842149919949 0 -0.33986261005728741 -0.1021781997566102 0 -0.32050133005592779 -0.10650842149919949 0 -0.33986261005728741 -0.1021781997566102 0 -0.33459243554469081 -0.1175211127864776 0 -0.33459243554469081 -0.1175211127864776 0 -0.35434040367210479 -0.113469288226446 0 -0.34062696122393998 -0.13779481782381639 0 -0.33986261005728741 -0.1021781997566102 0 -0.33459243554469081 -0.1175211127864776 0 -0.35434040367210479 -0.113469288226446 0 -0.33986261005728741 -0.1021781997566102 0 -0.35586719872608957 -0.099698817343702187 0 -0.34992556006681952 -0.083517317777766095 0 -0.33986261005728741 -0.1021781997566102 0 -0.35434040367210479 -0.113469288226446 0 -0.35586719872608957 -0.099698817343702187 0 -0.35434040367210479 -0.113469288226446 0 -0.35586719872608957 -0.099698817343702187 0 -0.36508535353380189 -0.1099377977110164 0 -0.36508535353380189 -0.1099377977110164 0 -0.37617501273955611 -0.093033843292049695 0 -0.37731074966784972 -0.11796541200019819 0 -0.35586719872608957 -0.099698817343702187 0 -0.36508535353380189 -0.1099377977110164 0 -0.37617501273955611 -0.093033843292049695 0 -0.36508535353380189 -0.1099377977110164 0 -0.36242754809725342 -0.12593932953275239 0 -0.37731074966784972 -0.11796541200019819 0 -0.35434040367210479 -0.113469288226446 0 -0.36508535353380189 -0.1099377977110164 0 -0.36242754809725342 -0.12593932953275239 0 -0.36242754809725342 -0.12593932953275239 0 -0.37731074966784972 -0.11796541200019819 0 -0.34992556006681952 -0.083517317777766095 0 -0.37503927581126328 -0.06810227458390114 0 -0.34934681113064192 -0.059061293029027413 0 -0.34992556006681952 -0.083517317777766095 0 -0.37503927581126328 -0.06810227458390114 0 -0.37617501273955611 -0.093033843292049695 0 -0.35586719872608957 -0.099698817343702187 0 -0.34992556006681952 -0.083517317777766095 0 -0.37617501273955611 -0.093033843292049695 0 -0.37503927581126328 -0.06810227458390114 0 -0.37390353888297051 -0.043170705875752648 0 -0.37503927581126328 -0.06810227458390114 0 -0.34934681113064192 -0.059061293029027413 0 -0.37390353888297051 -0.043170705875752648 0 -0.34934681113064192 -0.059061293029027413 0 -0.35603626987138781 -0.031492981361356247 0 -0.33814173322521662 -0.041294340037059757 0 -0.34934681113064192 -0.059061293029027413 0 -0.35603626987138781 -0.031492981361356247 0 -0.37390353888297051 -0.043170705875752648 0 -0.37390353888297051 -0.043170705875752648 0 -0.37276780195467768 -0.018239137167604211 0 -0.35603626987138781 -0.031492981361356247 0 -0.37276780195467768 -0.018239137167604211 0 -0.36590488865086518 -0.012566309304395 0 -0.35603626987138781 -0.031492981361356247 0 -0.37390353888297051 -0.043170705875752648 0 -0.37276780195467768 -0.018239137167604211 0 -0.37276780195467768 -0.018239137167604211 0 -0.37163206502638491 0.0066924315405442192 0 -0.36590488865086518 -0.012566309304395 0 -0.37163206502638491 0.0066924315405442192 0 -0.36274735004998171 0.00073078404237994238 0 -0.37276780195467768 -0.018239137167604211 0 -0.36590488865086518 -0.012566309304395 0 -0.37163206502638491 0.0066924315405442192 0 -0.36590488865086518 -0.012566309304395 0 -0.35377703023811358 -0.0010742091296599219 0 -0.36274735004998171 0.00073078404237994238 0 -0.36590488865086518 -0.012566309304395 0 -0.35377703023811358 -0.0010742091296599219 0 -0.33755272426972788 -0.017179852497119039 0 -0.36590488865086518 -0.012566309304395 0 -0.33755272426972788 -0.017179852497119039 0 -0.35377703023811358 -0.0010742091296599219 0 -0.33755272426972788 -0.017179852497119039 0 -0.34128894299642848 0.0122757678100476 0 -0.35603626987138781 -0.031492981361356247 0 -0.33755272426972788 -0.017179852497119039 0 -0.33814173322521662 -0.041294340037059757 0 -0.35603626987138781 -0.031492981361356247 0 -0.36590488865086518 -0.012566309304395 0 -0.33755272426972788 -0.017179852497119039 0 -0.33755272426972788 -0.017179852497119039 0 -0.32303076991635699 -0.032448939677011811 0 -0.33814173322521662 -0.041294340037059757 0 -0.33755272426972788 -0.017179852497119039 0 -0.32099301038432648 0.001815581587585604 0 -0.34128894299642848 0.0122757678100476 0 -0.30920055988859041 -0.021793395689843089 0 -0.33755272426972788 -0.017179852497119039 0 -0.32099301038432648 0.001815581587585604 0 -0.30920055988859041 -0.021793395689843089 0 -0.33755272426972788 -0.017179852497119039 0 -0.32303076991635699 -0.032448939677011811 0 -0.30920055988859041 -0.021793395689843089 0 -0.33755272426972788 -0.017179852497119039 0 -0.30920055988859041 -0.021793395689843089 0 -0.30967158545253187 -0.036315295396067031 0 -0.32303076991635699 -0.032448939677011811 0 -0.32303076991635699 -0.032448939677011811 0 -0.3195299278177503 -0.046367972817906652 0 -0.33814173322521662 -0.041294340037059757 0 -0.30967158545253187 -0.036315295396067031 0 -0.32303076991635699 -0.032448939677011811 0 -0.3195299278177503 -0.046367972817906652 0 -0.31410225282291088 -0.063002324753473338 0 -0.3195299278177503 -0.046367972817906652 0 -0.32988591926644062 -0.056544420237666232 0 -0.34934681113064192 -0.059061293029027413 0 -0.32988591926644062 -0.056544420237666232 0 -0.33814173322521662 -0.041294340037059757 0 -0.3195299278177503 -0.046367972817906652 0 -0.32988591926644062 -0.056544420237666232 0 -0.33814173322521662 -0.041294340037059757 0 -0.31050647450060431 -0.2410285869008367 0 -0.29406358844652708 -0.22039105191541941 0 -0.28963298834919088 -0.24225856961697509 0 -0.30054691257939542 -0.2663760254010798 0 -0.31050647450060431 -0.2410285869008367 0 -0.28963298834919088 -0.24225856961697509 0 -0.31050647450060431 -0.2410285869008367 0 -0.29406358844652708 -0.22039105191541941 0 -0.31368013521819071 -0.22107456735880379 0 -0.29406358844652708 -0.22039105191541941 0 -0.28963298834919088 -0.24225856961697509 0 -0.27537498001236382 -0.23098367292649061 0 -0.28055215674720962 -0.259307170174222 0 -0.28963298834919088 -0.24225856961697509 0 -0.27008861651860572 -0.24452686936845 0 -0.28963298834919088 -0.24225856961697509 0 -0.27008861651860572 -0.24452686936845 0 -0.27537498001236382 -0.23098367292649061 0 -0.27008861651860572 -0.24452686936845 0 -0.25537346791776128 -0.23337518287370021 0 -0.27537498001236382 -0.23098367292649061 0 -0.27008861651860572 -0.24452686936845 0 -0.25652616337425588 -0.24696241029445379 0 -0.25537346791776128 -0.23337518287370021 0 -0.24294271272773121 -0.246967672793176 0 -0.25652616337425588 -0.24696241029445379 0 -0.25537346791776128 -0.23337518287370021 0 -0.25537346791776128 -0.23337518287370021 0 -0.26771623882973378 -0.21436669085790819 0 -0.25352312128131133 -0.21865805486894821 0 -0.29406358844652708 -0.22039105191541941 0 -0.27537498001236382 -0.23098367292649061 0 -0.26771623882973378 -0.21436669085790819 0 -0.25537346791776128 -0.23337518287370021 0 -0.27537498001236382 -0.23098367292649061 0 -0.26771623882973378 -0.21436669085790819 0 -0.29406358844652708 -0.22039105191541941 0 -0.26771623882973378 -0.21436669085790819 0 -0.27943970958483572 -0.20089979025300919 0 -0.26771623882973378 -0.21436669085790819 0 -0.2679783851753601 -0.20028402582451099 0 -0.27943970958483572 -0.20089979025300919 0 -0.26771623882973378 -0.21436669085790819 0 -0.25352312128131133 -0.21865805486894821 0 -0.25674122321858822 -0.2008090524472641 0 -0.24091893461394329 -0.21084813366110369 0 -0.25352312128131133 -0.21865805486894821 0 -0.25674122321858822 -0.2008090524472641 0 -0.26771623882973378 -0.21436669085790819 0 -0.25674122321858822 -0.2008090524472641 0 -0.2679783851753601 -0.20028402582451099 0 -0.24513638240692309 -0.18778644914859291 0 -0.25674122321858822 -0.2008090524472641 0 -0.267824280380485 -0.18733959177191481 0 -0.24513638240692309 -0.18778644914859291 0 -0.267824280380485 -0.18733959177191481 0 -0.25674122321858822 -0.2008090524472641 0 -0.2679783851753601 -0.20028402582451099 0 -0.267824280380485 -0.18733959177191481 0 -0.27943970958483572 -0.20089979025300919 0 -0.29051217835404691 -0.18689273439523479 0 -0.267824280380485 -0.18733959177191481 0 -0.2679783851753601 -0.20028402582451099 0 -0.27943970958483572 -0.20089979025300919 0 -0.267824280380485 -0.18733959177191481 0 -0.27943970958483572 -0.20089979025300919 0 -0.30363183238706892 -0.20341846446698811 0 -0.29051217835404691 -0.18689273439523479 0 -0.29406358844652708 -0.22039105191541941 0 -0.27943970958483572 -0.20089979025300919 0 -0.30363183238706892 -0.20341846446698811 0 -0.29406358844652708 -0.22039105191541941 0 -0.30363183238706892 -0.20341846446698811 0 -0.29406358844652708 -0.22039105191541941 0 -0.30363183238706892 -0.20341846446698811 0 -0.31368013521819071 -0.22107456735880379 0 -0.30363183238706892 -0.20341846446698811 0 -0.31320007632760888 -0.18644587701855581 0 -0.30363183238706892 -0.20341846446698811 0 -0.29051217835404691 -0.18689273439523479 0 -0.31320007632760888 -0.18644587701855581 0 -0.30457544819362509 -0.16852149368130709 0 -0.29051217835404691 -0.18689273439523479 0 -0.31320007632760888 -0.18644587701855581 0 -0.29051217835404691 -0.18689273439523479 0 -0.31320007632760888 -0.18644587701855581 0 -0.30457544819362509 -0.16852149368130709 0 -0.29686817951060052 -0.15594073032192321 0 -0.31384489502492952 -0.14833492925962091 0 -0.30457544819362509 -0.16852149368130709 0 -0.28638053834274402 -0.16890263465221911 0 -0.29686817951060052 -0.15594073032192321 0 -0.28638053834274402 -0.16890263465221911 0 -0.27697652199080991 -0.15212050177273331 0 -0.29686817951060052 -0.15594073032192321 0 -0.30457544819362509 -0.16852149368130709 0 -0.28638053834274402 -0.16890263465221911 0 -0.29051217835404691 -0.18689273439523479 0 -0.28638053834274402 -0.16890263465221911 0 -0.29051217835404691 -0.18689273439523479 0 -0.27745519347755421 -0.17750236047556411 0 -0.29051217835404691 -0.18689273439523479 0 -0.27745519347755421 -0.17750236047556411 0 -0.267824280380485 -0.18733959177191481 0 -0.29051217835404691 -0.18689273439523479 0 -0.267824280380485 -0.18733959177191481 0 -0.27745519347755421 -0.17750236047556411 0 -0.26885219682485539 -0.1774162321278232 0 -0.27370677348563949 -0.16696060943062849 0 -0.27745519347755421 -0.17750236047556411 0 -0.26885219682485539 -0.1774162321278232 0 -0.267824280380485 -0.18733959177191481 0 -0.267824280380485 -0.18733959177191481 0 -0.25998850915359112 -0.18086860663611709 0 -0.25590860217853789 -0.1831402325901734 0 -0.26885219682485539 -0.1774162321278232 0 -0.267824280380485 -0.18733959177191481 0 -0.25998850915359112 -0.18086860663611709 0 -0.2473689572304858 -0.17557837005455751 0 -0.26885219682485539 -0.1774162321278232 0 -0.25478101089251032 -0.16758650605975309 0 -0.2473689572304858 -0.17557837005455751 0 -0.26885219682485539 -0.1774162321278232 0 -0.2473689572304858 -0.17557837005455751 0 -0.26885219682485539 -0.1774162321278232 0 -0.25998850915359112 -0.18086860663611709 0 -0.24513638240692309 -0.18778644914859291 0 -0.267824280380485 -0.18733959177191481 0 -0.25590860217853789 -0.1831402325901734 0 -0.2473689572304858 -0.17557837005455751 0 -0.25998850915359112 -0.18086860663611709 0 -0.25590860217853789 -0.1831402325901734 0 -0.2447712860700815 -0.16765217587600079 0 -0.25708486447101919 -0.14830027322354331 0 -0.2447712860700815 -0.16765217587600079 0 -0.25478101089251032 -0.16758650605975309 0 -0.25708486447101919 -0.14830027322354331 0 -0.25478101089251032 -0.16758650605975309 0 -0.26288071099785648 -0.1629571908741842 0 -0.25708486447101919 -0.14830027322354331 0 -0.26885219682485539 -0.1774162321278232 0 -0.25478101089251032 -0.16758650605975309 0 -0.26288071099785648 -0.1629571908741842 0 -0.26288071099785648 -0.1629571908741842 0 -0.27370677348563949 -0.16696060943062849 0 -0.27697652199080991 -0.15212050177273331 0 -0.28638053834274402 -0.16890263465221911 0 -0.27370677348563949 -0.16696060943062849 0 -0.27697652199080991 -0.15212050177273331 0 -0.26885219682485539 -0.1774162321278232 0 -0.26288071099785648 -0.1629571908741842 0 -0.27370677348563949 -0.16696060943062849 0 -0.28638053834274402 -0.16890263465221911 0 -0.27745519347755421 -0.17750236047556411 0 -0.27370677348563949 -0.16696060943062849 0 -0.27697652199080991 -0.15212050177273331 0 -0.25708486447101919 -0.14830027322354331 0 -0.27697652199080991 -0.15212050177273331 0 -0.25708486447101919 -0.14830027322354331 0 -0.27163147108432112 -0.12543896467957261 0 -0.26288071099785648 -0.1629571908741842 0 -0.27697652199080991 -0.15212050177273331 0 -0.25708486447101919 -0.14830027322354331 0 -0.25708486447101919 -0.14830027322354331 0 -0.27163147108432112 -0.12543896467957261 0 -0.24772293239154089 -0.13133889465524731 0 -0.25708486447101919 -0.14830027322354331 0 -0.27163147108432112 -0.12543896467957261 0 -0.30204109523775191 -0.11588242641978801 0 -0.27163147108432112 -0.12543896467957261 0 -0.29645438973144211 -0.13797734968317599 0 -0.27697652199080991 -0.15212050177273331 0 -0.27163147108432112 -0.12543896467957261 0 -0.29645438973144211 -0.13797734968317599 0 -0.27697652199080991 -0.15212050177273331 0 -0.29645438973144211 -0.13797734968317599 0 -0.29686817951060052 -0.15594073032192321 0 -0.27697652199080991 -0.15212050177273331 0 -0.29686817951060052 -0.15594073032192321 0 -0.29645438973144211 -0.13797734968317599 0 -0.29686817951060052 -0.15594073032192321 0 -0.31384489502492952 -0.14833492925962091 0 -0.29645438973144211 -0.13797734968317599 0 -0.31763087271419421 -0.12765483662631591 0 -0.31384489502492952 -0.14833492925962091 0 -0.30204109523775191 -0.11588242641978801 0 -0.29645438973144211 -0.13797734968317599 0 -0.31763087271419421 -0.12765483662631591 0 -0.31763087271419421 -0.12765483662631591 0 -0.31384489502492952 -0.14833492925962091 0 -0.34062696122393998 -0.13779481782381639 0 -0.31384489502492952 -0.14833492925962091 0 -0.34062696122393998 -0.13779481782381639 0 -0.32691351877577529 -0.16212034742118661 0 -0.34062696122393998 -0.13779481782381639 0 -0.32691351877577529 -0.16212034742118661 0 -0.34062696122393998 -0.13779481782381639 0 -0.35295971519911878 -0.16319042019117169 0 -0.32691351877577529 -0.16212034742118661 0 -0.33459243554469081 -0.1175211127864776 0 -0.31763087271419421 -0.12765483662631591 0 -0.34062696122393998 -0.13779481782381639 0 -0.35434040367210479 -0.113469288226446 0 -0.34062696122393998 -0.13779481782381639 0 -0.35434040367210479 -0.113469288226446 0 -0.34062696122393998 -0.13779481782381639 0 -0.36242754809725342 -0.12593932953275239 0 -0.34062696122393998 -0.13779481782381639 0 -0.36242754809725342 -0.12593932953275239 0 -0.36035717492554131 -0.1440981891837658 0 -0.36242754809725342 -0.12593932953275239 0 -0.36035717492554131 -0.1440981891837658 0 -0.37835684618764248 -0.14092920459061301 0 -0.36242754809725342 -0.12593932953275239 0 -0.37835684618764248 -0.14092920459061301 0 -0.37731074966784972 -0.11796541200019819 0 -0.36035717492554131 -0.1440981891837658 0 -0.37940294270743607 -0.16389299718102779 0 -0.37835684618764248 -0.14092920459061301 0 -0.34062696122393998 -0.13779481782381639 0 -0.36035717492554131 -0.1440981891837658 0 -0.35295971519911878 -0.16319042019117169 0 -0.36035717492554131 -0.1440981891837658 0 -0.35295971519911878 -0.16319042019117169 0 -0.37940294270743607 -0.16389299718102779 0 -0.35295971519911878 -0.16319042019117169 0 -0.36923843693214392 -0.18534215401863779 0 -0.37940294270743607 -0.16389299718102779 0 -0.35295971519911878 -0.16319042019117169 0 -0.36923843693214392 -0.18534215401863779 0 -0.3412192566298764 -0.1858940155185963 0 -0.36923843693214392 -0.18534215401863779 0 -0.3412192566298764 -0.1858940155185963 0 -0.35295971519911878 -0.16319042019117169 0 -0.3412192566298764 -0.1858940155185963 0 -0.32691351877577529 -0.16212034742118661 0 -0.30457544819362509 -0.16852149368130709 0 -0.31384489502492952 -0.14833492925962091 0 -0.32691351877577529 -0.16212034742118661 0 -0.3412192566298764 -0.1858940155185963 0 -0.31320007632760888 -0.18644587701855581 0 -0.32691351877577529 -0.16212034742118661 0 -0.31320007632760888 -0.18644587701855581 0 -0.30457544819362509 -0.16852149368130709 0 -0.32691351877577529 -0.16212034742118661 0 -0.31320007632760888 -0.18644587701855581 0 -0.3412192566298764 -0.1858940155185963 0 -0.32691351877577529 -0.16212034742118661 0 -0.31320007632760888 -0.18644587701855581 0 -0.30363183238706892 -0.20341846446698811 0 -0.31320007632760888 -0.18644587701855581 0 -0.32773431945743597 -0.20768143036052569 0 -0.3412192566298764 -0.1858940155185963 0 -0.31320007632760888 -0.18644587701855581 0 -0.32773431945743597 -0.20768143036052569 0 -0.30363183238706892 -0.20341846446698811 0 -0.32773431945743597 -0.20768143036052569 0 -0.31368013521819071 -0.22107456735880379 0 -0.32773431945743597 -0.20768143036052569 0 -0.35556400649879222 -0.21016485159446099 0 -0.33246446129931723 -0.23285330315024891 0 -0.3412192566298764 -0.1858940155185963 0 -0.32773431945743597 -0.20768143036052569 0 -0.35556400649879222 -0.21016485159446099 0 -0.36923843693214392 -0.18534215401863779 0 -0.3412192566298764 -0.1858940155185963 0 -0.35556400649879222 -0.21016485159446099 0 -0.36923843693214392 -0.18534215401863779 0 -0.35556400649879222 -0.21016485159446099 0 -0.37914797598273448 -0.20253942920642251 0 -0.35556400649879222 -0.21016485159446099 0 -0.38099011434016022 -0.2224262452622795 0 -0.37914797598273448 -0.20253942920642251 0 -0.35556400649879222 -0.21016485159446099 0 -0.35887261023027311 -0.23404822214823531 0 -0.33246446129931723 -0.23285330315024891 0 -0.35887261023027311 -0.23404822214823531 0 -0.3767973705569283 -0.24112323216075551 0 -0.38099011434016022 -0.2224262452622795 0 -0.35556400649879222 -0.21016485159446099 0 -0.35887261023027311 -0.23404822214823531 0 -0.38099011434016022 -0.2224262452622795 0 -0.36697682855123132 -0.2579397511407564 0 -0.35887261023027311 -0.23404822214823531 0 -0.3767973705569283 -0.24112323216075551 0 -0.33974311574663402 -0.25738553055922281 0 -0.36697682855123132 -0.2579397511407564 0 -0.35887261023027311 -0.23404822214823531 0 -0.33974311574663402 -0.25738553055922281 0 -0.35887261023027311 -0.23404822214823531 0 -0.33246446129931723 -0.23285330315024891 0 -0.32144586109570311 -0.2560533286399938 0 -0.33974311574663402 -0.25738553055922281 0 -0.33246446129931723 -0.23285330315024891 0 -0.31050647450060431 -0.2410285869008367 0 -0.33246446129931723 -0.23285330315024891 0 -0.31368013521819071 -0.22107456735880379 0 -0.32773431945743597 -0.20768143036052569 0 -0.33246446129931723 -0.23285330315024891 0 -0.31368013521819071 -0.22107456735880379 0 -0.32144586109570311 -0.2560533286399938 0 -0.31050647450060431 -0.2410285869008367 0 -0.33246446129931723 -0.23285330315024891 0 -0.41676923950141981 -0.25021891573173599 0 -0.43671774811853581 -0.2462955089460456 0 -0.42562441286588099 -0.23167627905796859 0 -0.42562441286588099 -0.23167627905796859 0 -0.41305338652309531 -0.2176761061835471 0 -0.4335104472262129 -0.20734648530655969 0 -0.42562441286588099 -0.23167627905796859 0 -0.4335104472262129 -0.20734648530655969 0 -0.45127447969056361 -0.22710807763004931 0 -0.40960176696989908 -0.23463728462784109 0 -0.39951378294603479 -0.22488452344436319 0 -0.41305338652309531 -0.2176761061835471 0 -0.42562441286588099 -0.23167627905796859 0 -0.40960176696989908 -0.23463728462784109 0 -0.41305338652309531 -0.2176761061835471 0 -0.41676923950141981 -0.25021891573173599 0 -0.40960176696989908 -0.23463728462784109 0 -0.39473506901606342 -0.24268551961910159 0 -0.41676923950141981 -0.25021891573173599 0 -0.42562441286588099 -0.23167627905796859 0 -0.40960176696989908 -0.23463728462784109 0 -0.38924912100373782 -0.25894014718292357 0 -0.39473506901606342 -0.24268551961910159 0 -0.3767973705569283 -0.24112323216075551 0 -0.39473506901606342 -0.24268551961910159 0 -0.3767973705569283 -0.24112323216075551 0 -0.38099011434016022 -0.2224262452622795 0 -0.39473506901606342 -0.24268551961910159 0 -0.38099011434016022 -0.2224262452622795 0 -0.40960176696989908 -0.23463728462784109 0 -0.39473506901606342 -0.24268551961910159 0 -0.39951378294603479 -0.22488452344436319 0 -0.39473506901606342 -0.24268551961910159 0 -0.38099011434016022 -0.2224262452622795 0 -0.39951378294603479 -0.22488452344436319 0 -0.38099011434016022 -0.2224262452622795 0 -0.39951378294603479 -0.22488452344436319 0 -0.39680295604019489 -0.20853710285868629 0 -0.39951378294603479 -0.22488452344436319 0 -0.39680295604019489 -0.20853710285868629 0 -0.41305338652309531 -0.2176761061835471 0 -0.38099011434016022 -0.2224262452622795 0 -0.39680295604019489 -0.20853710285868629 0 -0.37914797598273448 -0.20253942920642251 0 -0.36923843693214392 -0.18534215401863779 0 -0.37914797598273448 -0.20253942920642251 0 -0.39725761723441139 -0.18479029251867929 0 -0.39680295604019489 -0.20853710285868629 0 -0.37914797598273448 -0.20253942920642251 0 -0.39725761723441139 -0.18479029251867929 0 -0.39680295604019489 -0.20853710285868629 0 -0.41318024091211869 -0.20051768357723859 0 -0.39725761723441139 -0.18479029251867929 0 -0.41318024091211869 -0.20051768357723859 0 -0.42527679753667902 -0.18423843101872081 0 -0.39725761723441139 -0.18479029251867929 0 -0.39680295604019489 -0.20853710285868629 0 -0.41318024091211869 -0.20051768357723859 0 -0.41305338652309531 -0.2176761061835471 0 -0.41318024091211869 -0.20051768357723859 0 -0.41305338652309531 -0.2176761061835471 0 -0.4335104472262129 -0.20734648530655969 0 -0.4335104472262129 -0.20734648530655969 0 -0.42527679753667902 -0.18423843101872081 0 -0.45329597783894648 -0.1836865695187623 0 -0.41318024091211869 -0.20051768357723859 0 -0.4335104472262129 -0.20734648530655969 0 -0.42527679753667902 -0.18423843101872081 0 -0.42527679753667902 -0.18423843101872081 0 -0.43383226604443997 -0.16311088002659879 0 -0.45329597783894648 -0.1836865695187623 0 -0.42527679753667902 -0.18423843101872081 0 -0.43383226604443997 -0.16311088002659879 0 -0.41433759910310958 -0.16619369813619839 0 -0.43383226604443997 -0.16311088002659879 0 -0.41433759910310958 -0.16619369813619839 0 -0.41810371562524568 -0.14590936618264819 0 -0.42527679753667902 -0.18423843101872081 0 -0.41433759910310958 -0.16619369813619839 0 -0.39725761723441139 -0.18479029251867929 0 -0.42527679753667902 -0.18423843101872081 0 -0.39725761723441139 -0.18479029251867929 0 -0.41433759910310958 -0.16619369813619839 0 -0.39725761723441139 -0.18479029251867929 0 -0.39721759907477189 -0.15291952093434469 0 -0.39725761723441139 -0.18479029251867929 0 -0.37940294270743607 -0.16389299718102779 0 -0.39721759907477189 -0.15291952093434469 0 -0.36923843693214392 -0.18534215401863779 0 -0.39725761723441139 -0.18479029251867929 0 -0.36923843693214392 -0.18534215401863779 0 -0.39725761723441139 -0.18479029251867929 0 -0.37940294270743607 -0.16389299718102779 0 -0.39721759907477189 -0.15291952093434469 0 -0.37835684618764248 -0.14092920459061301 0 -0.40092107659423581 -0.12961104527409939 0 -0.39721759907477189 -0.15291952093434469 0 -0.40092107659423581 -0.12961104527409939 0 -0.41810371562524568 -0.14590936618264819 0 -0.37940294270743607 -0.16389299718102779 0 -0.39721759907477189 -0.15291952093434469 0 -0.37835684618764248 -0.14092920459061301 0 -0.37940294270743607 -0.16389299718102779 0 -0.37835684618764248 -0.14092920459061301 0 -0.37835684618764248 -0.14092920459061301 0 -0.37731074966784972 -0.11796541200019819 0 -0.37835684618764248 -0.14092920459061301 0 -0.40092107659423581 -0.12961104527409939 0 -0.37731074966784972 -0.11796541200019819 0 -0.40092107659423581 -0.12961104527409939 0 -0.41810371562524568 -0.14590936618264819 0 -0.42409646032628551 -0.12802094552525431 0 -0.41433759910310958 -0.16619369813619839 0 -0.39721759907477189 -0.15291952093434469 0 -0.41810371562524568 -0.14590936618264819 0 -0.43383226604443997 -0.16311088002659879 0 -0.41810371562524568 -0.14590936618264819 0 -0.43923191335635281 -0.1424078802185349 0 -0.41810371562524568 -0.14590936618264819 0 -0.42409646032628551 -0.12802094552525431 0 -0.43923191335635281 -0.1424078802185349 0 -0.42409646032628551 -0.12802094552525431 0 -0.43923191335635281 -0.1424078802185349 0 -0.44495443631011788 -0.12160535875082271 0 -0.43923191335635281 -0.1424078802185349 0 -0.4579544121803219 -0.1389909020812741 0 -0.44495443631011788 -0.12160535875082271 0 -0.43383226604443997 -0.16311088002659879 0 -0.43923191335635281 -0.1424078802185349 0 -0.4543427524178712 -0.1602408909749736 0 -0.43923191335635281 -0.1424078802185349 0 -0.4579544121803219 -0.1389909020812741 0 -0.4543427524178712 -0.1602408909749736 0 -0.4579544121803219 -0.1389909020812741 0 -0.47463035262089182 -0.15968702451167249 0 -0.4543427524178712 -0.1602408909749736 0 -0.4579544121803219 -0.1389909020812741 0 -0.44495443631011788 -0.12160535875082271 0 -0.46076946315053019 -0.1233794285345073 0 -0.4579544121803219 -0.1389909020812741 0 -0.46076946315053019 -0.1233794285345073 0 -0.47750706481470417 -0.1249052492813931 0 -0.4579544121803219 -0.1389909020812741 0 -0.48418743619226617 -0.1437143831092639 0 -0.47750706481470417 -0.1249052492813931 0 -0.5 -0.13389757824724691 0 -0.48418743619226617 -0.1437143831092639 0 -0.47750706481470417 -0.1249052492813931 0 -0.48418743619226617 -0.1437143831092639 0 -0.47463035262089182 -0.15968702451167249 0 -0.5 -0.1619722491147807 0 -0.5 -0.13389757824724691 0 -0.48418743619226617 -0.1437143831092639 0 -0.5 -0.1619722491147807 0 -0.4579544121803219 -0.1389909020812741 0 -0.48418743619226617 -0.1437143831092639 0 -0.47463035262089182 -0.15968702451167249 0 -0.47463035262089182 -0.15968702451167249 0 -0.48131515814121423 -0.1831347080188038 0 -0.4658960602547309 -0.17168729825605311 0 -0.47463035262089182 -0.15968702451167249 0 -0.5 -0.1619722491147807 0 -0.48131515814121423 -0.1831347080188038 0 -0.5 -0.1619722491147807 0 -0.48131515814121423 -0.1831347080188038 0 -0.5 -0.19004691998231449 0 -0.45329597783894648 -0.1836865695187623 0 -0.4658960602547309 -0.17168729825605311 0 -0.4543427524178712 -0.1602408909749736 0 -0.48131515814121423 -0.1831347080188038 0 -0.45329597783894648 -0.1836865695187623 0 -0.4658960602547309 -0.17168729825605311 0 -0.48131515814121423 -0.1831347080188038 0 -0.45329597783894648 -0.1836865695187623 0 -0.47463035262089182 -0.15968702451167249 0 -0.4658960602547309 -0.17168729825605311 0 -0.4543427524178712 -0.1602408909749736 0 -0.43383226604443997 -0.16311088002659879 0 -0.45329597783894648 -0.1836865695187623 0 -0.4543427524178712 -0.1602408909749736 0 -0.42527679753667902 -0.18423843101872081 0 -0.45329597783894648 -0.1836865695187623 0 -0.4335104472262129 -0.20734648530655969 0 -0.45329597783894648 -0.1836865695187623 0 -0.45577703419463578 -0.20728851460189929 0 -0.4335104472262129 -0.20734648530655969 0 -0.45577703419463578 -0.20728851460189929 0 -0.45127447969056361 -0.22710807763004931 0 -0.45577703419463578 -0.20728851460189929 0 -0.47264849191304992 -0.21339098575574089 0 -0.45127447969056361 -0.22710807763004931 0 -0.45577703419463578 -0.20728851460189929 0 -0.46946608283153041 -0.1974295967765671 0 -0.47264849191304992 -0.21339098575574089 0 -0.48131515814121423 -0.1831347080188038 0 -0.45329597783894648 -0.1836865695187623 0 -0.46946608283153041 -0.1974295967765671 0 -0.45329597783894648 -0.1836865695187623 0 -0.45577703419463578 -0.20728851460189929 0 -0.46946608283153041 -0.1974295967765671 0 -0.48131515814121423 -0.1831347080188038 0 -0.46946608283153041 -0.1974295967765671 0 -0.48429375206980541 -0.19964720598762931 0 -0.48429375206980541 -0.19964720598762931 0 -0.5 -0.19004691998231449 0 -0.5 -0.21812159084984831 0 -0.48131515814121423 -0.1831347080188038 0 -0.48429375206980541 -0.19964720598762931 0 -0.5 -0.19004691998231449 0 -0.48429375206980541 -0.19964720598762931 0 -0.5 -0.21812159084984831 0 -0.47264849191304992 -0.21339098575574089 0 -0.46946608283153041 -0.1974295967765671 0 -0.48429375206980541 -0.19964720598762931 0 -0.47264849191304992 -0.21339098575574089 0 -0.5 -0.21812159084984831 0 -0.47264849191304992 -0.21339098575574089 0 -0.47567343178643012 -0.23696598380135181 0 -0.5 -0.21812159084984831 0 -0.5 -0.24619626171738199 0 -0.47567343178643012 -0.23696598380135181 0 -0.47455237031219483 -0.26169705396472459 0 -0.5 -0.24619626171738199 0 -0.47567343178643012 -0.23696598380135181 0 -0.45540603302393468 -0.2531222969012123 0 -0.47567343178643012 -0.23696598380135181 0 -0.45127447969056361 -0.22710807763004931 0 -0.47264849191304992 -0.21339098575574089 0 -0.47567343178643012 -0.23696598380135181 0 -0.45127447969056361 -0.22710807763004931 0 -0.43671774811853581 -0.2462955089460456 0 -0.42562441286588099 -0.23167627905796859 0 -0.45127447969056361 -0.22710807763004931 0 -0.45540603302393468 -0.2531222969012123 0 -0.43671774811853581 -0.2462955089460456 0 -0.45127447969056361 -0.22710807763004931 0 -0.41049127181087208 -0.048116275565634359 0 -0.40475829376189038 -0.025151746118368359 0 -0.41049127181087208 -0.048116275565634359 0 -0.43080015278025441 -0.03819265892600749 0 -0.40475829376189038 -0.025151746118368359 0 -0.41049127181087208 -0.048116275565634359 0 -0.42570794657954519 -0.057908381132435821 0 -0.41622424985985379 -0.071080805012900344 0 -0.41049127181087208 -0.048116275565634359 0 -0.3941746348941676 -0.058615027746853052 0 -0.41622424985985379 -0.071080805012900344 0 -0.41049127181087208 -0.048116275565634359 0 -0.41622424985985379 -0.071080805012900344 0 -0.41049127181087208 -0.048116275565634359 0 -0.42570794657954519 -0.057908381132435821 0 -0.43080015278025441 -0.03819265892600749 0 -0.42570794657954519 -0.057908381132435821 0 -0.43080015278025441 -0.03819265892600749 0 -0.44303320872575952 -0.060284937531869691 0 -0.43080015278025441 -0.03819265892600749 0 -0.42860595588110839 -0.01588840966221838 0 -0.44712832666113028 -0.021822683903865429 0 -0.42860595588110839 -0.01588840966221838 0 -0.45002724807459871 -0.0030400521916615262 0 -0.42593337605189491 0.0036121682274749571 0 -0.42860595588110839 -0.01588840966221838 0 -0.41290969630723678 -0.0095493944527905994 0 -0.42593337605189491 0.0036121682274749571 0 -0.41290969630723678 -0.0095493944527905994 0 -0.42593337605189491 0.0036121682274749571 0 -0.40588327416665759 0.002018284634739226 0 -0.42860595588110839 -0.01588840966221838 0 -0.41290969630723678 -0.0095493944527905994 0 -0.40475829376189038 -0.025151746118368359 0 -0.43080015278025441 -0.03819265892600749 0 -0.42860595588110839 -0.01588840966221838 0 -0.40475829376189038 -0.025151746118368359 0 -0.40475829376189038 -0.025151746118368359 0 -0.39161809827638377 -0.0226203853494545 0 -0.39592383124098568 -0.01057093002990628 0 -0.39161809827638377 -0.0226203853494545 0 -0.39592383124098568 -0.01057093002990628 0 -0.38453114130079352 -0.01622026869656152 0 -0.40475829376189038 -0.025151746118368359 0 -0.39161809827638377 -0.0226203853494545 0 -0.39254490078801851 -0.037003188908726732 0 -0.41290969630723678 -0.0095493944527905994 0 -0.40475829376189038 -0.025151746118368359 0 -0.39592383124098568 -0.01057093002990628 0 -0.41290969630723678 -0.0095493944527905994 0 -0.39592383124098568 -0.01057093002990628 0 -0.40588327416665759 0.002018284634739226 0 -0.39592383124098568 -0.01057093002990628 0 -0.3910906890555389 0.002213308667917374 0 -0.40588327416665759 0.002018284634739226 0 -0.37276780195467768 -0.018239137167604211 0 -0.38202240793009312 -0.0053258981395451358 0 -0.37163206502638491 0.0066924315405442192 0 -0.39592383124098568 -0.01057093002990628 0 -0.38202240793009312 -0.0053258981395451358 0 -0.3910906890555389 0.002213308667917374 0 -0.39592383124098568 -0.01057093002990628 0 -0.38202240793009312 -0.0053258981395451358 0 -0.38453114130079352 -0.01622026869656152 0 -0.37276780195467768 -0.018239137167604211 0 -0.38202240793009312 -0.0053258981395451358 0 -0.38453114130079352 -0.01622026869656152 0 -0.37390353888297051 -0.043170705875752648 0 -0.37276780195467768 -0.018239137167604211 0 -0.38307309624056879 -0.027450737199619921 0 -0.39161809827638377 -0.0226203853494545 0 -0.38307309624056879 -0.027450737199619921 0 -0.39254490078801851 -0.037003188908726732 0 -0.39161809827638377 -0.0226203853494545 0 -0.38307309624056879 -0.027450737199619921 0 -0.38453114130079352 -0.01622026869656152 0 -0.37276780195467768 -0.018239137167604211 0 -0.38307309624056879 -0.027450737199619921 0 -0.38453114130079352 -0.01622026869656152 0 -0.37390353888297051 -0.043170705875752648 0 -0.38307309624056879 -0.027450737199619921 0 -0.39254490078801851 -0.037003188908726732 0 -0.37390353888297051 -0.043170705875752648 0 -0.39254490078801851 -0.037003188908726732 0 -0.3941746348941676 -0.058615027746853052 0 -0.41049127181087208 -0.048116275565634359 0 -0.40475829376189038 -0.025151746118368359 0 -0.39254490078801851 -0.037003188908726732 0 -0.41049127181087208 -0.048116275565634359 0 -0.39254490078801851 -0.037003188908726732 0 -0.3941746348941676 -0.058615027746853052 0 -0.37503927581126328 -0.06810227458390114 0 -0.37390353888297051 -0.043170705875752648 0 -0.3941746348941676 -0.058615027746853052 0 -0.37503927581126328 -0.06810227458390114 0 -0.3941746348941676 -0.058615027746853052 0 -0.39751193148857661 -0.082698167338496886 0 -0.37503927581126328 -0.06810227458390114 0 -0.37617501273955611 -0.093033843292049695 0 -0.39751193148857661 -0.082698167338496886 0 -0.37503927581126328 -0.06810227458390114 0 -0.37617501273955611 -0.093033843292049695 0 -0.3941746348941676 -0.058615027746853052 0 -0.39751193148857661 -0.082698167338496886 0 -0.41622424985985379 -0.071080805012900344 0 -0.37731074966784972 -0.11796541200019819 0 -0.39963398878834289 -0.10600537323018271 0 -0.37617501273955611 -0.093033843292049695 0 -0.37731074966784972 -0.11796541200019819 0 -0.39963398878834289 -0.10600537323018271 0 -0.37617501273955611 -0.093033843292049695 0 -0.37731074966784972 -0.11796541200019819 0 -0.37617501273955611 -0.093033843292049695 0 -0.39751193148857661 -0.082698167338496886 0 -0.39963398878834289 -0.10600537323018271 0 -0.40092107659423581 -0.12961104527409939 0 -0.39963398878834289 -0.10600537323018271 0 -0.41320318064355388 -0.1169972599375296 0 -0.40092107659423581 -0.12961104527409939 0 -0.37731074966784972 -0.11796541200019819 0 -0.39963398878834289 -0.10600537323018271 0 -0.39963398878834289 -0.10600537323018271 0 -0.41320318064355388 -0.1169972599375296 0 -0.42512394176302981 -0.10673020660416931 0 -0.40092107659423581 -0.12961104527409939 0 -0.42409646032628551 -0.12802094552525431 0 -0.41320318064355388 -0.1169972599375296 0 -0.39963398878834289 -0.10600537323018271 0 -0.42195722790883572 -0.094045334460166274 0 -0.39751193148857661 -0.082698167338496886 0 -0.39963398878834289 -0.10600537323018271 0 -0.42195722790883572 -0.094045334460166274 0 -0.39963398878834289 -0.10600537323018271 0 -0.42195722790883572 -0.094045334460166274 0 -0.42512394176302981 -0.10673020660416931 0 -0.42195722790883572 -0.094045334460166274 0 -0.43310005717205241 -0.1005354351163482 0 -0.42512394176302981 -0.10673020660416931 0 -0.42195722790883572 -0.094045334460166274 0 -0.42512394176302981 -0.10673020660416931 0 -0.43310005717205241 -0.1005354351163482 0 -0.42512394176302981 -0.10673020660416931 0 -0.43178044028391283 -0.1155532737024792 0 -0.43310005717205241 -0.1005354351163482 0 -0.43178044028391283 -0.1155532737024792 0 -0.44428223356203839 -0.10323223757661409 0 -0.42409646032628551 -0.12802094552525431 0 -0.43178044028391283 -0.1155532737024792 0 -0.44495443631011788 -0.12160535875082271 0 -0.42409646032628551 -0.12802094552525431 0 -0.41320318064355388 -0.1169972599375296 0 -0.43178044028391283 -0.1155532737024792 0 -0.41320318064355388 -0.1169972599375296 0 -0.42512394176302981 -0.10673020660416931 0 -0.43178044028391283 -0.1155532737024792 0 -0.42195722790883572 -0.094045334460166274 0 -0.41622424985985379 -0.071080805012900344 0 -0.39751193148857661 -0.082698167338496886 0 -0.42195722790883572 -0.094045334460166274 0 -0.41622424985985379 -0.071080805012900344 0 -0.42195722790883572 -0.094045334460166274 0 -0.43310005717205241 -0.1005354351163482 0 -0.44235644234244542 -0.08311612323831237 0 -0.42195722790883572 -0.094045334460166274 0 -0.44235644234244542 -0.08311612323831237 0 -0.42195722790883572 -0.094045334460166274 0 -0.42831073374134881 -0.078473780512475264 0 -0.44235644234244542 -0.08311612323831237 0 -0.42195722790883572 -0.094045334460166274 0 -0.41622424985985379 -0.071080805012900344 0 -0.42831073374134881 -0.078473780512475264 0 -0.42570794657954519 -0.057908381132435821 0 -0.41622424985985379 -0.071080805012900344 0 -0.42831073374134881 -0.078473780512475264 0 -0.42570794657954519 -0.057908381132435821 0 -0.42831073374134881 -0.078473780512475264 0 -0.44303320872575952 -0.060284937531869691 0 -0.44235644234244542 -0.08311612323831237 0 -0.4627556567760549 -0.072186912016457813 0 -0.44235644234244542 -0.08311612323831237 0 -0.4627556567760549 -0.072186912016457813 0 -0.44303320872575952 -0.060284937531869691 0 -0.42831073374134881 -0.078473780512475264 0 -0.44235644234244542 -0.08311612323831237 0 -0.44303320872575952 -0.060284937531869691 0 -0.44235644234244542 -0.08311612323831237 0 -0.46003558383382143 -0.084257661469596554 0 -0.45538354655086061 -0.095402695343590138 0 -0.44235644234244542 -0.08311612323831237 0 -0.46003558383382143 -0.084257661469596554 0 -0.4627556567760549 -0.072186912016457813 0 -0.46003558383382143 -0.084257661469596554 0 -0.45538354655086061 -0.095402695343590138 0 -0.46934394919577571 -0.091988287314391806 0 -0.46003558383382143 -0.084257661469596554 0 -0.47033832430397032 -0.078594289435230613 0 -0.46934394919577571 -0.091988287314391806 0 -0.46003558383382143 -0.084257661469596554 0 -0.4627556567760549 -0.072186912016457813 0 -0.47033832430397032 -0.078594289435230613 0 -0.4627556567760549 -0.072186912016457813 0 -0.45676742128068692 -0.059504597350029567 0 -0.44303320872575952 -0.060284937531869691 0 -0.4627556567760549 -0.072186912016457813 0 -0.47033832430397032 -0.078594289435230613 0 -0.47062847236381122 -0.061642664822609571 0 -0.4627556567760549 -0.072186912016457813 0 -0.47062847236381122 -0.061642664822609571 0 -0.45676742128068692 -0.059504597350029567 0 -0.43178044028391283 -0.1155532737024792 0 -0.44495443631011788 -0.12160535875082271 0 -0.44428223356203839 -0.10323223757661409 0 -0.44495443631011788 -0.12160535875082271 0 -0.44428223356203839 -0.10323223757661409 0 -0.46266193929697702 -0.1080162040245394 0 -0.43310005717205241 -0.1005354351163482 0 -0.44235644234244542 -0.08311612323831237 0 -0.44428223356203839 -0.10323223757661409 0 -0.44235644234244542 -0.08311612323831237 0 -0.44428223356203839 -0.10323223757661409 0 -0.45538354655086061 -0.095402695343590138 0 -0.46266193929697702 -0.1080162040245394 0 -0.45538354655086061 -0.095402695343590138 0 -0.46934394919577571 -0.091988287314391806 0 -0.44428223356203839 -0.10323223757661409 0 -0.46266193929697702 -0.1080162040245394 0 -0.45538354655086061 -0.095402695343590138 0 -0.46266193929697702 -0.1080162040245394 0 -0.46076946315053019 -0.1233794285345073 0 -0.47750706481470417 -0.1249052492813931 0 -0.44495443631011788 -0.12160535875082271 0 -0.46266193929697702 -0.1080162040245394 0 -0.46076946315053019 -0.1233794285345073 0 -0.46266193929697702 -0.1080162040245394 0 -0.47750706481470417 -0.1249052492813931 0 -0.47896543789787271 -0.1028930868202397 0 -0.46266193929697702 -0.1080162040245394 0 -0.47896543789787271 -0.1028930868202397 0 -0.46934394919577571 -0.091988287314391806 0 -0.50000000000000056 -0.1058229073797131 0 -0.48531423618190611 -0.083732786101161208 0 -0.47896543789787271 -0.1028930868202397 0 -0.50000000000000056 -0.1058229073797131 0 -0.48531423618190611 -0.083732786101161208 0 -0.47750706481470417 -0.1249052492813931 0 -0.47896543789787271 -0.1028930868202397 0 -0.50000000000000056 -0.1058229073797131 0 -0.5 -0.13389757824724691 0 -0.47750706481470417 -0.1249052492813931 0 -0.50000000000000056 -0.1058229073797131 0 -0.48531423618190611 -0.083732786101161208 0 -0.47062847236381122 -0.061642664822609571 0 -0.48531423618190611 -0.083732786101161208 0 -0.48759068336141692 -0.065557837798569357 0 -0.47062847236381122 -0.061642664822609571 0 -0.47033832430397032 -0.078594289435230613 0 -0.48531423618190611 -0.083732786101161208 0 -0.47062847236381122 -0.061642664822609571 0 -0.47896543789787271 -0.1028930868202397 0 -0.46934394919577571 -0.091988287314391806 0 -0.48531423618190611 -0.083732786101161208 0 -0.47033832430397032 -0.078594289435230613 0 -0.46934394919577571 -0.091988287314391806 0 -0.48531423618190611 -0.083732786101161208 0 -0.50000000000000056 -0.1058229073797131 0 -0.5 -0.078202004681131476 0 -0.48531423618190611 -0.083732786101161208 0 -0.5 -0.078202004681131476 0 -0.48531423618190611 -0.083732786101161208 0 -0.48759068336141692 -0.065557837798569357 0 -0.5 -0.078202004681131476 0 -0.48759068336141692 -0.065557837798569357 0 -0.5 -0.050581101982549843 0 -0.48759068336141692 -0.065557837798569357 0 -0.5 -0.050581101982549843 0 -0.483692615878968 -0.054210710215682828 0 -0.5 -0.050581101982549843 0 -0.47924235997880599 -0.039989362355463673 0 -0.483692615878968 -0.054210710215682828 0 -0.5 -0.050581101982549843 0 -0.47924235997880599 -0.039989362355463673 0 -0.5 -0.022960199283968089 0 -0.47924235997880599 -0.039989362355463673 0 -0.45594270854571639 -0.039552543544057933 0 -0.47237668206820538 -0.01550696170348804 0 -0.48759068336141692 -0.065557837798569357 0 -0.483692615878968 -0.054210710215682828 0 -0.47062847236381122 -0.061642664822609571 0 -0.47924235997880599 -0.039989362355463673 0 -0.483692615878968 -0.054210710215682828 0 -0.47062847236381122 -0.061642664822609571 0 -0.47924235997880599 -0.039989362355463673 0 -0.47062847236381122 -0.061642664822609571 0 -0.45594270854571639 -0.039552543544057933 0 -0.47062847236381122 -0.061642664822609571 0 -0.45676742128068692 -0.059504597350029567 0 -0.45594270854571639 -0.039552543544057933 0 -0.47062847236381122 -0.061642664822609571 0 -0.45594270854571639 -0.039552543544057933 0 -0.43080015278025441 -0.03819265892600749 0 -0.45594270854571639 -0.039552543544057933 0 -0.44712832666113028 -0.021822683903865429 0 -0.43080015278025441 -0.03819265892600749 0 -0.45594270854571639 -0.039552543544057933 0 -0.44303320872575952 -0.060284937531869691 0 -0.45676742128068692 -0.059504597350029567 0 -0.45594270854571639 -0.039552543544057933 0 -0.44303320872575952 -0.060284937531869691 0 -0.42860595588110839 -0.01588840966221838 0 -0.45002724807459871 -0.0030400521916615262 0 -0.44712832666113028 -0.021822683903865429 0 -0.45594270854571639 -0.039552543544057933 0 -0.44712832666113028 -0.021822683903865429 0 -0.47237668206820538 -0.01550696170348804 0 -0.45002724807459871 -0.0030400521916615262 0 -0.47237668206820538 -0.01550696170348804 0 -0.47429613121718628 0.01415540593998681 0 -0.45002724807459871 -0.0030400521916615262 0 -0.44712832666113028 -0.021822683903865429 0 -0.47237668206820538 -0.01550696170348804 0 -0.47924235997880599 -0.039989362355463673 0 -0.47237668206820538 -0.01550696170348804 0 -0.5 -0.022960199283968089 0 -0.47237668206820538 -0.01550696170348804 0 -0.5 -0.022960199283968089 0 -0.5 0.004660703414613554 0 -0.47429613121718628 0.01415540593998681 0 -0.5 0.032281606113195187 0 -0.47979209078208768 0.044150821451916622 0 -0.5 0.004660703414613554 0 -0.47429613121718628 0.01415540593998681 0 -0.5 0.032281606113195187 0 -0.47429613121718628 0.01415540593998681 0 -0.47979209078208768 0.044150821451916622 0 -0.45735490026298109 0.034866906074035003 0 -0.47237668206820538 -0.01550696170348804 0 -0.5 0.004660703414613554 0 -0.47429613121718628 0.01415540593998681 0 -0.5 0.059902508811776889 0 -0.48446780798723371 0.06160223964016031 0 -0.47979209078208768 0.044150821451916622 0 -0.5 0.059902508811776889 0 -0.5 0.032281606113195187 0 -0.47979209078208768 0.044150821451916622 0 -0.48446780798723371 0.06160223964016031 0 -0.47979209078208768 0.044150821451916622 0 -0.47094233987244272 0.065851507536775072 0 -0.47979209078208768 0.044150821451916622 0 -0.46175754458622909 0.051473292789049663 0 -0.47094233987244272 0.065851507536775072 0 -0.46175754458622909 0.051473292789049663 0 -0.44643371226925782 0.048007698741967843 0 -0.45426467974437612 0.06448953014055378 0 -0.46175754458622909 0.051473292789049663 0 -0.45426467974437612 0.06448953014055378 0 -0.47094233987244272 0.065851507536775072 0 -0.47979209078208768 0.044150821451916622 0 -0.46175754458622909 0.051473292789049663 0 -0.45735490026298109 0.034866906074035003 0 -0.46175754458622909 0.051473292789049663 0 -0.45735490026298109 0.034866906074035003 0 -0.44643371226925782 0.048007698741967843 0 -0.45735490026298109 0.034866906074035003 0 -0.44643371226925782 0.048007698741967843 0 -0.43332361235074068 0.039172235738812469 0 -0.44643371226925782 0.048007698741967843 0 -0.43983502445219141 0.061502946430459518 0 -0.45426467974437612 0.06448953014055378 0 -0.44643371226925782 0.048007698741967843 0 -0.43983502445219141 0.061502946430459518 0 -0.43332361235074068 0.039172235738812469 0 -0.45002724807459871 -0.0030400521916615262 0 -0.47429613121718628 0.01415540593998681 0 -0.44407345716626262 0.017842070298084919 0 -0.47429613121718628 0.01415540593998681 0 -0.45735490026298109 0.034866906074035003 0 -0.44407345716626262 0.017842070298084919 0 -0.45735490026298109 0.034866906074035003 0 -0.44407345716626262 0.017842070298084919 0 -0.43332361235074068 0.039172235738812469 0 -0.45002724807459871 -0.0030400521916615262 0 -0.44407345716626262 0.017842070298084919 0 -0.42593337605189491 0.0036121682274749571 0 -0.44407345716626262 0.017842070298084919 0 -0.42593337605189491 0.0036121682274749571 0 -0.42629298011784061 0.019700986923677961 0 -0.42593337605189491 0.0036121682274749571 0 -0.41201914543273621 0.01508486170033017 0 -0.40588327416665759 0.002018284634739226 0 -0.42593337605189491 0.0036121682274749571 0 -0.41201914543273621 0.01508486170033017 0 -0.42629298011784061 0.019700986923677961 0 -0.41201914543273621 0.01508486170033017 0 -0.41433880945589152 0.02979961183413142 0 -0.40040093236682978 0.02453330970621255 0 -0.41201914543273621 0.01508486170033017 0 -0.41433880945589152 0.02979961183413142 0 -0.42629298011784061 0.019700986923677961 0 -0.41433880945589152 0.02979961183413142 0 -0.42629298011784061 0.019700986923677961 0 -0.43332361235074068 0.039172235738812469 0 -0.44407345716626262 0.017842070298084919 0 -0.42629298011784061 0.019700986923677961 0 -0.43332361235074068 0.039172235738812469 0 -0.43983502445219141 0.061502946430459518 0 -0.43332361235074068 0.039172235738812469 0 -0.42210027467512462 0.057612877244027867 0 -0.43332361235074068 0.039172235738812469 0 -0.42210027467512462 0.057612877244027867 0 -0.41219808977550138 0.045922932007702762 0 -0.42210027467512462 0.057612877244027867 0 -0.41219808977550138 0.045922932007702762 0 -0.40529980242045099 0.060078429517120321 0 -0.41433880945589152 0.02979961183413142 0 -0.43332361235074068 0.039172235738812469 0 -0.41219808977550138 0.045922932007702762 0 -0.41433880945589152 0.02979961183413142 0 -0.41219808977550138 0.045922932007702762 0 -0.40203663573653808 0.036658375186402678 0 -0.40203663573653808 0.036658375186402678 0 -0.38527731940759258 0.036121893106963197 0 -0.40040093236682978 0.02453330970621255 0 -0.40203663573653808 0.036658375186402678 0 -0.39806741894555803 0.047862058551315999 0 -0.38527731940759258 0.036121893106963197 0 -0.41219808977550138 0.045922932007702762 0 -0.40203663573653808 0.036658375186402678 0 -0.39806741894555803 0.047862058551315999 0 -0.40529980242045099 0.060078429517120321 0 -0.39806741894555803 0.047862058551315999 0 -0.38827414678815397 0.061684695635978969 0 -0.41219808977550138 0.045922932007702762 0 -0.40529980242045099 0.060078429517120321 0 -0.39806741894555803 0.047862058551315999 0 -0.38827414678815397 0.061684695635978969 0 -0.3752152677122938 0.053615121968976692 0 -0.38527731940759258 0.036121893106963197 0 -0.39806741894555803 0.047862058551315999 0 -0.38827414678815397 0.061684695635978969 0 -0.38527731940759258 0.036121893106963197 0 -0.38827414678815397 0.061684695635978969 0 -0.38527731940759258 0.036121893106963197 0 -0.38827414678815397 0.061684695635978969 0 -0.3752152677122938 0.053615121968976692 0 -0.37934952992800203 0.06152599102278665 0 -0.3752152677122938 0.053615121968976692 0 -0.38527731940759258 0.036121893106963197 0 -0.36998983818245179 0.039180883917947558 0 -0.38527731940759258 0.036121893106963197 0 -0.3741660754503644 0.024763952449897351 0 -0.36998983818245179 0.039180883917947558 0 -0.38527731940759258 0.036121893106963197 0 -0.38228049202703113 0.01055909057794736 0 -0.3741660754503644 0.024763952449897351 0 -0.38527731940759258 0.036121893106963197 0 -0.38228049202703113 0.01055909057794736 0 -0.39447725070068201 0.01416723945843977 0 -0.38527731940759258 0.036121893106963197 0 -0.38228049202703113 0.01055909057794736 0 -0.38228049202703113 0.01055909057794736 0 -0.3741660754503644 0.024763952449897351 0 -0.36925123739472948 0.01547380578063577 0 -0.38202240793009312 -0.0053258981395451358 0 -0.38175641350976203 0.003534733161715954 0 -0.37163206502638491 0.0066924315405442192 0 -0.38228049202703113 0.01055909057794736 0 -0.38175641350976203 0.003534733161715954 0 -0.37163206502638491 0.0066924315405442192 0 -0.38202240793009312 -0.0053258981395451358 0 -0.38175641350976203 0.003534733161715954 0 -0.3910906890555389 0.002213308667917374 0 -0.38228049202703113 0.01055909057794736 0 -0.38175641350976203 0.003534733161715954 0 -0.3910906890555389 0.002213308667917374 0 -0.38228049202703113 0.01055909057794736 0 -0.39447725070068201 0.01416723945843977 0 -0.3910906890555389 0.002213308667917374 0 -0.41201914543273621 0.01508486170033017 0 -0.39447725070068201 0.01416723945843977 0 -0.40588327416665759 0.002018284634739226 0 -0.39447725070068201 0.01416723945843977 0 -0.3910906890555389 0.002213308667917374 0 -0.40588327416665759 0.002018284634739226 0 -0.41201914543273621 0.01508486170033017 0 -0.39447725070068201 0.01416723945843977 0 -0.40040093236682978 0.02453330970621255 0 -0.38527731940759258 0.036121893106963197 0 -0.39447725070068201 0.01416723945843977 0 -0.40040093236682978 0.02453330970621255 0 -0.41433880945589152 0.02979961183413142 0 -0.40203663573653808 0.036658375186402678 0 -0.40040093236682978 0.02453330970621255 0 -0.3942651582294785 0.099319450463552672 0 -0.39872388013383359 0.1132443814453792 0 -0.37999490953915538 0.093225113860619477 0 -0.3942651582294785 0.099319450463552672 0 -0.40138214715771192 0.1022109434355072 0 -0.39872388013383359 0.1132443814453792 0 -0.3942651582294785 0.099319450463552672 0 -0.39926876358287577 0.094825301980054899 0 -0.39195609073381549 0.093091511596202547 0 -0.3942651582294785 0.099319450463552672 0 -0.39926876358287577 0.094825301980054899 0 -0.40138214715771192 0.1022109434355072 0 -0.39926876358287577 0.094825301980054899 0 -0.40138214715771192 0.1022109434355072 0 -0.40855842336974679 0.096704164735213108 0 -0.40138214715771192 0.1022109434355072 0 -0.40893158939430557 0.1058661550654288 0 -0.40855842336974679 0.096704164735213108 0 -0.40138214715771192 0.1022109434355072 0 -0.39872388013383359 0.1132443814453792 0 -0.40893158939430557 0.1058661550654288 0 -0.39872388013383359 0.1132443814453792 0 -0.40893158939430557 0.1058661550654288 0 -0.4073506077339214 0.11717849432105661 0 -0.39872388013383359 0.1132443814453792 0 -0.40008630086622299 0.12140039422385079 0 -0.4073506077339214 0.11717849432105661 0 -0.40008630086622299 0.12140039422385079 0 -0.4073506077339214 0.11717849432105661 0 -0.40663359107449082 0.12710503490572889 0 -0.40008630086622299 0.12140039422385079 0 -0.39043111164144301 0.120546406187059 0 -0.39729231374742607 0.12892765426003011 0 -0.39872388013383359 0.1132443814453792 0 -0.40008630086622299 0.12140039422385079 0 -0.39043111164144301 0.120546406187059 0 -0.39872388013383359 0.1132443814453792 0 -0.38331479935317297 0.1117602336801226 0 -0.39043111164144301 0.120546406187059 0 -0.38331479935317297 0.1117602336801226 0 -0.39043111164144301 0.120546406187059 0 -0.3771229259235489 0.12278337187638851 0 -0.38331479935317297 0.1117602336801226 0 -0.3771229259235489 0.12278337187638851 0 -0.37146216644709129 0.1114782088342699 0 -0.39872388013383359 0.1132443814453792 0 -0.38331479935317297 0.1117602336801226 0 -0.37999490953915538 0.093225113860619477 0 -0.38331479935317297 0.1117602336801226 0 -0.37999490953915538 0.093225113860619477 0 -0.37146216644709129 0.1114782088342699 0 -0.39872388013383359 0.1132443814453792 0 -0.37999490953915538 0.093225113860619477 0 -0.3942651582294785 0.099319450463552672 0 -0.37999490953915538 0.093225113860619477 0 -0.39195609073381549 0.093091511596202547 0 -0.37999490953915538 0.093225113860619477 0 -0.37543873292193292 0.080761983674428522 0 -0.38259013430284822 0.084786174645554171 0 -0.37543873292193292 0.080761983674428522 0 -0.38259013430284822 0.084786174645554171 0 -0.38365592058158959 0.077910102882173871 0 -0.38259013430284822 0.084786174645554171 0 -0.38365592058158959 0.077910102882173871 0 -0.39127097416871481 0.087247498164994802 0 -0.37999490953915538 0.093225113860619477 0 -0.39127097416871481 0.087247498164994802 0 -0.37999490953915538 0.093225113860619477 0 -0.39195609073381549 0.093091511596202547 0 -0.39127097416871481 0.087247498164994802 0 -0.37999490953915538 0.093225113860619477 0 -0.38259013430284822 0.084786174645554171 0 -0.39127097416871481 0.087247498164994802 0 -0.38827414678815397 0.061684695635978969 0 -0.39127097416871481 0.087247498164994802 0 -0.38827414678815397 0.061684695635978969 0 -0.38365592058158959 0.077910102882173871 0 -0.39127097416871481 0.087247498164994802 0 -0.38827414678815397 0.061684695635978969 0 -0.38105741116970748 0.070287104817218851 0 -0.38365592058158959 0.077910102882173871 0 -0.37543873292193292 0.080761983674428522 0 -0.38105741116970748 0.070287104817218851 0 -0.3708780889558867 0.072554299931123528 0 -0.37543873292193292 0.080761983674428522 0 -0.38105741116970748 0.070287104817218851 0 -0.38365592058158959 0.077910102882173871 0 -0.38827414678815397 0.061684695635978969 0 -0.37934952992800203 0.06152599102278665 0 -0.38105741116970748 0.070287104817218851 0 -0.39955588483027948 0.07126646471144947 0 -0.39127097416871481 0.087247498164994802 0 -0.4155529993104527 0.074375222297726529 0 -0.40529980242045099 0.060078429517120321 0 -0.38827414678815397 0.061684695635978969 0 -0.39955588483027948 0.07126646471144947 0 -0.38827414678815397 0.061684695635978969 0 -0.39955588483027948 0.07126646471144947 0 -0.39127097416871481 0.087247498164994802 0 -0.39127097416871481 0.087247498164994802 0 -0.40292226136284098 0.088843738333556549 0 -0.4155529993104527 0.074375222297726529 0 -0.39127097416871481 0.087247498164994802 0 -0.4155529993104527 0.074375222297726529 0 -0.39635452246206182 0.091002012518702199 0 -0.39127097416871481 0.087247498164994802 0 -0.40292226136284098 0.088843738333556549 0 -0.39926876358287577 0.094825301980054899 0 -0.39635452246206182 0.091002012518702199 0 -0.39195609073381549 0.093091511596202547 0 -0.39635452246206182 0.091002012518702199 0 -0.39195609073381549 0.093091511596202547 0 -0.39127097416871481 0.087247498164994802 0 -0.39195609073381549 0.093091511596202547 0 -0.39127097416871481 0.087247498164994802 0 -0.39926876358287577 0.094825301980054899 0 -0.40292226136284098 0.088843738333556549 0 -0.40855842336974679 0.096704164735213108 0 -0.39926876358287577 0.094825301980054899 0 -0.39635452246206182 0.091002012518702199 0 -0.40292226136284098 0.088843738333556549 0 -0.40292226136284098 0.088843738333556549 0 -0.41819891438162948 0.088269200944329024 0 -0.40855842336974679 0.096704164735213108 0 -0.40292226136284098 0.088843738333556549 0 -0.41819891438162948 0.088269200944329024 0 -0.4155529993104527 0.074375222297726529 0 -0.40529980242045099 0.060078429517120321 0 -0.39955588483027948 0.07126646471144947 0 -0.4155529993104527 0.074375222297726529 0 -0.42210027467512462 0.057612877244027867 0 -0.40529980242045099 0.060078429517120321 0 -0.4155529993104527 0.074375222297726529 0 -0.43983502445219141 0.061502946430459518 0 -0.42210027467512462 0.057612877244027867 0 -0.4155529993104527 0.074375222297726529 0 -0.43983502445219141 0.061502946430459518 0 -0.4155529993104527 0.074375222297726529 0 -0.43983502445219141 0.061502946430459518 0 -0.4155529993104527 0.074375222297726529 0 -0.4353179992887925 0.081430087965160811 0 -0.41819891438162948 0.088269200944329024 0 -0.4353179992887925 0.081430087965160811 0 -0.42864288857631422 0.099992791389988123 0 -0.41819891438162948 0.088269200944329024 0 -0.4155529993104527 0.074375222297726529 0 -0.4353179992887925 0.081430087965160811 0 -0.42864288857631422 0.099992791389988123 0 -0.43295024732585491 0.1177656997386137 0 -0.44642879087906118 0.1053096283597485 0 -0.42864288857631422 0.099992791389988123 0 -0.40893158939430557 0.1058661550654288 0 -0.40855842336974679 0.096704164735213108 0 -0.42864288857631422 0.099992791389988123 0 -0.40893158939430557 0.1058661550654288 0 -0.4073506077339214 0.11717849432105661 0 -0.41819891438162948 0.088269200944329024 0 -0.42864288857631422 0.099992791389988123 0 -0.40855842336974679 0.096704164735213108 0 -0.42864288857631422 0.099992791389988123 0 -0.4073506077339214 0.11717849432105661 0 -0.42864288857631422 0.099992791389988123 0 -0.4073506077339214 0.11717849432105661 0 -0.41931682637261602 0.1223675700967678 0 -0.4073506077339214 0.11717849432105661 0 -0.41931682637261602 0.1223675700967678 0 -0.40663359107449082 0.12710503490572889 0 -0.41931682637261602 0.1223675700967678 0 -0.43295024732585491 0.1177656997386137 0 -0.42773912053657609 0.13301982418274741 0 -0.42864288857631422 0.099992791389988123 0 -0.41931682637261602 0.1223675700967678 0 -0.43295024732585491 0.1177656997386137 0 -0.44642879087906118 0.1053096283597485 0 -0.46486445230639151 0.11534694887315 0 -0.44424501197105998 0.1265458385839896 0 -0.43295024732585491 0.1177656997386137 0 -0.44642879087906118 0.1053096283597485 0 -0.44424501197105998 0.1265458385839896 0 -0.42864288857631422 0.099992791389988123 0 -0.44642879087906118 0.1053096283597485 0 -0.44993516941870793 0.08280708845892075 0 -0.46486445230639151 0.11534694887315 0 -0.45617971093953019 0.090073473820936695 0 -0.44642879087906118 0.1053096283597485 0 -0.46486445230639151 0.11534694887315 0 -0.45617971093953019 0.090073473820936695 0 -0.46609916705879201 0.097360820396609052 0 -0.46486445230639151 0.11534694887315 0 -0.45617971093953019 0.090073473820936695 0 -0.43983502445219141 0.061502946430459518 0 -0.4353179992887925 0.081430087965160811 0 -0.44993516941870793 0.08280708845892075 0 -0.43983502445219141 0.061502946430459518 0 -0.44993516941870793 0.08280708845892075 0 -0.45426467974437612 0.06448953014055378 0 -0.42864288857631422 0.099992791389988123 0 -0.44993516941870793 0.08280708845892075 0 -0.44642879087906118 0.1053096283597485 0 -0.44993516941870793 0.08280708845892075 0 -0.45617971093953019 0.090073473820936695 0 -0.4353179992887925 0.081430087965160811 0 -0.42864288857631422 0.099992791389988123 0 -0.44993516941870793 0.08280708845892075 0 -0.4353179992887925 0.081430087965160811 0 -0.44993516941870793 0.08280708845892075 0 -0.44993516941870793 0.08280708845892075 0 -0.45617971093953019 0.090073473820936695 0 -0.4678626105549667 0.084495930764039023 0 -0.44993516941870793 0.08280708845892075 0 -0.4678626105549667 0.084495930764039023 0 -0.46609916705879201 0.097360820396609052 0 -0.45617971093953019 0.090073473820936695 0 -0.4678626105549667 0.084495930764039023 0 -0.44993516941870793 0.08280708845892075 0 -0.45426467974437612 0.06448953014055378 0 -0.47094233987244272 0.065851507536775072 0 -0.44993516941870793 0.08280708845892075 0 -0.47094233987244272 0.065851507536775072 0 -0.44993516941870793 0.08280708845892075 0 -0.4678626105549667 0.084495930764039023 0 -0.47094233987244272 0.065851507536775072 0 -0.4678626105549667 0.084495930764039023 0 -0.47094233987244272 0.065851507536775072 0 -0.48427879078811609 0.076468558114620444 0 -0.48446780798723371 0.06160223964016031 0 -0.47094233987244272 0.065851507536775072 0 -0.48427879078811609 0.076468558114620444 0 -0.4678626105549667 0.084495930764039023 0 -0.48427879078811609 0.076468558114620444 0 -0.4857900516912258 0.086184773069155396 0 -0.4678626105549667 0.084495930764039023 0 -0.4857900516912258 0.086184773069155396 0 -0.47548989443427953 0.099526928128310488 0 -0.4678626105549667 0.084495930764039023 0 -0.4857900516912258 0.086184773069155396 0 -0.48427879078811609 0.076468558114620444 0 -0.4857900516912258 0.086184773069155396 0 -0.49999999999999939 0.08752341151035857 0 -0.4857900516912258 0.086184773069155396 0 -0.49999999999999939 0.08752341151035857 0 -0.48427879078811609 0.076468558114620444 0 -0.4857900516912258 0.086184773069155396 0 -0.5 0.059902508811776889 0 -0.48446780798723371 0.06160223964016031 0 -0.48427879078811609 0.076468558114620444 0 -0.5 0.059902508811776889 0 -0.48427879078811609 0.076468558114620444 0 -0.49999999999999939 0.08752341151035857 0 -0.46486445230639151 0.11534694887315 0 -0.48017281361171749 0.1242783586015319 0 -0.48935588671948388 0.1091102782255898 0 -0.46486445230639151 0.11534694887315 0 -0.47548989443427953 0.099526928128310488 0 -0.48935588671948388 0.1091102782255898 0 -0.4857900516912258 0.086184773069155396 0 -0.47548989443427953 0.099526928128310488 0 -0.48935588671948388 0.1091102782255898 0 -0.46609916705879201 0.097360820396609052 0 -0.46486445230639151 0.11534694887315 0 -0.47548989443427953 0.099526928128310488 0 -0.46609916705879201 0.097360820396609052 0 -0.4678626105549667 0.084495930764039023 0 -0.47548989443427953 0.099526928128310488 0 -0.4857900516912258 0.086184773069155396 0 -0.48935588671948388 0.1091102782255898 0 -0.4857900516912258 0.086184773069155396 0 -0.49999999999999939 0.08752341151035857 0 -0.48935588671948388 0.1091102782255898 0 -0.49999999999999939 0.08752341151035857 0 -0.48935588671948388 0.1091102782255898 0 -0.5 0.1101142570564921 0 -0.48935588671948388 0.1091102782255898 0 -0.5 0.1101142570564921 0 -0.4929217217477419 0.13203578338202429 0 -0.48935588671948388 0.1091102782255898 0 -0.4929217217477419 0.13203578338202429 0 -0.5 0.1101142570564921 0 -0.5 0.13270510260262569 0 -0.4929217217477419 0.13203578338202429 0 -0.48017281361171749 0.1242783586015319 0 -0.48935588671948388 0.1091102782255898 0 -0.4929217217477419 0.13203578338202429 0 -0.5 0.13270510260262569 0 -0.4929217217477419 0.13203578338202429 0 -0.49648755677599993 0.1549612885384587 0 -0.48017281361171749 0.1242783586015319 0 -0.4929217217477419 0.13203578338202429 0 -0.47354919367325282 0.1406204239253635 0 -0.46486445230639151 0.11534694887315 0 -0.48017281361171749 0.1242783586015319 0 -0.47354919367325282 0.1406204239253635 0 -0.46486445230639151 0.11534694887315 0 -0.47354919367325282 0.1406204239253635 0 -0.47354919367325282 0.1406204239253635 0 -0.49648755677599993 0.1549612885384587 0 -0.48223393504011408 0.165893898977577 0 -0.47354919367325282 0.1406204239253635 0 -0.48223393504011408 0.165893898977577 0 -0.46606483636491841 0.1569542162676397 0 -0.47354919367325282 0.1406204239253635 0 -0.48223393504011408 0.165893898977577 0 -0.4929217217477419 0.13203578338202429 0 -0.47354919367325282 0.1406204239253635 0 -0.49648755677599993 0.1549612885384587 0 -0.5 0.13270510260262569 0 -0.5 0.15529594814875941 0 -0.49648755677599993 0.1549612885384587 0 -0.4929217217477419 0.13203578338202429 0 -0.49648755677599993 0.1549612885384587 0 -0.5 0.15529594814875941 0 -0.49648755677599993 0.1549612885384587 0 -0.50005339180425779 0.17788679369489299 0 -0.49648755677599993 0.1549612885384587 0 -0.50005339180425779 0.17788679369489299 0 -0.49648755677599993 0.1549612885384587 0 -0.50005339180425779 0.17788679369489299 0 -0.48223393504011408 0.165893898977577 0 -0.50005339180425779 0.17788679369489299 0 -0.4831737021873288 0.18491871488128481 0 -0.48223393504011408 0.165893898977577 0 -0.4831737021873288 0.18491871488128481 0 -0.48223393504011408 0.165893898977577 0 -0.46456099856888289 0.1773262373269274 0 -0.48223393504011408 0.165893898977577 0 -0.46606483636491841 0.1569542162676397 0 -0.46456099856888289 0.1773262373269274 0 -0.46606483636491841 0.1569542162676397 0 -0.46456099856888289 0.1773262373269274 0 -0.45033847908106062 0.15906728904796269 0 -0.46456099856888289 0.1773262373269274 0 -0.45033847908106062 0.15906728904796269 0 -0.44620444249441837 0.1715583610428951 0 -0.46456099856888289 0.1773262373269274 0 -0.44785565995862731 0.1839709986088342 0 -0.45905470237388252 0.19396426283805579 0 -0.46456099856888289 0.1773262373269274 0 -0.44785565995862731 0.1839709986088342 0 -0.44620444249441837 0.1715583610428951 0 -0.44785565995862731 0.1839709986088342 0 -0.44620444249441837 0.1715583610428951 0 -0.43304314691869827 0.17554679386834521 0 -0.44785565995862731 0.1839709986088342 0 -0.43780201224793902 0.19000786926633681 0 -0.43304314691869827 0.17554679386834521 0 -0.45033847908106062 0.15906728904796269 0 -0.44620444249441837 0.1715583610428951 0 -0.43522392794482262 0.16188048636240601 0 -0.44620444249441837 0.1715583610428951 0 -0.43522392794482262 0.16188048636240601 0 -0.43304314691869827 0.17554679386834521 0 -0.45033847908106062 0.15906728904796269 0 -0.45472840340508391 0.14179008434432211 0 -0.43675260152726281 0.14620088374919529 0 -0.45033847908106062 0.15906728904796269 0 -0.43675260152726281 0.14620088374919529 0 -0.43522392794482262 0.16188048636240601 0 -0.44424501197105998 0.1265458385839896 0 -0.45472840340508391 0.14179008434432211 0 -0.43675260152726281 0.14620088374919529 0 -0.46486445230639151 0.11534694887315 0 -0.44424501197105998 0.1265458385839896 0 -0.45472840340508391 0.14179008434432211 0 -0.46486445230639151 0.11534694887315 0 -0.47354919367325282 0.1406204239253635 0 -0.45472840340508391 0.14179008434432211 0 -0.47354919367325282 0.1406204239253635 0 -0.46606483636491841 0.1569542162676397 0 -0.45472840340508391 0.14179008434432211 0 -0.46606483636491841 0.1569542162676397 0 -0.45033847908106062 0.15906728904796269 0 -0.45472840340508391 0.14179008434432211 0 -0.48120426634400448 0.2448663725910814 0 -0.48588586454105681 0.22742313331259459 0 -0.47195049768801478 0.23404684853296601 0 -0.48120426634400448 0.2448663725910814 0 -0.46819550642637969 0.24342717838557651 0 -0.46721878990479188 0.25715663656607468 0 -0.48120426634400448 0.2448663725910814 0 -0.47195049768801478 0.23404684853296601 0 -0.46819550642637969 0.24342717838557651 0 -0.48120426634400448 0.2448663725910814 0 -0.48588586454105681 0.22742313331259459 0 -0.49654829752714441 0.25247158130542779 0 -0.48588586454105681 0.22742313331259459 0 -0.49654829752714441 0.25247158130542779 0 -0.48588586454105681 0.22742313331259459 0 -0.5 0.22603091227939451 0 -0.49999999999999639 0.25010297157164529 0 -0.48588586454105681 0.22742313331259459 0 -0.49654829752714441 0.25247158130542779 0 -0.49999999999999639 0.25010297157164529 0 -0.48588586454105681 0.22742313331259459 0 -0.5 0.22603091227939451 0 -0.49168703151884813 0.21399488263326921 0 -0.48588586454105681 0.22742313331259459 0 -0.47195049768801478 0.23404684853296601 0 -0.46633252433017858 0.22059780154718911 0 -0.48588586454105681 0.22742313331259459 0 -0.47522343155496988 0.20237468531976099 0 -0.48588586454105681 0.22742313331259459 0 -0.47522343155496988 0.20237468531976099 0 -0.46633252433017858 0.22059780154718911 0 -0.48588586454105681 0.22742313331259459 0 -0.49168703151884813 0.21399488263326921 0 -0.47522343155496988 0.20237468531976099 0 -0.5 0.22603091227939451 0 -0.49168703151884813 0.21399488263326921 0 -0.5 0.20195885298714369 0 -0.49168703151884813 0.21399488263326921 0 -0.5 0.20195885298714369 0 -0.47522343155496988 0.20237468531976099 0 -0.4831737021873288 0.18491871488128481 0 -0.5 0.20195885298714369 0 -0.47522343155496988 0.20237468531976099 0 -0.50005339180425779 0.17788679369489299 0 -0.4831737021873288 0.18491871488128481 0 -0.5 0.20195885298714369 0 -0.46456099856888289 0.1773262373269274 0 -0.47522343155496988 0.20237468531976099 0 -0.4831737021873288 0.18491871488128481 0 -0.46456099856888289 0.1773262373269274 0 -0.47522343155496988 0.20237468531976099 0 -0.47522343155496988 0.20237468531976099 0 -0.45905470237388252 0.19396426283805579 0 -0.45873581026661281 0.20697885271039629 0 -0.46456099856888289 0.1773262373269274 0 -0.47522343155496988 0.20237468531976099 0 -0.45905470237388252 0.19396426283805579 0 -0.45905470237388252 0.19396426283805579 0 -0.44713993512999489 0.19902546460462109 0 -0.45873581026661281 0.20697885271039629 0 -0.44785565995862731 0.1839709986088342 0 -0.45905470237388252 0.19396426283805579 0 -0.44713993512999489 0.19902546460462109 0 -0.44785565995862731 0.1839709986088342 0 -0.43780201224793902 0.19000786926633681 0 -0.44713993512999489 0.19902546460462109 0 -0.43780201224793902 0.19000786926633681 0 -0.44713993512999489 0.19902546460462109 0 -0.43334858319212671 0.2026033029400319 0 -0.44713993512999489 0.19902546460462109 0 -0.44241310516338772 0.2186418980028767 0 -0.45873581026661281 0.20697885271039629 0 -0.44713993512999489 0.19902546460462109 0 -0.44241310516338772 0.2186418980028767 0 -0.43334858319212671 0.2026033029400319 0 -0.47522343155496988 0.20237468531976099 0 -0.45873581026661281 0.20697885271039629 0 -0.46633252433017858 0.22059780154718911 0 -0.44241310516338772 0.2186418980028767 0 -0.45873581026661281 0.20697885271039629 0 -0.46633252433017858 0.22059780154718911 0 -0.44241310516338772 0.2186418980028767 0 -0.46633252433017858 0.22059780154718911 0 -0.45813432679845439 0.2339197568283882 0 -0.47195049768801478 0.23404684853296601 0 -0.46633252433017858 0.22059780154718911 0 -0.45813432679845439 0.2339197568283882 0 -0.44241310516338772 0.2186418980028767 0 -0.45813432679845439 0.2339197568283882 0 -0.44475602213461052 0.2383143507401565 0 -0.44241310516338772 0.2186418980028767 0 -0.44475602213461052 0.2383143507401565 0 -0.43127178581484699 0.2366720149038633 0 -0.45813432679845439 0.2339197568283882 0 -0.44475602213461052 0.2383143507401565 0 -0.45331531656753488 0.25498961129775921 0 -0.44475602213461052 0.2383143507401565 0 -0.45331531656753488 0.25498961129775921 0 -0.43547421198197839 0.25007309349285561 0 -0.45813432679845439 0.2339197568283882 0 -0.46819550642637969 0.24342717838557651 0 -0.45331531656753488 0.25498961129775921 0 -0.47195049768801478 0.23404684853296601 0 -0.45813432679845439 0.2339197568283882 0 -0.46819550642637969 0.24342717838557651 0 -0.41507499501564521 0.23483761276803661 0 -0.42123420067136941 0.24671331128717519 0 -0.4035296774214725 0.2476303463643702 0 -0.41507499501564521 0.23483761276803661 0 -0.40199455523078609 0.2301144328304715 0 -0.4035296774214725 0.2476303463643702 0 -0.41507499501564521 0.23483761276803661 0 -0.42123420067136941 0.24671331128717519 0 -0.43127178581484699 0.2366720149038633 0 -0.42123420067136941 0.24671331128717519 0 -0.43127178581484699 0.2366720149038633 0 -0.43547421198197839 0.25007309349285561 0 -0.44475602213461052 0.2383143507401565 0 -0.43127178581484699 0.2366720149038633 0 -0.43547421198197839 0.25007309349285561 0 -0.44241310516338772 0.2186418980028767 0 -0.42473184915599338 0.22509130319844001 0 -0.4279300121248496 0.21357731048176079 0 -0.41507499501564521 0.23483761276803661 0 -0.43127178581484699 0.2366720149038633 0 -0.42473184915599338 0.22509130319844001 0 -0.44241310516338772 0.2186418980028767 0 -0.43127178581484699 0.2366720149038633 0 -0.42473184915599338 0.22509130319844001 0 -0.42473184915599338 0.22509130319844001 0 -0.41553068273892979 0.2201262713103318 0 -0.4279300121248496 0.21357731048176079 0 -0.41553068273892979 0.2201262713103318 0 -0.40521526660549861 0.21288705711731959 0 -0.40199455523078609 0.2301144328304715 0 -0.41507499501564521 0.23483761276803661 0 -0.42473184915599338 0.22509130319844001 0 -0.41553068273892979 0.2201262713103318 0 -0.41507499501564521 0.23483761276803661 0 -0.41553068273892979 0.2201262713103318 0 -0.40199455523078609 0.2301144328304715 0 -0.41553068273892979 0.2201262713103318 0 -0.41823741830080607 0.2042499114659623 0 -0.4279300121248496 0.21357731048176079 0 -0.41553068273892979 0.2201262713103318 0 -0.41823741830080607 0.2042499114659623 0 -0.40521526660549861 0.21288705711731959 0 -0.41823741830080607 0.2042499114659623 0 -0.40566624522987882 0.19860645826313009 0 -0.40521526660549861 0.21288705711731959 0 -0.44241310516338772 0.2186418980028767 0 -0.4279300121248496 0.21357731048176079 0 -0.43334858319212671 0.2026033029400319 0 -0.41823741830080607 0.2042499114659623 0 -0.4279300121248496 0.21357731048176079 0 -0.43334858319212671 0.2026033029400319 0 -0.41823741830080607 0.2042499114659623 0 -0.43334858319212671 0.2026033029400319 0 -0.42629172148723909 0.19043962105778711 0 -0.43780201224793902 0.19000786926633681 0 -0.43334858319212671 0.2026033029400319 0 -0.42629172148723909 0.19043962105778711 0 -0.41565693276811139 0.1928085426602012 0 -0.40566624522987882 0.19860645826313009 0 -0.40999748630854371 0.1819500518445453 0 -0.42629172148723909 0.19043962105778711 0 -0.41565693276811139 0.1928085426602012 0 -0.42098105666352359 0.17987323791627949 0 -0.41823741830080607 0.2042499114659623 0 -0.42629172148723909 0.19043962105778711 0 -0.41565693276811139 0.1928085426602012 0 -0.41823741830080607 0.2042499114659623 0 -0.41565693276811139 0.1928085426602012 0 -0.40566624522987882 0.19860645826313009 0 -0.40566624522987882 0.19860645826313009 0 -0.39806562229869819 0.18809453420424571 0 -0.40999748630854371 0.1819500518445453 0 -0.40566624522987882 0.19860645826313009 0 -0.39447605789651602 0.19942608259190009 0 -0.39806562229869819 0.18809453420424571 0 -0.40566624522987882 0.19860645826313009 0 -0.39447605789651602 0.19942608259190009 0 -0.39408848896302712 0.2103374641300971 0 -0.39447605789651602 0.19942608259190009 0 -0.39806562229869819 0.18809453420424571 0 -0.38750768825127557 0.19358567411889799 0 -0.37935229969543161 0.18883843513782639 0 -0.37548762673436081 0.194590399044486 0 -0.37979685688139297 0.19890987633308899 0 -0.38750768825127557 0.19358567411889799 0 -0.37935229969543161 0.18883843513782639 0 -0.37979685688139297 0.19890987633308899 0 -0.37979685688139297 0.19890987633308899 0 -0.37666093792019067 0.20750210145591139 0 -0.37338087780336221 0.2008157630732724 0 -0.37548762673436081 0.194590399044486 0 -0.37979685688139297 0.19890987633308899 0 -0.37338087780336221 0.2008157630732724 0 -0.39447605789651602 0.19942608259190009 0 -0.38750768825127557 0.19358567411889799 0 -0.38596677584557992 0.20432917050699231 0 -0.38750768825127557 0.19358567411889799 0 -0.37979685688139297 0.19890987633308899 0 -0.38596677584557992 0.20432917050699231 0 -0.38596677584557992 0.20432917050699231 0 -0.38327062516107713 0.21621382441205819 0 -0.39408848896302712 0.2103374641300971 0 -0.38596677584557992 0.20432917050699231 0 -0.37666093792019067 0.20750210145591139 0 -0.38327062516107713 0.21621382441205819 0 -0.37979685688139297 0.19890987633308899 0 -0.38596677584557992 0.20432917050699231 0 -0.37666093792019067 0.20750210145591139 0 -0.37666093792019067 0.20750210145591139 0 -0.38327062516107713 0.21621382441205819 0 -0.37381271686193568 0.21477059899012979 0 -0.38327062516107713 0.21621382441205819 0 -0.37629630226675059 0.2248371331775966 0 -0.37381271686193568 0.21477059899012979 0 -0.38327062516107713 0.21621382441205819 0 -0.39408848896302712 0.2103374641300971 0 -0.39432433137780781 0.21998183254669659 0 -0.39408848896302712 0.2103374641300971 0 -0.40521526660549861 0.21288705711731959 0 -0.39432433137780781 0.21998183254669659 0 -0.39447605789651602 0.19942608259190009 0 -0.38596677584557992 0.20432917050699231 0 -0.39408848896302712 0.2103374641300971 0 -0.40566624522987882 0.19860645826313009 0 -0.39408848896302712 0.2103374641300971 0 -0.40521526660549861 0.21288705711731959 0 -0.40199455523078609 0.2301144328304715 0 -0.39432433137780781 0.21998183254669659 0 -0.38546000396354191 0.23165178266063979 0 -0.40521526660549861 0.21288705711731959 0 -0.40199455523078609 0.2301144328304715 0 -0.39432433137780781 0.21998183254669659 0 -0.37629630226675059 0.2248371331775966 0 -0.38546000396354191 0.23165178266063979 0 -0.36901564376584278 0.2402611071267198 0 -0.38327062516107713 0.21621382441205819 0 -0.39432433137780781 0.21998183254669659 0 -0.38546000396354191 0.23165178266063979 0 -0.38327062516107713 0.21621382441205819 0 -0.37629630226675059 0.2248371331775966 0 -0.38546000396354191 0.23165178266063979 0 -0.39069612944498622 0.24277127154173969 0 -0.36901564376584278 0.2402611071267198 0 -0.38755728753843921 0.25590513753249078 0 -0.36901564376584278 0.2402611071267198 0 -0.38755728753843921 0.25590513753249078 0 -0.38546000396354191 0.23165178266063979 0 -0.39069612944498622 0.24277127154173969 0 -0.36901564376584278 0.2402611071267198 0 -0.40199455523078609 0.2301144328304715 0 -0.39069612944498622 0.24277127154173969 0 -0.4035296774214725 0.2476303463643702 0 -0.40199455523078609 0.2301144328304715 0 -0.38546000396354191 0.23165178266063979 0 -0.39069612944498622 0.24277127154173969 0 -0.39069612944498622 0.24277127154173969 0 -0.4035296774214725 0.2476303463643702 0 -0.38755728753843921 0.25590513753249078 0 -0.41326758419969711 0.15482722138790819 0 -0.41429402968502888 0.1380351524197192 0 -0.42305415214784131 0.14488513371952719 0 -0.41326758419969711 0.15482722138790819 0 -0.41429402968502888 0.1380351524197192 0 -0.40359072798625739 0.14760875080565769 0 -0.41326758419969711 0.15482722138790819 0 -0.42305415214784131 0.14488513371952719 0 -0.42387388155149769 0.15532090203782109 0 -0.41326758419969711 0.15482722138790819 0 -0.40301429800207622 0.16155077302492291 0 -0.40359072798625739 0.14760875080565769 0 -0.41429402968502888 0.1380351524197192 0 -0.40359072798625739 0.14760875080565769 0 -0.40298276442479192 0.1366045554484604 0 -0.41931682637261602 0.1223675700967678 0 -0.40663359107449082 0.12710503490572889 0 -0.41429402968502888 0.1380351524197192 0 -0.41931682637261602 0.1223675700967678 0 -0.41429402968502888 0.1380351524197192 0 -0.42773912053657609 0.13301982418274741 0 -0.40663359107449082 0.12710503490572889 0 -0.41429402968502888 0.1380351524197192 0 -0.40298276442479192 0.1366045554484604 0 -0.41429402968502888 0.1380351524197192 0 -0.42773912053657609 0.13301982418274741 0 -0.42305415214784131 0.14488513371952719 0 -0.43295024732585491 0.1177656997386137 0 -0.44424501197105998 0.1265458385839896 0 -0.42773912053657609 0.13301982418274741 0 -0.44424501197105998 0.1265458385839896 0 -0.42773912053657609 0.13301982418274741 0 -0.43675260152726281 0.14620088374919529 0 -0.43675260152726281 0.14620088374919529 0 -0.42387388155149769 0.15532090203782109 0 -0.43522392794482262 0.16188048636240601 0 -0.42773912053657609 0.13301982418274741 0 -0.43675260152726281 0.14620088374919529 0 -0.42305415214784131 0.14488513371952719 0 -0.43675260152726281 0.14620088374919529 0 -0.42305415214784131 0.14488513371952719 0 -0.42387388155149769 0.15532090203782109 0 -0.43522392794482262 0.16188048636240601 0 -0.43304314691869827 0.17554679386834521 0 -0.41976527341428188 0.16871975498138911 0 -0.42387388155149769 0.15532090203782109 0 -0.43522392794482262 0.16188048636240601 0 -0.41976527341428188 0.16871975498138911 0 -0.43780201224793902 0.19000786926633681 0 -0.42629172148723909 0.19043962105778711 0 -0.43304314691869827 0.17554679386834521 0 -0.43304314691869827 0.17554679386834521 0 -0.42098105666352359 0.17987323791627949 0 -0.41976527341428188 0.16871975498138911 0 -0.42629172148723909 0.19043962105778711 0 -0.43304314691869827 0.17554679386834521 0 -0.42098105666352359 0.17987323791627949 0 -0.41565693276811139 0.1928085426602012 0 -0.42098105666352359 0.17987323791627949 0 -0.40999748630854371 0.1819500518445453 0 -0.42098105666352359 0.17987323791627949 0 -0.40999748630854371 0.1819500518445453 0 -0.41976527341428188 0.16871975498138911 0 -0.40999748630854371 0.1819500518445453 0 -0.41976527341428188 0.16871975498138911 0 -0.40909677712688142 0.16873197924961639 0 -0.40999748630854371 0.1819500518445453 0 -0.40909677712688142 0.16873197924961639 0 -0.40001476197264418 0.1747310236244915 0 -0.41326758419969711 0.15482722138790819 0 -0.42387388155149769 0.15532090203782109 0 -0.41976527341428188 0.16871975498138911 0 -0.41326758419969711 0.15482722138790819 0 -0.40909677712688142 0.16873197924961639 0 -0.40301429800207622 0.16155077302492291 0 -0.41326758419969711 0.15482722138790819 0 -0.41976527341428188 0.16871975498138911 0 -0.40909677712688142 0.16873197924961639 0 -0.40909677712688142 0.16873197924961639 0 -0.40301429800207622 0.16155077302492291 0 -0.40001476197264418 0.1747310236244915 0 -0.40301429800207622 0.16155077302492291 0 -0.39238057394677411 0.16671849757041921 0 -0.40001476197264418 0.1747310236244915 0 -0.40301429800207622 0.16155077302492291 0 -0.39238057394677411 0.16671849757041921 0 -0.39352836485999659 0.153240183518422 0 -0.39806562229869819 0.18809453420424571 0 -0.40999748630854371 0.1819500518445453 0 -0.40001476197264418 0.1747310236244915 0 -0.39238057394677411 0.16671849757041921 0 -0.40001476197264418 0.1747310236244915 0 -0.38794235861191689 0.18012715608201799 0 -0.39806562229869819 0.18809453420424571 0 -0.40001476197264418 0.1747310236244915 0 -0.38794235861191689 0.18012715608201799 0 -0.39806562229869819 0.18809453420424571 0 -0.38750768825127557 0.19358567411889799 0 -0.38794235861191689 0.18012715608201799 0 -0.38750768825127557 0.19358567411889799 0 -0.37935229969543161 0.18883843513782639 0 -0.38794235861191689 0.18012715608201799 0 -0.38794235861191689 0.18012715608201799 0 -0.38052309608480461 0.16777146130132159 0 -0.37449822867776061 0.17908663128435781 0 -0.37935229969543161 0.18883843513782639 0 -0.38794235861191689 0.18012715608201799 0 -0.37449822867776061 0.17908663128435781 0 -0.39238057394677411 0.16671849757041921 0 -0.3852299247956974 0.15831378155017339 0 -0.39352836485999659 0.153240183518422 0 -0.39238057394677411 0.16671849757041921 0 -0.38794235861191689 0.18012715608201799 0 -0.38052309608480461 0.16777146130132159 0 -0.39238057394677411 0.16671849757041921 0 -0.3852299247956974 0.15831378155017339 0 -0.38052309608480461 0.16777146130132159 0 -0.3852299247956974 0.15831378155017339 0 -0.38052309608480461 0.16777146130132159 0 -0.37427071262398393 0.15544097543124799 0 -0.3852299247956974 0.15831378155017339 0 -0.38407800441844342 0.14638337407500551 0 -0.37427071262398393 0.15544097543124799 0 -0.38407800441844342 0.14638337407500551 0 -0.37197614675929802 0.139040575445744 0 -0.37427071262398393 0.15544097543124799 0 -0.38407800441844342 0.14638337407500551 0 -0.39352836485999659 0.153240183518422 0 -0.393833350388203 0.13950684418301529 0 -0.3852299247956974 0.15831378155017339 0 -0.38407800441844342 0.14638337407500551 0 -0.39352836485999659 0.153240183518422 0 -0.39352836485999659 0.153240183518422 0 -0.40359072798625739 0.14760875080565769 0 -0.393833350388203 0.13950684418301529 0 -0.40359072798625739 0.14760875080565769 0 -0.40298276442479192 0.1366045554484604 0 -0.393833350388203 0.13950684418301529 0 -0.40301429800207622 0.16155077302492291 0 -0.39352836485999659 0.153240183518422 0 -0.40359072798625739 0.14760875080565769 0 -0.40663359107449082 0.12710503490572889 0 -0.40298276442479192 0.1366045554484604 0 -0.39729231374742607 0.12892765426003011 0 -0.40008630086622299 0.12140039422385079 0 -0.40663359107449082 0.12710503490572889 0 -0.39729231374742607 0.12892765426003011 0 -0.393833350388203 0.13950684418301529 0 -0.39729231374742607 0.12892765426003011 0 -0.38562952708348158 0.1327578843214301 0 -0.40298276442479192 0.1366045554484604 0 -0.393833350388203 0.13950684418301529 0 -0.39729231374742607 0.12892765426003011 0 -0.39043111164144301 0.120546406187059 0 -0.39729231374742607 0.12892765426003011 0 -0.38562952708348158 0.1327578843214301 0 -0.3771229259235489 0.12278337187638851 0 -0.38562952708348158 0.1327578843214301 0 -0.37197614675929802 0.139040575445744 0 -0.39043111164144301 0.120546406187059 0 -0.3771229259235489 0.12278337187638851 0 -0.38562952708348158 0.1327578843214301 0 -0.38407800441844342 0.14638337407500551 0 -0.393833350388203 0.13950684418301529 0 -0.38562952708348158 0.1327578843214301 0 -0.38407800441844342 0.14638337407500551 0 -0.38562952708348158 0.1327578843214301 0 -0.37197614675929802 0.139040575445744 0 -0.37197614675929802 0.139040575445744 0 -0.35716782069568648 0.12814794922525879 0 -0.3546148974636491 0.1523231368461205 0 -0.3771229259235489 0.12278337187638851 0 -0.37197614675929802 0.139040575445744 0 -0.35716782069568648 0.12814794922525879 0 -0.35716782069568648 0.12814794922525879 0 -0.3546148974636491 0.1523231368461205 0 -0.35716782069568648 0.12814794922525879 0 -0.3546148974636491 0.1523231368461205 0 -0.33872398373642498 0.1348067625776303 0 -0.35716782069568648 0.12814794922525879 0 -0.33872398373642498 0.1348067625776303 0 -0.34115836651812431 0.1138129640329 0 -0.37197614675929802 0.139040575445744 0 -0.3546148974636491 0.1523231368461205 0 -0.37427071262398393 0.15544097543124799 0 -0.38052309608480461 0.16777146130132159 0 -0.37427071262398393 0.15544097543124799 0 -0.36881677785269512 0.1669417258897134 0 -0.3546148974636491 0.1523231368461205 0 -0.36881677785269512 0.1669417258897134 0 -0.36275168190670609 0.17597510716396211 0 -0.3546148974636491 0.1523231368461205 0 -0.37427071262398393 0.15544097543124799 0 -0.36881677785269512 0.1669417258897134 0 -0.38052309608480461 0.16777146130132159 0 -0.36881677785269512 0.1669417258897134 0 -0.37449822867776061 0.17908663128435781 0 -0.37935229969543161 0.18883843513782639 0 -0.37449822867776061 0.17908663128435781 0 -0.3694204725572563 0.18979752163375621 0 -0.37449822867776061 0.17908663128435781 0 -0.36275168190670609 0.17597510716396211 0 -0.3694204725572563 0.18979752163375621 0 -0.36881677785269512 0.1669417258897134 0 -0.37449822867776061 0.17908663128435781 0 -0.36275168190670609 0.17597510716396211 0 -0.36275168190670609 0.17597510716396211 0 -0.35930151899632568 0.18629070357331509 0 -0.3694204725572563 0.18979752163375621 0 -0.36275168190670609 0.17597510716396211 0 -0.35930151899632568 0.18629070357331509 0 -0.35206197423161167 0.17649832446698219 0 -0.3546148974636491 0.1523231368461205 0 -0.35206197423161167 0.17649832446698219 0 -0.33674865026545631 0.16983944502761891 0 -0.3546148974636491 0.1523231368461205 0 -0.35206197423161167 0.17649832446698219 0 -0.3546148974636491 0.1523231368461205 0 -0.36275168190670609 0.17597510716396211 0 -0.35206197423161167 0.17649832446698219 0 -0.33674865026545631 0.16983944502761891 0 -0.32150912937896819 0.16148959598844731 0 -0.33451111270616102 0.15168442751572611 0 -0.3546148974636491 0.1523231368461205 0 -0.33674865026545631 0.16983944502761891 0 -0.33451111270616102 0.15168442751572611 0 -0.33674865026545631 0.16983944502761891 0 -0.32826768556778191 0.1862080139274277 0 -0.32334818326485409 0.17415242158793051 0 -0.33674865026545631 0.16983944502761891 0 -0.34060272658694202 0.18649726850531809 0 -0.32826768556778191 0.1862080139274277 0 -0.35206197423161167 0.17649832446698219 0 -0.33674865026545631 0.16983944502761891 0 -0.34060272658694202 0.18649726850531809 0 -0.32826768556778191 0.1862080139274277 0 -0.32334818326485409 0.17415242158793051 0 -0.31088586062414908 0.17765910724071601 0 -0.32334818326485409 0.17415242158793051 0 -0.32150912937896819 0.16148959598844731 0 -0.31088586062414908 0.17765910724071601 0 -0.33674865026545631 0.16983944502761891 0 -0.32334818326485409 0.17415242158793051 0 -0.32150912937896819 0.16148959598844731 0 -0.32150912937896819 0.16148959598844731 0 -0.32064559575483642 0.14240194559245539 0 -0.33451111270616102 0.15168442751572611 0 -0.32150912937896819 0.16148959598844731 0 -0.32064559575483642 0.14240194559245539 0 -0.30336899248151689 0.1550770974579197 0 -0.30403361169892368 0.13349336888990529 0 -0.322595989108524 0.1236531664614027 0 -0.32064559575483642 0.14240194559245539 0 -0.30403361169892368 0.13349336888990529 0 -0.322595989108524 0.1236531664614027 0 -0.32064559575483642 0.14240194559245539 0 -0.33872398373642498 0.1348067625776303 0 -0.322595989108524 0.1236531664614027 0 -0.3546148974636491 0.1523231368461205 0 -0.33872398373642498 0.1348067625776303 0 -0.33451111270616102 0.15168442751572611 0 -0.32064559575483642 0.14240194559245539 0 -0.33872398373642498 0.1348067625776303 0 -0.33451111270616102 0.15168442751572611 0 -0.34897780488666402 0.24655348825625059 0 -0.35641204800479759 0.24228533268283961 0 -0.36004616023260438 0.26114403339595538 0 -0.34897780488666402 0.24655348825625059 0 -0.34933083540807452 0.23529398974516799 0 -0.35641204800479759 0.24228533268283961 0 -0.34897780488666402 0.24655348825625059 0 -0.34933083540807452 0.23529398974516799 0 -0.33985037778789973 0.24054563156833619 0 -0.34933083540807452 0.23529398974516799 0 -0.35641204800479759 0.24228533268283961 0 -0.36029415580080798 0.2329025781536766 0 -0.35641204800479759 0.24228533268283961 0 -0.36341128369583597 0.23553257386314699 0 -0.36004616023260438 0.26114403339595538 0 -0.36901564376584278 0.2402611071267198 0 -0.37216982174676799 0.2577853064291496 0 -0.36341128369583597 0.23553257386314699 0 -0.36004616023260438 0.26114403339595538 0 -0.36901564376584278 0.2402611071267198 0 -0.36341128369583597 0.23553257386314699 0 -0.36004616023260438 0.26114403339595538 0 -0.36901564376584278 0.2402611071267198 0 -0.36341128369583597 0.23553257386314699 0 -0.35641204800479759 0.24228533268283961 0 -0.36341128369583597 0.23553257386314699 0 -0.36029415580080798 0.2329025781536766 0 -0.36901564376584278 0.2402611071267198 0 -0.36541698845535447 0.22026745005880319 0 -0.36341128369583597 0.23553257386314699 0 -0.36029415580080798 0.2329025781536766 0 -0.36541698845535447 0.22026745005880319 0 -0.36341128369583597 0.23553257386314699 0 -0.36541698845535447 0.22026745005880319 0 -0.37629630226675059 0.2248371331775966 0 -0.36901564376584278 0.2402611071267198 0 -0.36541698845535447 0.22026745005880319 0 -0.36901564376584278 0.2402611071267198 0 -0.36341128369583597 0.23553257386314699 0 -0.36541698845535447 0.22026745005880319 0 -0.36341128369583597 0.23553257386314699 0 -0.36029415580080798 0.2329025781536766 0 -0.37629630226675059 0.2248371331775966 0 -0.36541698845535447 0.22026745005880319 0 -0.37381271686193568 0.21477059899012979 0 -0.36029415580080798 0.2329025781536766 0 -0.36541698845535447 0.22026745005880319 0 -0.3565516111397023 0.2240291130530985 0 -0.36541698845535447 0.22026745005880319 0 -0.3565516111397023 0.2240291130530985 0 -0.35615860641760178 0.21461957034490209 0 -0.3565516111397023 0.2240291130530985 0 -0.34695612776753693 0.22484869970870591 0 -0.35615860641760178 0.21461957034490209 0 -0.34933083540807452 0.23529398974516799 0 -0.36029415580080798 0.2329025781536766 0 -0.3565516111397023 0.2240291130530985 0 -0.34933083540807452 0.23529398974516799 0 -0.34695612776753693 0.22484869970870591 0 -0.33562873562506002 0.22693755385582889 0 -0.34933083540807452 0.23529398974516799 0 -0.3565516111397023 0.2240291130530985 0 -0.34695612776753693 0.22484869970870591 0 -0.34695612776753693 0.22484869970870591 0 -0.3495090509995743 0.20067351208784401 0 -0.34695612776753693 0.22484869970870591 0 -0.3495090509995743 0.20067351208784401 0 -0.33924740732121689 0.21248665746889939 0 -0.34695612776753693 0.22484869970870591 0 -0.35615860641760178 0.21461957034490209 0 -0.3495090509995743 0.20067351208784401 0 -0.35615860641760178 0.21461957034490209 0 -0.36235925372584038 0.20327907681605911 0 -0.3495090509995743 0.20067351208784401 0 -0.36541698845535447 0.22026745005880319 0 -0.35615860641760178 0.21461957034490209 0 -0.36235925372584038 0.20327907681605911 0 -0.36541698845535447 0.22026745005880319 0 -0.36741873050630508 0.20503248584627959 0 -0.36541698845535447 0.22026745005880319 0 -0.36235925372584038 0.20327907681605911 0 -0.36541698845535447 0.22026745005880319 0 -0.36741873050630508 0.20503248584627959 0 -0.36235925372584038 0.20327907681605911 0 -0.36541698845535447 0.22026745005880319 0 -0.37381271686193568 0.21477059899012979 0 -0.36741873050630508 0.20503248584627959 0 -0.37666093792019067 0.20750210145591139 0 -0.36741873050630508 0.20503248584627959 0 -0.37338087780336221 0.2008157630732724 0 -0.37666093792019067 0.20750210145591139 0 -0.37381271686193568 0.21477059899012979 0 -0.36741873050630508 0.20503248584627959 0 -0.35930151899632568 0.18629070357331509 0 -0.36235925372584038 0.20327907681605911 0 -0.3694204725572563 0.18979752163375621 0 -0.36741873050630508 0.20503248584627959 0 -0.36235925372584038 0.20327907681605911 0 -0.3694204725572563 0.18979752163375621 0 -0.35930151899632568 0.18629070357331509 0 -0.36235925372584038 0.20327907681605911 0 -0.36741873050630508 0.20503248584627959 0 -0.3694204725572563 0.18979752163375621 0 -0.36741873050630508 0.20503248584627959 0 -0.37338087780336221 0.2008157630732724 0 -0.3694204725572563 0.18979752163375621 0 -0.37548762673436081 0.194590399044486 0 -0.37338087780336221 0.2008157630732724 0 -0.3694204725572563 0.18979752163375621 0 -0.37935229969543161 0.18883843513782639 0 -0.37548762673436081 0.194590399044486 0 -0.3694204725572563 0.18979752163375621 0 -0.35206197423161167 0.17649832446698219 0 -0.3495090509995743 0.20067351208784401 0 -0.35206197423161167 0.17649832446698219 0 -0.34060272658694202 0.18649726850531809 0 -0.3495090509995743 0.20067351208784401 0 -0.35930151899632568 0.18629070357331509 0 -0.36235925372584038 0.20327907681605911 0 -0.3495090509995743 0.20067351208784401 0 -0.35930151899632568 0.18629070357331509 0 -0.35206197423161167 0.17649832446698219 0 -0.3495090509995743 0.20067351208784401 0 -0.34060272658694202 0.18649726850531809 0 -0.3495090509995743 0.20067351208784401 0 -0.33464171046799729 0.1989215717008101 0 -0.34060272658694202 0.18649726850531809 0 -0.32826768556778191 0.1862080139274277 0 -0.33464171046799729 0.1989215717008101 0 -0.33464171046799729 0.1989215717008101 0 -0.31843146951197199 0.19947222635527029 0 -0.32950141174591591 0.21105194999130811 0 -0.32826768556778191 0.1862080139274277 0 -0.31843146951197199 0.19947222635527029 0 -0.31088586062414908 0.17765910724071601 0 -0.32826768556778191 0.1862080139274277 0 -0.33464171046799729 0.1989215717008101 0 -0.31843146951197199 0.19947222635527029 0 -0.31843146951197199 0.19947222635527029 0 -0.32950141174591591 0.21105194999130811 0 -0.31245968817421038 0.22359060439314399 0 -0.32950141174591591 0.21105194999130811 0 -0.33924740732121689 0.21248665746889939 0 -0.33562873562506002 0.22693755385582889 0 -0.33464171046799729 0.1989215717008101 0 -0.32950141174591591 0.21105194999130811 0 -0.33924740732121689 0.21248665746889939 0 -0.3495090509995743 0.20067351208784401 0 -0.33464171046799729 0.1989215717008101 0 -0.33924740732121689 0.21248665746889939 0 -0.34695612776753693 0.22484869970870591 0 -0.33924740732121689 0.21248665746889939 0 -0.33562873562506002 0.22693755385582889 0 -0.34933083540807452 0.23529398974516799 0 -0.33562873562506002 0.22693755385582889 0 -0.33985037778789973 0.24054563156833619 0 -0.32950141174591591 0.21105194999130811 0 -0.33562873562506002 0.22693755385582889 0 -0.31245968817421038 0.22359060439314399 0 -0.33562873562506002 0.22693755385582889 0 -0.32784876663567858 0.24135632246026301 0 -0.31245968817421038 0.22359060439314399 0 -0.32784876663567858 0.24135632246026301 0 -0.31194510868681208 0.2490814624430977 0 -0.32266640875577379 0.25875618584567173 0 -0.32784876663567858 0.24135632246026301 0 -0.31194510868681208 0.2490814624430977 0 -0.31245968817421038 0.22359060439314399 0 -0.32784876663567858 0.24135632246026301 0 -0.33985037778789973 0.24054563156833619 0 -0.3374657463840211 0.25258680352417051 0 -0.33562873562506002 0.22693755385582889 0 -0.32784876663567858 0.24135632246026301 0 -0.33985037778789973 0.24054563156833619 0 -0.34897780488666402 0.24655348825625059 0 -0.33985037778789973 0.24054563156833619 0 -0.3374657463840211 0.25258680352417051 0 -0.28350545545988159 0.24511508518317501 0 -0.31194510868681208 0.2490814624430977 0 -0.28947394683394129 0.22290723965403389 0 -0.28350545545988159 0.24511508518317501 0 -0.31194510868681208 0.2490814624430977 0 -0.31194510868681208 0.2490814624430977 0 -0.31245968817421038 0.22359060439314399 0 -0.28947394683394129 0.22290723965403389 0 -0.28350545545988159 0.24511508518317501 0 -0.28947394683394129 0.22290723965403389 0 -0.2711768260273017 0.22934903210340499 0 -0.28947394683394129 0.22290723965403389 0 -0.30139020375155429 0.20051660572864921 0 -0.27189929570899291 0.21032623774871539 0 -0.31245968817421038 0.22359060439314399 0 -0.30139020375155429 0.20051660572864921 0 -0.31245968817421038 0.22359060439314399 0 -0.28947394683394129 0.22290723965403389 0 -0.30139020375155429 0.20051660572864921 0 -0.31843146951197199 0.19947222635527029 0 -0.31245968817421038 0.22359060439314399 0 -0.30139020375155429 0.20051660572864921 0 -0.31843146951197199 0.19947222635527029 0 -0.30139020375155429 0.20051660572864921 0 -0.31088586062414908 0.17765910724071601 0 -0.30139020375155429 0.20051660572864921 0 -0.27338181725919941 0.18861189194295511 0 -0.27189929570899291 0.21032623774871539 0 -0.30139020375155429 0.20051660572864921 0 -0.29032071932889819 0.1774426070641543 0 -0.30139020375155429 0.20051660572864921 0 -0.27338181725919941 0.18861189194295511 0 -0.29032071932889819 0.1774426070641543 0 -0.27338181725919941 0.18861189194295511 0 -0.25748109765676452 0.1974555209482948 0 -0.27189929570899291 0.21032623774871539 0 -0.27338181725919941 0.18861189194295511 0 -0.25748109765676452 0.1974555209482948 0 -0.25672354526768532 0.18036420840679929 0 -0.25748109765676452 0.1974555209482948 0 -0.25672354526768532 0.18036420840679929 0 -0.2386003623005804 0.1909511444375297 0 -0.25748109765676452 0.1974555209482948 0 -0.27189929570899291 0.21032623774871539 0 -0.2468004677473643 0.2170241222054746 0 -0.28947394683394129 0.22290723965403389 0 -0.27189929570899291 0.21032623774871539 0 -0.2711768260273017 0.22934903210340499 0 -0.27189929570899291 0.21032623774871539 0 -0.2711768260273017 0.22934903210340499 0 -0.2468004677473643 0.2170241222054746 0 -0.2711768260273017 0.22934903210340499 0 -0.25506580223295128 0.2411487079232523 0 -0.2468004677473643 0.2170241222054746 0 -0.28350545545988159 0.24511508518317501 0 -0.2711768260273017 0.22934903210340499 0 -0.25506580223295128 0.2411487079232523 0 -0.28350545545988159 0.24511508518317501 0 -0.25506580223295128 0.2411487079232523 0 -0.2728481904644981 0.26143257162966432 0 -0.28350545545988159 0.24511508518317501 0 -0.25506580223295128 0.2411487079232523 0 -0.29375672372013051 0.14285366994039739 0 -0.28242451552579911 0.13738546190058121 0 -0.27925123490624221 0.15436860839965949 0 -0.29375672372013051 0.14285366994039739 0 -0.30336899248151689 0.1550770974579197 0 -0.27925123490624221 0.15436860839965949 0 -0.29375672372013051 0.14285366994039739 0 -0.28242451552579911 0.13738546190058121 0 -0.29012471436341453 0.130857766090894 0 -0.29012471436341453 0.130857766090894 0 -0.2800995398838208 0.13020160139827111 0 -0.27966717916248363 0.1212685678664447 0 -0.28242451552579911 0.13738546190058121 0 -0.29012471436341453 0.130857766090894 0 -0.2800995398838208 0.13020160139827111 0 -0.29375672372013051 0.14285366994039739 0 -0.29012471436341453 0.130857766090894 0 -0.30403361169892368 0.13349336888990529 0 -0.29012471436341453 0.130857766090894 0 -0.30403361169892368 0.13349336888990529 0 -0.30112660797584262 0.11884585081517569 0 -0.29375672372013051 0.14285366994039739 0 -0.30403361169892368 0.13349336888990529 0 -0.30336899248151689 0.1550770974579197 0 -0.32064559575483642 0.14240194559245539 0 -0.30403361169892368 0.13349336888990529 0 -0.30336899248151689 0.1550770974579197 0 -0.32150912937896819 0.16148959598844731 0 -0.30336899248151689 0.1550770974579197 0 -0.31088586062414908 0.17765910724071601 0 -0.30336899248151689 0.1550770974579197 0 -0.31088586062414908 0.17765910724071601 0 -0.29032071932889819 0.1774426070641543 0 -0.30139020375155429 0.20051660572864921 0 -0.31088586062414908 0.17765910724071601 0 -0.29032071932889819 0.1774426070641543 0 -0.29032071932889819 0.1774426070641543 0 -0.27925123490624221 0.15436860839965949 0 -0.30336899248151689 0.1550770974579197 0 -0.29032071932889819 0.1774426070641543 0 -0.27925123490624221 0.15436860839965949 0 -0.29032071932889819 0.1774426070641543 0 -0.26538682044175921 0.16626398270775239 0 -0.27925123490624221 0.15436860839965949 0 -0.27338181725919941 0.18861189194295511 0 -0.29032071932889819 0.1774426070641543 0 -0.26538682044175921 0.16626398270775239 0 -0.27338181725919941 0.18861189194295511 0 -0.25672354526768532 0.18036420840679929 0 -0.26538682044175921 0.16626398270775239 0 -0.26538682044175921 0.16626398270775239 0 -0.25728405863933229 0.1475662721264398 0 -0.24203788772944701 0.16164875012463961 0 -0.25672354526768532 0.18036420840679929 0 -0.26538682044175921 0.16626398270775239 0 -0.24203788772944701 0.16164875012463961 0 -0.26538682044175921 0.16626398270775239 0 -0.25728405863933229 0.1475662721264398 0 -0.27925123490624221 0.15436860839965949 0 -0.25728405863933229 0.1475662721264398 0 -0.27925123490624221 0.15436860839965949 0 -0.26818175048358611 0.13129460973516449 0 -0.28242451552579911 0.13738546190058121 0 -0.27925123490624221 0.15436860839965949 0 -0.26818175048358611 0.13129460973516449 0 -0.27925123490624221 0.15436860839965949 0 -0.26818175048358611 0.13129460973516449 0 -0.26818175048358611 0.13129460973516449 0 -0.25820775034912491 0.1236912849177154 0 -0.27966717916248363 0.1212685678664447 0 -0.2800995398838208 0.13020160139827111 0 -0.26818175048358611 0.13129460973516449 0 -0.27966717916248363 0.1212685678664447 0 -0.28242451552579911 0.13738546190058121 0 -0.2800995398838208 0.13020160139827111 0 -0.26818175048358611 0.13129460973516449 0 -0.25728405863933229 0.1475662721264398 0 -0.26818175048358611 0.13129460973516449 0 -0.25669773284991981 0.13447267841785099 0 -0.26818175048358611 0.13129460973516449 0 -0.25669773284991981 0.13447267841785099 0 -0.25820775034912491 0.1236912849177154 0 -0.25728405863933229 0.1475662721264398 0 -0.25669773284991981 0.13447267841785099 0 -0.24277999027016781 0.1333122883800992 0 -0.25820775034912491 0.1236912849177154 0 -0.24277999027016781 0.1333122883800992 0 -0.25669773284991981 0.13447267841785099 0 -0.25820775034912491 0.1236912849177154 0 -0.24277999027016781 0.1333122883800992 0 -0.25985311395776473 0.1104105486414456 0 -0.25820775034912491 0.1236912849177154 0 -0.2465842574223798 0.1136730485039653 0 -0.25985311395776473 0.1104105486414456 0 -0.25820775034912491 0.1236912849177154 0 -0.27364945571928467 0.114061584943706 0 -0.25985311395776473 0.1104105486414456 0 -0.25133872639838267 0.099597610871731482 0 -0.26938894131357999 0.1019119084466257 0 -0.25133872639838267 0.099597610871731482 0 -0.26938894131357999 0.1019119084466257 0 -0.25429264043260819 0.080886583836923695 0 -0.25985311395776473 0.1104105486414456 0 -0.25133872639838267 0.099597610871731482 0 -0.2465842574223798 0.1136730485039653 0 -0.26938894131357999 0.1019119084466257 0 -0.28653232590929351 0.1047143958822427 0 -0.27814297766292811 0.090435431756261425 0 -0.26938894131357999 0.1019119084466257 0 -0.28202731547286891 0.1124795306203332 0 -0.28653232590929351 0.1047143958822427 0 -0.25985311395776473 0.1104105486414456 0 -0.26938894131357999 0.1019119084466257 0 -0.27364945571928467 0.114061584943706 0 -0.25820775034912491 0.1236912849177154 0 -0.27364945571928467 0.114061584943706 0 -0.27966717916248363 0.1212685678664447 0 -0.25820775034912491 0.1236912849177154 0 -0.27966717916248363 0.1212685678664447 0 -0.25820775034912491 0.1236912849177154 0 -0.27364945571928467 0.114061584943706 0 -0.27364945571928467 0.114061584943706 0 -0.27966717916248363 0.1212685678664447 0 -0.28202731547286891 0.1124795306203332 0 -0.26938894131357999 0.1019119084466257 0 -0.27364945571928467 0.114061584943706 0 -0.28202731547286891 0.1124795306203332 0 -0.29012471436341453 0.130857766090894 0 -0.27966717916248363 0.1212685678664447 0 -0.30112660797584262 0.11884585081517569 0 -0.27966717916248363 0.1212685678664447 0 -0.30112660797584262 0.11884585081517569 0 -0.28202731547286891 0.1124795306203332 0 -0.28653232590929351 0.1047143958822427 0 -0.30112660797584262 0.11884585081517569 0 -0.27966717916248363 0.1212685678664447 0 -0.28202731547286891 0.1124795306203332 0 -0.30112660797584262 0.11884585081517569 0 -0.28653232590929351 0.1047143958822427 0 -0.30199331489324788 0.099984279675599155 0 -0.27814297766292811 0.090435431756261425 0 -0.28653232590929351 0.1047143958822427 0 -0.30199331489324788 0.099984279675599155 0 -0.30112660797584262 0.11884585081517569 0 -0.30199331489324788 0.099984279675599155 0 -0.27814297766292811 0.090435431756261425 0 -0.30199331489324788 0.099984279675599155 0 -0.31226452817049022 0.11564039137211631 0 -0.30112660797584262 0.11884585081517569 0 -0.30403361169892368 0.13349336888990529 0 -0.31226452817049022 0.11564039137211631 0 -0.30112660797584262 0.11884585081517569 0 -0.30826795150203168 0.0730570480900746 0 -0.29162857128467889 0.068174224611542072 0 -0.30671133469942591 0.060491325403138993 0 -0.30826795150203168 0.0730570480900746 0 -0.29896722472195492 0.083545671358161877 0 -0.29162857128467889 0.068174224611542072 0 -0.30826795150203168 0.0730570480900746 0 -0.30671133469942591 0.060491325403138993 0 -0.31748379774572277 0.065664047262652556 0 -0.30826795150203168 0.0730570480900746 0 -0.30989223771910468 0.085925076087191882 0 -0.29896722472195492 0.083545671358161877 0 -0.30199331489324788 0.099984279675599155 0 -0.30989223771910468 0.085925076087191882 0 -0.31804414445220519 0.093015806396628209 0 -0.30199331489324788 0.099984279675599155 0 -0.30989223771910468 0.085925076087191882 0 -0.29896722472195492 0.083545671358161877 0 -0.29896722472195492 0.083545671358161877 0 -0.29162857128467889 0.068174224611542072 0 -0.27814297766292811 0.090435431756261425 0 -0.30199331489324788 0.099984279675599155 0 -0.29896722472195492 0.083545671358161877 0 -0.27814297766292811 0.090435431756261425 0 -0.29162857128467889 0.068174224611542072 0 -0.26954824856239218 0.070591615048194847 0 -0.27661211831262261 0.058821093714310643 0 -0.29162857128467889 0.068174224611542072 0 -0.26954824856239218 0.070591615048194847 0 -0.27814297766292811 0.090435431756261425 0 -0.26938894131357999 0.1019119084466257 0 -0.27814297766292811 0.090435431756261425 0 -0.25429264043260819 0.080886583836923695 0 -0.27814297766292811 0.090435431756261425 0 -0.25429264043260819 0.080886583836923695 0 -0.26954824856239218 0.070591615048194847 0 -0.27814297766292811 0.090435431756261425 0 -0.25429264043260819 0.080886583836923695 0 -0.26954824856239218 0.070591615048194847 0 -0.25429264043260819 0.080886583836923695 0 -0.24938781436518601 0.068753797982909676 0 -0.26954824856239218 0.070591615048194847 0 -0.26546819001061889 0.057703898189083162 0 -0.24938781436518601 0.068753797982909676 0 -0.25301635817267382 0.054799278369873833 0 -0.26866648296270568 0.047302201796583558 0 -0.2490183198394047 0.040680481043489383 0 -0.25301635817267382 0.054799278369873833 0 -0.26546819001061889 0.057703898189083162 0 -0.26866648296270568 0.047302201796583558 0 -0.25301635817267382 0.054799278369873833 0 -0.26546819001061889 0.057703898189083162 0 -0.24938781436518601 0.068753797982909676 0 -0.26866648296270568 0.047302201796583558 0 -0.2490183198394047 0.040680481043489383 0 -0.26498316757438117 0.037762001638634128 0 -0.26866648296270568 0.047302201796583558 0 -0.2490183198394047 0.040680481043489383 0 -0.26498316757438117 0.037762001638634128 0 -0.25230682830346818 0.02955531694840258 0 -0.2490183198394047 0.040680481043489383 0 -0.26498316757438117 0.037762001638634128 0 -0.26866648296270568 0.047302201796583558 0 -0.28629368916477671 0.038049955930227621 0 -0.26498316757438117 0.037762001638634128 0 -0.27408996900487831 0.0279022292276793 0 -0.28629368916477671 0.038049955930227621 0 -0.26498316757438117 0.037762001638634128 0 -0.28629368916477671 0.038049955930227621 0 -0.26866648296270568 0.047302201796583558 0 -0.28831464608600682 0.053923922549677747 0 -0.28629368916477671 0.038049955930227621 0 -0.26866648296270568 0.047302201796583558 0 -0.28831464608600682 0.053923922549677747 0 -0.27661211831262261 0.058821093714310643 0 -0.26866648296270568 0.047302201796583558 0 -0.28831464608600682 0.053923922549677747 0 -0.26954824856239218 0.070591615048194847 0 -0.26546819001061889 0.057703898189083162 0 -0.27661211831262261 0.058821093714310643 0 -0.26546819001061889 0.057703898189083162 0 -0.27661211831262261 0.058821093714310643 0 -0.26866648296270568 0.047302201796583558 0 -0.25537996419202591 -0.0033143468573220759 0 -0.26514382374020828 0.0054859781629250631 0 -0.25229657263007749 0.0082721924600334829 0 -0.25229657263007749 0.0082721924600334829 0 -0.25976610739902811 0.013753461600862811 0 -0.25276540064208891 0.019357371674601519 0 -0.26514382374020828 0.0054859781629250631 0 -0.25229657263007749 0.0082721924600334829 0 -0.25976610739902811 0.013753461600862811 0 -0.25976610739902811 0.013753461600862811 0 -0.26191756645844749 0.023627443951056079 0 -0.27295971954361758 0.01538275836770563 0 -0.25976610739902811 0.013753461600862811 0 -0.25276540064208891 0.019357371674601519 0 -0.26191756645844749 0.023627443951056079 0 -0.25276540064208891 0.019357371674601519 0 -0.25230682830346818 0.02955531694840258 0 -0.26191756645844749 0.023627443951056079 0 -0.26498316757438117 0.037762001638634128 0 -0.25230682830346818 0.02955531694840258 0 -0.26191756645844749 0.023627443951056079 0 -0.26498316757438117 0.037762001638634128 0 -0.26191756645844749 0.023627443951056079 0 -0.27408996900487831 0.0279022292276793 0 -0.27408996900487831 0.0279022292276793 0 -0.27295971954361758 0.01538275836770563 0 -0.28429570228316881 0.024688986250773051 0 -0.26191756645844749 0.023627443951056079 0 -0.27408996900487831 0.0279022292276793 0 -0.27295971954361758 0.01538275836770563 0 -0.26514382374020828 0.0054859781629250631 0 -0.27295971954361758 0.01538275836770563 0 -0.28202086463559128 0.00085761427244706039 0 -0.26514382374020828 0.0054859781629250631 0 -0.25976610739902811 0.013753461600862811 0 -0.27295971954361758 0.01538275836770563 0 -0.27295971954361758 0.01538275836770563 0 -0.28202086463559128 0.00085761427244706039 0 -0.28760580723404278 0.013574793022046609 0 -0.28202086463559128 0.00085761427244706039 0 -0.28760580723404278 0.013574793022046609 0 -0.29949908819018478 0.0071836852143538294 0 -0.28760580723404278 0.013574793022046609 0 -0.29680124940308078 0.024186401267074661 0 -0.29949908819018478 0.0071836852143538294 0 -0.28760580723404278 0.013574793022046609 0 -0.28429570228316881 0.024688986250773051 0 -0.29680124940308078 0.024186401267074661 0 -0.27295971954361758 0.01538275836770563 0 -0.28760580723404278 0.013574793022046609 0 -0.28429570228316881 0.024688986250773051 0 -0.27408996900487831 0.0279022292276793 0 -0.28429570228316881 0.024688986250773051 0 -0.28629368916477671 0.038049955930227621 0 -0.28429570228316881 0.024688986250773051 0 -0.29680124940308078 0.024186401267074661 0 -0.28629368916477671 0.038049955930227621 0 -0.29680124940308078 0.024186401267074661 0 -0.30760421075517241 0.03833791022182112 0 -0.31420691026787673 0.022904774863883651 0 -0.29680124940308078 0.024186401267074661 0 -0.29949908819018478 0.0071836852143538294 0 -0.31420691026787673 0.022904774863883651 0 -0.29949908819018478 0.0071836852143538294 0 -0.31420691026787673 0.022904774863883651 0 -0.30565178628296208 -0.0059818783442715153 0 -0.29949908819018478 0.0071836852143538294 0 -0.32099301038432648 0.001815581587585604 0 -0.29949908819018478 0.0071836852143538294 0 -0.32099301038432648 0.001815581587585604 0 -0.31420691026787673 0.022904774863883651 0 -0.29646044252860898 0.04771701560694519 0 -0.28831464608600682 0.053923922549677747 0 -0.29827198362797391 0.054099153773578393 0 -0.29162857128467889 0.068174224611542072 0 -0.28831464608600682 0.053923922549677747 0 -0.29827198362797391 0.054099153773578393 0 -0.29162857128467889 0.068174224611542072 0 -0.27661211831262261 0.058821093714310643 0 -0.28831464608600682 0.053923922549677747 0 -0.29680124940308078 0.024186401267074661 0 -0.28629368916477671 0.038049955930227621 0 -0.30760421075517241 0.03833791022182112 0 -0.29646044252860898 0.04771701560694519 0 -0.28831464608600682 0.053923922549677747 0 -0.28629368916477671 0.038049955930227621 0 -0.29646044252860898 0.04771701560694519 0 -0.28629368916477671 0.038049955930227621 0 -0.30118319195325288 0.0435903454632076 0 -0.28629368916477671 0.038049955930227621 0 -0.30118319195325288 0.0435903454632076 0 -0.30760421075517241 0.03833791022182112 0 -0.28629368916477671 0.038049955930227621 0 -0.30760421075517241 0.03833791022182112 0 -0.30118319195325288 0.0435903454632076 0 -0.30969478679239942 0.043707084264404547 0 -0.30503900060939371 0.050420672246918943 0 -0.30118319195325288 0.0435903454632076 0 -0.30760421075517241 0.03833791022182112 0 -0.30969478679239942 0.043707084264404547 0 -0.30969478679239942 0.043707084264404547 0 -0.30503900060939371 0.050420672246918943 0 -0.31570943015827241 0.05431341009372552 0 -0.29646044252860898 0.04771701560694519 0 -0.30118319195325288 0.0435903454632076 0 -0.30503900060939371 0.050420672246918943 0 -0.29646044252860898 0.04771701560694519 0 -0.30503900060939371 0.050420672246918943 0 -0.29827198362797391 0.054099153773578393 0 -0.29162857128467889 0.068174224611542072 0 -0.29827198362797391 0.054099153773578393 0 -0.30671133469942591 0.060491325403138993 0 -0.30503900060939371 0.050420672246918943 0 -0.29827198362797391 0.054099153773578393 0 -0.30671133469942591 0.060491325403138993 0 -0.30503900060939371 0.050420672246918943 0 -0.30671133469942591 0.060491325403138993 0 -0.31570943015827241 0.05431341009372552 0 -0.32423537340598529 0.059783326953227869 0 -0.31570943015827241 0.05431341009372552 0 -0.31748379774572277 0.065664047262652556 0 -0.30969478679239942 0.043707084264404547 0 -0.32809241908493753 0.050559543079165811 0 -0.31570943015827241 0.05431341009372552 0 -0.30969478679239942 0.043707084264404547 0 -0.32809241908493753 0.050559543079165811 0 -0.30671133469942591 0.060491325403138993 0 -0.31570943015827241 0.05431341009372552 0 -0.31748379774572277 0.065664047262652556 0 -0.32423537340598529 0.059783326953227869 0 -0.32809241908493753 0.050559543079165811 0 -0.31570943015827241 0.05431341009372552 0 -0.30760421075517241 0.03833791022182112 0 -0.32891473234556801 0.038625864513414071 0 -0.30760421075517241 0.03833791022182112 0 -0.32891473234556801 0.038625864513414071 0 -0.31420691026787673 0.022904774863883651 0 -0.30969478679239942 0.043707084264404547 0 -0.32809241908493753 0.050559543079165811 0 -0.32891473234556801 0.038625864513414071 0 -0.30760421075517241 0.03833791022182112 0 -0.30969478679239942 0.043707084264404547 0 -0.32891473234556801 0.038625864513414071 0 -0.32891473234556801 0.038625864513414071 0 -0.34649005137747518 0.057412001893927672 0 -0.34945228526401001 0.038903374215681089 0 -0.32891473234556801 0.038625864513414071 0 -0.34149602037197568 0.026951929917848082 0 -0.34945228526401001 0.038903374215681089 0 -0.32891473234556801 0.038625864513414071 0 -0.34945228526401001 0.038903374215681089 0 -0.32809241908493753 0.050559543079165811 0 -0.33265812433454339 0.061316776099374831 0 -0.34649005137747518 0.057412001893927672 0 -0.32809241908493753 0.050559543079165811 0 -0.32891473234556801 0.038625864513414071 0 -0.34649005137747518 0.057412001893927672 0 -0.32809241908493753 0.050559543079165811 0 -0.34649005137747518 0.057412001893927672 0 -0.32891473234556801 0.038625864513414071 0 -0.34649005137747518 0.057412001893927672 0 -0.32423537340598529 0.059783326953227869 0 -0.32809241908493753 0.050559543079165811 0 -0.33265812433454339 0.061316776099374831 0 -0.32099301038432648 0.001815581587585604 0 -0.31420691026787673 0.022904774863883651 0 -0.32893777644370997 0.021370881223778809 0 -0.32891473234556801 0.038625864513414071 0 -0.31420691026787673 0.022904774863883651 0 -0.32891473234556801 0.038625864513414071 0 -0.31420691026787673 0.022904774863883651 0 -0.32893777644370997 0.021370881223778809 0 -0.32891473234556801 0.038625864513414071 0 -0.34149602037197568 0.026951929917848082 0 -0.32893777644370997 0.021370881223778809 0 -0.34149602037197568 0.026951929917848082 0 -0.32893777644370997 0.021370881223778809 0 -0.34128894299642848 0.0122757678100476 0 -0.32099301038432648 0.001815581587585604 0 -0.32893777644370997 0.021370881223778809 0 -0.34128894299642848 0.0122757678100476 0 -0.35377703023811358 -0.0010742091296599219 0 -0.34128894299642848 0.0122757678100476 0 -0.35967541628456312 0.0098712230630304699 0 -0.34128894299642848 0.0122757678100476 0 -0.35888636481016217 0.02358376182631881 0 -0.35967541628456312 0.0098712230630304699 0 -0.35377703023811358 -0.0010742091296599219 0 -0.35967541628456312 0.0098712230630304699 0 -0.36274735004998171 0.00073078404237994238 0 -0.34149602037197568 0.026951929917848082 0 -0.35888636481016217 0.02358376182631881 0 -0.34945228526401001 0.038903374215681089 0 -0.34149602037197568 0.026951929917848082 0 -0.34128894299642848 0.0122757678100476 0 -0.35888636481016217 0.02358376182631881 0 -0.35888636481016217 0.02358376182631881 0 -0.3741660754503644 0.024763952449897351 0 -0.36998983818245179 0.039180883917947558 0 -0.35888636481016217 0.02358376182631881 0 -0.3741660754503644 0.024763952449897351 0 -0.36925123739472948 0.01547380578063577 0 -0.35888636481016217 0.02358376182631881 0 -0.35967541628456312 0.0098712230630304699 0 -0.36925123739472948 0.01547380578063577 0 -0.35967541628456312 0.0098712230630304699 0 -0.36925123739472948 0.01547380578063577 0 -0.37163206502638491 0.0066924315405442192 0 -0.38228049202703113 0.01055909057794736 0 -0.36925123739472948 0.01547380578063577 0 -0.37163206502638491 0.0066924315405442192 0 -0.35967541628456312 0.0098712230630304699 0 -0.37163206502638491 0.0066924315405442192 0 -0.36274735004998171 0.00073078404237994238 0 -0.34649005137747518 0.057412001893927672 0 -0.34945228526401001 0.038903374215681089 0 -0.36098423476196451 0.050592187070421193 0 -0.34649005137747518 0.057412001893927672 0 -0.36377373127359153 0.063849553355572963 0 -0.34649005137747518 0.057412001893927672 0 -0.36098423476196451 0.050592187070421193 0 -0.36377373127359153 0.063849553355572963 0 -0.34945228526401001 0.038903374215681089 0 -0.36998983818245179 0.039180883917947558 0 -0.34945228526401001 0.038903374215681089 0 -0.36998983818245179 0.039180883917947558 0 -0.36098423476196451 0.050592187070421193 0 -0.35888636481016217 0.02358376182631881 0 -0.34945228526401001 0.038903374215681089 0 -0.36998983818245179 0.039180883917947558 0 -0.3752152677122938 0.053615121968976692 0 -0.36998983818245179 0.039180883917947558 0 -0.36098423476196451 0.050592187070421193 0 -0.3752152677122938 0.053615121968976692 0 -0.36098423476196451 0.050592187070421193 0 -0.36377373127359153 0.063849553355572963 0 -0.3752152677122938 0.053615121968976692 0 -0.37934952992800203 0.06152599102278665 0 -0.36377373127359153 0.063849553355572963 0 -0.38105741116970748 0.070287104817218851 0 -0.36377373127359153 0.063849553355572963 0 -0.37934952992800203 0.06152599102278665 0 -0.38105741116970748 0.070287104817218851 0 -0.36377373127359153 0.063849553355572963 0 -0.38105741116970748 0.070287104817218851 0 -0.3708780889558867 0.072554299931123528 0 -0.36377373127359153 0.063849553355572963 0 -0.37543873292193292 0.080761983674428522 0 -0.3708780889558867 0.072554299931123528 0 -0.36324248045831498 0.075318557877273845 0 -0.3708780889558867 0.072554299931123528 0 -0.36324248045831498 0.075318557877273845 0 -0.36377373127359153 0.063849553355572963 0 -0.36324248045831498 0.075318557877273845 0 -0.35545669875693969 0.076489066857041904 0 -0.3621925864014709 0.080565377151101195 0 -0.34649005137747518 0.057412001893927672 0 -0.36324248045831498 0.075318557877273845 0 -0.34649005137747518 0.057412001893927672 0 -0.35545669875693969 0.076489066857041904 0 -0.34760874147795823 0.074954459634990908 0 -0.34649005137747518 0.057412001893927672 0 -0.36324248045831498 0.075318557877273845 0 -0.36377373127359153 0.063849553355572963 0 -0.34649005137747518 0.057412001893927672 0 -0.36324248045831498 0.075318557877273845 0 -0.35545669875693969 0.076489066857041904 0 -0.3535821059295382 0.085200331143182678 0 -0.3621925864014709 0.080565377151101195 0 -0.35972074392772441 0.1039727616043971 0 -0.34884130774006261 0.092720305469283892 0 -0.34411419820811112 0.083604242281641677 0 -0.3535821059295382 0.085200331143182678 0 -0.34760874147795823 0.074954459634990908 0 -0.34411419820811112 0.083604242281641677 0 -0.3535821059295382 0.085200331143182678 0 -0.35545669875693969 0.076489066857041904 0 -0.3535821059295382 0.085200331143182678 0 -0.3621925864014709 0.080565377151101195 0 -0.35545669875693969 0.076489066857041904 0 -0.34760874147795823 0.074954459634990908 0 -0.3535821059295382 0.085200331143182678 0 -0.37999490953915538 0.093225113860619477 0 -0.37543873292193292 0.080761983674428522 0 -0.36324248045831498 0.075318557877273845 0 -0.3621925864014709 0.080565377151101195 0 -0.35972074392772441 0.1039727616043971 0 -0.37999490953915538 0.093225113860619477 0 -0.36324248045831498 0.075318557877273845 0 -0.3621925864014709 0.080565377151101195 0 -0.37999490953915538 0.093225113860619477 0 -0.3621925864014709 0.080565377151101195 0 -0.35972074392772441 0.1039727616043971 0 -0.37999490953915538 0.093225113860619477 0 -0.36324248045831498 0.075318557877273845 0 -0.37999490953915538 0.093225113860619477 0 -0.35972074392772441 0.1039727616043971 0 -0.37146216644709129 0.1114782088342699 0 -0.37999490953915538 0.093225113860619477 0 -0.35972074392772441 0.1039727616043971 0 -0.3771229259235489 0.12278337187638851 0 -0.35716782069568648 0.12814794922525879 0 -0.37146216644709129 0.1114782088342699 0 -0.35716782069568648 0.12814794922525879 0 -0.35972074392772441 0.1039727616043971 0 -0.37146216644709129 0.1114782088342699 0 -0.35716782069568648 0.12814794922525879 0 -0.35972074392772441 0.1039727616043971 0 -0.34115836651812431 0.1138129640329 0 -0.35716782069568648 0.12814794922525879 0 -0.35972074392772441 0.1039727616043971 0 -0.35972074392772441 0.1039727616043971 0 -0.33646553328447593 0.098563981072647674 0 -0.34115836651812431 0.1138129640329 0 -0.34884130774006261 0.092720305469283892 0 -0.3535821059295382 0.085200331143182678 0 -0.35972074392772441 0.1039727616043971 0 -0.35972074392772441 0.1039727616043971 0 -0.34115836651812431 0.1138129640329 0 -0.34884130774006261 0.092720305469283892 0 -0.35972074392772441 0.1039727616043971 0 -0.33646553328447593 0.098563981072647674 0 -0.33646553328447593 0.098563981072647674 0 -0.32584365212356797 0.109533127594937 0 -0.32893270032285321 0.091741615212213079 0 -0.33646553328447593 0.098563981072647674 0 -0.34115836651812431 0.1138129640329 0 -0.32584365212356797 0.109533127594937 0 -0.34115836651812431 0.1138129640329 0 -0.322595989108524 0.1236531664614027 0 -0.32584365212356797 0.109533127594937 0 -0.34115836651812431 0.1138129640329 0 -0.322595989108524 0.1236531664614027 0 -0.33872398373642498 0.1348067625776303 0 -0.34115836651812431 0.1138129640329 0 -0.322595989108524 0.1236531664614027 0 -0.30403361169892368 0.13349336888990529 0 -0.31226452817049022 0.11564039137211631 0 -0.322595989108524 0.1236531664614027 0 -0.31226452817049022 0.11564039137211631 0 -0.322595989108524 0.1236531664614027 0 -0.32584365212356797 0.109533127594937 0 -0.30199331489324788 0.099984279675599155 0 -0.32584365212356797 0.109533127594937 0 -0.31804414445220519 0.093015806396628209 0 -0.32584365212356797 0.109533127594937 0 -0.31804414445220519 0.093015806396628209 0 -0.32893270032285321 0.091741615212213079 0 -0.30199331489324788 0.099984279675599155 0 -0.32584365212356797 0.109533127594937 0 -0.30199331489324788 0.099984279675599155 0 -0.31226452817049022 0.11564039137211631 0 -0.32584365212356797 0.109533127594937 0 -0.30989223771910468 0.085925076087191882 0 -0.31804414445220519 0.093015806396628209 0 -0.32218855302608368 0.080022574915495609 0 -0.31804414445220519 0.093015806396628209 0 -0.32218855302608368 0.080022574915495609 0 -0.32893270032285321 0.091741615212213079 0 -0.30826795150203168 0.0730570480900746 0 -0.30989223771910468 0.085925076087191882 0 -0.32218855302608368 0.080022574915495609 0 -0.30826795150203168 0.0730570480900746 0 -0.32218855302608368 0.080022574915495609 0 -0.31748379774572277 0.065664047262652556 0 -0.32423537340598529 0.059783326953227869 0 -0.33265812433454339 0.061316776099374831 0 -0.32723309570645032 0.067062858231220643 0 -0.32423537340598529 0.059783326953227869 0 -0.31748379774572277 0.065664047262652556 0 -0.32723309570645032 0.067062858231220643 0 -0.32218855302608368 0.080022574915495609 0 -0.31748379774572277 0.065664047262652556 0 -0.32723309570645032 0.067062858231220643 0 -0.34649005137747518 0.057412001893927672 0 -0.34760874147795823 0.074954459634990908 0 -0.33668263412178118 0.072512410450300019 0 -0.32218855302608368 0.080022574915495609 0 -0.32723309570645032 0.067062858231220643 0 -0.33668263412178118 0.072512410450300019 0 -0.33265812433454339 0.061316776099374831 0 -0.32723309570645032 0.067062858231220643 0 -0.33668263412178118 0.072512410450300019 0 -0.33265812433454339 0.061316776099374831 0 -0.34649005137747518 0.057412001893927672 0 -0.33668263412178118 0.072512410450300019 0 -0.34760874147795823 0.074954459634990908 0 -0.34411419820811112 0.083604242281641677 0 -0.33668263412178118 0.072512410450300019 0 -0.34411419820811112 0.083604242281641677 0 -0.33668263412178118 0.072512410450300019 0 -0.33401114674217652 0.084749552768449254 0 -0.34884130774006261 0.092720305469283892 0 -0.34411419820811112 0.083604242281641677 0 -0.33646553328447593 0.098563981072647674 0 -0.34411419820811112 0.083604242281641677 0 -0.33646553328447593 0.098563981072647674 0 -0.33401114674217652 0.084749552768449254 0 -0.33646553328447593 0.098563981072647674 0 -0.32893270032285321 0.091741615212213079 0 -0.33401114674217652 0.084749552768449254 0 -0.32218855302608368 0.080022574915495609 0 -0.33668263412178118 0.072512410450300019 0 -0.33401114674217652 0.084749552768449254 0 -0.32218855302608368 0.080022574915495609 0 -0.32893270032285321 0.091741615212213079 0 -0.33401114674217652 0.084749552768449254 0 -0.39202675663651582 0.5 0 -0.44296364594040638 0.47532087137969509 0 -0.47148182297020158 0.48176682993167269 0 -0.39202675663651582 0.5 0 -0.38685083543877657 0.47054016493952228 0 -0.35550701130023182 0.47703644637796039 0 -0.39202675663651582 0.5 0 -0.38685083543877657 0.47054016493952228 0 -0.4144454689106114 0.46887491282771748 0 -0.38685083543877657 0.47054016493952228 0 -0.38137785779607181 0.45584853121112412 0 -0.37131332832198027 0.46456972568346822 0 -0.38137785779607181 0.45584853121112412 0 -0.37323000630099679 0.45754905890918701 0 -0.37131332832198027 0.46456972568346822 0 -0.38685083543877657 0.47054016493952228 0 -0.38137785779607181 0.45584853121112412 0 -0.39551529784013562 0.45516855997199501 0 -0.38137785779607181 0.45584853121112412 0 -0.3845842202631351 0.45104211771512159 0 -0.39551529784013562 0.45516855997199501 0 -0.39829901691190928 0.43856282067431612 0 -0.37201739046930049 0.44811357960837728 0 -0.39344435371084269 0.44151325647590761 0 -0.37201739046930049 0.44811357960837728 0 -0.36799937170549041 0.45163812320146002 0 -0.3845842202631351 0.45104211771512159 0 -0.39344435371084269 0.44151325647590761 0 -0.36799937170549041 0.45163812320146002 0 -0.38137785779607181 0.45584853121112412 0 -0.3845842202631351 0.45104211771512159 0 -0.36799937170549041 0.45163812320146002 0 -0.39344435371084269 0.44151325647590761 0 -0.36799937170549041 0.45163812320146002 0 -0.39829901691190928 0.43856282067431612 0 -0.39344435371084269 0.44151325647590761 0 -0.37201739046930049 0.44811357960837728 0 -0.38336688891823911 0.43867285164541808 0 -0.39829901691190928 0.43856282067431612 0 -0.37201739046930049 0.44811357960837728 0 -0.38336688891823911 0.43867285164541808 0 -0.37201739046930049 0.44811357960837728 0 -0.374495835471923 0.43815868703815403 0 -0.39344435371084269 0.44151325647590761 0 -0.39551529784013562 0.45516855997199501 0 -0.41138603761978609 0.44893330308864499 0 -0.3845842202631351 0.45104211771512159 0 -0.39344435371084269 0.44151325647590761 0 -0.39551529784013562 0.45516855997199501 0 -0.38685083543877657 0.47054016493952228 0 -0.39551529784013562 0.45516855997199501 0 -0.4144454689106114 0.46887491282771748 0 -0.39551529784013562 0.45516855997199501 0 -0.41138603761978609 0.44893330308864499 0 -0.4144454689106114 0.46887491282771748 0 -0.41138603761978609 0.44893330308864499 0 -0.43481789018226658 0.44794022662543193 0 -0.4144454689106114 0.46887491282771748 0 -0.41138603761978609 0.44893330308864499 0 -0.43481789018226658 0.44794022662543193 0 -0.41888933571619508 0.43138838975035498 0 -0.39344435371084269 0.44151325647590761 0 -0.41138603761978609 0.44893330308864499 0 -0.41888933571619508 0.43138838975035498 0 -0.43481789018226658 0.44794022662543193 0 -0.4144454689106114 0.46887491282771748 0 -0.44296364594040638 0.47532087137969509 0 -0.4144454689106114 0.46887491282771748 0 -0.44296364594040638 0.47532087137969509 0 -0.39202675663651582 0.5 0 -0.4144454689106114 0.46887491282771748 0 -0.44296364594040638 0.47532087137969509 0 -0.39202675663651582 0.5 0 -0.47148182297020158 0.48176682993167269 0 -0.5 0.5 0 -0.44296364594040638 0.47532087137969509 0 -0.47148182297020158 0.48176682993167269 0 -0.44296364594040638 0.47532087137969509 0 -0.47148182297020158 0.48176682993167269 0 -0.45695735880530991 0.46020185727896618 0 -0.47148182297020158 0.48176682993167269 0 -0.48760957831803009 0.47322715323147763 0 -0.47872770024324268 0.45438183825883538 0 -0.48760957831803009 0.47322715323147763 0 -0.49999999999999672 0.48821278848364968 0 -0.5 0.46396687257510899 0 -0.47148182297020158 0.48176682993167269 0 -0.48760957831803009 0.47322715323147763 0 -0.49999999999999672 0.48821278848364968 0 -0.47148182297020158 0.48176682993167269 0 -0.5 0.5 0 -0.49999999999999672 0.48821278848364968 0 -0.47148182297020158 0.48176682993167269 0 -0.49999999999999672 0.48821278848364968 0 -0.5 0.4397209566665683 0 -0.47872770024324268 0.45438183825883538 0 -0.48324654511205029 0.4345017066649281 0 -0.5 0.4397209566665683 0 -0.5 0.46396687257510899 0 -0.47872770024324268 0.45438183825883538 0 -0.48760957831803009 0.47322715323147763 0 -0.5 0.46396687257510899 0 -0.47872770024324268 0.45438183825883538 0 -0.47148182297020158 0.48176682993167269 0 -0.47872770024324268 0.45438183825883538 0 -0.45695735880530991 0.46020185727896618 0 -0.47872770024324268 0.45438183825883538 0 -0.46003385475999892 0.42981942481729057 0 -0.48324654511205029 0.4345017066649281 0 -0.47872770024324268 0.45438183825883538 0 -0.45695735880530991 0.46020185727896618 0 -0.46003385475999892 0.42981942481729057 0 -0.43481789018226658 0.44794022662543193 0 -0.44296364594040638 0.47532087137969509 0 -0.45695735880530991 0.46020185727896618 0 -0.43481789018226658 0.44794022662543193 0 -0.45695735880530991 0.46020185727896618 0 -0.46003385475999892 0.42981942481729057 0 -0.43481789018226658 0.44794022662543193 0 -0.46003385475999892 0.42981942481729057 0 -0.43551539528796668 0.42060305523344582 0 -0.44772732093663692 0.40705887370368032 0 -0.43370518622185739 0.39816291977779178 0 -0.43551539528796668 0.42060305523344582 0 -0.44772732093663692 0.40705887370368032 0 -0.46003385475999892 0.42981942481729057 0 -0.43551539528796668 0.42060305523344582 0 -0.46480022153162581 0.40686244178832998 0 -0.46003385475999892 0.42981942481729057 0 -0.47872809080107381 0.41818633416460038 0 -0.44772732093663692 0.40705887370368032 0 -0.46480022153162581 0.40686244178832998 0 -0.46003385475999892 0.42981942481729057 0 -0.46003385475999892 0.42981942481729057 0 -0.48324654511205029 0.4345017066649281 0 -0.47872809080107381 0.41818633416460038 0 -0.46480022153162581 0.40686244178832998 0 -0.47872809080107381 0.41818633416460038 0 -0.48297991979538102 0.40168782242164758 0 -0.47872809080107381 0.41818633416460038 0 -0.5 0.41547504075802749 0 -0.48297991979538102 0.40168782242164758 0 -0.48324654511205029 0.4345017066649281 0 -0.47872809080107381 0.41818633416460038 0 -0.5 0.41547504075802749 0 -0.5 0.4397209566665683 0 -0.48324654511205029 0.4345017066649281 0 -0.5 0.41547504075802749 0 -0.49999999999999822 0.39122912484948691 0 -0.48022981032477802 0.38515940780926539 0 -0.49999999999999822 0.39122912484948691 0 -0.48022981032477802 0.38515940780926539 0 -0.5 0.36343899680644548 0 -0.49999999999999822 0.39122912484948691 0 -0.48297991979538102 0.40168782242164758 0 -0.48022981032477802 0.38515940780926539 0 -0.5 0.41547504075802749 0 -0.49999999999999822 0.39122912484948691 0 -0.48297991979538102 0.40168782242164758 0 -0.48297991979538102 0.40168782242164758 0 -0.48022981032477802 0.38515940780926539 0 -0.46832963101257402 0.39313381413041509 0 -0.46480022153162581 0.40686244178832998 0 -0.48297991979538102 0.40168782242164758 0 -0.46832963101257402 0.39313381413041509 0 -0.48022981032477802 0.38515940780926539 0 -0.46045962064955781 0.37908969076904359 0 -0.46832963101257402 0.39313381413041509 0 -0.48022981032477802 0.38515940780926539 0 -0.46045962064955781 0.37908969076904359 0 -0.48022981032477802 0.38515940780926539 0 -0.46045962064955781 0.37908969076904359 0 -0.47597278094426848 0.3634076630802433 0 -0.46045962064955781 0.37908969076904359 0 -0.46832963101257402 0.39313381413041509 0 -0.45317858276152739 0.39286970786378911 0 -0.44772732093663692 0.40705887370368032 0 -0.46480022153162581 0.40686244178832998 0 -0.45317858276152739 0.39286970786378911 0 -0.46480022153162581 0.40686244178832998 0 -0.46832963101257402 0.39313381413041509 0 -0.45317858276152739 0.39286970786378911 0 -0.44772732093663692 0.40705887370368032 0 -0.45317858276152739 0.39286970786378911 0 -0.43370518622185739 0.39816291977779178 0 -0.43370518622185739 0.39816291977779178 0 -0.44479548320140538 0.37492651719600051 0 -0.45317858276152739 0.39286970786378911 0 -0.43370518622185739 0.39816291977779178 0 -0.44479548320140538 0.37492651719600051 0 -0.46045962064955781 0.37908969076904359 0 -0.45317858276152739 0.39286970786378911 0 -0.44479548320140538 0.37492651719600051 0 -0.43370518622185739 0.39816291977779178 0 -0.4302123170486305 0.37281948164846962 0 -0.44479548320140538 0.37492651719600051 0 -0.41781922056083892 0.38260643104269509 0 -0.43370518622185739 0.39816291977779178 0 -0.4302123170486305 0.37281948164846962 0 -0.41781922056083892 0.38260643104269509 0 -0.39660336448031458 0.38003694087062301 0 -0.40456273884952543 0.36557657670104188 0 -0.41781922056083892 0.38260643104269509 0 -0.41791878391084603 0.40924849672612529 0 -0.40186905798128492 0.39854771115736898 0 -0.41781922056083892 0.38260643104269509 0 -0.43370518622185739 0.39816291977779178 0 -0.41791878391084603 0.40924849672612529 0 -0.43370518622185739 0.39816291977779178 0 -0.43551539528796668 0.42060305523344582 0 -0.41791878391084603 0.40924849672612529 0 -0.43551539528796668 0.42060305523344582 0 -0.41888933571619508 0.43138838975035498 0 -0.41791878391084603 0.40924849672612529 0 -0.43481789018226658 0.44794022662543193 0 -0.43551539528796668 0.42060305523344582 0 -0.41888933571619508 0.43138838975035498 0 -0.39829901691190928 0.43856282067431612 0 -0.41888933571619508 0.43138838975035498 0 -0.40443713964575378 0.42304508261220719 0 -0.41791878391084603 0.40924849672612529 0 -0.40443713964575378 0.42304508261220719 0 -0.40186905798128492 0.39854771115736898 0 -0.41888933571619508 0.43138838975035498 0 -0.41791878391084603 0.40924849672612529 0 -0.40443713964575378 0.42304508261220719 0 -0.39121044405494249 0.41286377196203011 0 -0.40443713964575378 0.42304508261220719 0 -0.40186905798128492 0.39854771115736898 0 -0.39121044405494249 0.41286377196203011 0 -0.40443713964575378 0.42304508261220719 0 -0.39672827525114368 0.42870293437075863 0 -0.39344435371084269 0.44151325647590761 0 -0.41888933571619508 0.43138838975035498 0 -0.39121044405494249 0.41286377196203011 0 -0.39672827525114368 0.42870293437075863 0 -0.38831639079726449 0.42735764586668701 0 -0.39829901691190928 0.43856282067431612 0 -0.39344435371084269 0.44151325647590761 0 -0.41888933571619508 0.43138838975035498 0 -0.39829901691190928 0.43856282067431612 0 -0.40443713964575378 0.42304508261220719 0 -0.39672827525114368 0.42870293437075863 0 -0.39829901691190928 0.43856282067431612 0 -0.39672827525114368 0.42870293437075863 0 -0.38976031449631421 0.43331442885143778 0 -0.39672827525114368 0.42870293437075863 0 -0.38976031449631421 0.43331442885143778 0 -0.38831639079726449 0.42735764586668701 0 -0.38831639079726449 0.42735764586668701 0 -0.38138666883033068 0.43364249655237552 0 -0.37099391446791291 0.43070886936018088 0 -0.38336688891823911 0.43867285164541808 0 -0.38976031449631421 0.43331442885143778 0 -0.38138666883033068 0.43364249655237552 0 -0.38976031449631421 0.43331442885143778 0 -0.38831639079726449 0.42735764586668701 0 -0.38138666883033068 0.43364249655237552 0 -0.38336688891823911 0.43867285164541808 0 -0.39829901691190928 0.43856282067431612 0 -0.38976031449631421 0.43331442885143778 0 -0.38336688891823911 0.43867285164541808 0 -0.38138666883033068 0.43364249655237552 0 -0.374495835471923 0.43815868703815403 0 -0.38138666883033068 0.43364249655237552 0 -0.37099391446791291 0.43070886936018088 0 -0.374495835471923 0.43815868703815403 0 -0.39121044405494249 0.41286377196203011 0 -0.38831639079726449 0.42735764586668701 0 -0.36510806009150992 0.4123301531551718 0 -0.38831639079726449 0.42735764586668701 0 -0.36510806009150992 0.4123301531551718 0 -0.39121044405494249 0.41286377196203011 0 -0.38075430212270472 0.39227449982895168 0 -0.36510806009150992 0.4123301531551718 0 -0.38075430212270472 0.39227449982895168 0 -0.39660336448031458 0.38003694087062301 0 -0.38170891741279023 0.37307185685886451 0 -0.38075430212270472 0.39227449982895168 0 -0.38170891741279023 0.37307185685886451 0 -0.36677839092312631 0.37462235873769678 0 -0.38075430212270472 0.39227449982895168 0 -0.39660336448031458 0.38003694087062301 0 -0.40186905798128492 0.39854771115736898 0 -0.41781922056083892 0.38260643104269509 0 -0.39660336448031458 0.38003694087062301 0 -0.40186905798128492 0.39854771115736898 0 -0.39121044405494249 0.41286377196203011 0 -0.38075430212270472 0.39227449982895168 0 -0.40186905798128492 0.39854771115736898 0 -0.399558765427941 0.35040855606278709 0 -0.3910571609226387 0.36442959602134051 0 -0.38880640683004769 0.35106400174374558 0 -0.399558765427941 0.35040855606278709 0 -0.38880640683004769 0.35106400174374558 0 -0.39147610332138022 0.34100150670622392 0 -0.399558765427941 0.35040855606278709 0 -0.40252440162163111 0.33905170790467931 0 -0.41080871561478682 0.35077399202257648 0 -0.399558765427941 0.35040855606278709 0 -0.40456273884952543 0.36557657670104188 0 -0.41080871561478682 0.35077399202257648 0 -0.39660336448031458 0.38003694087062301 0 -0.40456273884952543 0.36557657670104188 0 -0.3910571609226387 0.36442959602134051 0 -0.399558765427941 0.35040855606278709 0 -0.40456273884952543 0.36557657670104188 0 -0.3910571609226387 0.36442959602134051 0 -0.3910571609226387 0.36442959602134051 0 -0.38170891741279023 0.37307185685886451 0 -0.38206355477986009 0.36127421684610711 0 -0.39660336448031458 0.38003694087062301 0 -0.3910571609226387 0.36442959602134051 0 -0.38170891741279023 0.37307185685886451 0 -0.38206355477986009 0.36127421684610711 0 -0.37596721099792768 0.35375858316163628 0 -0.37277807773589661 0.36404704644494851 0 -0.38170891741279023 0.37307185685886451 0 -0.38206355477986009 0.36127421684610711 0 -0.37277807773589661 0.36404704644494851 0 -0.38206355477986009 0.36127421684610711 0 -0.37596721099792768 0.35375858316163628 0 -0.38880640683004769 0.35106400174374558 0 -0.3910571609226387 0.36442959602134051 0 -0.38206355477986009 0.36127421684610711 0 -0.38880640683004769 0.35106400174374558 0 -0.38880640683004769 0.35106400174374558 0 -0.38142245341860559 0.34385680868012081 0 -0.39147610332138022 0.34100150670622392 0 -0.37596721099792768 0.35375858316163628 0 -0.38880640683004769 0.35106400174374558 0 -0.38142245341860559 0.34385680868012081 0 -0.37596721099792768 0.35375858316163628 0 -0.38142245341860559 0.34385680868012081 0 -0.37189025933219372 0.34030595764387278 0 -0.37897228661147853 0.33315399414512492 0 -0.3891580706670239 0.32427260506531669 0 -0.37183012884491468 0.33228853939086822 0 -0.38142245341860559 0.34385680868012081 0 -0.37897228661147853 0.33315399414512492 0 -0.37189025933219372 0.34030595764387278 0 -0.3891580706670239 0.32427260506531669 0 -0.37183012884491468 0.33228853939086822 0 -0.37897228661147853 0.33315399414512492 0 -0.39147610332138022 0.34100150670622392 0 -0.3951937652187596 0.33249476871362371 0 -0.37897228661147853 0.33315399414512492 0 -0.39761799805860992 0.32035902876952371 0 -0.3951937652187596 0.33249476871362371 0 -0.38142245341860559 0.34385680868012081 0 -0.37897228661147853 0.33315399414512492 0 -0.39147610332138022 0.34100150670622392 0 -0.3891580706670239 0.32427260506531669 0 -0.38107733776948099 0.30727429754368712 0 -0.37470880437359749 0.3202363491017336 0 -0.37897228661147853 0.33315399414512492 0 -0.3891580706670239 0.32427260506531669 0 -0.39761799805860992 0.32035902876952371 0 -0.37897228661147853 0.33315399414512492 0 -0.39761799805860992 0.32035902876952371 0 -0.3891580706670239 0.32427260506531669 0 -0.37470880437359749 0.3202363491017336 0 -0.37183012884491468 0.33228853939086822 0 -0.3891580706670239 0.32427260506531669 0 -0.39761799805860992 0.32035902876952371 0 -0.4057897084155499 0.31475147920656033 0 -0.3891580706670239 0.32427260506531669 0 -0.4057897084155499 0.31475147920656033 0 -0.3891580706670239 0.32427260506531669 0 -0.4057897084155499 0.31475147920656033 0 -0.39640637704952242 0.30349181191306251 0 -0.3891580706670239 0.32427260506531669 0 -0.39761799805860992 0.32035902876952371 0 -0.39761799805860992 0.32035902876952371 0 -0.3951937652187596 0.33249476871362371 0 -0.40381146839827359 0.33055893560846761 0 -0.39761799805860992 0.32035902876952371 0 -0.40381146839827359 0.33055893560846761 0 -0.41208498615965111 0.3259338223474908 0 -0.39761799805860992 0.32035902876952371 0 -0.4057897084155499 0.31475147920656033 0 -0.39147610332138022 0.34100150670622392 0 -0.3951937652187596 0.33249476871362371 0 -0.40252440162163111 0.33905170790467931 0 -0.399558765427941 0.35040855606278709 0 -0.39147610332138022 0.34100150670622392 0 -0.40252440162163111 0.33905170790467931 0 -0.40381146839827359 0.33055893560846761 0 -0.40252440162163111 0.33905170790467931 0 -0.41163619093271703 0.33495535030702089 0 -0.3951937652187596 0.33249476871362371 0 -0.40381146839827359 0.33055893560846761 0 -0.40252440162163111 0.33905170790467931 0 -0.40252440162163111 0.33905170790467931 0 -0.41163619093271703 0.33495535030702089 0 -0.41080871561478682 0.35077399202257648 0 -0.41163619093271703 0.33495535030702089 0 -0.42011903251756932 0.34004528381146648 0 -0.41080871561478682 0.35077399202257648 0 -0.40381146839827359 0.33055893560846761 0 -0.41163619093271703 0.33495535030702089 0 -0.41208498615965111 0.3259338223474908 0 -0.41163619093271703 0.33495535030702089 0 -0.41979869606807829 0.32944449028165518 0 -0.42011903251756932 0.34004528381146648 0 -0.41163619093271703 0.33495535030702089 0 -0.41979869606807829 0.32944449028165518 0 -0.41208498615965111 0.3259338223474908 0 -0.39761799805860992 0.32035902876952371 0 -0.41795113714525839 0.31976639523197348 0 -0.41968412243320002 0.31015120341888319 0 -0.39761799805860992 0.32035902876952371 0 -0.41968412243320002 0.31015120341888319 0 -0.39761799805860992 0.32035902876952371 0 -0.41208498615965111 0.3259338223474908 0 -0.41795113714525839 0.31976639523197348 0 -0.39761799805860992 0.32035902876952371 0 -0.4057897084155499 0.31475147920656033 0 -0.41968412243320002 0.31015120341888319 0 -0.41979869606807829 0.32944449028165518 0 -0.41795113714525839 0.31976639523197348 0 -0.42780943676495609 0.32334274900930232 0 -0.41979869606807829 0.32944449028165518 0 -0.41208498615965111 0.3259338223474908 0 -0.41795113714525839 0.31976639523197348 0 -0.41795113714525839 0.31976639523197348 0 -0.42600700289630061 0.31632144882840663 0 -0.41968412243320002 0.31015120341888319 0 -0.42600700289630061 0.31632144882840663 0 -0.43305477237460738 0.31125972698156451 0 -0.41968412243320002 0.31015120341888319 0 -0.41795113714525839 0.31976639523197348 0 -0.42600700289630061 0.31632144882840663 0 -0.42780943676495609 0.32334274900930232 0 -0.42600700289630061 0.31632144882840663 0 -0.42780943676495609 0.32334274900930232 0 -0.43301925134047342 0.318406960066139 0 -0.42780943676495609 0.32334274900930232 0 -0.43301925134047342 0.318406960066139 0 -0.43930121995134053 0.32519655755371252 0 -0.42780943676495609 0.32334274900930232 0 -0.42919139288831842 0.33262334098267748 0 -0.43930121995134053 0.32519655755371252 0 -0.43301925134047342 0.318406960066139 0 -0.43930121995134053 0.32519655755371252 0 -0.43892382471516272 0.31591431795770902 0 -0.43301925134047342 0.318406960066139 0 -0.43892382471516272 0.31591431795770902 0 -0.43305477237460738 0.31125972698156451 0 -0.42600700289630061 0.31632144882840663 0 -0.43301925134047342 0.318406960066139 0 -0.43305477237460738 0.31125972698156451 0 -0.42011903251756932 0.34004528381146648 0 -0.42919139288831842 0.33262334098267748 0 -0.43719457157129699 0.34415490725079312 0 -0.42919139288831842 0.33262334098267748 0 -0.43719457157129699 0.34415490725079312 0 -0.43930121995134053 0.32519655755371252 0 -0.41979869606807829 0.32944449028165518 0 -0.42011903251756932 0.34004528381146648 0 -0.42919139288831842 0.33262334098267748 0 -0.41979869606807829 0.32944449028165518 0 -0.42780943676495609 0.32334274900930232 0 -0.42919139288831842 0.33262334098267748 0 -0.42011903251756932 0.34004528381146648 0 -0.43719457157129699 0.34415490725079312 0 -0.4220526719867313 0.35121722118307319 0 -0.43719457157129699 0.34415490725079312 0 -0.42985321700715962 0.35827471524095822 0 -0.43972313287436371 0.36077392943638248 0 -0.42985321700715962 0.35827471524095822 0 -0.4220526719867313 0.35121722118307319 0 -0.41921814684461212 0.36354473630646911 0 -0.43719457157129699 0.34415490725079312 0 -0.42985321700715962 0.35827471524095822 0 -0.4220526719867313 0.35121722118307319 0 -0.42011903251756932 0.34004528381146648 0 -0.4220526719867313 0.35121722118307319 0 -0.41080871561478682 0.35077399202257648 0 -0.4220526719867313 0.35121722118307319 0 -0.41080871561478682 0.35077399202257648 0 -0.41921814684461212 0.36354473630646911 0 -0.41781922056083892 0.38260643104269509 0 -0.40456273884952543 0.36557657670104188 0 -0.41921814684461212 0.36354473630646911 0 -0.40456273884952543 0.36557657670104188 0 -0.41080871561478682 0.35077399202257648 0 -0.41921814684461212 0.36354473630646911 0 -0.41781922056083892 0.38260643104269509 0 -0.41921814684461212 0.36354473630646911 0 -0.4302123170486305 0.37281948164846962 0 -0.42985321700715962 0.35827471524095822 0 -0.41921814684461212 0.36354473630646911 0 -0.4302123170486305 0.37281948164846962 0 -0.42985321700715962 0.35827471524095822 0 -0.4302123170486305 0.37281948164846962 0 -0.43972313287436371 0.36077392943638248 0 -0.4302123170486305 0.37281948164846962 0 -0.44479548320140538 0.37492651719600051 0 -0.43972313287436371 0.36077392943638248 0 -0.44479548320140538 0.37492651719600051 0 -0.45588578018095338 0.35169011461420902 0 -0.44479548320140538 0.37492651719600051 0 -0.43972313287436371 0.36077392943638248 0 -0.45588578018095338 0.35169011461420902 0 -0.43719457157129699 0.34415490725079312 0 -0.43972313287436371 0.36077392943638248 0 -0.45588578018095338 0.35169011461420902 0 -0.46045962064955781 0.37908969076904359 0 -0.45588578018095338 0.35169011461420902 0 -0.47597278094426848 0.3634076630802433 0 -0.46045962064955781 0.37908969076904359 0 -0.44479548320140538 0.37492651719600051 0 -0.45588578018095338 0.35169011461420902 0 -0.45588578018095338 0.35169011461420902 0 -0.47597278094426848 0.3634076630802433 0 -0.48100590224914508 0.34406552667310042 0 -0.48100590224914508 0.34406552667310042 0 -0.5 0.36343899680644548 0 -0.5 0.33564886876340427 0 -0.47597278094426848 0.3634076630802433 0 -0.48100590224914508 0.34406552667310042 0 -0.5 0.36343899680644548 0 -0.48022981032477802 0.38515940780926539 0 -0.47597278094426848 0.3634076630802433 0 -0.5 0.36343899680644548 0 -0.4872007752091479 0.32175380474188348 0 -0.5 0.33564886876340427 0 -0.5 0.30785874072036279 0 -0.48100590224914508 0.34406552667310042 0 -0.4872007752091479 0.32175380474188348 0 -0.5 0.33564886876340427 0 -0.48100590224914508 0.34406552667310042 0 -0.4872007752091479 0.32175380474188348 0 -0.46697607716050138 0.32845371203241752 0 -0.46697607716050138 0.32845371203241752 0 -0.47806637414004932 0.30521730945062608 0 -0.4872007752091479 0.32175380474188348 0 -0.46697607716050138 0.32845371203241752 0 -0.47806637414004932 0.30521730945062608 0 -0.46697607716050138 0.32845371203241752 0 -0.44938599114813799 0.31532797630288623 0 -0.45878795183845028 0.30429637011585758 0 -0.46697607716050138 0.32845371203241752 0 -0.45878795183845028 0.30429637011585758 0 -0.47806637414004932 0.30521730945062608 0 -0.46697607716050138 0.32845371203241752 0 -0.45047323499532271 0.33356229723523417 0 -0.44938599114813799 0.31532797630288623 0 -0.45588578018095338 0.35169011461420902 0 -0.48100590224914508 0.34406552667310042 0 -0.46697607716050138 0.32845371203241752 0 -0.45588578018095338 0.35169011461420902 0 -0.46697607716050138 0.32845371203241752 0 -0.45047323499532271 0.33356229723523417 0 -0.45588578018095338 0.35169011461420902 0 -0.46697607716050138 0.32845371203241752 0 -0.43719457157129699 0.34415490725079312 0 -0.45047323499532271 0.33356229723523417 0 -0.43930121995134053 0.32519655755371252 0 -0.43719457157129699 0.34415490725079312 0 -0.45588578018095338 0.35169011461420902 0 -0.45047323499532271 0.33356229723523417 0 -0.45047323499532271 0.33356229723523417 0 -0.44938599114813799 0.31532797630288623 0 -0.43930121995134053 0.32519655755371252 0 -0.44938599114813799 0.31532797630288623 0 -0.43892382471516272 0.31591431795770902 0 -0.44183715625902958 0.30947438329726129 0 -0.44938599114813799 0.31532797630288623 0 -0.43930121995134053 0.32519655755371252 0 -0.43892382471516272 0.31591431795770902 0 -0.44183715625902958 0.30947438329726129 0 -0.44175024680779001 0.29994337806824217 0 -0.44824066953561847 0.30538208533350691 0 -0.43892382471516272 0.31591431795770902 0 -0.44183715625902958 0.30947438329726129 0 -0.43305477237460738 0.31125972698156451 0 -0.44183715625902958 0.30947438329726129 0 -0.44175024680779001 0.29994337806824217 0 -0.43305477237460738 0.31125972698156451 0 -0.44175024680779001 0.29994337806824217 0 -0.44944200162468451 0.29786831888328719 0 -0.44228263832358489 0.29590617204462127 0 -0.44944200162468451 0.29786831888328719 0 -0.44824066953561847 0.30538208533350691 0 -0.45878795183845028 0.30429637011585758 0 -0.44175024680779001 0.29994337806824217 0 -0.44944200162468451 0.29786831888328719 0 -0.44824066953561847 0.30538208533350691 0 -0.44938599114813799 0.31532797630288623 0 -0.44183715625902958 0.30947438329726129 0 -0.44824066953561847 0.30538208533350691 0 -0.44938599114813799 0.31532797630288623 0 -0.44824066953561847 0.30538208533350691 0 -0.45878795183845028 0.30429637011585758 0 -0.44122749688929908 0.29043354004960698 0 -0.45966776376857971 0.27777955380154562 0 -0.44944200162468451 0.29786831888328719 0 -0.44122749688929908 0.29043354004960698 0 -0.46519208400444811 0.28620722345922189 0 -0.44944200162468451 0.29786831888328719 0 -0.44122749688929908 0.29043354004960698 0 -0.44228263832358489 0.29590617204462127 0 -0.44122749688929908 0.29043354004960698 0 -0.46519208400444811 0.28620722345922189 0 -0.44122749688929908 0.29043354004960698 0 -0.46519208400444811 0.28620722345922189 0 -0.45966776376857971 0.27777955380154562 0 -0.44944200162468451 0.29786831888328719 0 -0.46519208400444811 0.28620722345922189 0 -0.45878795183845028 0.30429637011585758 0 -0.46519208400444811 0.28620722345922189 0 -0.45878795183845028 0.30429637011585758 0 -0.47806637414004932 0.30521730945062608 0 -0.47806637414004932 0.30521730945062608 0 -0.48915667111959682 0.28198090686883442 0 -0.46519208400444811 0.28620722345922189 0 -0.48915667111959682 0.28198090686883442 0 -0.47526184352554512 0.27714808264232088 0 -0.46519208400444811 0.28620722345922189 0 -0.48915667111959682 0.28198090686883442 0 -0.46519208400444811 0.28620722345922189 0 -0.47806637414004932 0.30521730945062608 0 -0.48915667111959682 0.28198090686883442 0 -0.4902120155561383 0.29674939902366848 0 -0.48915667111959682 0.28198090686883442 0 -0.499999999999999 0.2800686126773213 0 -0.47806637414004932 0.30521730945062608 0 -0.4902120155561383 0.29674939902366848 0 -0.48915667111959682 0.28198090686883442 0 -0.4902120155561383 0.29674939902366848 0 -0.5 0.30785874072036279 0 -0.499999999999999 0.2800686126773213 0 -0.47806637414004932 0.30521730945062608 0 -0.4902120155561383 0.29674939902366848 0 -0.5 0.30785874072036279 0 -0.4872007752091479 0.32175380474188348 0 -0.47806637414004932 0.30521730945062608 0 -0.5 0.30785874072036279 0 -0.49654829752714441 0.25247158130542779 0 -0.47810803064786211 0.26512556755348671 0 -0.48961440095478193 0.26542019990744292 0 -0.49654829752714441 0.25247158130542779 0 -0.47810803064786211 0.26512556755348671 0 -0.48120426634400448 0.2448663725910814 0 -0.49654829752714441 0.25247158130542779 0 -0.47810803064786211 0.26512556755348671 0 -0.49654829752714441 0.25247158130542779 0 -0.50000000000000022 0.26058040505990421 0 -0.49654829752714441 0.25247158130542779 0 -0.49999999999999639 0.25010297157164529 0 -0.50000000000000022 0.26058040505990421 0 -0.49654829752714441 0.25247158130542779 0 -0.49999999999999639 0.25010297157164529 0 -0.48961440095478193 0.26542019990744292 0 -0.49654829752714441 0.25247158130542779 0 -0.50000000000000022 0.26058040505990421 0 -0.48961440095478193 0.26542019990744292 0 -0.50000000000000022 0.26058040505990421 0 -0.49565695387042252 0.26999236785790143 0 -0.50000000000000022 0.26058040505990421 0 -0.49565695387042252 0.26999236785790143 0 -0.499999999999999 0.2800686126773213 0 -0.48961440095478193 0.26542019990744292 0 -0.49565695387042252 0.26999236785790143 0 -0.49301341452690811 0.27390025378693711 0 -0.49565695387042252 0.26999236785790143 0 -0.499999999999999 0.2800686126773213 0 -0.49301341452690811 0.27390025378693711 0 -0.48915667111959682 0.28198090686883442 0 -0.499999999999999 0.2800686126773213 0 -0.49301341452690811 0.27390025378693711 0 -0.48915667111959682 0.28198090686883442 0 -0.499999999999999 0.2800686126773213 0 -0.48915667111959682 0.28198090686883442 0 -0.49301341452690811 0.27390025378693711 0 -0.48915667111959682 0.28198090686883442 0 -0.49301341452690811 0.27390025378693711 0 -0.4846810161248114 0.27275065727872122 0 -0.48961440095478193 0.26542019990744292 0 -0.49301341452690811 0.27390025378693711 0 -0.4846810161248114 0.27275065727872122 0 -0.47810803064786211 0.26512556755348671 0 -0.45966776376857971 0.27777955380154562 0 -0.4846810161248114 0.27275065727872122 0 -0.47526184352554512 0.27714808264232088 0 -0.47810803064786211 0.26512556755348671 0 -0.48961440095478193 0.26542019990744292 0 -0.4846810161248114 0.27275065727872122 0 -0.47810803064786211 0.26512556755348671 0 -0.47526184352554512 0.27714808264232088 0 -0.47810803064786211 0.26512556755348671 0 -0.45966776376857971 0.27777955380154562 0 -0.48915667111959682 0.28198090686883442 0 -0.4846810161248114 0.27275065727872122 0 -0.47526184352554512 0.27714808264232088 0 -0.48120426634400448 0.2448663725910814 0 -0.47810803064786211 0.26512556755348671 0 -0.46721878990479188 0.25715663656607468 0 -0.46819550642637969 0.24342717838557651 0 -0.46721878990479188 0.25715663656607468 0 -0.45331531656753488 0.25498961129775921 0 -0.46721878990479188 0.25715663656607468 0 -0.45331531656753488 0.25498961129775921 0 -0.45966776376857971 0.27777955380154562 0 -0.47810803064786211 0.26512556755348671 0 -0.46721878990479188 0.25715663656607468 0 -0.45966776376857971 0.27777955380154562 0 -0.46519208400444811 0.28620722345922189 0 -0.47526184352554512 0.27714808264232088 0 -0.45966776376857971 0.27777955380154562 0 -0.45331531656753488 0.25498961129775921 0 -0.45966776376857971 0.27777955380154562 0 -0.44570537574985553 0.27352232068494298 0 -0.44122749688929908 0.29043354004960698 0 -0.45966776376857971 0.27777955380154562 0 -0.44570537574985553 0.27352232068494298 0 -0.44122749688929908 0.29043354004960698 0 -0.44570537574985553 0.27352232068494298 0 -0.43494688227520778 0.27850984968196402 0 -0.44570537574985553 0.27352232068494298 0 -0.43640833357800429 0.26487348851379677 0 -0.43494688227520778 0.27850984968196402 0 -0.45331531656753488 0.25498961129775921 0 -0.44570537574985553 0.27352232068494298 0 -0.43640833357800429 0.26487348851379677 0 -0.45331531656753488 0.25498961129775921 0 -0.43547421198197839 0.25007309349285561 0 -0.43640833357800429 0.26487348851379677 0 -0.43547421198197839 0.25007309349285561 0 -0.43640833357800429 0.26487348851379677 0 -0.42576190216616838 0.25867213715894449 0 -0.43640833357800429 0.26487348851379677 0 -0.42576190216616838 0.25867213715894449 0 -0.42111967591304778 0.27255625016355428 0 -0.42123420067136941 0.24671331128717519 0 -0.43547421198197839 0.25007309349285561 0 -0.42576190216616838 0.25867213715894449 0 -0.42123420067136941 0.24671331128717519 0 -0.42576190216616838 0.25867213715894449 0 -0.41487343003364019 0.25851763755137819 0 -0.4035296774214725 0.2476303463643702 0 -0.41487343003364019 0.25851763755137819 0 -0.4060989313110368 0.27154916793826012 0 -0.42123420067136941 0.24671331128717519 0 -0.4035296774214725 0.2476303463643702 0 -0.41487343003364019 0.25851763755137819 0 -0.42576190216616838 0.25867213715894449 0 -0.41487343003364019 0.25851763755137819 0 -0.42111967591304778 0.27255625016355428 0 -0.42111967591304778 0.27255625016355428 0 -0.42464057508363451 0.28719319834402951 0 -0.4060989313110368 0.27154916793826012 0 -0.42464057508363451 0.28719319834402951 0 -0.4060989313110368 0.27154916793826012 0 -0.41487343003364019 0.25851763755137819 0 -0.42111967591304778 0.27255625016355428 0 -0.4060989313110368 0.27154916793826012 0 -0.42111967591304778 0.27255625016355428 0 -0.42464057508363451 0.28719319834402951 0 -0.42884409304305382 0.28172439702900048 0 -0.42111967591304778 0.27255625016355428 0 -0.43494688227520778 0.27850984968196402 0 -0.42884409304305382 0.28172439702900048 0 -0.43640833357800429 0.26487348851379677 0 -0.42111967591304778 0.27255625016355428 0 -0.43494688227520778 0.27850984968196402 0 -0.44122749688929908 0.29043354004960698 0 -0.42550088235857869 0.29320703460565972 0 -0.44122749688929908 0.29043354004960698 0 -0.42350860265242352 0.30259250962808237 0 -0.44122749688929908 0.29043354004960698 0 -0.44228263832358489 0.29590617204462127 0 -0.42350860265242352 0.30259250962808237 0 -0.44122749688929908 0.29043354004960698 0 -0.43494688227520778 0.27850984968196402 0 -0.43246609735076108 0.28671301616608602 0 -0.44122749688929908 0.29043354004960698 0 -0.43246609735076108 0.28671301616608602 0 -0.42550088235857869 0.29320703460565972 0 -0.43494688227520778 0.27850984968196402 0 -0.43246609735076108 0.28671301616608602 0 -0.42884409304305382 0.28172439702900048 0 -0.44122749688929908 0.29043354004960698 0 -0.42550088235857869 0.29320703460565972 0 -0.42350860265242352 0.30259250962808237 0 -0.43246609735076108 0.28671301616608602 0 -0.42550088235857869 0.29320703460565972 0 -0.42464057508363451 0.28719319834402951 0 -0.43246609735076108 0.28671301616608602 0 -0.42464057508363451 0.28719319834402951 0 -0.42884409304305382 0.28172439702900048 0 -0.44228263832358489 0.29590617204462127 0 -0.42403617336956739 0.30532882562559083 0 -0.42350860265242352 0.30259250962808237 0 -0.44175024680779001 0.29994337806824217 0 -0.42403617336956739 0.30532882562559083 0 -0.41968412243320002 0.31015120341888319 0 -0.44228263832358489 0.29590617204462127 0 -0.42403617336956739 0.30532882562559083 0 -0.44175024680779001 0.29994337806824217 0 -0.44228263832358489 0.29590617204462127 0 -0.42403617336956739 0.30532882562559083 0 -0.44175024680779001 0.29994337806824217 0 -0.43305477237460738 0.31125972698156451 0 -0.41968412243320002 0.31015120341888319 0 -0.44175024680779001 0.29994337806824217 0 -0.41968412243320002 0.31015120341888319 0 -0.4057897084155499 0.31475147920656033 0 -0.42350860265242352 0.30259250962808237 0 -0.4057897084155499 0.31475147920656033 0 -0.42403617336956739 0.30532882562559083 0 -0.42350860265242352 0.30259250962808237 0 -0.4057897084155499 0.31475147920656033 0 -0.42350860265242352 0.30259250962808237 0 -0.41410314579686269 0.30225458529532317 0 -0.42550088235857869 0.29320703460565972 0 -0.41410314579686269 0.30225458529532317 0 -0.40977426782785792 0.29598052916170903 0 -0.4057897084155499 0.31475147920656033 0 -0.42403617336956739 0.30532882562559083 0 -0.4057897084155499 0.31475147920656033 0 -0.42403617336956739 0.30532882562559083 0 -0.41968412243320002 0.31015120341888319 0 -0.42550088235857869 0.29320703460565972 0 -0.42350860265242352 0.30259250962808237 0 -0.41410314579686269 0.30225458529532317 0 -0.41410314579686269 0.30225458529532317 0 -0.40977426782785792 0.29598052916170903 0 -0.40594226772990349 0.30474137387460482 0 -0.4057897084155499 0.31475147920656033 0 -0.41410314579686269 0.30225458529532317 0 -0.40594226772990349 0.30474137387460482 0 -0.42464057508363451 0.28719319834402951 0 -0.40977426782785792 0.29598052916170903 0 -0.4060989313110368 0.27154916793826012 0 -0.42550088235857869 0.29320703460565972 0 -0.42464057508363451 0.28719319834402951 0 -0.40977426782785792 0.29598052916170903 0 -0.42550088235857869 0.29320703460565972 0 -0.40977426782785792 0.29598052916170903 0 -0.40977426782785792 0.29598052916170903 0 -0.39309997170720251 0.28752756986262451 0 -0.39640637704952242 0.30349181191306251 0 -0.40977426782785792 0.29598052916170903 0 -0.39309997170720251 0.28752756986262451 0 -0.4060989313110368 0.27154916793826012 0 -0.4057897084155499 0.31475147920656033 0 -0.40594226772990349 0.30474137387460482 0 -0.39640637704952242 0.30349181191306251 0 -0.40977426782785792 0.29598052916170903 0 -0.40594226772990349 0.30474137387460482 0 -0.39640637704952242 0.30349181191306251 0 -0.39309997170720251 0.28752756986262451 0 -0.39640637704952242 0.30349181191306251 0 -0.38107733776948099 0.30727429754368712 0 -0.3891580706670239 0.32427260506531669 0 -0.39640637704952242 0.30349181191306251 0 -0.38107733776948099 0.30727429754368712 0 -0.38107733776948099 0.30727429754368712 0 -0.37662357975812472 0.28252980198641842 0 -0.38107733776948099 0.30727429754368712 0 -0.37662357975812472 0.28252980198641842 0 -0.36849014983371209 0.29704036126262889 0 -0.39309997170720251 0.28752756986262451 0 -0.38107733776948099 0.30727429754368712 0 -0.37662357975812472 0.28252980198641842 0 -0.39309997170720251 0.28752756986262451 0 -0.37662357975812472 0.28252980198641842 0 -0.38169543261065503 0.26905525829099408 0 -0.37662357975812472 0.28252980198641842 0 -0.38169543261065503 0.26905525829099408 0 -0.37216982174676799 0.2577853064291496 0 -0.37861868488526079 0.26007163903805153 0 -0.38755728753843921 0.25590513753249078 0 -0.37216982174676799 0.2577853064291496 0 -0.38169543261065503 0.26905525829099408 0 -0.37861868488526079 0.26007163903805153 0 -0.38755728753843921 0.25590513753249078 0 -0.38169543261065503 0.26905525829099408 0 -0.37861868488526079 0.26007163903805153 0 -0.37216982174676799 0.2577853064291496 0 -0.36901564376584278 0.2402611071267198 0 -0.38755728753843921 0.25590513753249078 0 -0.37216982174676799 0.2577853064291496 0 -0.38755728753843921 0.25590513753249078 0 -0.4060989313110368 0.27154916793826012 0 -0.38169543261065503 0.26905525829099408 0 -0.38755728753843921 0.25590513753249078 0 -0.4060989313110368 0.27154916793826012 0 -0.4035296774214725 0.2476303463643702 0 -0.38755728753843921 0.25590513753249078 0 -0.4060989313110368 0.27154916793826012 0 -0.39309997170720251 0.28752756986262451 0 -0.38169543261065503 0.26905525829099408 0 -0.4060989313110368 0.27154916793826012 0 -0.36004616023260438 0.26114403339595538 0 -0.35693199584635349 0.28484548032010393 0 -0.34556674140147059 0.27845913849939552 0 -0.36004616023260438 0.26114403339595538 0 -0.35693199584635349 0.28484548032010393 0 -0.34556674140147059 0.27845913849939552 0 -0.36004616023260438 0.26114403339595538 0 -0.33762344636948233 0.26735599944540761 0 -0.36004616023260438 0.26114403339595538 0 -0.33762344636948233 0.26735599944540761 0 -0.3374657463840211 0.25258680352417051 0 -0.36004616023260438 0.26114403339595538 0 -0.33762344636948233 0.26735599944540761 0 -0.34897780488666402 0.24655348825625059 0 -0.36004616023260438 0.26114403339595538 0 -0.3374657463840211 0.25258680352417051 0 -0.36901564376584278 0.2402611071267198 0 -0.36004616023260438 0.26114403339595538 0 -0.37216982174676799 0.2577853064291496 0 -0.36004616023260438 0.26114403339595538 0 -0.37216982174676799 0.2577853064291496 0 -0.36004616023260438 0.26114403339595538 0 -0.37216982174676799 0.2577853064291496 0 -0.36563067964392992 0.273933101316431 0 -0.37662357975812472 0.28252980198641842 0 -0.37216982174676799 0.2577853064291496 0 -0.37662357975812472 0.28252980198641842 0 -0.36563067964392992 0.273933101316431 0 -0.35693199584635349 0.28484548032010393 0 -0.37662357975812472 0.28252980198641842 0 -0.37216982174676799 0.2577853064291496 0 -0.36563067964392992 0.273933101316431 0 -0.36004616023260438 0.26114403339595538 0 -0.36563067964392992 0.273933101316431 0 -0.35693199584635349 0.28484548032010393 0 -0.37662357975812472 0.28252980198641842 0 -0.36849014983371209 0.29704036126262889 0 -0.35693199584635349 0.28484548032010393 0 -0.36849014983371209 0.29704036126262889 0 -0.35714529545874613 0.29999259977002141 0 -0.35693199584635349 0.28484548032010393 0 -0.38107733776948099 0.30727429754368712 0 -0.36849014983371209 0.29704036126262889 0 -0.36534622170683317 0.31206543209870358 0 -0.36849014983371209 0.29704036126262889 0 -0.36534622170683317 0.31206543209870358 0 -0.35714529545874613 0.29999259977002141 0 -0.35714529545874613 0.29999259977002141 0 -0.34991543824617721 0.31167602238231829 0 -0.34396030790610499 0.29514738188781448 0 -0.36534622170683317 0.31206543209870358 0 -0.35714529545874613 0.29999259977002141 0 -0.34991543824617721 0.31167602238231829 0 -0.34556674140147059 0.27845913849939552 0 -0.35693199584635349 0.28484548032010393 0 -0.34396030790610499 0.29514738188781448 0 -0.35714529545874613 0.29999259977002141 0 -0.35693199584635349 0.28484548032010393 0 -0.34396030790610499 0.29514738188781448 0 -0.34396030790610499 0.29514738188781448 0 -0.32927179665280731 0.2838027974476961 0 -0.32700898690570229 0.30056212112166308 0 -0.34556674140147059 0.27845913849939552 0 -0.34396030790610499 0.29514738188781448 0 -0.32927179665280731 0.2838027974476961 0 -0.34396030790610499 0.29514738188781448 0 -0.32700898690570229 0.30056212112166308 0 -0.33495168223179761 0.31383331398264691 0 -0.34991543824617721 0.31167602238231829 0 -0.34396030790610499 0.29514738188781448 0 -0.33495168223179761 0.31383331398264691 0 -0.3206504507546839 0.31218832483220238 0 -0.31366443427851232 0.29928336897671842 0 -0.30622637139445458 0.32161634112291609 0 -0.3206504507546839 0.31218832483220238 0 -0.32700898690570229 0.30056212112166308 0 -0.33495168223179761 0.31383331398264691 0 -0.3206504507546839 0.31218832483220238 0 -0.32700898690570229 0.30056212112166308 0 -0.31366443427851232 0.29928336897671842 0 -0.32927179665280731 0.2838027974476961 0 -0.32700898690570229 0.30056212112166308 0 -0.31366443427851232 0.29928336897671842 0 -0.32927179665280731 0.2838027974476961 0 -0.31366443427851232 0.29928336897671842 0 -0.30627831142505629 0.28493609181089941 0 -0.3152007325063606 0.27356796549486129 0 -0.33762344636948233 0.26735599944540761 0 -0.32266640875577379 0.25875618584567173 0 -0.32927179665280731 0.2838027974476961 0 -0.3152007325063606 0.27356796549486129 0 -0.33762344636948233 0.26735599944540761 0 -0.32927179665280731 0.2838027974476961 0 -0.3152007325063606 0.27356796549486129 0 -0.30627831142505629 0.28493609181089941 0 -0.3152007325063606 0.27356796549486129 0 -0.32266640875577379 0.25875618584567173 0 -0.30380076391445898 0.26531334246325933 0 -0.3152007325063606 0.27356796549486129 0 -0.33762344636948233 0.26735599944540761 0 -0.34556674140147059 0.27845913849939552 0 -0.32927179665280731 0.2838027974476961 0 -0.33762344636948233 0.26735599944540761 0 -0.32784876663567858 0.24135632246026301 0 -0.3374657463840211 0.25258680352417051 0 -0.32266640875577379 0.25875618584567173 0 -0.33762344636948233 0.26735599944540761 0 -0.3374657463840211 0.25258680352417051 0 -0.32266640875577379 0.25875618584567173 0 -0.31194510868681208 0.2490814624430977 0 -0.32266640875577379 0.25875618584567173 0 -0.30380076391445898 0.26531334246325933 0 -0.31194510868681208 0.2490814624430977 0 -0.30380076391445898 0.26531334246325933 0 -0.29230342180889418 0.25852725073861982 0 -0.3152007325063606 0.27356796549486129 0 -0.30380076391445898 0.26531334246325933 0 -0.2922051177096367 0.2799728256657194 0 -0.3152007325063606 0.27356796549486129 0 -0.2922051177096367 0.2799728256657194 0 -0.3152007325063606 0.27356796549486129 0 -0.2922051177096367 0.2799728256657194 0 -0.30627831142505629 0.28493609181089941 0 -0.28941759051882038 0.27169379197390281 0 -0.27457825072830028 0.27657570265549541 0 -0.28219968743423268 0.28944292795151849 0 -0.2922051177096367 0.2799728256657194 0 -0.28941759051882038 0.27169379197390281 0 -0.28219968743423268 0.28944292795151849 0 -0.2922051177096367 0.2799728256657194 0 -0.28941759051882038 0.27169379197390281 0 -0.30380076391445898 0.26531334246325933 0 -0.2922051177096367 0.2799728256657194 0 -0.28941759051882038 0.27169379197390281 0 -0.28350545545988159 0.24511508518317501 0 -0.31194510868681208 0.2490814624430977 0 -0.29230342180889418 0.25852725073861982 0 -0.28350545545988159 0.24511508518317501 0 -0.29230342180889418 0.25852725073861982 0 -0.2728481904644981 0.26143257162966432 0 -0.28941759051882038 0.27169379197390281 0 -0.29230342180889418 0.25852725073861982 0 -0.2728481904644981 0.26143257162966432 0 -0.30380076391445898 0.26531334246325933 0 -0.28941759051882038 0.27169379197390281 0 -0.29230342180889418 0.25852725073861982 0 -0.28941759051882038 0.27169379197390281 0 -0.2728481904644981 0.26143257162966432 0 -0.27457825072830028 0.27657570265549541 0 -0.2728481904644981 0.26143257162966432 0 -0.27457825072830028 0.27657570265549541 0 -0.255490224463644 0.27029477662765389 0 -0.27457825072830028 0.27657570265549541 0 -0.255490224463644 0.27029477662765389 0 -0.26647587788808169 0.29232335854569258 0 -0.25506580223295128 0.2411487079232523 0 -0.2728481904644981 0.26143257162966432 0 -0.255490224463644 0.27029477662765389 0 -0.26048702308098171 0.31247929817369291 0 -0.26647587788808169 0.29232335854569258 0 -0.2415770480872001 0.29756877121112851 0 -0.255490224463644 0.27029477662765389 0 -0.26647587788808169 0.29232335854569258 0 -0.2415770480872001 0.29756877121112851 0 -0.27457825072830028 0.27657570265549541 0 -0.26647587788808169 0.29232335854569258 0 -0.28219968743423268 0.28944292795151849 0 -0.26048702308098171 0.31247929817369291 0 -0.26647587788808169 0.29232335854569258 0 -0.28225008597626711 0.31012922801909759 0 -0.26647587788808169 0.29232335854569258 0 -0.28225008597626711 0.31012922801909759 0 -0.28219968743423268 0.28944292795151849 0 -0.28225008597626711 0.31012922801909759 0 -0.29782198095663748 0.29665506654840951 0 -0.30622637139445458 0.32161634112291609 0 -0.28225008597626711 0.31012922801909759 0 -0.28219968743423268 0.28944292795151849 0 -0.29782198095663748 0.29665506654840951 0 -0.2922051177096367 0.2799728256657194 0 -0.29782198095663748 0.29665506654840951 0 -0.2922051177096367 0.2799728256657194 0 -0.28219968743423268 0.28944292795151849 0 -0.29782198095663748 0.29665506654840951 0 -0.31366443427851232 0.29928336897671842 0 -0.29782198095663748 0.29665506654840951 0 -0.30627831142505629 0.28493609181089941 0 -0.2922051177096367 0.2799728256657194 0 -0.29782198095663748 0.29665506654840951 0 -0.30627831142505629 0.28493609181089941 0 -0.31366443427851232 0.29928336897671842 0 -0.29782198095663748 0.29665506654840951 0 -0.30622637139445458 0.32161634112291609 0 -0.29782198095663748 0.29665506654840951 0 -0.30622637139445458 0.32161634112291609 0 -0.30622637139445458 0.32161634112291609 0 -0.2895618056328762 0.32974835267619279 0 -0.29727140931615492 0.34661249733198202 0 -0.30622637139445458 0.32161634112291609 0 -0.29727140931615492 0.34661249733198202 0 -0.31463076183227168 0.34657761569742268 0 -0.30622637139445458 0.32161634112291609 0 -0.31463076183227168 0.34657761569742268 0 -0.28384348161955081 0.34219152071802078 0 -0.2895618056328762 0.32974835267619279 0 -0.29727140931615492 0.34661249733198202 0 -0.28225008597626711 0.31012922801909759 0 -0.30622637139445458 0.32161634112291609 0 -0.2895618056328762 0.32974835267619279 0 -0.26048702308098171 0.31247929817369291 0 -0.28225008597626711 0.31012922801909759 0 -0.26991574182430123 0.33419527670599991 0 -0.28225008597626711 0.31012922801909759 0 -0.2895618056328762 0.32974835267619279 0 -0.26991574182430123 0.33419527670599991 0 -0.28384348161955081 0.34219152071802078 0 -0.2895618056328762 0.32974835267619279 0 -0.26991574182430123 0.33419527670599991 0 -0.26991574182430123 0.33419527670599991 0 -0.2454891616416518 0.34842914958717142 0 -0.24221636162905821 0.32817985638654551 0 -0.26991574182430123 0.33419527670599991 0 -0.24221636162905821 0.32817985638654551 0 -0.26048702308098171 0.31247929817369291 0 -0.26991574182430123 0.33419527670599991 0 -0.24221636162905821 0.32817985638654551 0 -0.26991574182430123 0.33419527670599991 0 -0.26097502605381218 0.36378634183604158 0 -0.2454891616416518 0.34842914958717142 0 -0.26991574182430123 0.33419527670599991 0 -0.26097502605381218 0.36378634183604158 0 -0.278624969704871 0.35820995615790852 0 -0.28384348161955081 0.34219152071802078 0 -0.26991574182430123 0.33419527670599991 0 -0.278624969704871 0.35820995615790852 0 -0.26097502605381218 0.36378634183604158 0 -0.278624969704871 0.35820995615790852 0 -0.27011819553671768 0.38603863411921618 0 -0.278624969704871 0.35820995615790852 0 -0.29090853027655877 0.37548377927212712 0 -0.27011819553671768 0.38603863411921618 0 -0.29727140931615492 0.34661249733198202 0 -0.29090853027655877 0.37548377927212712 0 -0.278624969704871 0.35820995615790852 0 -0.29727140931615492 0.34661249733198202 0 -0.29090853027655877 0.37548377927212712 0 -0.28384348161955081 0.34219152071802078 0 -0.278624969704871 0.35820995615790852 0 -0.29727140931615492 0.34661249733198202 0 -0.29727140931615492 0.34661249733198202 0 -0.31089190142789142 0.36173198391725742 0 -0.31463076183227168 0.34657761569742268 0 -0.31089190142789142 0.36173198391725742 0 -0.30751189684312658 0.37250183011702481 0 -0.29090853027655877 0.37548377927212712 0 -0.29727140931615492 0.34661249733198202 0 -0.31089190142789142 0.36173198391725742 0 -0.29090853027655877 0.37548377927212712 0 -0.31089190142789142 0.36173198391725742 0 -0.30751189684312658 0.37250183011702481 0 -0.31480203647853122 0.36932650386136778 0 -0.30751189684312658 0.37250183011702481 0 -0.31330655227974841 0.37356542485833888 0 -0.31344082040162602 0.3788753959945752 0 -0.30751189684312658 0.37250183011702481 0 -0.31330655227974841 0.37356542485833888 0 -0.31480203647853122 0.36932650386136778 0 -0.31089190142789142 0.36173198391725742 0 -0.3230351522700855 0.37153889027193049 0 -0.31463076183227168 0.34657761569742268 0 -0.31089190142789142 0.36173198391725742 0 -0.31480203647853122 0.36932650386136778 0 -0.3230351522700855 0.37153889027193049 0 -0.31480203647853122 0.36932650386136778 0 -0.31671386004092372 0.37262752119905029 0 -0.3230351522700855 0.37153889027193049 0 -0.31330655227974841 0.37356542485833888 0 -0.31671386004092372 0.37262752119905029 0 -0.31567416399718451 0.37659011024543532 0 -0.31330655227974841 0.37356542485833888 0 -0.31480203647853122 0.36932650386136778 0 -0.31671386004092372 0.37262752119905029 0 -0.31671386004092372 0.37262752119905029 0 -0.3230351522700855 0.37153889027193049 0 -0.31567416399718451 0.37659011024543532 0 -0.3230351522700855 0.37153889027193049 0 -0.32028476401032829 0.37685875605542218 0 -0.31567416399718451 0.37659011024543532 0 -0.3230351522700855 0.37153889027193049 0 -0.31567416399718451 0.37659011024543532 0 -0.3230351522700855 0.37153889027193049 0 -0.32373873164144301 0.3736285406758787 0 -0.32028476401032829 0.37685875605542218 0 -0.3230351522700855 0.37153889027193049 0 -0.32373873164144301 0.3736285406758787 0 -0.3230351522700855 0.37153889027193049 0 -0.32373873164144301 0.3736285406758787 0 -0.33051199625211192 0.37020612239523731 0 -0.32373873164144301 0.3736285406758787 0 -0.33051199625211192 0.37020612239523731 0 -0.32818795765420061 0.3753743622120318 0 -0.3230351522700855 0.37153889027193049 0 -0.34168086371721618 0.35874392489632811 0 -0.335917275977614 0.37174489392001731 0 -0.33051199625211192 0.37020612239523731 0 -0.32818795765420061 0.3753743622120318 0 -0.3230351522700855 0.37153889027193049 0 -0.33051199625211192 0.37020612239523731 0 -0.34168086371721618 0.35874392489632811 0 -0.3230351522700855 0.37153889027193049 0 -0.34168086371721618 0.35874392489632811 0 -0.32642868848232981 0.35650079172933807 0 -0.335917275977614 0.37174489392001731 0 -0.34168086371721618 0.35874392489632811 0 -0.34428170035057332 0.36930386533910581 0 -0.335917275977614 0.37174489392001731 0 -0.33051199625211192 0.37020612239523731 0 -0.34168086371721618 0.35874392489632811 0 -0.335917275977614 0.37174489392001731 0 -0.34428170035057332 0.36930386533910581 0 -0.33874563768966942 0.38063575450197012 0 -0.33476442569351839 0.35137221606937191 0 -0.32642868848232981 0.35650079172933807 0 -0.32857415955697961 0.34050615538092832 0 -0.3409026989411319 0.34825976772838219 0 -0.33476442569351839 0.35137221606937191 0 -0.33772183663892358 0.34169863212691381 0 -0.3409026989411319 0.34825976772838219 0 -0.34168086371721618 0.35874392489632811 0 -0.33476442569351839 0.35137221606937191 0 -0.34168086371721618 0.35874392489632811 0 -0.33476442569351839 0.35137221606937191 0 -0.32642868848232981 0.35650079172933807 0 -0.33476442569351839 0.35137221606937191 0 -0.32857415955697961 0.34050615538092832 0 -0.33772183663892358 0.34169863212691381 0 -0.31463076183227168 0.34657761569742268 0 -0.32642868848232981 0.35650079172933807 0 -0.32857415955697961 0.34050615538092832 0 -0.3230351522700855 0.37153889027193049 0 -0.31463076183227168 0.34657761569742268 0 -0.32642868848232981 0.35650079172933807 0 -0.3230351522700855 0.37153889027193049 0 -0.31463076183227168 0.34657761569742268 0 -0.31463076183227168 0.34657761569742268 0 -0.32359715080389723 0.32733836605018252 0 -0.32857415955697961 0.34050615538092832 0 -0.30622637139445458 0.32161634112291609 0 -0.31463076183227168 0.34657761569742268 0 -0.32359715080389723 0.32733836605018252 0 -0.3206504507546839 0.31218832483220238 0 -0.30622637139445458 0.32161634112291609 0 -0.32359715080389723 0.32733836605018252 0 -0.3206504507546839 0.31218832483220238 0 -0.32359715080389723 0.32733836605018252 0 -0.33495168223179761 0.31383331398264691 0 -0.33495168223179761 0.31383331398264691 0 -0.3392524970421269 0.32999533429960309 0 -0.34694010468639641 0.3219099340151122 0 -0.32359715080389723 0.32733836605018252 0 -0.33495168223179761 0.31383331398264691 0 -0.3392524970421269 0.32999533429960309 0 -0.32359715080389723 0.32733836605018252 0 -0.32857415955697961 0.34050615538092832 0 -0.3392524970421269 0.32999533429960309 0 -0.32857415955697961 0.34050615538092832 0 -0.3392524970421269 0.32999533429960309 0 -0.33772183663892358 0.34169863212691381 0 -0.3392524970421269 0.32999533429960309 0 -0.33772183663892358 0.34169863212691381 0 -0.34511540196086099 0.33835968715628328 0 -0.3409026989411319 0.34825976772838219 0 -0.33772183663892358 0.34169863212691381 0 -0.34511540196086099 0.33835968715628328 0 -0.34511540196086099 0.33835968715628328 0 -0.35107282218339542 0.33162494168703399 0 -0.35636641389302331 0.3402741535596252 0 -0.3409026989411319 0.34825976772838219 0 -0.34511540196086099 0.33835968715628328 0 -0.35636641389302331 0.3402741535596252 0 -0.3392524970421269 0.32999533429960309 0 -0.34511540196086099 0.33835968715628328 0 -0.35107282218339542 0.33162494168703399 0 -0.35107282218339542 0.33162494168703399 0 -0.35665056423232061 0.32269952760155413 0 -0.35969071480363279 0.33094928234385679 0 -0.35107282218339542 0.33162494168703399 0 -0.35636641389302331 0.3402741535596252 0 -0.35969071480363279 0.33094928234385679 0 -0.34991543824617721 0.31167602238231829 0 -0.34694010468639641 0.3219099340151122 0 -0.35665056423232061 0.32269952760155413 0 -0.34991543824617721 0.31167602238231829 0 -0.33495168223179761 0.31383331398264691 0 -0.34694010468639641 0.3219099340151122 0 -0.35107282218339542 0.33162494168703399 0 -0.34694010468639641 0.3219099340151122 0 -0.35665056423232061 0.32269952760155413 0 -0.3392524970421269 0.32999533429960309 0 -0.35107282218339542 0.33162494168703399 0 -0.34694010468639641 0.3219099340151122 0 -0.36534622170683317 0.31206543209870358 0 -0.34991543824617721 0.31167602238231829 0 -0.35665056423232061 0.32269952760155413 0 -0.38107733776948099 0.30727429754368712 0 -0.36534622170683317 0.31206543209870358 0 -0.37470880437359749 0.3202363491017336 0 -0.36534622170683317 0.31206543209870358 0 -0.35665056423232061 0.32269952760155413 0 -0.36648041491652622 0.3260334671766949 0 -0.35665056423232061 0.32269952760155413 0 -0.36648041491652622 0.3260334671766949 0 -0.35969071480363279 0.33094928234385679 0 -0.36648041491652622 0.3260334671766949 0 -0.37470880437359749 0.3202363491017336 0 -0.37183012884491468 0.33228853939086822 0 -0.36534622170683317 0.31206543209870358 0 -0.36648041491652622 0.3260334671766949 0 -0.37470880437359749 0.3202363491017336 0 -0.37897228661147853 0.33315399414512492 0 -0.37183012884491468 0.33228853939086822 0 -0.36032657516434741 0.34594895952072652 0 -0.37897228661147853 0.33315399414512492 0 -0.37189025933219372 0.34030595764387278 0 -0.36032657516434741 0.34594895952072652 0 -0.37897228661147853 0.33315399414512492 0 -0.36032657516434741 0.34594895952072652 0 -0.35636641389302331 0.3402741535596252 0 -0.36796993886759832 0.33428197938073179 0 -0.36032657516434741 0.34594895952072652 0 -0.36796993886759832 0.33428197938073179 0 -0.37183012884491468 0.33228853939086822 0 -0.36032657516434741 0.34594895952072652 0 -0.35636641389302331 0.3402741535596252 0 -0.36796993886759832 0.33428197938073179 0 -0.36648041491652622 0.3260334671766949 0 -0.35969071480363279 0.33094928234385679 0 -0.36796993886759832 0.33428197938073179 0 -0.35636641389302331 0.3402741535596252 0 -0.35969071480363279 0.33094928234385679 0 -0.36796993886759832 0.33428197938073179 0 -0.36648041491652622 0.3260334671766949 0 -0.36796993886759832 0.33428197938073179 0 -0.37183012884491468 0.33228853939086822 0 -0.36796993886759832 0.33428197938073179 0 -0.37183012884491468 0.33228853939086822 0 -0.37596721099792768 0.35375858316163628 0 -0.37189025933219372 0.34030595764387278 0 -0.36189341601671488 0.3593048585771344 0 -0.37189025933219372 0.34030595764387278 0 -0.36032657516434741 0.34594895952072652 0 -0.36189341601671488 0.3593048585771344 0 -0.37189025933219372 0.34030595764387278 0 -0.36189341601671488 0.3593048585771344 0 -0.37596721099792768 0.35375858316163628 0 -0.36189341601671488 0.3593048585771344 0 -0.37277807773589661 0.36404704644494851 0 -0.36189341601671488 0.3593048585771344 0 -0.36677839092312631 0.37462235873769678 0 -0.35189657270123609 0.37830375951039602 0 -0.38170891741279023 0.37307185685886451 0 -0.37277807773589661 0.36404704644494851 0 -0.36677839092312631 0.37462235873769678 0 -0.36189341601671488 0.3593048585771344 0 -0.37277807773589661 0.36404704644494851 0 -0.36677839092312631 0.37462235873769678 0 -0.36189341601671488 0.3593048585771344 0 -0.35189657270123609 0.37830375951039602 0 -0.35193806150833112 0.36182689494343978 0 -0.34428170035057332 0.36930386533910581 0 -0.35189657270123609 0.37830375951039602 0 -0.36189341601671488 0.3593048585771344 0 -0.35193806150833112 0.36182689494343978 0 -0.35189657270123609 0.37830375951039602 0 -0.34168086371721618 0.35874392489632811 0 -0.35193806150833112 0.36182689494343978 0 -0.34428170035057332 0.36930386533910581 0 -0.36032657516434741 0.34594895952072652 0 -0.36189341601671488 0.3593048585771344 0 -0.35193806150833112 0.36182689494343978 0 -0.34168086371721618 0.35874392489632811 0 -0.36032657516434741 0.34594895952072652 0 -0.3409026989411319 0.34825976772838219 0 -0.34168086371721618 0.35874392489632811 0 -0.36032657516434741 0.34594895952072652 0 -0.34168086371721618 0.35874392489632811 0 -0.36032657516434741 0.34594895952072652 0 -0.35193806150833112 0.36182689494343978 0 -0.3409026989411319 0.34825976772838219 0 -0.35636641389302331 0.3402741535596252 0 -0.36032657516434741 0.34594895952072652 0 -0.3409026989411319 0.34825976772838219 0 -0.35636641389302331 0.3402741535596252 0 -0.36093154780564829 0.39203882838504489 0 -0.36510806009150992 0.4123301531551718 0 -0.34189972938575541 0.39730266044365647 0 -0.36510806009150992 0.4123301531551718 0 -0.34189972938575541 0.39730266044365647 0 -0.35189657270123609 0.37830375951039602 0 -0.34189972938575541 0.39730266044365647 0 -0.35189657270123609 0.37830375951039602 0 -0.36093154780564829 0.39203882838504489 0 -0.34189972938575541 0.39730266044365647 0 -0.35189657270123609 0.37830375951039602 0 -0.34189972938575541 0.39730266044365647 0 -0.33874563768966942 0.38063575450197012 0 -0.34428170035057332 0.36930386533910581 0 -0.35189657270123609 0.37830375951039602 0 -0.33874563768966942 0.38063575450197012 0 -0.36677839092312631 0.37462235873769678 0 -0.35189657270123609 0.37830375951039602 0 -0.36093154780564829 0.39203882838504489 0 -0.38075430212270472 0.39227449982895168 0 -0.36677839092312631 0.37462235873769678 0 -0.36093154780564829 0.39203882838504489 0 -0.38075430212270472 0.39227449982895168 0 -0.36093154780564829 0.39203882838504489 0 -0.36510806009150992 0.4123301531551718 0 -0.37099391446791291 0.43070886936018088 0 -0.35181453093981269 0.43345573243096119 0 -0.36482769618588451 0.44061141249158692 0 -0.38831639079726449 0.42735764586668701 0 -0.36510806009150992 0.4123301531551718 0 -0.37099391446791291 0.43070886936018088 0 -0.36510806009150992 0.4123301531551718 0 -0.37099391446791291 0.43070886936018088 0 -0.35181453093981269 0.43345573243096119 0 -0.37099391446791291 0.43070886936018088 0 -0.36482769618588451 0.44061141249158692 0 -0.374495835471923 0.43815868703815403 0 -0.35181453093981269 0.43345573243096119 0 -0.3467257591173083 0.41579702347234271 0 -0.33868878040861811 0.43000599582540638 0 -0.36510806009150992 0.4123301531551718 0 -0.35181453093981269 0.43345573243096119 0 -0.3467257591173083 0.41579702347234271 0 -0.36510806009150992 0.4123301531551718 0 -0.3467257591173083 0.41579702347234271 0 -0.34189972938575541 0.39730266044365647 0 -0.3467257591173083 0.41579702347234271 0 -0.33030916386585851 0.41933041451799308 0 -0.33868878040861811 0.43000599582540638 0 -0.33030916386585851 0.41933041451799308 0 -0.34189972938575541 0.39730266044365647 0 -0.3467257591173083 0.41579702347234271 0 -0.33030916386585851 0.41933041451799308 0 -0.34189972938575541 0.39730266044365647 0 -0.33030916386585851 0.41933041451799308 0 -0.33868878040861811 0.43000599582540638 0 -0.31871859834595978 0.44135816859232879 0 -0.35181453093981269 0.43345573243096119 0 -0.33868878040861811 0.43000599582540638 0 -0.33755228944645049 0.44320555090787928 0 -0.33030916386585851 0.41933041451799308 0 -0.31871859834595978 0.44135816859232879 0 -0.33030916386585851 0.41933041451799308 0 -0.30251714461486812 0.42555123420767321 0 -0.31871859834595978 0.44135816859232879 0 -0.33030916386585851 0.41933041451799308 0 -0.30931027855444798 0.40373630813250649 0 -0.30251714461486812 0.42555123420767321 0 -0.33030916386585851 0.41933041451799308 0 -0.32498337691627599 0.40013493890860602 0 -0.30931027855444798 0.40373630813250649 0 -0.3157274378816276 0.39221628322975771 0 -0.32498337691627599 0.40013493890860602 0 -0.30931027855444798 0.40373630813250649 0 -0.3157274378816276 0.39221628322975771 0 -0.32498337691627599 0.40013493890860602 0 -0.32767027489369072 0.38808902821911589 0 -0.33030916386585851 0.41933041451799308 0 -0.32498337691627599 0.40013493890860602 0 -0.34189972938575541 0.39730266044365647 0 -0.32498337691627599 0.40013493890860602 0 -0.34189972938575541 0.39730266044365647 0 -0.32767027489369072 0.38808902821911589 0 -0.34189972938575541 0.39730266044365647 0 -0.32767027489369072 0.38808902821911589 0 -0.34189972938575541 0.39730266044365647 0 -0.33874563768966942 0.38063575450197012 0 -0.32767027489369072 0.38808902821911589 0 -0.33874563768966942 0.38063575450197012 0 -0.33080827282914699 0.37907031957952941 0 -0.32767027489369072 0.38808902821911589 0 -0.335917275977614 0.37174489392001731 0 -0.33874563768966942 0.38063575450197012 0 -0.33080827282914699 0.37907031957952941 0 -0.335917275977614 0.37174489392001731 0 -0.33080827282914699 0.37907031957952941 0 -0.32818795765420061 0.3753743622120318 0 -0.32353387306023679 0.38069295954538213 0 -0.32767027489369072 0.38808902821911589 0 -0.31344082040162602 0.3788753959945752 0 -0.32373873164144301 0.3736285406758787 0 -0.32818795765420061 0.3753743622120318 0 -0.32353387306023679 0.38069295954538213 0 -0.33080827282914699 0.37907031957952941 0 -0.32353387306023679 0.38069295954538213 0 -0.32767027489369072 0.38808902821911589 0 -0.33080827282914699 0.37907031957952941 0 -0.32818795765420061 0.3753743622120318 0 -0.32353387306023679 0.38069295954538213 0 -0.32373873164144301 0.3736285406758787 0 -0.32353387306023679 0.38069295954538213 0 -0.32028476401032829 0.37685875605542218 0 -0.32767027489369072 0.38808902821911589 0 -0.31344082040162602 0.3788753959945752 0 -0.3157274378816276 0.39221628322975771 0 -0.32767027489369072 0.38808902821911589 0 -0.31344082040162602 0.3788753959945752 0 -0.32353387306023679 0.38069295954538213 0 -0.32028476401032829 0.37685875605542218 0 -0.31344082040162602 0.3788753959945752 0 -0.32028476401032829 0.37685875605542218 0 -0.31567416399718451 0.37659011024543532 0 -0.31344082040162602 0.3788753959945752 0 -0.31330655227974841 0.37356542485833888 0 -0.31567416399718451 0.37659011024543532 0 -0.31344082040162602 0.3788753959945752 0 -0.30751189684312658 0.37250183011702481 0 -0.30351032981488241 0.38774700305399318 0 -0.29090853027655877 0.37548377927212712 0 -0.30751189684312658 0.37250183011702481 0 -0.31344082040162602 0.3788753959945752 0 -0.30351032981488241 0.38774700305399318 0 -0.3157274378816276 0.39221628322975771 0 -0.31344082040162602 0.3788753959945752 0 -0.30351032981488241 0.38774700305399318 0 -0.30351032981488241 0.38774700305399318 0 -0.30931027855444798 0.40373630813250649 0 -0.28454565123696268 0.40435506121227222 0 -0.3157274378816276 0.39221628322975771 0 -0.30351032981488241 0.38774700305399318 0 -0.30931027855444798 0.40373630813250649 0 -0.28454565123696268 0.40435506121227222 0 -0.29090853027655877 0.37548377927212712 0 -0.28454565123696268 0.40435506121227222 0 -0.29090853027655877 0.37548377927212712 0 -0.27011819553671768 0.38603863411921618 0 -0.30351032981488241 0.38774700305399318 0 -0.28454565123696268 0.40435506121227222 0 -0.29090853027655877 0.37548377927212712 0 -0.28454565123696268 0.40435506121227222 0 -0.27011819553671768 0.38603863411921618 0 -0.26552390003292348 0.41247554071528392 0 -0.27011819553671768 0.38603863411921618 0 -0.24285097517463139 0.407033707315274 0 -0.24615806091924011 0.38293742331528391 0 -0.27011819553671768 0.38603863411921618 0 -0.26552390003292348 0.41247554071528392 0 -0.24285097517463139 0.407033707315274 0 -0.26097502605381218 0.36378634183604158 0 -0.27011819553671768 0.38603863411921618 0 -0.24615806091924011 0.38293742331528391 0 -0.25192190601893938 0.43172395777723982 0 -0.26552390003292348 0.41247554071528392 0 -0.27818277219736659 0.43322634315241731 0 -0.25192190601893938 0.43172395777723982 0 -0.26552390003292348 0.41247554071528392 0 -0.24285097517463139 0.407033707315274 0 -0.28454565123696268 0.40435506121227222 0 -0.26552390003292348 0.41247554071528392 0 -0.27818277219736659 0.43322634315241731 0 -0.27818277219736659 0.43322634315241731 0 -0.30251714461486812 0.42555123420767321 0 -0.29795607720642442 0.45223325315569501 0 -0.28454565123696268 0.40435506121227222 0 -0.27818277219736659 0.43322634315241731 0 -0.28454565123696268 0.40435506121227222 0 -0.27818277219736659 0.43322634315241731 0 -0.30251714461486812 0.42555123420767321 0 -0.30931027855444798 0.40373630813250649 0 -0.28454565123696268 0.40435506121227222 0 -0.30251714461486812 0.42555123420767321 0 -0.29795607720642442 0.45223325315569501 0 -0.31639765914020612 0.45498416676964898 0 -0.31871859834595978 0.44135816859232879 0 -0.30251714461486812 0.42555123420767321 0 -0.29795607720642442 0.45223325315569501 0 -0.31871859834595978 0.44135816859232879 0 -0.26621944368408151 0.49213759010366992 0 -0.29433849565947512 0.5 0 -0.22129066721614871 0.5 0 -0.29795607720642442 0.45223325315569501 0 -0.30789153825550308 0.4643377923444662 0 -0.31639765914020612 0.45498416676964898 0 -0.29795607720642442 0.45223325315569501 0 -0.30789153825550308 0.4643377923444662 0 -0.29166442568943368 0.48201272337811751 0 -0.29795607720642442 0.45223325315569501 0 -0.27160008263860552 0.46053944626046522 0 -0.29166442568943368 0.48201272337811751 0 -0.27818277219736659 0.43322634315241731 0 -0.29795607720642442 0.45223325315569501 0 -0.27160008263860552 0.46053944626046522 0 -0.25192190601893938 0.43172395777723982 0 -0.27818277219736659 0.43322634315241731 0 -0.27160008263860552 0.46053944626046522 0 -0.25192190601893938 0.43172395777723982 0 -0.27160008263860552 0.46053944626046522 0 -0.2430008623608729 0.46112026018527869 0 -0.27160008263860552 0.46053944626046522 0 -0.26621944368408151 0.49213759010366992 0 -0.2430008623608729 0.46112026018527869 0 -0.27160008263860552 0.46053944626046522 0 -0.26621944368408151 0.49213759010366992 0 -0.29166442568943368 0.48201272337811751 0 -0.26621944368408151 0.49213759010366992 0 -0.29166442568943368 0.48201272337811751 0 -0.26621944368408151 0.49213759010366992 0 -0.29433849565947512 0.5 0 -0.29166442568943368 0.48201272337811751 0 -0.30789153825550308 0.4643377923444662 0 -0.29166442568943368 0.48201272337811751 0 -0.31710940769478591 0.471887856652565 0 -0.29166442568943368 0.48201272337811751 0 -0.31710940769478591 0.471887856652565 0 -0.29433849565947512 0.5 0 -0.29166442568943368 0.48201272337811751 0 -0.31710940769478591 0.471887856652565 0 -0.31710940769478591 0.471887856652565 0 -0.34255438970013818 0.46176298992701248 0 -0.35550701130023182 0.47703644637796039 0 -0.39202675663651582 0.5 0 -0.29433849565947512 0.5 0 -0.35550701130023182 0.47703644637796039 0 -0.29433849565947512 0.5 0 -0.31710940769478591 0.471887856652565 0 -0.35550701130023182 0.47703644637796039 0 -0.30789153825550308 0.4643377923444662 0 -0.31710940769478591 0.471887856652565 0 -0.31945413758408281 0.46721509747649981 0 -0.30789153825550308 0.4643377923444662 0 -0.31945413758408281 0.46721509747649981 0 -0.31639765914020612 0.45498416676964898 0 -0.31710940769478591 0.471887856652565 0 -0.31945413758408281 0.46721509747649981 0 -0.34255438970013818 0.46176298992701248 0 -0.31945413758408281 0.46721509747649981 0 -0.31639765914020612 0.45498416676964898 0 -0.32784151292838198 0.45830048736136841 0 -0.31639765914020612 0.45498416676964898 0 -0.32784151292838198 0.45830048736136841 0 -0.32977849096254752 0.4533383466568861 0 -0.31639765914020612 0.45498416676964898 0 -0.31871859834595978 0.44135816859232879 0 -0.32977849096254752 0.4533383466568861 0 -0.31871859834595978 0.44135816859232879 0 -0.33755228944645049 0.44320555090787928 0 -0.32977849096254752 0.4533383466568861 0 -0.33868878040861811 0.43000599582540638 0 -0.31871859834595978 0.44135816859232879 0 -0.33755228944645049 0.44320555090787928 0 -0.33984661438128327 0.45032333129206392 0 -0.33755228944645049 0.44320555090787928 0 -0.32977849096254752 0.4533383466568861 0 -0.33984661438128327 0.45032333129206392 0 -0.33755228944645049 0.44320555090787928 0 -0.34631991308944349 0.44708508906105199 0 -0.31945413758408281 0.46721509747649981 0 -0.34573576402669159 0.45766433854243849 0 -0.32784151292838198 0.45830048736136841 0 -0.32977849096254752 0.4533383466568861 0 -0.34573576402669159 0.45766433854243849 0 -0.33984661438128327 0.45032333129206392 0 -0.32977849096254752 0.4533383466568861 0 -0.34573576402669159 0.45766433854243849 0 -0.31945413758408281 0.46721509747649981 0 -0.32784151292838198 0.45830048736136841 0 -0.34573576402669159 0.45766433854243849 0 -0.31945413758408281 0.46721509747649981 0 -0.34255438970013818 0.46176298992701248 0 -0.34573576402669159 0.45766433854243849 0 -0.31710940769478591 0.471887856652565 0 -0.34255438970013818 0.46176298992701248 0 -0.34255438970013818 0.46176298992701248 0 -0.35822039662863547 0.46409795860370878 0 -0.35550701130023182 0.47703644637796039 0 -0.34255438970013818 0.46176298992701248 0 -0.35822039662863547 0.46409795860370878 0 -0.36799937170549041 0.45163812320146002 0 -0.34255438970013818 0.46176298992701248 0 -0.34573576402669159 0.45766433854243849 0 -0.36799937170549041 0.45163812320146002 0 -0.34255438970013818 0.46176298992701248 0 -0.36799937170549041 0.45163812320146002 0 -0.34573576402669159 0.45766433854243849 0 -0.37201739046930049 0.44811357960837728 0 -0.34573576402669159 0.45766433854243849 0 -0.35937990772548678 0.44795318960218539 0 -0.37201739046930049 0.44811357960837728 0 -0.35181453093981269 0.43345573243096119 0 -0.34631991308944349 0.44708508906105199 0 -0.35493878022007042 0.44542342776633909 0 -0.35181453093981269 0.43345573243096119 0 -0.33755228944645049 0.44320555090787928 0 -0.34631991308944349 0.44708508906105199 0 -0.34573576402669159 0.45766433854243849 0 -0.34631991308944349 0.44708508906105199 0 -0.35493878022007042 0.44542342776633909 0 -0.33984661438128327 0.45032333129206392 0 -0.34573576402669159 0.45766433854243849 0 -0.34631991308944349 0.44708508906105199 0 -0.34573576402669159 0.45766433854243849 0 -0.35937990772548678 0.44795318960218539 0 -0.35493878022007042 0.44542342776633909 0 -0.35181453093981269 0.43345573243096119 0 -0.35493878022007042 0.44542342776633909 0 -0.36482769618588451 0.44061141249158692 0 -0.34573576402669159 0.45766433854243849 0 -0.37201739046930049 0.44811357960837728 0 -0.36799937170549041 0.45163812320146002 0 -0.35937990772548678 0.44795318960218539 0 -0.35493878022007042 0.44542342776633909 0 -0.36482769618588451 0.44061141249158692 0 -0.35937990772548678 0.44795318960218539 0 -0.36482769618588451 0.44061141249158692 0 -0.37201739046930049 0.44811357960837728 0 -0.36482769618588451 0.44061141249158692 0 -0.37201739046930049 0.44811357960837728 0 -0.374495835471923 0.43815868703815403 0 -0.35822039662863547 0.46409795860370878 0 -0.37131332832198027 0.46456972568346822 0 -0.35550701130023182 0.47703644637796039 0 -0.35822039662863547 0.46409795860370878 0 -0.3669434364958653 0.46006867830241388 0 -0.37131332832198027 0.46456972568346822 0 -0.35822039662863547 0.46409795860370878 0 -0.36799937170549041 0.45163812320146002 0 -0.3669434364958653 0.46006867830241388 0 -0.38137785779607181 0.45584853121112412 0 -0.36799937170549041 0.45163812320146002 0 -0.37323000630099679 0.45754905890918701 0 -0.3669434364958653 0.46006867830241388 0 -0.37323000630099679 0.45754905890918701 0 -0.37131332832198027 0.46456972568346822 0 -0.36799937170549041 0.45163812320146002 0 -0.3669434364958653 0.46006867830241388 0 -0.37323000630099679 0.45754905890918701 0 -0.38685083543877657 0.47054016493952228 0 -0.37131332832198027 0.46456972568346822 0 -0.35550701130023182 0.47703644637796039 0 -0.14719456717743479 0.49726220986496139 0 -0.1669106468449025 0.5 0 -0.096280503195043415 0.49999999999999961 0 -0.14719456717743479 0.49726220986496139 0 -0.12927926813383431 0.47977795868400902 0 -0.1153806750737312 0.4839919427771433 0 -0.15451111453183991 0.47255493165347529 0 -0.14719456717743479 0.49726220986496139 0 -0.12927926813383431 0.47977795868400902 0 -0.15451111453183991 0.47255493165347529 0 -0.14719456717743479 0.49726220986496139 0 -0.1669106468449025 0.5 0 -0.14719456717743479 0.49726220986496139 0 -0.12927926813383431 0.47977795868400902 0 -0.15451111453183991 0.47255493165347529 0 -0.12927926813383431 0.47977795868400902 0 -0.13280305227926081 0.45907183038089111 0 -0.15451111453183991 0.47255493165347529 0 -0.13280305227926081 0.45907183038089111 0 -0.15368724671434791 0.4383561891372279 0 -0.13280305227926081 0.45907183038089111 0 -0.1301182561379696 0.43878695128052508 0 -0.15368724671434791 0.4383561891372279 0 -0.15451111453183991 0.47255493165347529 0 -0.173956935033906 0.45593783286274608 0 -0.18425182319061281 0.47764314993778367 0 -0.15451111453183991 0.47255493165347529 0 -0.15368724671434791 0.4383561891372279 0 -0.173956935033906 0.45593783286274608 0 -0.15368724671434791 0.4383561891372279 0 -0.173956935033906 0.45593783286274608 0 -0.1886902419198109 0.43521983234611977 0 -0.15451111453183991 0.47255493165347529 0 -0.18425182319061281 0.47764314993778367 0 -0.1669106468449025 0.5 0 -0.18425182319061281 0.47764314993778367 0 -0.1669106468449025 0.5 0 -0.22129066721614871 0.5 0 -0.18425182319061281 0.47764314993778367 0 -0.22129066721614871 0.5 0 -0.20458975232626669 0.45972298517269722 0 -0.22129066721614871 0.5 0 -0.2430008623608729 0.46112026018527869 0 -0.20458975232626669 0.45972298517269722 0 -0.26621944368408151 0.49213759010366992 0 -0.22129066721614871 0.5 0 -0.2430008623608729 0.46112026018527869 0 -0.25192190601893938 0.43172395777723982 0 -0.2430008623608729 0.46112026018527869 0 -0.2214359644247488 0.42833450380468091 0 -0.2430008623608729 0.46112026018527869 0 -0.20458975232626669 0.45972298517269722 0 -0.2214359644247488 0.42833450380468091 0 -0.20458975232626669 0.45972298517269722 0 -0.1886902419198109 0.43521983234611977 0 -0.2214359644247488 0.42833450380468091 0 -0.173956935033906 0.45593783286274608 0 -0.18425182319061281 0.47764314993778367 0 -0.20458975232626669 0.45972298517269722 0 -0.173956935033906 0.45593783286274608 0 -0.20458975232626669 0.45972298517269722 0 -0.1886902419198109 0.43521983234611977 0 -0.1886902419198109 0.43521983234611977 0 -0.19870943872993399 0.40682994981197379 0 -0.2214359644247488 0.42833450380468091 0 -0.19870943872993399 0.40682994981197379 0 -0.2214359644247488 0.42833450380468091 0 -0.22148723234746179 0.39358242141055061 0 -0.2214359644247488 0.42833450380468091 0 -0.24285097517463139 0.407033707315274 0 -0.22148723234746179 0.39358242141055061 0 -0.25192190601893938 0.43172395777723982 0 -0.2214359644247488 0.42833450380468091 0 -0.24285097517463139 0.407033707315274 0 -0.24285097517463139 0.407033707315274 0 -0.24615806091924011 0.38293742331528391 0 -0.22148723234746179 0.39358242141055061 0 -0.24615806091924011 0.38293742331528391 0 -0.22148723234746179 0.39358242141055061 0 -0.23133273477243679 0.36687214241890681 0 -0.22148723234746179 0.39358242141055061 0 -0.20370349029780291 0.37332360927629871 0 -0.23133273477243679 0.36687214241890681 0 -0.19870943872993399 0.40682994981197379 0 -0.22148723234746179 0.39358242141055061 0 -0.20370349029780291 0.37332360927629871 0 -0.19870943872993399 0.40682994981197379 0 -0.18392748671770451 0.39306427608471067 0 -0.20370349029780291 0.37332360927629871 0 -0.17607424582316911 0.3797750761336906 0 -0.20370349029780291 0.37332360927629871 0 -0.17607424582316911 0.3797750761336906 0 -0.18392748671770451 0.39306427608471067 0 -0.20370349029780291 0.37332360927629871 0 -0.17607424582316911 0.3797750761336906 0 -0.1676268302334446 0.39177343883546473 0 -0.18392748671770451 0.39306427608471067 0 -0.17607424582316911 0.3797750761336906 0 -0.1676268302334446 0.39177343883546473 0 -0.148445001348535 0.38622654299108261 0 -0.17607424582316911 0.3797750761336906 0 -0.148445001348535 0.38622654299108261 0 -0.15807444741660029 0.36507724921468421 0 -0.17607424582316911 0.3797750761336906 0 -0.148445001348535 0.38622654299108261 0 -0.1676268302334446 0.39177343883546473 0 -0.14887254318570711 0.41528019505799491 0 -0.1676268302334446 0.39177343883546473 0 -0.18392748671770451 0.39306427608471067 0 -0.17352342850417199 0.41361930636612543 0 -0.19870943872993399 0.40682994981197379 0 -0.18392748671770451 0.39306427608471067 0 -0.17352342850417199 0.41361930636612543 0 -0.15368724671434791 0.4383561891372279 0 -0.1886902419198109 0.43521983234611977 0 -0.17352342850417199 0.41361930636612543 0 -0.1886902419198109 0.43521983234611977 0 -0.19870943872993399 0.40682994981197379 0 -0.17352342850417199 0.41361930636612543 0 -0.15368724671434791 0.4383561891372279 0 -0.17352342850417199 0.41361930636612543 0 -0.14887254318570711 0.41528019505799491 0 -0.1676268302334446 0.39177343883546473 0 -0.17352342850417199 0.41361930636612543 0 -0.14887254318570711 0.41528019505799491 0 -0.1301182561379696 0.43878695128052508 0 -0.15368724671434791 0.4383561891372279 0 -0.14887254318570711 0.41528019505799491 0 -0.1301182561379696 0.43878695128052508 0 -0.14887254318570711 0.41528019505799491 0 -0.1301182561379696 0.43878695128052508 0 -0.14887254318570711 0.41528019505799491 0 -0.12182712473995951 0.41530146114165239 0 -0.14887254318570711 0.41528019505799491 0 -0.13670478252703819 0.40129814643086381 0 -0.12182712473995951 0.41530146114165239 0 -0.13670478252703819 0.40129814643086381 0 -0.120815756873901 0.39267800984847451 0 -0.12182712473995951 0.41530146114165239 0 -0.13670478252703819 0.40129814643086381 0 -0.148445001348535 0.38622654299108261 0 -0.120815756873901 0.39267800984847451 0 -0.148445001348535 0.38622654299108261 0 -0.12487128540785949 0.37471806619671871 0 -0.120815756873901 0.39267800984847451 0 -0.148445001348535 0.38622654299108261 0 -0.14107704277694991 0.36717865380055881 0 -0.12487128540785949 0.37471806619671871 0 -0.148445001348535 0.38622654299108261 0 -0.120815756873901 0.39267800984847451 0 -0.14887254318570711 0.41528019505799491 0 -0.13670478252703819 0.40129814643086381 0 -0.148445001348535 0.38622654299108261 0 -0.1676268302334446 0.39177343883546473 0 -0.14887254318570711 0.41528019505799491 0 -0.148445001348535 0.38622654299108261 0 -0.148445001348535 0.38622654299108261 0 -0.14107704277694991 0.36717865380055881 0 -0.15807444741660029 0.36507724921468421 0 -0.14827462022750859 0.34756111629633918 0 -0.14107704277694991 0.36717865380055881 0 -0.15807444741660029 0.36507724921468421 0 -0.14107704277694991 0.36717865380055881 0 -0.12771320529459049 0.35645317127919107 0 -0.12487128540785949 0.37471806619671871 0 -0.14827462022750859 0.34756111629633918 0 -0.12771320529459049 0.35645317127919107 0 -0.13054554349740871 0.33917687704598048 0 -0.14827462022750859 0.34756111629633918 0 -0.14107704277694991 0.36717865380055881 0 -0.12771320529459049 0.35645317127919107 0 -0.13054554349740871 0.33917687704598048 0 -0.14450902508286151 0.32656722235309488 0 -0.1197653272361902 0.32307673998604869 0 -0.14450902508286151 0.32656722235309488 0 -0.1197653272361902 0.32307673998604869 0 -0.13442481151533389 0.31285585461632209 0 -0.14450902508286151 0.32656722235309488 0 -0.1197653272361902 0.32307673998604869 0 -0.14450902508286151 0.32656722235309488 0 -0.16596373034288461 0.32596969181312169 0 -0.15357921674026939 0.30968709550109741 0 -0.13442481151533389 0.31285585461632209 0 -0.14450902508286151 0.32656722235309488 0 -0.15357921674026939 0.30968709550109741 0 -0.14827462022750859 0.34756111629633918 0 -0.14450902508286151 0.32656722235309488 0 -0.16596373034288461 0.32596969181312169 0 -0.14827462022750859 0.34756111629633918 0 -0.13054554349740871 0.33917687704598048 0 -0.14450902508286151 0.32656722235309488 0 -0.14827462022750859 0.34756111629633918 0 -0.16596373034288461 0.32596969181312169 0 -0.16999740850388231 0.34957875039325459 0 -0.16596373034288461 0.32596969181312169 0 -0.18681760123857269 0.31614901574763649 0 -0.1859998394534095 0.33500610490956573 0 -0.16596373034288461 0.32596969181312169 0 -0.18681760123857269 0.31614901574763649 0 -0.1699390721771748 0.29970901004720357 0 -0.16596373034288461 0.32596969181312169 0 -0.1859998394534095 0.33500610490956573 0 -0.16999740850388231 0.34957875039325459 0 -0.16999740850388231 0.34957875039325459 0 -0.18606956171623279 0.36151050656108208 0 -0.1725539158649711 0.36398539557567788 0 -0.1859998394534095 0.33500610490956573 0 -0.16999740850388231 0.34957875039325459 0 -0.18606956171623279 0.36151050656108208 0 -0.14827462022750859 0.34756111629633918 0 -0.16999740850388231 0.34957875039325459 0 -0.15807444741660029 0.36507724921468421 0 -0.17607424582316911 0.3797750761336906 0 -0.15807444741660029 0.36507724921468421 0 -0.1725539158649711 0.36398539557567788 0 -0.16999740850388231 0.34957875039325459 0 -0.15807444741660029 0.36507724921468421 0 -0.1725539158649711 0.36398539557567788 0 -0.17607424582316911 0.3797750761336906 0 -0.18606956171623279 0.36151050656108208 0 -0.1725539158649711 0.36398539557567788 0 -0.17607424582316911 0.3797750761336906 0 -0.18606956171623279 0.36151050656108208 0 -0.20370349029780291 0.37332360927629871 0 -0.18606956171623279 0.36151050656108208 0 -0.201198629197199 0.34644953069385193 0 -0.20370349029780291 0.37332360927629871 0 -0.1859998394534095 0.33500610490956573 0 -0.18606956171623279 0.36151050656108208 0 -0.201198629197199 0.34644953069385193 0 -0.201198629197199 0.34644953069385193 0 -0.20370349029780291 0.37332360927629871 0 -0.22328251288519929 0.34609361579121112 0 -0.20370349029780291 0.37332360927629871 0 -0.23133273477243679 0.36687214241890681 0 -0.20370349029780291 0.37332360927629871 0 -0.23133273477243679 0.36687214241890681 0 -0.22328251288519929 0.34609361579121112 0 -0.23133273477243679 0.36687214241890681 0 -0.22328251288519929 0.34609361579121112 0 -0.2454891616416518 0.34842914958717142 0 -0.26097502605381218 0.36378634183604158 0 -0.23133273477243679 0.36687214241890681 0 -0.2454891616416518 0.34842914958717142 0 -0.26097502605381218 0.36378634183604158 0 -0.24615806091924011 0.38293742331528391 0 -0.23133273477243679 0.36687214241890681 0 -0.26048702308098171 0.31247929817369291 0 -0.24221636162905821 0.32817985638654551 0 -0.2415770480872001 0.29756877121112851 0 -0.22328251288519929 0.34609361579121112 0 -0.2454891616416518 0.34842914958717142 0 -0.24221636162905821 0.32817985638654551 0 -0.22328251288519929 0.34609361579121112 0 -0.24221636162905821 0.32817985638654551 0 -0.21451698143381551 0.322164436067091 0 -0.24221636162905821 0.32817985638654551 0 -0.21451698143381551 0.322164436067091 0 -0.24221636162905821 0.32817985638654551 0 -0.21451698143381551 0.322164436067091 0 -0.2415770480872001 0.29756877121112851 0 -0.201198629197199 0.34644953069385193 0 -0.22328251288519929 0.34609361579121112 0 -0.21451698143381551 0.322164436067091 0 -0.1859998394534095 0.33500610490956573 0 -0.201198629197199 0.34644953069385193 0 -0.21451698143381551 0.322164436067091 0 -0.18681760123857269 0.31614901574763649 0 -0.21451698143381551 0.322164436067091 0 -0.18681760123857269 0.31614901574763649 0 -0.1859998394534095 0.33500610490956573 0 -0.21451698143381551 0.322164436067091 0 -0.18681760123857269 0.31614901574763649 0 -0.21451698143381551 0.322164436067091 0 -0.20280334243322021 0.29546153461720748 0 -0.21451698143381551 0.322164436067091 0 -0.20280334243322021 0.29546153461720748 0 -0.22202630834483231 0.2886367907503069 0 -0.18681760123857269 0.31614901574763649 0 -0.20280334243322021 0.29546153461720748 0 -0.18444334791002359 0.28596221727180282 0 -0.20280334243322021 0.29546153461720748 0 -0.20208590586266639 0.26673291727371751 0 -0.18444334791002359 0.28596221727180282 0 -0.20280334243322021 0.29546153461720748 0 -0.22202630834483231 0.2886367907503069 0 -0.20208590586266639 0.26673291727371751 0 -0.21451698143381551 0.322164436067091 0 -0.22202630834483231 0.2886367907503069 0 -0.2415770480872001 0.29756877121112851 0 -0.22202630834483231 0.2886367907503069 0 -0.2415770480872001 0.29756877121112851 0 -0.22878806516315511 0.2685138469506857 0 -0.22878806516315511 0.2685138469506857 0 -0.2266261490060209 0.23718233066332961 0 -0.2095201173771308 0.2492192741355776 0 -0.25506580223295128 0.2411487079232523 0 -0.255490224463644 0.27029477662765389 0 -0.22878806516315511 0.2685138469506857 0 -0.255490224463644 0.27029477662765389 0 -0.2415770480872001 0.29756877121112851 0 -0.22878806516315511 0.2685138469506857 0 -0.255490224463644 0.27029477662765389 0 -0.22878806516315511 0.2685138469506857 0 -0.22878806516315511 0.2685138469506857 0 -0.20208590586266639 0.26673291727371751 0 -0.2095201173771308 0.2492192741355776 0 -0.22878806516315511 0.2685138469506857 0 -0.20208590586266639 0.26673291727371751 0 -0.22202630834483231 0.2886367907503069 0 -0.22878806516315511 0.2685138469506857 0 -0.20208590586266639 0.26673291727371751 0 -0.20208590586266639 0.26673291727371751 0 -0.17538374656217781 0.26495198759674943 0 -0.20208590586266639 0.26673291727371751 0 -0.1889614215909477 0.24853840731164881 0 -0.2095201173771308 0.2492192741355776 0 -0.20208590586266639 0.26673291727371751 0 -0.17538374656217781 0.26495198759674943 0 -0.1889614215909477 0.24853840731164881 0 -0.17538374656217781 0.26495198759674943 0 -0.1889614215909477 0.24853840731164881 0 -0.16334453339397681 0.24964550431787491 0 -0.17538374656217781 0.26495198759674943 0 -0.1486815872616892 0.26317105791977963 0 -0.17538374656217781 0.26495198759674943 0 -0.1486815872616892 0.26317105791977963 0 -0.16334453339397681 0.24964550431787491 0 -0.17538374656217781 0.26495198759674943 0 -0.1593103297194324 0.28144003398349138 0 -0.1486815872616892 0.26317105791977963 0 -0.20208590586266639 0.26673291727371751 0 -0.17538374656217781 0.26495198759674943 0 -0.18444334791002359 0.28596221727180282 0 -0.17538374656217781 0.26495198759674943 0 -0.18444334791002359 0.28596221727180282 0 -0.1593103297194324 0.28144003398349138 0 -0.18681760123857269 0.31614901574763649 0 -0.18444334791002359 0.28596221727180282 0 -0.1699390721771748 0.29970901004720357 0 -0.16596373034288461 0.32596969181312169 0 -0.1699390721771748 0.29970901004720357 0 -0.15357921674026939 0.30968709550109741 0 -0.1699390721771748 0.29970901004720357 0 -0.15193061090899271 0.29516373823220099 0 -0.15357921674026939 0.30968709550109741 0 -0.18444334791002359 0.28596221727180282 0 -0.1699390721771748 0.29970901004720357 0 -0.1593103297194324 0.28144003398349138 0 -0.1699390721771748 0.29970901004720357 0 -0.1593103297194324 0.28144003398349138 0 -0.15193061090899271 0.29516373823220099 0 -0.1699390721771748 0.29970901004720357 0 -0.1593103297194324 0.28144003398349138 0 -0.1593103297194324 0.28144003398349138 0 -0.15193061090899271 0.29516373823220099 0 -0.14183802186492431 0.28444641063351389 0 -0.15193061090899271 0.29516373823220099 0 -0.14183802186492431 0.28444641063351389 0 -0.1376154132703061 0.29917637630507837 0 -0.13442481151533389 0.31285585461632209 0 -0.15357921674026939 0.30968709550109741 0 -0.1376154132703061 0.29917637630507837 0 -0.15193061090899271 0.29516373823220099 0 -0.15357921674026939 0.30968709550109741 0 -0.1376154132703061 0.29917637630507837 0 -0.13442481151533389 0.31285585461632209 0 -0.1376154132703061 0.29917637630507837 0 -0.1184134681693753 0.30180816482823031 0 -0.1376154132703061 0.29917637630507837 0 -0.12894874816666141 0.28747121873139769 0 -0.1184134681693753 0.30180816482823031 0 -0.14183802186492431 0.28444641063351389 0 -0.1376154132703061 0.29917637630507837 0 -0.12894874816666141 0.28747121873139769 0 -0.12894874816666141 0.28747121873139769 0 -0.1317416344843568 0.27168785498434311 0 -0.1154092431162566 0.2786817834083074 0 -0.14183802186492431 0.28444641063351389 0 -0.12894874816666141 0.28747121873139769 0 -0.1317416344843568 0.27168785498434311 0 -0.14183802186492431 0.28444641063351389 0 -0.1317416344843568 0.27168785498434311 0 -0.14254988295036691 0.27254979679912011 0 -0.1317416344843568 0.27168785498434311 0 -0.1311778414214308 0.26200362647447278 0 -0.14254988295036691 0.27254979679912011 0 -0.1311778414214308 0.26200362647447278 0 -0.1486815872616892 0.26317105791977963 0 -0.13812506878039979 0.24502622242135749 0 -0.1317416344843568 0.27168785498434311 0 -0.1311778414214308 0.26200362647447278 0 -0.1136740955811725 0.260836195029164 0 -0.1311778414214308 0.26200362647447278 0 -0.13812506878039979 0.24502622242135749 0 -0.1222394844647914 0.24910471079974431 0 -0.1311778414214308 0.26200362647447278 0 -0.1486815872616892 0.26317105791977963 0 -0.1486815872616892 0.26317105791977963 0 -0.13812506878039979 0.24502622242135749 0 -0.1486815872616892 0.26317105791977963 0 -0.16334453339397681 0.24964550431787491 0 -0.13812506878039979 0.24502622242135749 0 -0.1593103297194324 0.28144003398349138 0 -0.1486815872616892 0.26317105791977963 0 -0.14254988295036691 0.27254979679912011 0 -0.1593103297194324 0.28144003398349138 0 -0.1486815872616892 0.26317105791977963 0 -0.1311778414214308 0.26200362647447278 0 -0.1486815872616892 0.26317105791977963 0 -0.14254988295036691 0.27254979679912011 0 -0.1593103297194324 0.28144003398349138 0 -0.14183802186492431 0.28444641063351389 0 -0.14254988295036691 0.27254979679912011 0 -0.1021549725155335 0.2600679145358466 0 -0.1154092431162566 0.2786817834083074 0 -0.098588300952526561 0.28982708607742458 0 -0.1021549725155335 0.2600679145358466 0 -0.098588300952526561 0.28982708607742458 0 -0.085949071550348394 0.27623087910201599 0 -0.1021549725155335 0.2600679145358466 0 -0.098588300952526561 0.28982708607742458 0 -0.102842594246254 0.25433061782129768 0 -0.1021549725155335 0.2600679145358466 0 -0.086941366811937537 0.25905322648809209 0 -0.1021549725155335 0.2600679145358466 0 -0.086941366811937537 0.25905322648809209 0 -0.102842594246254 0.25433061782129768 0 -0.1136740955811725 0.260836195029164 0 -0.102842594246254 0.25433061782129768 0 -0.1021549725155335 0.2600679145358466 0 -0.102842594246254 0.25433061782129768 0 -0.1021549725155335 0.2600679145358466 0 -0.1136740955811725 0.260836195029164 0 -0.1021549725155335 0.2600679145358466 0 -0.1136740955811725 0.260836195029164 0 -0.1311778414214308 0.26200362647447278 0 -0.1136740955811725 0.260836195029164 0 -0.1311778414214308 0.26200362647447278 0 -0.1136740955811725 0.260836195029164 0 -0.1222394844647914 0.24910471079974431 0 -0.1136740955811725 0.260836195029164 0 -0.1118085010851831 0.24786095545684919 0 -0.1222394844647914 0.24910471079974431 0 -0.102842594246254 0.25433061782129768 0 -0.1136740955811725 0.260836195029164 0 -0.1118085010851831 0.24786095545684919 0 -0.1317416344843568 0.27168785498434311 0 -0.1136740955811725 0.260836195029164 0 -0.1154092431162566 0.2786817834083074 0 -0.1021549725155335 0.2600679145358466 0 -0.1136740955811725 0.260836195029164 0 -0.1154092431162566 0.2786817834083074 0 -0.1317416344843568 0.27168785498434311 0 -0.1136740955811725 0.260836195029164 0 -0.12894874816666141 0.28747121873139769 0 -0.1154092431162566 0.2786817834083074 0 -0.1184134681693753 0.30180816482823031 0 -0.1154092431162566 0.2786817834083074 0 -0.1184134681693753 0.30180816482823031 0 -0.098588300952526561 0.28982708607742458 0 -0.098588300952526561 0.28982708607742458 0 -0.095021629389518913 0.3195862576190025 0 -0.1184134681693753 0.30180816482823031 0 -0.098588300952526561 0.28982708607742458 0 -0.095021629389518913 0.3195862576190025 0 -0.098588300952526561 0.28982708607742458 0 -0.08499357112062754 0.30329106243784532 0 -0.085949071550348394 0.27623087910201599 0 -0.08499357112062754 0.30329106243784532 0 -0.071288456793123872 0.28710744663254162 0 -0.085949071550348394 0.27623087910201599 0 -0.098588300952526561 0.28982708607742458 0 -0.08499357112062754 0.30329106243784532 0 -0.095021629389518913 0.3195862576190025 0 -0.08499357112062754 0.30329106243784532 0 -0.071288456793123872 0.28710744663254162 0 -0.070849152477904909 0.31617635482473699 0 -0.071288456793123872 0.28710744663254162 0 -0.050431218896926457 0.295305943286022 0 -0.070849152477904909 0.31617635482473699 0 -0.071288456793123872 0.28710744663254162 0 -0.070849152477904909 0.31617635482473699 0 -0.071288456793123872 0.28710744663254162 0 -0.060737237947857722 0.27004299025855472 0 -0.057310487808908253 0.28250785865641742 0 -0.071288456793123872 0.28710744663254162 0 -0.085949071550348394 0.27623087910201599 0 -0.071727761108341045 0.25803853844034602 0 -0.071288456793123872 0.28710744663254162 0 -0.071727761108341045 0.25803853844034602 0 -0.060737237947857722 0.27004299025855472 0 -0.071288456793123872 0.28710744663254162 0 -0.071727761108341045 0.25803853844034602 0 -0.102842594246254 0.25433061782129768 0 -0.086941366811937537 0.25905322648809209 0 -0.087452885363448682 0.24508730646051219 0 -0.085949071550348394 0.27623087910201599 0 -0.086941366811937537 0.25905322648809209 0 -0.071727761108341045 0.25803853844034602 0 -0.1021549725155335 0.2600679145358466 0 -0.085949071550348394 0.27623087910201599 0 -0.086941366811937537 0.25905322648809209 0 -0.086941366811937537 0.25905322648809209 0 -0.071727761108341045 0.25803853844034602 0 -0.086941366811937537 0.25905322648809209 0 -0.079546297441093719 0.2495057666221675 0 -0.087452885363448682 0.24508730646051219 0 -0.086941366811937537 0.25905322648809209 0 -0.071727761108341045 0.25803853844034602 0 -0.079546297441093719 0.2495057666221675 0 -0.071727761108341045 0.25803853844034602 0 -0.066231629469996861 0.25767196793819719 0 -0.072063176480647501 0.2358439950997199 0 -0.071727761108341045 0.25803853844034602 0 -0.066231629469996861 0.25767196793819719 0 -0.060737237947857722 0.27004299025855472 0 -0.071727761108341045 0.25803853844034602 0 -0.066231629469996861 0.25767196793819719 0 -0.066231629469996861 0.25767196793819719 0 -0.053349919069790662 0.25058618960334778 0 -0.051555027539055248 0.256693095943548 0 -0.066231629469996861 0.25767196793819719 0 -0.051555027539055248 0.256693095943548 0 -0.066231629469996861 0.25767196793819719 0 -0.051555027539055248 0.256693095943548 0 -0.060737237947857722 0.27004299025855472 0 -0.049910767210863287 0.25658343020519908 0 -0.051555027539055248 0.256693095943548 0 -0.043453551236175107 0.26784361277542162 0 -0.049910767210863287 0.25658343020519908 0 -0.053349919069790662 0.25058618960334778 0 -0.045441256962230947 0.25037256953796999 0 -0.049910767210863287 0.25658343020519908 0 -0.051555027539055248 0.256693095943548 0 -0.049910767210863287 0.25658343020519908 0 -0.053349919069790662 0.25058618960334778 0 -0.053349919069790662 0.25058618960334778 0 -0.051555027539055248 0.256693095943548 0 -0.049910767210863287 0.25658343020519908 0 -0.053349919069790662 0.25058618960334778 0 -0.051555027539055248 0.256693095943548 0 -0.051555027539055248 0.256693095943548 0 -0.045690334024611458 0.27664702262567198 0 -0.051555027539055248 0.256693095943548 0 -0.060737237947857722 0.27004299025855472 0 -0.045690334024611458 0.27664702262567198 0 -0.060737237947857722 0.27004299025855472 0 -0.045690334024611458 0.27664702262567198 0 -0.057310487808908253 0.28250785865641742 0 -0.043453551236175107 0.26784361277542162 0 -0.027045426230725429 0.26568254940490438 0 -0.031657526302834443 0.28841368428507252 0 -0.045690334024611458 0.27664702262567198 0 -0.043453551236175107 0.26784361277542162 0 -0.031657526302834443 0.28841368428507252 0 -0.043453551236175107 0.26784361277542162 0 -0.031657526302834443 0.28841368428507252 0 -0.051555027539055248 0.256693095943548 0 -0.045690334024611458 0.27664702262567198 0 -0.043453551236175107 0.26784361277542162 0 -0.045690334024611458 0.27664702262567198 0 -0.043453551236175107 0.26784361277542162 0 -0.043453551236175107 0.26784361277542162 0 -0.040431917332913798 0.25595122796037978 0 -0.027045426230725429 0.26568254940490438 0 -0.049910767210863287 0.25658343020519908 0 -0.040431917332913798 0.25595122796037978 0 -0.040431917332913798 0.25595122796037978 0 -0.045441256962230947 0.25037256953796999 0 -0.037653780083210062 0.24501718422763991 0 -0.049910767210863287 0.25658343020519908 0 -0.040431917332913798 0.25595122796037978 0 -0.045441256962230947 0.25037256953796999 0 -0.043453551236175107 0.26784361277542162 0 -0.040431917332913798 0.25595122796037978 0 -0.049910767210863287 0.25658343020519908 0 -0.043453551236175107 0.26784361277542162 0 -0.049910767210863287 0.25658343020519908 0 -0.043453551236175107 0.26784361277542162 0 -0.040431917332913798 0.25595122796037978 0 -0.040431917332913798 0.25595122796037978 0 -0.037653780083210062 0.24501718422763991 0 -0.040431917332913798 0.25595122796037978 0 -0.015069837235323871 0.25425967632940732 0 -0.040431917332913798 0.25595122796037978 0 -0.015069837235323871 0.25425967632940732 0 -0.037653780083210062 0.24501718422763991 0 -0.040431917332913798 0.25595122796037978 0 -0.027045426230725429 0.26568254940490438 0 -0.015069837235323871 0.25425967632940732 0 -0.027045426230725429 0.26568254940490438 0 -0.0060435029931193646 0.2694932765028964 0 -0.015069837235323871 0.25425967632940732 0 -0.027045426230725429 0.26568254940490438 0 -0.017956835280452599 0.28063160729717967 0 -0.0060435029931193646 0.2694932765028964 0 -0.027045426230725429 0.26568254940490438 0 -0.017956835280452599 0.28063160729717967 0 -0.031657526302834443 0.28841368428507252 0 -0.017956835280452599 0.28063160729717967 0 -0.0060435029931193646 0.2694932765028964 0 -0.0073978362223277166 0.28689032226821071 0 -0.0060435029931193646 0.2694932765028964 0 -0.0073978362223277166 0.28689032226821071 0 0.0036022908640532341 0.28003696460785432 0 -0.015069837235323871 0.25425967632940732 0 0.010292242862265389 0.2525681246984261 0 -0.015069837235323871 0.25425967632940732 0 -0.01368076861047251 0.24879265446303431 0 0.010292242862265389 0.2525681246984261 0 -0.0060435029931193646 0.2694932765028964 0 -0.015069837235323871 0.25425967632940732 0 0.010292242862265389 0.2525681246984261 0 -0.01368076861047251 0.24879265446303431 0 0.010292242862265389 0.2525681246984261 0 -0.01156703535089351 0.31198003756396953 0 -0.0049034890932287863 0.31236688705127519 0 0.0048028054488206129 0.30550447276361348 0 -0.01156703535089351 0.31198003756396953 0 -0.01986150136948682 0.30898375579471932 0 0.0048028054488206129 0.30550447276361348 0 -0.0084981762899175844 0.30037618230539048 0 -0.01986150136948682 0.30898375579471932 0 0.0048028054488206129 0.30550447276361348 0 -0.0084981762899175844 0.30037618230539048 0 -0.017639884653256069 0.29267820402481448 0 -0.01986150136948682 0.30898375579471932 0 -0.01986150136948682 0.30898375579471932 0 0.0048028054488206129 0.30550447276361348 0 -0.0084981762899175844 0.30037618230539048 0 0.00015927102486981489 0.29745675896918089 0 0.0048028054488206129 0.30550447276361348 0 -0.0073978362223277166 0.28689032226821071 0 0.0056590684270016872 0.29069243878221251 0 0.00015927102486981489 0.29745675896918089 0 -0.0084981762899175844 0.30037618230539048 0 -0.0073978362223277166 0.28689032226821071 0 0.00015927102486981489 0.29745675896918089 0 -0.017956835280452599 0.28063160729717967 0 -0.0073978362223277166 0.28689032226821071 0 -0.017639884653256069 0.29267820402481448 0 -0.0084981762899175844 0.30037618230539048 0 -0.0073978362223277166 0.28689032226821071 0 -0.017639884653256069 0.29267820402481448 0 -0.017639884653256069 0.29267820402481448 0 -0.01986150136948682 0.30898375579471932 0 -0.031657526302834443 0.28841368428507252 0 -0.017956835280452599 0.28063160729717967 0 -0.017639884653256069 0.29267820402481448 0 -0.031657526302834443 0.28841368428507252 0 -0.01986150136948682 0.30898375579471932 0 -0.031657526302834443 0.28841368428507252 0 -0.01986150136948682 0.30898375579471932 0 -0.037516802569364523 0.31147430987054597 0 -0.01986150136948682 0.30898375579471932 0 -0.038475805895043208 0.30119360208276069 0 -0.031657526302834443 0.28841368428507252 0 -0.01986150136948682 0.30898375579471932 0 -0.037516802569364523 0.31147430987054597 0 -0.024676122611672201 0.31698767337984313 0 -0.01156703535089351 0.31198003756396953 0 -0.01986150136948682 0.30898375579471932 0 -0.01758775517957523 0.31294874586430438 0 -0.01986150136948682 0.30898375579471932 0 -0.01758775517957523 0.31294874586430438 0 -0.038475805895043208 0.30119360208276069 0 -0.037516802569364523 0.31147430987054597 0 -0.055172103769242392 0.31396486394637191 0 -0.01986150136948682 0.30898375579471932 0 -0.038475805895043208 0.30119360208276069 0 -0.037516802569364523 0.31147430987054597 0 -0.045690334024611458 0.27664702262567198 0 -0.038475805895043208 0.30119360208276069 0 -0.031657526302834443 0.28841368428507252 0 -0.045690334024611458 0.27664702262567198 0 -0.038475805895043208 0.30119360208276069 0 -0.045690334024611458 0.27664702262567198 0 -0.038475805895043208 0.30119360208276069 0 -0.050431218896926457 0.295305943286022 0 -0.045690334024611458 0.27664702262567198 0 -0.050431218896926457 0.295305943286022 0 -0.045690334024611458 0.27664702262567198 0 -0.050431218896926457 0.295305943286022 0 -0.057310487808908253 0.28250785865641742 0 -0.071288456793123872 0.28710744663254162 0 -0.050431218896926457 0.295305943286022 0 -0.057310487808908253 0.28250785865641742 0 -0.050431218896926457 0.295305943286022 0 -0.055172103769242392 0.31396486394637191 0 -0.070849152477904909 0.31617635482473699 0 -0.050431218896926457 0.295305943286022 0 -0.055172103769242392 0.31396486394637191 0 -0.038475805895043208 0.30119360208276069 0 -0.050431218896926457 0.295305943286022 0 -0.055172103769242392 0.31396486394637191 0 -0.056390858037045882 0.31876157169182401 0 -0.063316141079349464 0.3375757539062989 0 -0.065023942883826402 0.32626548236443081 0 -0.056390858037045882 0.31876157169182401 0 -0.063316141079349464 0.3375757539062989 0 -0.055172103769242392 0.31396486394637191 0 -0.056390858037045882 0.31876157169182401 0 -0.070849152477904909 0.31617635482473699 0 -0.055172103769242392 0.31396486394637191 0 -0.055348917149889043 0.31593089089684112 0 -0.056390858037045882 0.31876157169182401 0 -0.055172103769242392 0.31396486394637191 0 -0.056390858037045882 0.31876157169182401 0 -0.055348917149889043 0.31593089089684112 0 -0.056390858037045882 0.31876157169182401 0 -0.056390858037045882 0.31876157169182401 0 -0.047027703780593601 0.32007770335118041 0 -0.045340630401150092 0.33290448699983521 0 -0.055172103769242392 0.31396486394637191 0 -0.055348917149889043 0.31593089089684112 0 -0.047027703780593601 0.32007770335118041 0 -0.055348917149889043 0.31593089089684112 0 -0.056390858037045882 0.31876157169182401 0 -0.047027703780593601 0.32007770335118041 0 -0.056390858037045882 0.31876157169182401 0 -0.063195723890686187 0.34554379810882357 0 -0.056390858037045882 0.31876157169182401 0 -0.045340630401150092 0.33290448699983521 0 -0.063195723890686187 0.34554379810882357 0 -0.056390858037045882 0.31876157169182401 0 -0.063195723890686187 0.34554379810882357 0 -0.063316141079349464 0.3375757539062989 0 -0.045340630401150092 0.33290448699983521 0 -0.029263975432956529 0.33534748085244731 0 -0.041647052605288608 0.35329012867298543 0 -0.045340630401150092 0.33290448699983521 0 -0.034518468660329302 0.32440623932175072 0 -0.029263975432956529 0.33534748085244731 0 -0.037516802569364523 0.31147430987054597 0 -0.055172103769242392 0.31396486394637191 0 -0.047027703780593601 0.32007770335118041 0 -0.037516802569364523 0.31147430987054597 0 -0.055172103769242392 0.31396486394637191 0 -0.037516802569364523 0.31147430987054597 0 -0.047027703780593601 0.32007770335118041 0 -0.034518468660329302 0.32440623932175072 0 -0.047027703780593601 0.32007770335118041 0 -0.045340630401150092 0.33290448699983521 0 -0.034518468660329302 0.32440623932175072 0 -0.037516802569364523 0.31147430987054597 0 -0.034518468660329302 0.32440623932175072 0 -0.024676122611672201 0.31698767337984313 0 -0.01986150136948682 0.30898375579471932 0 -0.024676122611672201 0.31698767337984313 0 -0.01758775517957523 0.31294874586430438 0 -0.024676122611672201 0.31698767337984313 0 -0.016695180420690538 0.31849628019175807 0 -0.01758775517957523 0.31294874586430438 0 -0.024676122611672201 0.31698767337984313 0 -0.016695180420690538 0.31849628019175807 0 -0.021877027470586719 0.32561670923598118 0 -0.016695180420690538 0.31849628019175807 0 -0.021877027470586719 0.32561670923598118 0 -0.01017459089870802 0.32403715885563539 0 -0.034518468660329302 0.32440623932175072 0 -0.024676122611672201 0.31698767337984313 0 -0.021877027470586719 0.32561670923598118 0 -0.034518468660329302 0.32440623932175072 0 -0.021877027470586719 0.32561670923598118 0 -0.029263975432956529 0.33534748085244731 0 -0.029263975432956529 0.33534748085244731 0 -0.015324273372708291 0.33749480753988148 0 -0.02394476725139327 0.34968864718543352 0 -0.021877027470586719 0.32561670923598118 0 -0.029263975432956529 0.33534748085244731 0 -0.015324273372708291 0.33749480753988148 0 -0.021877027470586719 0.32561670923598118 0 -0.015324273372708291 0.33749480753988148 0 -0.01017459089870802 0.32403715885563539 0 -0.015324273372708291 0.33749480753988148 0 -0.003384044066198042 0.33179074559994298 0 -0.01017459089870802 0.32403715885563539 0 -0.015324273372708291 0.33749480753988148 0 -0.0019492003402293669 0.34182717583593059 0 -0.003384044066198042 0.33179074559994298 0 -0.003384044066198042 0.33179074559994298 0 -0.01017459089870802 0.32403715885563539 0 0.0005881388663088069 0.323179086459774 0 -0.0046830325785964964 0.318374051492265 0 -0.01017459089870802 0.32403715885563539 0 0.0005881388663088069 0.323179086459774 0 -0.0046830325785964964 0.318374051492265 0 0.001640553041194217 0.31653633429737832 0 0.0005881388663088069 0.323179086459774 0 -0.0049034890932287863 0.31236688705127519 0 0.001640553041194217 0.31653633429737832 0 0.0021809559534737852 0.31154143232201797 0 -0.0049034890932287863 0.31236688705127519 0 -0.0046830325785964964 0.318374051492265 0 0.001640553041194217 0.31653633429737832 0 -0.0049034890932287863 0.31236688705127519 0 -0.0046830325785964964 0.318374051492265 0 -0.010705782251059 0.31779714074234278 0 -0.0046830325785964964 0.318374051492265 0 -0.010705782251059 0.31779714074234278 0 -0.01017459089870802 0.32403715885563539 0 -0.01156703535089351 0.31198003756396953 0 -0.0049034890932287863 0.31236688705127519 0 -0.010705782251059 0.31779714074234278 0 -0.01156703535089351 0.31198003756396953 0 -0.016695180420690538 0.31849628019175807 0 -0.010705782251059 0.31779714074234278 0 -0.01156703535089351 0.31198003756396953 0 -0.016695180420690538 0.31849628019175807 0 -0.01758775517957523 0.31294874586430438 0 -0.016695180420690538 0.31849628019175807 0 -0.010705782251059 0.31779714074234278 0 -0.01017459089870802 0.32403715885563539 0 -0.0069400381463707471 0.35673085073994759 0 -0.006197098098082339 0.38887427719183432 0 0.0092361384877125696 0.36858803067752749 0 -0.0069400381463707471 0.35673085073994759 0 -0.024389979987844101 0.36596703924153162 0 -0.006197098098082339 0.38887427719183432 0 -0.015324273372708291 0.33749480753988148 0 -0.0069400381463707471 0.35673085073994759 0 -0.02394476725139327 0.34968864718543352 0 -0.015324273372708291 0.33749480753988148 0 -0.0019492003402293669 0.34182717583593059 0 -0.0069400381463707471 0.35673085073994759 0 -0.0019492003402293669 0.34182717583593059 0 -0.0069400381463707471 0.35673085073994759 0 0.0065766348852069924 0.3498664669526052 0 -0.02394476725139327 0.34968864718543352 0 -0.024389979987844101 0.36596703924153162 0 -0.041647052605288608 0.35329012867298543 0 -0.0069400381463707471 0.35673085073994759 0 -0.02394476725139327 0.34968864718543352 0 -0.024389979987844101 0.36596703924153162 0 -0.024389979987844101 0.36596703924153162 0 -0.041647052605288608 0.35329012867298543 0 -0.045506479697467392 0.37581606739314077 0 -0.029263975432956529 0.33534748085244731 0 -0.02394476725139327 0.34968864718543352 0 -0.041647052605288608 0.35329012867298543 0 -0.041647052605288608 0.35329012867298543 0 -0.05719911042358751 0.36143700314909771 0 -0.063195723890686187 0.34554379810882357 0 -0.045340630401150092 0.33290448699983521 0 -0.041647052605288608 0.35329012867298543 0 -0.063195723890686187 0.34554379810882357 0 -0.041647052605288608 0.35329012867298543 0 -0.05719911042358751 0.36143700314909771 0 -0.045506479697467392 0.37581606739314077 0 -0.05719911042358751 0.36143700314909771 0 -0.060132589690863131 0.37649668107003831 0 -0.045506479697467392 0.37581606739314077 0 -0.05719911042358751 0.36143700314909771 0 -0.07000058974432713 0.37232602452582292 0 -0.060132589690863131 0.37649668107003831 0 -0.07000058974432713 0.37232602452582292 0 -0.070241424121654072 0.35638993612077352 0 -0.05719911042358751 0.36143700314909771 0 -0.07000058974432713 0.37232602452582292 0 -0.063195723890686187 0.34554379810882357 0 -0.07000058974432713 0.37232602452582292 0 -0.070241424121654072 0.35638993612077352 0 -0.077924426379085546 0.37726264320618058 0 -0.070241424121654072 0.35638993612077352 0 -0.077924426379085546 0.37726264320618058 0 -0.088745495554186843 0.37195231940072571 0 -0.070241424121654072 0.35638993612077352 0 -0.077924426379085546 0.37726264320618058 0 -0.088745495554186843 0.37195231940072571 0 -0.091883562471853031 0.3457692885098641 0 -0.088745495554186843 0.37195231940072571 0 -0.091883562471853031 0.3457692885098641 0 -0.070241424121654072 0.35638993612077352 0 -0.070241424121654072 0.35638993612077352 0 -0.063316141079349464 0.3375757539062989 0 -0.07000058974432713 0.37232602452582292 0 -0.063195723890686187 0.34554379810882357 0 -0.070241424121654072 0.35638993612077352 0 -0.063195723890686187 0.34554379810882357 0 -0.070241424121654072 0.35638993612077352 0 -0.063316141079349464 0.3375757539062989 0 -0.091883562471853031 0.3457692885098641 0 -0.070241424121654072 0.35638993612077352 0 -0.070545288299780656 0.33628314547275528 0 -0.070241424121654072 0.35638993612077352 0 -0.070545288299780656 0.33628314547275528 0 -0.07000058974432713 0.37232602452582292 0 -0.063195723890686187 0.34554379810882357 0 -0.070241424121654072 0.35638993612077352 0 -0.063316141079349464 0.3375757539062989 0 -0.070545288299780656 0.33628314547275528 0 -0.063316141079349464 0.3375757539062989 0 -0.070545288299780656 0.33628314547275528 0 -0.065023942883826402 0.32626548236443081 0 -0.070545288299780656 0.33628314547275528 0 -0.070849152477904909 0.31617635482473699 0 -0.055172103769242392 0.31396486394637191 0 -0.070849152477904909 0.31617635482473699 0 -0.070545288299780656 0.33628314547275528 0 -0.065023942883826402 0.32626548236443081 0 -0.070849152477904909 0.31617635482473699 0 -0.056390858037045882 0.31876157169182401 0 -0.065023942883826402 0.32626548236443081 0 -0.070849152477904909 0.31617635482473699 0 -0.070545288299780656 0.33628314547275528 0 -0.070849152477904909 0.31617635482473699 0 -0.095021629389518913 0.3195862576190025 0 -0.08499357112062754 0.30329106243784532 0 -0.070849152477904909 0.31617635482473699 0 -0.095021629389518913 0.3195862576190025 0 -0.070849152477904909 0.31617635482473699 0 -0.095021629389518913 0.3195862576190025 0 -0.091883562471853031 0.3457692885098641 0 -0.095021629389518913 0.3195862576190025 0 -0.091883562471853031 0.3457692885098641 0 -0.070545288299780656 0.33628314547275528 0 -0.095021629389518913 0.3195862576190025 0 -0.095021629389518913 0.3195862576190025 0 -0.1197653272361902 0.32307673998604869 0 -0.1124655396458927 0.34222613531522827 0 -0.091883562471853031 0.3457692885098641 0 -0.095021629389518913 0.3195862576190025 0 -0.1124655396458927 0.34222613531522827 0 -0.095021629389518913 0.3195862576190025 0 -0.1197653272361902 0.32307673998604869 0 -0.1184134681693753 0.30180816482823031 0 -0.095021629389518913 0.3195862576190025 0 -0.1197653272361902 0.32307673998604869 0 -0.13442481151533389 0.31285585461632209 0 -0.1184134681693753 0.30180816482823031 0 -0.1197653272361902 0.32307673998604869 0 -0.13054554349740871 0.33917687704598048 0 -0.1197653272361902 0.32307673998604869 0 -0.1124655396458927 0.34222613531522827 0 -0.12771320529459049 0.35645317127919107 0 -0.1124655396458927 0.34222613531522827 0 -0.1079432596302743 0.3624617832888708 0 -0.12771320529459049 0.35645317127919107 0 -0.13054554349740871 0.33917687704598048 0 -0.1124655396458927 0.34222613531522827 0 -0.12487128540785949 0.37471806619671871 0 -0.1079432596302743 0.3624617832888708 0 -0.1032334465229066 0.38331023597213443 0 -0.12771320529459049 0.35645317127919107 0 -0.12487128540785949 0.37471806619671871 0 -0.1079432596302743 0.3624617832888708 0 -0.088745495554186843 0.37195231940072571 0 -0.091883562471853031 0.3457692885098641 0 -0.1079432596302743 0.3624617832888708 0 -0.088745495554186843 0.37195231940072571 0 -0.1079432596302743 0.3624617832888708 0 -0.1032334465229066 0.38331023597213443 0 -0.091883562471853031 0.3457692885098641 0 -0.1124655396458927 0.34222613531522827 0 -0.1079432596302743 0.3624617832888708 0 -0.1032334465229066 0.38331023597213443 0 -0.085607428636519184 0.39813535029158692 0 -0.093186512399267174 0.3991294767058664 0 -0.1032334465229066 0.38331023597213443 0 -0.120815756873901 0.39267800984847451 0 -0.093186512399267174 0.3991294767058664 0 -0.120815756873901 0.39267800984847451 0 -0.093186512399267174 0.3991294767058664 0 -0.120815756873901 0.39267800984847451 0 -0.104348614198815 0.40869261846030908 0 -0.093186512399267174 0.3991294767058664 0 -0.104348614198815 0.40869261846030908 0 -0.092008010781350069 0.40825690183315771 0 -0.093186512399267174 0.3991294767058664 0 -0.12487128540785949 0.37471806619671871 0 -0.1032334465229066 0.38331023597213443 0 -0.120815756873901 0.39267800984847451 0 -0.120815756873901 0.39267800984847451 0 -0.12182712473995951 0.41530146114165239 0 -0.104348614198815 0.40869261846030908 0 -0.12182712473995951 0.41530146114165239 0 -0.104348614198815 0.40869261846030908 0 -0.1049854767120568 0.41948862884111721 0 -0.12182712473995951 0.41530146114165239 0 -0.10926137706223139 0.43099035690096799 0 -0.1049854767120568 0.41948862884111721 0 -0.1301182561379696 0.43878695128052508 0 -0.12182712473995951 0.41530146114165239 0 -0.10926137706223139 0.43099035690096799 0 -0.10926137706223139 0.43099035690096799 0 -0.094956040989360724 0.42767730318712699 0 -0.1049854767120568 0.41948862884111721 0 -0.10926137706223139 0.43099035690096799 0 -0.094956040989360724 0.42767730318712699 0 -0.10044841910622181 0.43817753623379352 0 -0.094956040989360724 0.42767730318712699 0 -0.086758278401667902 0.43828003765402129 0 -0.10044841910622181 0.43817753623379352 0 -0.104348614198815 0.40869261846030908 0 -0.1049854767120568 0.41948862884111721 0 -0.094534226569917335 0.41478140451552942 0 -0.094956040989360724 0.42767730318712699 0 -0.1049854767120568 0.41948862884111721 0 -0.094534226569917335 0.41478140451552942 0 -0.104348614198815 0.40869261846030908 0 -0.094534226569917335 0.41478140451552942 0 -0.092008010781350069 0.40825690183315771 0 -0.082707030120362623 0.42233535173733638 0 -0.085607428636519184 0.39813535029158692 0 -0.082707030120362623 0.42233535173733638 0 -0.076353809932344391 0.39733068813157979 0 -0.082707030120362623 0.42233535173733638 0 -0.085607428636519184 0.39813535029158692 0 -0.086563053255178934 0.40073153236736742 0 -0.092008010781350069 0.40825690183315771 0 -0.082707030120362623 0.42233535173733638 0 -0.086563053255178934 0.40073153236736742 0 -0.094956040989360724 0.42767730318712699 0 -0.094534226569917335 0.41478140451552942 0 -0.082707030120362623 0.42233535173733638 0 -0.094534226569917335 0.41478140451552942 0 -0.092008010781350069 0.40825690183315771 0 -0.082707030120362623 0.42233535173733638 0 -0.094956040989360724 0.42767730318712699 0 -0.082707030120362623 0.42233535173733638 0 -0.086758278401667902 0.43828003765402129 0 -0.082707030120362623 0.42233535173733638 0 -0.082042052715790501 0.4278837114066647 0 -0.086758278401667902 0.43828003765402129 0 -0.082707030120362623 0.42233535173733638 0 -0.086758278401667902 0.43828003765402129 0 -0.082707030120362623 0.42233535173733638 0 -0.082042052715790501 0.4278837114066647 0 -0.065406024651655792 0.41744152600339118 0 -0.086758278401667902 0.43828003765402129 0 -0.082042052715790501 0.4278837114066647 0 -0.065406024651655792 0.41744152600339118 0 -0.086758278401667902 0.43828003765402129 0 -0.073804116029247302 0.4371034288437663 0 -0.065406024651655792 0.41744152600339118 0 -0.086758278401667902 0.43828003765402129 0 -0.065936286297007013 0.43511801097785191 0 -0.065406024651655792 0.41744152600339118 0 -0.05670789768802674 0.43094295342702887 0 -0.082707030120362623 0.42233535173733638 0 -0.082042052715790501 0.4278837114066647 0 -0.065406024651655792 0.41744152600339118 0 -0.073804116029247302 0.4371034288437663 0 -0.065936286297007013 0.43511801097785191 0 -0.065406024651655792 0.41744152600339118 0 -0.082707030120362623 0.42233535173733638 0 -0.065406024651655792 0.41744152600339118 0 -0.076353809932344391 0.39733068813157979 0 -0.065406024651655792 0.41744152600339118 0 -0.076353809932344391 0.39733068813157979 0 -0.060220454790492102 0.39077526707337018 0 -0.082707030120362623 0.42233535173733638 0 -0.076353809932344391 0.39733068813157979 0 -0.085607428636519184 0.39813535029158692 0 -0.076353809932344391 0.39733068813157979 0 -0.085607428636519184 0.39813535029158692 0 -0.077924426379085546 0.37726264320618058 0 -0.092008010781350069 0.40825690183315771 0 -0.093186512399267174 0.3991294767058664 0 -0.086563053255178934 0.40073153236736742 0 -0.085607428636519184 0.39813535029158692 0 -0.093186512399267174 0.3991294767058664 0 -0.086563053255178934 0.40073153236736742 0 -0.085607428636519184 0.39813535029158692 0 -0.086563053255178934 0.40073153236736742 0 -0.088745495554186843 0.37195231940072571 0 -0.085607428636519184 0.39813535029158692 0 -0.088745495554186843 0.37195231940072571 0 -0.085607428636519184 0.39813535029158692 0 -0.077924426379085546 0.37726264320618058 0 -0.088745495554186843 0.37195231940072571 0 -0.1032334465229066 0.38331023597213443 0 -0.085607428636519184 0.39813535029158692 0 -0.085607428636519184 0.39813535029158692 0 -0.077924426379085546 0.37726264320618058 0 -0.07000058974432713 0.37232602452582292 0 -0.076353809932344391 0.39733068813157979 0 -0.077924426379085546 0.37726264320618058 0 -0.07000058974432713 0.37232602452582292 0 -0.076353809932344391 0.39733068813157979 0 -0.07000058974432713 0.37232602452582292 0 -0.076353809932344391 0.39733068813157979 0 -0.069870053868976753 0.3809636254893119 0 -0.076353809932344391 0.39733068813157979 0 -0.069870053868976753 0.3809636254893119 0 -0.060220454790492102 0.39077526707337018 0 -0.069870053868976753 0.3809636254893119 0 -0.060132589690863131 0.37649668107003831 0 -0.060220454790492102 0.39077526707337018 0 -0.07000058974432713 0.37232602452582292 0 -0.069870053868976753 0.3809636254893119 0 -0.07000058974432713 0.37232602452582292 0 -0.069870053868976753 0.3809636254893119 0 -0.060132589690863131 0.37649668107003831 0 -0.060220454790492102 0.39077526707337018 0 -0.044053770901645112 0.39660301435275958 0 -0.045506479697467392 0.37581606739314077 0 -0.060132589690863131 0.37649668107003831 0 -0.060220454790492102 0.39077526707337018 0 -0.045506479697467392 0.37581606739314077 0 -0.065406024651655792 0.41744152600339118 0 -0.060220454790492102 0.39077526707337018 0 -0.044053770901645112 0.39660301435275958 0 -0.044053770901645112 0.39660301435275958 0 -0.02835553267378324 0.38728418437708151 0 -0.021630334683877241 0.40916052370614098 0 -0.044053770901645112 0.39660301435275958 0 -0.045506479697467392 0.37581606739314077 0 -0.02835553267378324 0.38728418437708151 0 -0.024389979987844101 0.36596703924153162 0 -0.045506479697467392 0.37581606739314077 0 -0.02835553267378324 0.38728418437708151 0 -0.024389979987844101 0.36596703924153162 0 -0.02835553267378324 0.38728418437708151 0 -0.006197098098082339 0.38887427719183432 0 -0.02835553267378324 0.38728418437708151 0 -0.006197098098082339 0.38887427719183432 0 -0.021630334683877241 0.40916052370614098 0 -0.006197098098082339 0.38887427719183432 0 -0.021630334683877241 0.40916052370614098 0 0.001738985615909209 0.40767877470127428 0 -0.006197098098082339 0.38887427719183432 0 -0.021630334683877241 0.40916052370614098 0 -0.01444186018658767 0.42499316711039448 0 -0.01313670676755469 0.43540210218949132 0 -0.0043858365965349757 0.43091195994427978 0 -0.01313670676755469 0.43540210218949132 0 -0.0043858365965349757 0.43091195994427978 0 -0.0054909350807642197 0.43984799706899641 0 -0.0043858365965349757 0.43091195994427978 0 -0.0054909350807642197 0.43984799706899641 0 0.0060525274966358907 0.43394064196042442 0 -0.01444186018658767 0.42499316711039448 0 -0.0043858365965349757 0.43091195994427978 0 -0.0046041233353045982 0.42054886433158079 0 -0.0043858365965349757 0.43091195994427978 0 -0.0046041233353045982 0.42054886433158079 0 0.001571042455832043 0.42695653658648552 0 -0.0046041233353045982 0.42054886433158079 0 -0.021630334683877241 0.40916052370614098 0 0.001738985615909209 0.40767877470127428 0 -0.01444186018658767 0.42499316711039448 0 -0.0046041233353045982 0.42054886433158079 0 -0.021630334683877241 0.40916052370614098 0 -0.01444186018658767 0.42499316711039448 0 -0.021630334683877241 0.40916052370614098 0 -0.024168452842609961 0.42970240035789542 0 -0.021630334683877241 0.40916052370614098 0 -0.037063571269672198 0.42944677022044792 0 -0.021630334683877241 0.40916052370614098 0 -0.024168452842609961 0.42970240035789542 0 -0.037063571269672198 0.42944677022044792 0 -0.01444186018658767 0.42499316711039448 0 -0.01313670676755469 0.43540210218949132 0 -0.024168452842609961 0.42970240035789542 0 -0.01313670676755469 0.43540210218949132 0 -0.024168452842609961 0.42970240035789542 0 -0.021981170176639461 0.4389271994192942 0 -0.024168452842609961 0.42970240035789542 0 -0.037063571269672198 0.42944677022044792 0 -0.031831845452052587 0.43996876040031851 0 -0.024168452842609961 0.42970240035789542 0 -0.031831845452052587 0.43996876040031851 0 -0.021981170176639461 0.4389271994192942 0 -0.037063571269672198 0.42944677022044792 0 -0.049446720726308027 0.41922278495246679 0 -0.048501237239218641 0.42905913720089378 0 -0.037063571269672198 0.42944677022044792 0 -0.050786759272867563 0.43662404020363133 0 -0.048501237239218641 0.42905913720089378 0 -0.044053770901645112 0.39660301435275958 0 -0.021630334683877241 0.40916052370614098 0 -0.049446720726308027 0.41922278495246679 0 -0.021630334683877241 0.40916052370614098 0 -0.037063571269672198 0.42944677022044792 0 -0.049446720726308027 0.41922278495246679 0 -0.065406024651655792 0.41744152600339118 0 -0.044053770901645112 0.39660301435275958 0 -0.065406024651655792 0.41744152600339118 0 -0.044053770901645112 0.39660301435275958 0 -0.049446720726308027 0.41922278495246679 0 -0.065406024651655792 0.41744152600339118 0 -0.049446720726308027 0.41922278495246679 0 -0.05670789768802674 0.43094295342702887 0 -0.050786759272867563 0.43662404020363133 0 -0.048501237239218641 0.42905913720089378 0 -0.05670789768802674 0.43094295342702887 0 -0.049446720726308027 0.41922278495246679 0 -0.048501237239218641 0.42905913720089378 0 -0.05670789768802674 0.43094295342702887 0 -0.050786759272867563 0.43662404020363133 0 -0.05670789768802674 0.43094295342702887 0 -0.060118635885140853 0.44294474353748198 0 -0.065936286297007013 0.43511801097785191 0 -0.05670789768802674 0.43094295342702887 0 -0.060118635885140853 0.44294474353748198 0 -0.05249680785546728 0.4497330167347548 0 -0.059444516753459437 0.45996209570892882 0 -0.045043171556123841 0.44430893323456472 0 -0.059444516753459437 0.45996209570892882 0 -0.045043171556123841 0.44430893323456472 0 -0.060118635885140853 0.44294474353748198 0 -0.05249680785546728 0.4497330167347548 0 -0.063326487010185811 0.45159384641185912 0 -0.050786759272867563 0.43662404020363133 0 -0.060118635885140853 0.44294474353748198 0 -0.05249680785546728 0.4497330167347548 0 -0.059444516753459437 0.45996209570892882 0 -0.050852632158080377 0.46423079617057289 0 -0.042905677256836493 0.45672073819235171 0 -0.059444516753459437 0.45996209570892882 0 -0.042905677256836493 0.45672073819235171 0 -0.045043171556123841 0.44430893323456472 0 -0.059444516753459437 0.45996209570892882 0 -0.050852632158080377 0.46423079617057289 0 -0.056906209892666593 0.47126958735631719 0 -0.05249680785546728 0.4497330167347548 0 -0.059444516753459437 0.45996209570892882 0 -0.063326487010185811 0.45159384641185912 0 -0.050852632158080377 0.46423079617057289 0 -0.04280811103578698 0.46917868033434218 0 -0.056906209892666593 0.47126958735631719 0 -0.042905677256836493 0.45672073819235171 0 -0.033362518049867507 0.4660122267918182 0 -0.04280811103578698 0.46917868033434218 0 -0.050852632158080377 0.46423079617057289 0 -0.042905677256836493 0.45672073819235171 0 -0.04280811103578698 0.46917868033434218 0 -0.042905677256836493 0.45672073819235171 0 -0.037484750241461688 0.44932817349675519 0 -0.030158306700833849 0.45631426215978599 0 -0.042905677256836493 0.45672073819235171 0 -0.033362518049867507 0.4660122267918182 0 -0.030158306700833849 0.45631426215978599 0 -0.037484750241461688 0.44932817349675519 0 -0.031831845452052587 0.43996876040031851 0 -0.030158306700833849 0.45631426215978599 0 -0.037063571269672198 0.42944677022044792 0 -0.05249680785546728 0.4497330167347548 0 -0.045043171556123841 0.44430893323456472 0 -0.037063571269672198 0.42944677022044792 0 -0.05249680785546728 0.4497330167347548 0 -0.037063571269672198 0.42944677022044792 0 -0.050786759272867563 0.43662404020363133 0 -0.05249680785546728 0.4497330167347548 0 -0.042905677256836493 0.45672073819235171 0 -0.045043171556123841 0.44430893323456472 0 -0.037484750241461688 0.44932817349675519 0 -0.037063571269672198 0.42944677022044792 0 -0.045043171556123841 0.44430893323456472 0 -0.031831845452052587 0.43996876040031851 0 -0.045043171556123841 0.44430893323456472 0 -0.037484750241461688 0.44932817349675519 0 -0.031831845452052587 0.43996876040031851 0 -0.031831845452052587 0.43996876040031851 0 -0.030158306700833849 0.45631426215978599 0 -0.01369749220332438 0.46131983942987398 0 -0.031831845452052587 0.43996876040031851 0 -0.021981170176639461 0.4389271994192942 0 -0.018576031218603802 0.44757795720319982 0 -0.031831845452052587 0.43996876040031851 0 -0.01369749220332438 0.46131983942987398 0 -0.031831845452052587 0.43996876040031851 0 -0.018576031218603802 0.44757795720319982 0 -0.01369749220332438 0.46131983942987398 0 -0.01313670676755469 0.43540210218949132 0 -0.021981170176639461 0.4389271994192942 0 -0.012396473491308201 0.44454115773504882 0 -0.021981170176639461 0.4389271994192942 0 -0.018576031218603802 0.44757795720319982 0 -0.012396473491308201 0.44454115773504882 0 -0.030158306700833849 0.45631426215978599 0 -0.025038782040248082 0.4642239927722544 0 -0.01369749220332438 0.46131983942987398 0 -0.033362518049867507 0.4660122267918182 0 -0.025038782040248082 0.4642239927722544 0 -0.02572984313161562 0.47358946770098598 0 -0.033362518049867507 0.4660122267918182 0 -0.030158306700833849 0.45631426215978599 0 -0.025038782040248082 0.4642239927722544 0 -0.025038782040248082 0.4642239927722544 0 -0.01369749220332438 0.46131983942987398 0 -0.02572984313161562 0.47358946770098598 0 -0.01369749220332438 0.46131983942987398 0 -0.02572984313161562 0.47358946770098598 0 -0.011939123612778419 0.46339011269657848 0 -0.01369749220332438 0.46131983942987398 0 -0.02572984313161562 0.47358946770098598 0 -0.011939123612778419 0.46339011269657848 0 -0.0056788975283216074 0.45314311847938649 0 -0.011939123612778419 0.46339011269657848 0 -0.0056788975283216074 0.45314311847938649 0 0.0041572681536312089 0.46313827509128441 0 -0.01369749220332438 0.46131983942987398 0 -0.0056788975283216074 0.45314311847938649 0 -0.018576031218603802 0.44757795720319982 0 -0.01369749220332438 0.46131983942987398 0 -0.01258722361038957 0.45164551821187732 0 -0.01369749220332438 0.46131983942987398 0 -0.0056788975283216074 0.45314311847938649 0 -0.01258722361038957 0.45164551821187732 0 -0.011939123612778419 0.46339011269657848 0 -0.01369749220332438 0.46131983942987398 0 -0.0056788975283216074 0.45314311847938649 0 -0.011939123612778419 0.46339011269657848 0 -0.01369749220332438 0.46131983942987398 0 -0.0056788975283216074 0.45314311847938649 0 -0.0054909350807642197 0.43984799706899641 0 0.0060525274966358907 0.43394064196042442 0 -0.01313670676755469 0.43540210218949132 0 -0.0054909350807642197 0.43984799706899641 0 -0.012396473491308201 0.44454115773504882 0 -0.0056788975283216074 0.45314311847938649 0 -0.012396473491308201 0.44454115773504882 0 -0.01258722361038957 0.45164551821187732 0 -0.018576031218603802 0.44757795720319982 0 -0.012396473491308201 0.44454115773504882 0 -0.01258722361038957 0.45164551821187732 0 -0.0056788975283216074 0.45314311847938649 0 -0.0054909350807642197 0.43984799706899641 0 -0.012396473491308201 0.44454115773504882 0 -0.0075750716008230468 0.5 0 -0.02312221626356499 0.48169505634828841 0 0.0036080210499636681 0.48169505634828769 0 -0.011939123612778419 0.46339011269657848 0 -0.02312221626356499 0.48169505634828841 0 0.0036080210499636681 0.48169505634828769 0 -0.011939123612778419 0.46339011269657848 0 0.0036080210499636681 0.48169505634828769 0 -0.011939123612778419 0.46339011269657848 0 0.0036080210499636681 0.48169505634828769 0 0.0041572681536312089 0.46313827509128441 0 -0.011939123612778419 0.46339011269657848 0 -0.02312221626356499 0.48169505634828841 0 -0.02572984313161562 0.47358946770098598 0 -0.011939123612778419 0.46339011269657848 0 -0.02312221626356499 0.48169505634828841 0 -0.02312221626356499 0.48169505634828841 0 -0.02572984313161562 0.47358946770098598 0 -0.037762194059907571 0.48585909597209709 0 -0.02312221626356499 0.48169505634828841 0 -0.034305308914351129 0.4999999999999985 0 -0.0075750716008230468 0.5 0 -0.02312221626356499 0.48169505634828841 0 -0.034305308914351129 0.4999999999999985 0 -0.02312221626356499 0.48169505634828841 0 -0.034305308914351129 0.4999999999999985 0 -0.037762194059907571 0.48585909597209709 0 -0.034305308914351129 0.4999999999999985 0 -0.037762194059907571 0.48585909597209709 0 -0.057793120166189087 0.5 0 -0.037762194059907571 0.48585909597209709 0 -0.045658996752109507 0.47724752485386868 0 -0.055566051124481652 0.48189710305736633 0 -0.033362518049867507 0.4660122267918182 0 -0.02572984313161562 0.47358946770098598 0 -0.036899613064207193 0.47470974080504053 0 -0.033362518049867507 0.4660122267918182 0 -0.036899613064207193 0.47470974080504053 0 -0.04280811103578698 0.46917868033434218 0 -0.02572984313161562 0.47358946770098598 0 -0.037762194059907571 0.48585909597209709 0 -0.02572984313161562 0.47358946770098598 0 -0.037762194059907571 0.48585909597209709 0 -0.036899613064207193 0.47470974080504053 0 -0.037762194059907571 0.48585909597209709 0 -0.036899613064207193 0.47470974080504053 0 -0.045658996752109507 0.47724752485386868 0 -0.036899613064207193 0.47470974080504053 0 -0.045658996752109507 0.47724752485386868 0 -0.04280811103578698 0.46917868033434218 0 -0.055566051124481652 0.48189710305736633 0 -0.056906209892666593 0.47126958735631719 0 -0.073845861950795066 0.47561525818329298 0 -0.045658996752109507 0.47724752485386868 0 -0.04280811103578698 0.46917868033434218 0 -0.056906209892666593 0.47126958735631719 0 -0.045658996752109507 0.47724752485386868 0 -0.055566051124481652 0.48189710305736633 0 -0.056906209892666593 0.47126958735631719 0 -0.037762194059907571 0.48585909597209709 0 -0.055566051124481652 0.48189710305736633 0 -0.057793120166189087 0.5 0 -0.055566051124481652 0.48189710305736633 0 -0.057793120166189087 0.5 0 -0.071346634361524372 0.48975615637966352 0 -0.057793120166189087 0.5 0 -0.071346634361524372 0.48975615637966352 0 -0.081280931418027058 0.50000000000000178 0 -0.071346634361524372 0.48975615637966352 0 -0.088247207148129253 0.49126842065765852 0 -0.073845861950795066 0.47561525818329298 0 -0.071346634361524372 0.48975615637966352 0 -0.081280931418027058 0.50000000000000178 0 -0.088247207148129253 0.49126842065765852 0 -0.081280931418027058 0.50000000000000178 0 -0.088247207148129253 0.49126842065765852 0 -0.088247207148129253 0.49126842065765852 0 -0.097329292887272642 0.47988487006367142 0 -0.081280931418027058 0.50000000000000178 0 -0.088247207148129253 0.49126842065765852 0 -0.096280503195043415 0.49999999999999961 0 -0.088247207148129253 0.49126842065765852 0 -0.096280503195043415 0.49999999999999961 0 -0.088247207148129253 0.49126842065765852 0 -0.08672262643743596 0.47150714416261869 0 -0.097329292887272642 0.47988487006367142 0 -0.08672262643743596 0.47150714416261869 0 -0.092043785644472367 0.45908245385884588 0 -0.097329292887272642 0.47988487006367142 0 -0.088247207148129253 0.49126842065765852 0 -0.073845861950795066 0.47561525818329298 0 -0.088247207148129253 0.49126842065765852 0 -0.08672262643743596 0.47150714416261869 0 -0.073845861950795066 0.47561525818329298 0 -0.08672262643743596 0.47150714416261869 0 -0.073845861950795066 0.47561525818329298 0 -0.075043597421163052 0.46006190774478489 0 -0.059444516753459437 0.45996209570892882 0 -0.056906209892666593 0.47126958735631719 0 -0.073845861950795066 0.47561525818329298 0 -0.055566051124481652 0.48189710305736633 0 -0.071346634361524372 0.48975615637966352 0 -0.073845861950795066 0.47561525818329298 0 -0.059444516753459437 0.45996209570892882 0 -0.073845861950795066 0.47561525818329298 0 -0.075043597421163052 0.46006190774478489 0 -0.059444516753459437 0.45996209570892882 0 -0.073845861950795066 0.47561525818329298 0 -0.059444516753459437 0.45996209570892882 0 -0.075043597421163052 0.46006190774478489 0 -0.063326487010185811 0.45159384641185912 0 -0.065936286297007013 0.43511801097785191 0 -0.060118635885140853 0.44294474353748198 0 -0.070661083850404621 0.44634052334776381 0 -0.073804116029247302 0.4371034288437663 0 -0.065936286297007013 0.43511801097785191 0 -0.070661083850404621 0.44634052334776381 0 -0.060118635885140853 0.44294474353748198 0 -0.063326487010185811 0.45159384641185912 0 -0.070661083850404621 0.44634052334776381 0 -0.075043597421163052 0.46006190774478489 0 -0.063326487010185811 0.45159384641185912 0 -0.070661083850404621 0.44634052334776381 0 -0.075043597421163052 0.46006190774478489 0 -0.070661083850404621 0.44634052334776381 0 -0.080258906945502695 0.44833704623580212 0 -0.073804116029247302 0.4371034288437663 0 -0.070661083850404621 0.44634052334776381 0 -0.080258906945502695 0.44833704623580212 0 -0.086758278401667902 0.43828003765402129 0 -0.092043785644472367 0.45908245385884588 0 -0.099061123745950108 0.45028687257853972 0 -0.086758278401667902 0.43828003765402129 0 -0.092043785644472367 0.45908245385884588 0 -0.080258906945502695 0.44833704623580212 0 -0.086758278401667902 0.43828003765402129 0 -0.092043785644472367 0.45908245385884588 0 -0.073804116029247302 0.4371034288437663 0 -0.080258906945502695 0.44833704623580212 0 -0.086758278401667902 0.43828003765402129 0 -0.086758278401667902 0.43828003765402129 0 -0.099061123745950108 0.45028687257853972 0 -0.075043597421163052 0.46006190774478489 0 -0.080258906945502695 0.44833704623580212 0 -0.092043785644472367 0.45908245385884588 0 -0.08672262643743596 0.47150714416261869 0 -0.075043597421163052 0.46006190774478489 0 -0.092043785644472367 0.45908245385884588 0 -0.092043785644472367 0.45908245385884588 0 -0.099061123745950108 0.45028687257853972 0 -0.11136396909023361 0.46229370750305671 0 -0.092043785644472367 0.45908245385884588 0 -0.11136396909023361 0.46229370750305671 0 -0.097329292887272642 0.47988487006367142 0 -0.099061123745950108 0.45028687257853972 0 -0.11136396909023361 0.46229370750305671 0 -0.099061123745950108 0.45028687257853972 0 -0.1122052753319005 0.44365311084831011 0 -0.11136396909023361 0.46229370750305671 0 -0.086758278401667902 0.43828003765402129 0 -0.10044841910622181 0.43817753623379352 0 -0.099061123745950108 0.45028687257853972 0 -0.10926137706223139 0.43099035690096799 0 -0.10044841910622181 0.43817753623379352 0 -0.1122052753319005 0.44365311084831011 0 -0.10044841910622181 0.43817753623379352 0 -0.099061123745950108 0.45028687257853972 0 -0.1122052753319005 0.44365311084831011 0 -0.1301182561379696 0.43878695128052508 0 -0.10926137706223139 0.43099035690096799 0 -0.1122052753319005 0.44365311084831011 0 -0.1301182561379696 0.43878695128052508 0 -0.1122052753319005 0.44365311084831011 0 -0.11136396909023361 0.46229370750305671 0 -0.1301182561379696 0.43878695128052508 0 -0.11136396909023361 0.46229370750305671 0 -0.13280305227926081 0.45907183038089111 0 -0.1301182561379696 0.43878695128052508 0 -0.11136396909023361 0.46229370750305671 0 -0.12927926813383431 0.47977795868400902 0 -0.13280305227926081 0.45907183038089111 0 -0.11136396909023361 0.46229370750305671 0 -0.12927926813383431 0.47977795868400902 0 -0.11136396909023361 0.46229370750305671 0 -0.1153806750737312 0.4839919427771433 0 -0.12927926813383431 0.47977795868400902 0 -0.11136396909023361 0.46229370750305671 0 -0.14719456717743479 0.49726220986496139 0 -0.1016229035927028 0.49678343302325201 0 -0.096280503195043415 0.49999999999999961 0 -0.14719456717743479 0.49726220986496139 0 -0.1153806750737312 0.4839919427771433 0 -0.1016229035927028 0.49678343302325201 0 -0.1153806750737312 0.4839919427771433 0 -0.1016229035927028 0.49678343302325201 0 -0.097329292887272642 0.47988487006367142 0 -0.088247207148129253 0.49126842065765852 0 -0.1016229035927028 0.49678343302325201 0 -0.097329292887272642 0.47988487006367142 0 -0.1016229035927028 0.49678343302325201 0 -0.097329292887272642 0.47988487006367142 0 -0.088247207148129253 0.49126842065765852 0 -0.1016229035927028 0.49678343302325201 0 -0.096280503195043415 0.49999999999999961 0 -0.11136396909023361 0.46229370750305671 0 -0.097329292887272642 0.47988487006367142 0 -0.092043785644472367 0.45908245385884588 0 -0.097329292887272642 0.47988487006367142 0 -0.11136396909023361 0.46229370750305671 0 -0.1153806750737312 0.4839919427771433 0 -0.097329292887272642 0.47988487006367142 0 -0.1715378108618969 0.081473223889364871 0 -0.1695298481977881 0.092652884725989426 0 -0.1589516095679368 0.087971432183466924 0 -0.1715378108618969 0.081473223889364871 0 -0.1589516095679368 0.087971432183466924 0 -0.15992953251122069 0.072645630634943059 0 -0.15992953251122069 0.072645630634943059 0 -0.1689003531558109 0.070475423662913178 0 -0.18403160084199621 0.069145699794123688 0 -0.1715378108618969 0.081473223889364871 0 -0.15992953251122069 0.072645630634943059 0 -0.18403160084199621 0.069145699794123688 0 -0.15846762668723821 0.063089351404170421 0 -0.1689003531558109 0.070475423662913178 0 -0.1638986624983243 0.057156703612289597 0 -0.15992953251122069 0.072645630634943059 0 -0.15846762668723821 0.063089351404170421 0 -0.1689003531558109 0.070475423662913178 0 -0.1715378108618969 0.081473223889364871 0 -0.18403160084199621 0.069145699794123688 0 -0.18236291607771499 0.080325117704706267 0 -0.15992953251122069 0.072645630634943059 0 -0.18403160084199621 0.069145699794123688 0 -0.1689003531558109 0.070475423662913178 0 -0.18403160084199621 0.069145699794123688 0 -0.1777757879377006 0.059462206061482878 0 -0.18403160084199621 0.069145699794123688 0 -0.18236291607771499 0.080325117704706267 0 -0.19618165806327489 0.083423109847579932 0 -0.18236291607771499 0.080325117704706267 0 -0.1831997386797648 0.089107293361269171 0 -0.19618165806327489 0.083423109847579932 0 -0.18236291607771499 0.080325117704706267 0 -0.1757667977383234 0.087216872208714991 0 -0.1831997386797648 0.089107293361269171 0 -0.1715378108618969 0.081473223889364871 0 -0.18236291607771499 0.080325117704706267 0 -0.1757667977383234 0.087216872208714991 0 -0.1715378108618969 0.081473223889364871 0 -0.1695298481977881 0.092652884725989426 0 -0.1757667977383234 0.087216872208714991 0 -0.1695298481977881 0.092652884725989426 0 -0.1757667977383234 0.087216872208714991 0 -0.1772656986979593 0.094722902687888966 0 -0.1757667977383234 0.087216872208714991 0 -0.1831997386797648 0.089107293361269171 0 -0.1772656986979593 0.094722902687888966 0 -0.18422964695377811 0.1012004507418558 0 -0.17316995623249989 0.1020415349371247 0 -0.17227763584428141 0.1189777916361318 0 -0.1831997386797648 0.089107293361269171 0 -0.18422964695377811 0.1012004507418558 0 -0.1772656986979593 0.094722902687888966 0 -0.18422964695377811 0.1012004507418558 0 -0.17316995623249989 0.1020415349371247 0 -0.1772656986979593 0.094722902687888966 0 -0.1695298481977881 0.092652884725989426 0 -0.17316995623249989 0.1020415349371247 0 -0.1772656986979593 0.094722902687888966 0 -0.18422964695377811 0.1012004507418558 0 -0.17227763584428141 0.1189777916361318 0 -0.1892732801653953 0.1153091945389728 0 -0.18422964695377811 0.1012004507418558 0 -0.17227763584428141 0.1189777916361318 0 -0.17227763584428141 0.1189777916361318 0 -0.1892732801653953 0.1153091945389728 0 -0.18001056856736669 0.12972871477387871 0 -0.17227763584428141 0.1189777916361318 0 -0.1640181910262499 0.10276957521117309 0 -0.15612526191640891 0.11208743332005849 0 -0.17227763584428141 0.1189777916361318 0 -0.15612526191640891 0.11208743332005849 0 -0.1493976711257016 0.12641162965511921 0 -0.17316995623249989 0.1020415349371247 0 -0.17227763584428141 0.1189777916361318 0 -0.1640181910262499 0.10276957521117309 0 -0.1695298481977881 0.092652884725989426 0 -0.17316995623249989 0.1020415349371247 0 -0.1640181910262499 0.10276957521117309 0 -0.1695298481977881 0.092652884725989426 0 -0.1589516095679368 0.087971432183466924 0 -0.1640181910262499 0.10276957521117309 0 -0.1640181910262499 0.10276957521117309 0 -0.15246522073204941 0.099541437931693594 0 -0.15612526191640891 0.11208743332005849 0 -0.1589516095679368 0.087971432183466924 0 -0.1640181910262499 0.10276957521117309 0 -0.15246522073204941 0.099541437931693594 0 -0.15246522073204941 0.099541437931693594 0 -0.13717961809685261 0.104402800422459 0 -0.14494976206177609 0.088739712741369658 0 -0.15246522073204941 0.099541437931693594 0 -0.15612526191640891 0.11208743332005849 0 -0.13717961809685261 0.104402800422459 0 -0.15612526191640891 0.11208743332005849 0 -0.13717961809685261 0.104402800422459 0 -0.1493976711257016 0.12641162965511921 0 -0.13717961809685261 0.104402800422459 0 -0.1493976711257016 0.12641162965511921 0 -0.12421186667326629 0.12701614479988779 0 -0.13717961809685261 0.104402800422459 0 -0.12421186667326629 0.12701614479988779 0 -0.1181426053162586 0.1068152534780261 0 -0.13717961809685261 0.104402800422459 0 -0.12421186667326629 0.12701614479988779 0 -0.13717961809685261 0.104402800422459 0 -0.12528968029428239 0.09151819051175078 0 -0.14494976206177609 0.088739712741369658 0 -0.13717961809685261 0.104402800422459 0 -0.12528968029428239 0.09151819051175078 0 -0.1181426053162586 0.1068152534780261 0 -0.12528968029428239 0.09151819051175078 0 -0.14494976206177609 0.088739712741369658 0 -0.13582746418044511 0.07614556147576243 0 -0.1589516095679368 0.087971432183466924 0 -0.15992953251122069 0.072645630634943059 0 -0.14494976206177609 0.088739712741369658 0 -0.15992953251122069 0.072645630634943059 0 -0.14494976206177609 0.088739712741369658 0 -0.13582746418044511 0.07614556147576243 0 -0.1589516095679368 0.087971432183466924 0 -0.15246522073204941 0.099541437931693594 0 -0.14494976206177609 0.088739712741369658 0 -0.15992953251122069 0.072645630634943059 0 -0.13582746418044511 0.07614556147576243 0 -0.15992953251122069 0.072645630634943059 0 -0.14825366873282009 0.064426563423039096 0 -0.13582746418044511 0.07614556147576243 0 -0.15992953251122069 0.072645630634943059 0 -0.15846762668723821 0.063089351404170421 0 -0.14825366873282009 0.064426563423039096 0 -0.13582746418044511 0.07614556147576243 0 -0.1313908266181639 0.057860543913468912 0 -0.1236179063483689 0.068109104510717458 0 -0.14825366873282009 0.064426563423039096 0 -0.13582746418044511 0.07614556147576243 0 -0.1313908266181639 0.057860543913468912 0 -0.1313908266181639 0.057860543913468912 0 -0.13654744324649801 0.038821055446372453 0 -0.1240751716511294 0.046421578455218437 0 -0.1313908266181639 0.057860543913468912 0 -0.13654744324649801 0.038821055446372453 0 -0.151355916538015 0.050742435687667217 0 -0.13654744324649801 0.038821055446372453 0 -0.1214102998521855 0.033587953871668602 0 -0.1240751716511294 0.046421578455218437 0 -0.13654744324649801 0.038821055446372453 0 -0.151355916538015 0.050742435687667217 0 -0.1539114976834017 0.025758651316182761 0 -0.14825366873282009 0.064426563423039096 0 -0.1313908266181639 0.057860543913468912 0 -0.151355916538015 0.050742435687667217 0 -0.1313908266181639 0.057860543913468912 0 -0.151355916538015 0.050742435687667217 0 -0.15846762668723821 0.063089351404170421 0 -0.14825366873282009 0.064426563423039096 0 -0.151355916538015 0.050742435687667217 0 -0.12470345280778559 -0.0046060833266749566 0 -0.136366193982944 0.019361266881730631 0 -0.1192272432507404 0.019871391370585571 0 -0.12470345280778559 -0.0046060833266749566 0 -0.136366193982944 0.019361266881730631 0 -0.14741072542287981 0.0062455440855098826 0 -0.136366193982944 0.019361266881730631 0 -0.1192272432507404 0.019871391370585571 0 -0.1214102998521855 0.033587953871668602 0 -0.13654744324649801 0.038821055446372453 0 -0.136366193982944 0.019361266881730631 0 -0.1214102998521855 0.033587953871668602 0 -0.136366193982944 0.019361266881730631 0 -0.1539114976834017 0.025758651316182761 0 -0.14741072542287981 0.0062455440855098826 0 -0.13654744324649801 0.038821055446372453 0 -0.136366193982944 0.019361266881730631 0 -0.1539114976834017 0.025758651316182761 0 -0.1539114976834017 0.025758651316182761 0 -0.14741072542287981 0.0062455440855098826 0 -0.1639099945044146 0.0053336771441489048 0 -0.17580682899312269 -0.0061346579875049198 0 -0.1639099945044146 0.0053336771441489048 0 -0.17356391772549479 0.018744834737180478 0 -0.1539114976834017 0.025758651316182761 0 -0.17356391772549479 0.018744834737180478 0 -0.17132100645786619 0.043624327461865869 0 -0.1539114976834017 0.025758651316182761 0 -0.1639099945044146 0.0053336771441489048 0 -0.17356391772549479 0.018744834737180478 0 -0.18137637152518679 0.027785610824785281 0 -0.1790963236885145 0.04085221124501448 0 -0.19385937705343789 0.02209110381404927 0 -0.18137637152518679 0.027785610824785281 0 -0.17356391772549479 0.018744834737180478 0 -0.17132100645786619 0.043624327461865869 0 -0.17356391772549479 0.018744834737180478 0 -0.17132100645786619 0.043624327461865869 0 -0.18137637152518679 0.027785610824785281 0 -0.1816010720175002 0.019675478732692441 0 -0.18918528300924409 0.020515865185375581 0 -0.1816010720175002 0.019675478732692441 0 -0.18227871581007529 0.01165560418342846 0 -0.18918528300924409 0.020515865185375581 0 -0.18137637152518679 0.027785610824785281 0 -0.1816010720175002 0.019675478732692441 0 -0.17356391772549479 0.018744834737180478 0 -0.1816010720175002 0.019675478732692441 0 -0.17356391772549479 0.018744834737180478 0 -0.18227871581007529 0.01165560418342846 0 -0.17580682899312269 -0.0061346579875049198 0 -0.17356391772549479 0.018744834737180478 0 -0.17580682899312269 -0.0061346579875049198 0 -0.18227871581007529 0.01165560418342846 0 -0.19082965241075781 0.0065390538441611546 0 -0.17580682899312269 -0.0061346579875049198 0 -0.17356391772549479 0.018744834737180478 0 -0.18227871581007529 0.01165560418342846 0 -0.18227871581007529 0.01165560418342846 0 -0.19082965241075781 0.0065390538441611546 0 -0.18918528300924409 0.020515865185375581 0 -0.1689003531558109 0.070475423662913178 0 -0.17132100645786619 0.043624327461865869 0 -0.1689003531558109 0.070475423662913178 0 -0.1638986624983243 0.057156703612289597 0 -0.17132100645786619 0.043624327461865869 0 -0.1689003531558109 0.070475423662913178 0 -0.17132100645786619 0.043624327461865869 0 -0.1729340160171195 0.048683363337194932 0 -0.151355916538015 0.050742435687667217 0 -0.1638986624983243 0.057156703612289597 0 -0.17132100645786619 0.043624327461865869 0 -0.151355916538015 0.050742435687667217 0 -0.17132100645786619 0.043624327461865869 0 -0.15846762668723821 0.063089351404170421 0 -0.151355916538015 0.050742435687667217 0 -0.1638986624983243 0.057156703612289597 0 -0.151355916538015 0.050742435687667217 0 -0.1539114976834017 0.025758651316182761 0 -0.17132100645786619 0.043624327461865869 0 -0.1790963236885145 0.04085221124501448 0 -0.1729340160171195 0.048683363337194932 0 -0.1790963236885145 0.04085221124501448 0 -0.19385937705343789 0.02209110381404927 0 -0.1790963236885145 0.04085221124501448 0 -0.1729340160171195 0.048683363337194932 0 -0.179378101465726 0.050666824671094138 0 -0.18137637152518679 0.027785610824785281 0 -0.17132100645786619 0.043624327461865869 0 -0.1790963236885145 0.04085221124501448 0 -0.17132100645786619 0.043624327461865869 0 -0.1790963236885145 0.04085221124501448 0 -0.1729340160171195 0.048683363337194932 0 -0.17132100645786619 0.043624327461865869 0 -0.1790963236885145 0.04085221124501448 0 -0.1689003531558109 0.070475423662913178 0 -0.1729340160171195 0.048683363337194932 0 -0.1777757879377006 0.059462206061482878 0 -0.1790963236885145 0.04085221124501448 0 -0.179378101465726 0.050666824671094138 0 -0.1877062782195697 0.053669518040684622 0 -0.179378101465726 0.050666824671094138 0 -0.1777757879377006 0.059462206061482878 0 -0.1877062782195697 0.053669518040684622 0 -0.1729340160171195 0.048683363337194932 0 -0.179378101465726 0.050666824671094138 0 -0.1777757879377006 0.059462206061482878 0 -0.18403160084199621 0.069145699794123688 0 -0.1777757879377006 0.059462206061482878 0 -0.1877062782195697 0.053669518040684622 0 -0.18403160084199621 0.069145699794123688 0 -0.19560115456059951 0.059767079453101751 0 -0.1877062782195697 0.053669518040684622 0 -0.19560115456059951 0.059767079453101751 0 -0.20253307000806031 0.050607331024294572 0 -0.20813366917277171 0.065645768953304123 0 -0.19560115456059951 0.059767079453101751 0 -0.20253307000806031 0.050607331024294572 0 -0.1877062782195697 0.053669518040684622 0 -0.20253307000806031 0.050607331024294572 0 -0.19620881125769479 0.034751134865238932 0 -0.207879284057498 0.0390913026584533 0 -0.1790963236885145 0.04085221124501448 0 -0.19620881125769479 0.034751134865238932 0 -0.19385937705343789 0.02209110381404927 0 -0.1790963236885145 0.04085221124501448 0 -0.1877062782195697 0.053669518040684622 0 -0.19620881125769479 0.034751134865238932 0 -0.20253307000806031 0.050607331024294572 0 -0.1877062782195697 0.053669518040684622 0 -0.19620881125769479 0.034751134865238932 0 -0.1790963236885145 0.04085221124501448 0 -0.19620881125769479 0.034751134865238932 0 -0.20253307000806031 0.050607331024294572 0 -0.207879284057498 0.0390913026584533 0 -0.2187519129444376 0.049852264621849537 0 -0.19620881125769479 0.034751134865238932 0 -0.2133212988268752 0.028650058485463668 0 -0.19620881125769479 0.034751134865238932 0 -0.207879284057498 0.0390913026584533 0 -0.2133212988268752 0.028650058485463668 0 -0.207879284057498 0.0390913026584533 0 -0.21767463145275781 0.038002798379270251 0 -0.2133212988268752 0.028650058485463668 0 -0.207879284057498 0.0390913026584533 0 -0.21767463145275781 0.038002798379270251 0 -0.2187519129444376 0.049852264621849537 0 -0.2187519129444376 0.049852264621849537 0 -0.2164830028008175 0.064433338141805283 0 -0.20813366917277171 0.065645768953304123 0 -0.20253307000806031 0.050607331024294572 0 -0.2187519129444376 0.049852264621849537 0 -0.20813366917277171 0.065645768953304123 0 -0.2187519129444376 0.049852264621849537 0 -0.20813366917277171 0.065645768953304123 0 -0.19385937705343789 0.02209110381404927 0 -0.20691016890114819 0.0055059637443243548 0 -0.19082965241075781 0.0065390538441611546 0 -0.19385937705343789 0.02209110381404927 0 -0.20691016890114819 0.0055059637443243548 0 -0.19620881125769479 0.034751134865238932 0 -0.19385937705343789 0.02209110381404927 0 -0.2133212988268752 0.028650058485463668 0 -0.19082965241075781 0.0065390538441611546 0 -0.18918528300924409 0.020515865185375581 0 -0.19385937705343789 0.02209110381404927 0 -0.18137637152518679 0.027785610824785281 0 -0.18918528300924409 0.020515865185375581 0 -0.19385937705343789 0.02209110381404927 0 -0.18918528300924409 0.020515865185375581 0 -0.19385937705343789 0.02209110381404927 0 -0.19385937705343789 0.02209110381404927 0 -0.2133212988268752 0.028650058485463668 0 -0.21212132669004799 0.016604513807310432 0 -0.19385937705343789 0.02209110381404927 0 -0.2133212988268752 0.028650058485463668 0 -0.2133212988268752 0.028650058485463668 0 -0.21762173305196239 0.027116834425115411 0 -0.2241114398270079 0.02954614184406373 0 -0.2133212988268752 0.028650058485463668 0 -0.21762173305196239 0.027116834425115411 0 -0.2133212988268752 0.028650058485463668 0 -0.21762173305196239 0.027116834425115411 0 -0.2181572422588684 0.02182281358300912 0 -0.21212132669004799 0.016604513807310432 0 -0.2181572422588684 0.02182281358300912 0 -0.22148038045601789 0.01266289540310549 0 -0.2133212988268752 0.028650058485463668 0 -0.21212132669004799 0.016604513807310432 0 -0.2181572422588684 0.02182281358300912 0 -0.20691016890114819 0.0055059637443243548 0 -0.22778700167026009 0.001198131637768274 0 -0.22148038045601789 0.01266289540310549 0 -0.19385937705343789 0.02209110381404927 0 -0.21212132669004799 0.016604513807310432 0 -0.20691016890114819 0.0055059637443243548 0 -0.21212132669004799 0.016604513807310432 0 -0.20691016890114819 0.0055059637443243548 0 -0.22148038045601789 0.01266289540310549 0 -0.22778700167026009 0.001198131637768274 0 -0.23266514327702961 0.012827042423133751 0 -0.2397929814435005 0.001308928103204989 0 -0.22148038045601789 0.01266289540310549 0 -0.23266514327702961 0.012827042423133751 0 -0.2277506864245461 0.017434628193871 0 -0.22778700167026009 0.001198131637768274 0 -0.22148038045601789 0.01266289540310549 0 -0.23266514327702961 0.012827042423133751 0 -0.2133212988268752 0.028650058485463668 0 -0.2241114398270079 0.02954614184406373 0 -0.2293701567161037 0.034058760290395083 0 -0.23266514327702961 0.012827042423133751 0 -0.2311648148975837 0.02248161877147373 0 -0.23777103487729001 0.022258832643793108 0 -0.23266514327702961 0.012827042423133751 0 -0.2311648148975837 0.02248161877147373 0 -0.2277506864245461 0.017434628193871 0 -0.2311648148975837 0.02248161877147373 0 -0.2277506864245461 0.017434628193871 0 -0.22395377073599729 0.021119900957663921 0 -0.2311648148975837 0.02248161877147373 0 -0.22395377073599729 0.021119900957663921 0 -0.22558894518619571 0.0261095478416613 0 -0.2181572422588684 0.02182281358300912 0 -0.22148038045601789 0.01266289540310549 0 -0.22395377073599729 0.021119900957663921 0 -0.22148038045601789 0.01266289540310549 0 -0.2277506864245461 0.017434628193871 0 -0.22395377073599729 0.021119900957663921 0 -0.2181572422588684 0.02182281358300912 0 -0.22395377073599729 0.021119900957663921 0 -0.2218866262120063 0.025143047730302698 0 -0.22395377073599729 0.021119900957663921 0 -0.22558894518619571 0.0261095478416613 0 -0.2218866262120063 0.025143047730302698 0 -0.22558894518619571 0.0261095478416613 0 -0.2218866262120063 0.025143047730302698 0 -0.2241114398270079 0.02954614184406373 0 -0.21762173305196239 0.027116834425115411 0 -0.2181572422588684 0.02182281358300912 0 -0.2218866262120063 0.025143047730302698 0 -0.21762173305196239 0.027116834425115411 0 -0.2218866262120063 0.025143047730302698 0 -0.2241114398270079 0.02954614184406373 0 -0.2241114398270079 0.02954614184406373 0 -0.22815584741577061 0.031241319530890061 0 -0.2273990146516047 0.029232692959235949 0 -0.22558894518619571 0.0261095478416613 0 -0.2241114398270079 0.02954614184406373 0 -0.2273990146516047 0.029232692959235949 0 -0.22815584741577061 0.031241319530890061 0 -0.22934589726388971 0.02747258707764744 0 -0.23203699997342739 0.028991483885999959 0 -0.22558894518619571 0.0261095478416613 0 -0.22934589726388971 0.02747258707764744 0 -0.2273990146516047 0.029232692959235949 0 -0.22815584741577061 0.031241319530890061 0 -0.22934589726388971 0.02747258707764744 0 -0.2273990146516047 0.029232692959235949 0 -0.2311648148975837 0.02248161877147373 0 -0.22558894518619571 0.0261095478416613 0 -0.22934589726388971 0.02747258707764744 0 -0.2311648148975837 0.02248161877147373 0 -0.23384600912387521 0.025765089359009469 0 -0.23777103487729001 0.022258832643793108 0 -0.2311648148975837 0.02248161877147373 0 -0.22934589726388971 0.02747258707764744 0 -0.23384600912387521 0.025765089359009469 0 -0.23384600912387521 0.025765089359009469 0 -0.23203699997342739 0.028991483885999959 0 -0.23685912679057899 0.028445276186014029 0 -0.22934589726388971 0.02747258707764744 0 -0.23384600912387521 0.025765089359009469 0 -0.23203699997342739 0.028991483885999959 0 -0.23203699997342739 0.028991483885999959 0 -0.23685912679057899 0.028445276186014029 0 -0.2293701567161037 0.034058760290395083 0 -0.23685912679057899 0.028445276186014029 0 -0.24423794675907409 0.023878014316545071 0 -0.24091856854741289 0.032026589066089302 0 -0.23384600912387521 0.025765089359009469 0 -0.23685912679057899 0.028445276186014029 0 -0.23777103487729001 0.022258832643793108 0 -0.23685912679057899 0.028445276186014029 0 -0.24423794675907409 0.023878014316545071 0 -0.23777103487729001 0.022258832643793108 0 -0.25230682830346818 0.02955531694840258 0 -0.24423794675907409 0.023878014316545071 0 -0.24091856854741289 0.032026589066089302 0 -0.25276540064208891 0.019357371674601519 0 -0.25230682830346818 0.02955531694840258 0 -0.24423794675907409 0.023878014316545071 0 -0.25276540064208891 0.019357371674601519 0 -0.24423794675907409 0.023878014316545071 0 -0.2430634153231698 0.014465403485521911 0 -0.23266514327702961 0.012827042423133751 0 -0.23777103487729001 0.022258832643793108 0 -0.2430634153231698 0.014465403485521911 0 -0.24423794675907409 0.023878014316545071 0 -0.23777103487729001 0.022258832643793108 0 -0.2430634153231698 0.014465403485521911 0 -0.23266514327702961 0.012827042423133751 0 -0.2430634153231698 0.014465403485521911 0 -0.2397929814435005 0.001308928103204989 0 -0.25229657263007749 0.0082721924600334829 0 -0.2430634153231698 0.014465403485521911 0 -0.2397929814435005 0.001308928103204989 0 -0.25229657263007749 0.0082721924600334829 0 -0.25276540064208891 0.019357371674601519 0 -0.2430634153231698 0.014465403485521911 0 -0.25537996419202591 -0.0033143468573220759 0 -0.25229657263007749 0.0082721924600334829 0 -0.2397929814435005 0.001308928103204989 0 -0.23258251214416889 0.04768464777117 0 -0.2263814080716772 0.061286176239582053 0 -0.23846724699435731 0.060387164560292347 0 -0.2187519129444376 0.049852264621849537 0 -0.2263814080716772 0.061286176239582053 0 -0.2164830028008175 0.064433338141805283 0 -0.2187519129444376 0.049852264621849537 0 -0.23258251214416889 0.04768464777117 0 -0.2263814080716772 0.061286176239582053 0 -0.2133212988268752 0.028650058485463668 0 -0.2293701567161037 0.034058760290395083 0 -0.2187519129444376 0.049852264621849537 0 -0.23258251214416889 0.04768464777117 0 -0.2293701567161037 0.034058760290395083 0 -0.2187519129444376 0.049852264621849537 0 -0.2293701567161037 0.034058760290395083 0 -0.21767463145275781 0.038002798379270251 0 -0.2133212988268752 0.028650058485463668 0 -0.2293701567161037 0.034058760290395083 0 -0.21767463145275781 0.038002798379270251 0 -0.2187519129444376 0.049852264621849537 0 -0.2293701567161037 0.034058760290395083 0 -0.2241114398270079 0.02954614184406373 0 -0.22815584741577061 0.031241319530890061 0 -0.2293701567161037 0.034058760290395083 0 -0.22815584741577061 0.031241319530890061 0 -0.23203699997342739 0.028991483885999959 0 -0.2293701567161037 0.034058760290395083 0 -0.2293701567161037 0.034058760290395083 0 -0.2490183198394047 0.040680481043489383 0 -0.23258251214416889 0.04768464777117 0 -0.2293701567161037 0.034058760290395083 0 -0.2490183198394047 0.040680481043489383 0 -0.23258251214416889 0.04768464777117 0 -0.2490183198394047 0.040680481043489383 0 -0.24327110928765119 0.050887892936206387 0 -0.2293701567161037 0.034058760290395083 0 -0.24091856854741289 0.032026589066089302 0 -0.2490183198394047 0.040680481043489383 0 -0.23685912679057899 0.028445276186014029 0 -0.2293701567161037 0.034058760290395083 0 -0.24091856854741289 0.032026589066089302 0 -0.25230682830346818 0.02955531694840258 0 -0.24091856854741289 0.032026589066089302 0 -0.2490183198394047 0.040680481043489383 0 -0.25301635817267382 0.054799278369873833 0 -0.2490183198394047 0.040680481043489383 0 -0.24327110928765119 0.050887892936206387 0 -0.23258251214416889 0.04768464777117 0 -0.24327110928765119 0.050887892936206387 0 -0.23846724699435731 0.060387164560292347 0 -0.25301635817267382 0.054799278369873833 0 -0.24327110928765119 0.050887892936206387 0 -0.23846724699435731 0.060387164560292347 0 -0.25301635817267382 0.054799278369873833 0 -0.23846724699435731 0.060387164560292347 0 -0.24938781436518601 0.068753797982909676 0 -0.23846724699435731 0.060387164560292347 0 -0.24938781436518601 0.068753797982909676 0 -0.23031878060113189 0.074294411793819903 0 -0.24938781436518601 0.068753797982909676 0 -0.24071790972302759 0.086624926504796029 0 -0.23031878060113189 0.074294411793819903 0 -0.25133872639838267 0.099597610871731482 0 -0.25429264043260819 0.080886583836923695 0 -0.24071790972302759 0.086624926504796029 0 -0.25429264043260819 0.080886583836923695 0 -0.24938781436518601 0.068753797982909676 0 -0.24071790972302759 0.086624926504796029 0 -0.2232412586625778 0.093298372967312151 0 -0.23031878060113189 0.074294411793819903 0 -0.2152796026101175 0.081318001150840202 0 -0.24071790972302759 0.086624926504796029 0 -0.2232412586625778 0.093298372967312151 0 -0.23031878060113189 0.074294411793819903 0 -0.2263814080716772 0.061286176239582053 0 -0.23846724699435731 0.060387164560292347 0 -0.23031878060113189 0.074294411793819903 0 -0.23031878060113189 0.074294411793819903 0 -0.2200030758404341 0.070901803410892875 0 -0.2152796026101175 0.081318001150840202 0 -0.2263814080716772 0.061286176239582053 0 -0.23031878060113189 0.074294411793819903 0 -0.2200030758404341 0.070901803410892875 0 -0.2263814080716772 0.061286176239582053 0 -0.2200030758404341 0.070901803410892875 0 -0.2164830028008175 0.064433338141805283 0 -0.2164830028008175 0.064433338141805283 0 -0.20813366917277171 0.065645768953304123 0 -0.2200030758404341 0.070901803410892875 0 -0.2164830028008175 0.064433338141805283 0 -0.21155258511842631 0.073177089728416952 0 -0.2164830028008175 0.064433338141805283 0 -0.20813366917277171 0.065645768953304123 0 -0.21155258511842631 0.073177089728416952 0 -0.20813366917277171 0.065645768953304123 0 -0.21155258511842631 0.073177089728416952 0 -0.19618165806327489 0.083423109847579932 0 -0.2200030758404341 0.070901803410892875 0 -0.21155258511842631 0.073177089728416952 0 -0.2152796026101175 0.081318001150840202 0 -0.21155258511842631 0.073177089728416952 0 -0.2152796026101175 0.081318001150840202 0 -0.19618165806327489 0.083423109847579932 0 -0.2152796026101175 0.081318001150840202 0 -0.19618165806327489 0.083423109847579932 0 -0.20726918332829289 0.09578108786312807 0 -0.2232412586625778 0.093298372967312151 0 -0.2152796026101175 0.081318001150840202 0 -0.20726918332829289 0.09578108786312807 0 -0.18422964695377811 0.1012004507418558 0 -0.19618165806327489 0.083423109847579932 0 -0.1831997386797648 0.089107293361269171 0 -0.18422964695377811 0.1012004507418558 0 -0.19618165806327489 0.083423109847579932 0 -0.19618165806327489 0.083423109847579932 0 -0.19225797743731049 0.098209041556173438 0 -0.20726918332829289 0.09578108786312807 0 -0.20813366917277171 0.065645768953304123 0 -0.19618165806327489 0.083423109847579932 0 -0.18403160084199621 0.069145699794123688 0 -0.19560115456059951 0.059767079453101751 0 -0.20813366917277171 0.065645768953304123 0 -0.18403160084199621 0.069145699794123688 0 -0.20813366917277171 0.065645768953304123 0 -0.19618165806327489 0.083423109847579932 0 -0.18403160084199621 0.069145699794123688 0 -0.20813366917277171 0.065645768953304123 0 -0.1993692752212487 0.1224458584550098 0 -0.1892732801653953 0.1153091945389728 0 -0.19220600597646201 0.13131519097441319 0 -0.1993692752212487 0.1224458584550098 0 -0.1892732801653953 0.1153091945389728 0 -0.20412555420645739 0.11333312689964389 0 -0.1892732801653953 0.1153091945389728 0 -0.1908797391852789 0.1067790351180196 0 -0.20412555420645739 0.11333312689964389 0 -0.18422964695377811 0.1012004507418558 0 -0.19618165806327489 0.083423109847579932 0 -0.19225797743731049 0.098209041556173438 0 -0.18422964695377811 0.1012004507418558 0 -0.1892732801653953 0.1153091945389728 0 -0.1908797391852789 0.1067790351180196 0 -0.19225797743731049 0.098209041556173438 0 -0.20726918332829289 0.09578108786312807 0 -0.20412555420645739 0.11333312689964389 0 -0.18422964695377811 0.1012004507418558 0 -0.1908797391852789 0.1067790351180196 0 -0.19225797743731049 0.098209041556173438 0 -0.1908797391852789 0.1067790351180196 0 -0.19225797743731049 0.098209041556173438 0 -0.20412555420645739 0.11333312689964389 0 -0.19225797743731049 0.098209041556173438 0 -0.20412555420645739 0.11333312689964389 0 -0.21434296357409729 0.1033401852913147 0 -0.20726918332829289 0.09578108786312807 0 -0.20412555420645739 0.11333312689964389 0 -0.2232412586625778 0.093298372967312151 0 -0.21434296357409729 0.1033401852913147 0 -0.20726918332829289 0.09578108786312807 0 -0.21434296357409729 0.1033401852913147 0 -0.20412555420645739 0.11333312689964389 0 -0.22273585809906121 0.11094815343517481 0 -0.20412555420645739 0.11333312689964389 0 -0.2068567760899393 0.12948868437410341 0 -0.21599313097560449 0.1284572122431141 0 -0.1993692752212487 0.1224458584550098 0 -0.20412555420645739 0.11333312689964389 0 -0.2068567760899393 0.12948868437410341 0 -0.20412555420645739 0.11333312689964389 0 -0.22273585809906121 0.11094815343517481 0 -0.21599313097560449 0.1284572122431141 0 -0.20412555420645739 0.11333312689964389 0 -0.21599313097560449 0.1284572122431141 0 -0.22273585809906121 0.11094815343517481 0 -0.2371004406623646 0.12607424858041349 0 -0.21599313097560449 0.1284572122431141 0 -0.22273585809906121 0.11094815343517481 0 -0.23561405001191801 0.1134539734390493 0 -0.2371004406623646 0.12607424858041349 0 -0.2232412586625778 0.093298372967312151 0 -0.22273585809906121 0.11094815343517481 0 -0.23603564386386641 0.1031204432366436 0 -0.2232412586625778 0.093298372967312151 0 -0.21434296357409729 0.1033401852913147 0 -0.22273585809906121 0.11094815343517481 0 -0.24071790972302759 0.086624926504796029 0 -0.2232412586625778 0.093298372967312151 0 -0.23603564386386641 0.1031204432366436 0 -0.22273585809906121 0.11094815343517481 0 -0.23603564386386641 0.1031204432366436 0 -0.23561405001191801 0.1134539734390493 0 -0.25133872639838267 0.099597610871731482 0 -0.24071790972302759 0.086624926504796029 0 -0.23603564386386641 0.1031204432366436 0 -0.25133872639838267 0.099597610871731482 0 -0.23603564386386641 0.1031204432366436 0 -0.2465842574223798 0.1136730485039653 0 -0.25820775034912491 0.1236912849177154 0 -0.2371004406623646 0.12607424858041349 0 -0.25820775034912491 0.1236912849177154 0 -0.2465842574223798 0.1136730485039653 0 -0.2371004406623646 0.12607424858041349 0 -0.23561405001191801 0.1134539734390493 0 -0.2465842574223798 0.1136730485039653 0 -0.2371004406623646 0.12607424858041349 0 -0.23603564386386641 0.1031204432366436 0 -0.23561405001191801 0.1134539734390493 0 -0.2465842574223798 0.1136730485039653 0 -0.24277999027016781 0.1333122883800992 0 -0.2371004406623646 0.12607424858041349 0 -0.2273522301912087 0.1429332918424801 0 -0.25820775034912491 0.1236912849177154 0 -0.24277999027016781 0.1333122883800992 0 -0.2371004406623646 0.12607424858041349 0 -0.24277999027016781 0.1333122883800992 0 -0.2273522301912087 0.1429332918424801 0 -0.2371004406623646 0.12607424858041349 0 -0.2273522301912087 0.1429332918424801 0 -0.21599313097560449 0.1284572122431141 0 -0.2371004406623646 0.12607424858041349 0 -0.21599313097560449 0.1284572122431141 0 -0.2273522301912087 0.1429332918424801 0 -0.21599313097560449 0.1284572122431141 0 -0.2273522301912087 0.1429332918424801 0 -0.22360661457181741 0.1608829327371086 0 -0.20554090465477151 0.1565351911092088 0 -0.2273522301912087 0.1429332918424801 0 -0.24203788772944701 0.16164875012463961 0 -0.22360661457181741 0.1608829327371086 0 -0.24277999027016781 0.1333122883800992 0 -0.2273522301912087 0.1429332918424801 0 -0.24203788772944701 0.16164875012463961 0 -0.2273522301912087 0.1429332918424801 0 -0.24203788772944701 0.16164875012463961 0 -0.25728405863933229 0.1475662721264398 0 -0.24277999027016781 0.1333122883800992 0 -0.24203788772944701 0.16164875012463961 0 -0.25672354526768532 0.18036420840679929 0 -0.24203788772944701 0.16164875012463961 0 -0.25672354526768532 0.18036420840679929 0 -0.24203788772944701 0.16164875012463961 0 -0.2386003623005804 0.1909511444375297 0 -0.24203788772944701 0.16164875012463961 0 -0.22889670975919399 0.1740661169200596 0 -0.2386003623005804 0.1909511444375297 0 -0.22889670975919399 0.1740661169200596 0 -0.22308819977325281 0.18659374417030769 0 -0.2386003623005804 0.1909511444375297 0 -0.22889670975919399 0.1740661169200596 0 -0.22308819977325281 0.18659374417030769 0 -0.21676347570285129 0.17503773195291211 0 -0.24203788772944701 0.16164875012463961 0 -0.22889670975919399 0.1740661169200596 0 -0.22360661457181741 0.1608829327371086 0 -0.22889670975919399 0.1740661169200596 0 -0.22360661457181741 0.1608829327371086 0 -0.21676347570285129 0.17503773195291211 0 -0.22360661457181741 0.1608829327371086 0 -0.2126264727193127 0.16302971440450481 0 -0.20554090465477151 0.1565351911092088 0 -0.2126264727193127 0.16302971440450481 0 -0.20554090465477151 0.1565351911092088 0 -0.1913619921142618 0.1789926325341126 0 -0.22360661457181741 0.1608829327371086 0 -0.2126264727193127 0.16302971440450481 0 -0.21676347570285129 0.17503773195291211 0 -0.2126264727193127 0.16302971440450481 0 -0.20608509573396039 0.17854758961063871 0 -0.1913619921142618 0.1789926325341126 0 -0.22308819977325281 0.18659374417030769 0 -0.21676347570285129 0.17503773195291211 0 -0.2103796186657253 0.1853612412272814 0 -0.21676347570285129 0.17503773195291211 0 -0.20608509573396039 0.17854758961063871 0 -0.2103796186657253 0.1853612412272814 0 -0.2126264727193127 0.16302971440450481 0 -0.21676347570285129 0.17503773195291211 0 -0.20608509573396039 0.17854758961063871 0 -0.20608509573396039 0.17854758961063871 0 -0.2103796186657253 0.1853612412272814 0 -0.1992939194676506 0.1903166279343825 0 -0.20608509573396039 0.17854758961063871 0 -0.1913619921142618 0.1789926325341126 0 -0.1992939194676506 0.1903166279343825 0 -0.20554090465477151 0.1565351911092088 0 -0.19014692523711449 0.15613890059016411 0 -0.18372957911833329 0.17013709037593591 0 -0.20554090465477151 0.1565351911092088 0 -0.18372957911833329 0.17013709037593591 0 -0.2126264727193127 0.16302971440450481 0 -0.1913619921142618 0.1789926325341126 0 -0.20554090465477151 0.1565351911092088 0 -0.1913619921142618 0.1789926325341126 0 -0.18372957911833329 0.17013709037593591 0 -0.19014692523711449 0.15613890059016411 0 -0.19773894950748941 0.15080179019399759 0 -0.18612008828178939 0.14340805299568099 0 -0.20554090465477151 0.1565351911092088 0 -0.19014692523711449 0.15613890059016411 0 -0.19773894950748941 0.15080179019399759 0 -0.20554090465477151 0.1565351911092088 0 -0.19773894950748941 0.15080179019399759 0 -0.20387002238405871 0.14791341403863709 0 -0.19773894950748941 0.15080179019399759 0 -0.19934540910989601 0.1426785033902449 0 -0.20387002238405871 0.14791341403863709 0 -0.19773894950748941 0.15080179019399759 0 -0.19934540910989601 0.1426785033902449 0 -0.18612008828178939 0.14340805299568099 0 -0.19934540910989601 0.1426785033902449 0 -0.19220600597646201 0.13131519097441319 0 -0.18612008828178939 0.14340805299568099 0 -0.1993692752212487 0.1224458584550098 0 -0.1997588673404139 0.13418025613179391 0 -0.2068567760899393 0.12948868437410341 0 -0.1993692752212487 0.1224458584550098 0 -0.19220600597646201 0.13131519097441319 0 -0.1997588673404139 0.13418025613179391 0 -0.19934540910989601 0.1426785033902449 0 -0.19220600597646201 0.13131519097441319 0 -0.1997588673404139 0.13418025613179391 0 -0.19934540910989601 0.1426785033902449 0 -0.1997588673404139 0.13418025613179391 0 -0.21285482626407809 0.14163817146109711 0 -0.1997588673404139 0.13418025613179391 0 -0.2068567760899393 0.12948868437410341 0 -0.21285482626407809 0.14163817146109711 0 -0.2068567760899393 0.12948868437410341 0 -0.21599313097560449 0.1284572122431141 0 -0.2068567760899393 0.12948868437410341 0 -0.21599313097560449 0.1284572122431141 0 -0.21285482626407809 0.14163817146109711 0 -0.2273522301912087 0.1429332918424801 0 -0.21599313097560449 0.1284572122431141 0 -0.21285482626407809 0.14163817146109711 0 -0.2273522301912087 0.1429332918424801 0 -0.20554090465477151 0.1565351911092088 0 -0.2273522301912087 0.1429332918424801 0 -0.20554090465477151 0.1565351911092088 0 -0.21285482626407809 0.14163817146109711 0 -0.20554090465477151 0.1565351911092088 0 -0.21285482626407809 0.14163817146109711 0 -0.20387002238405871 0.14791341403863709 0 -0.19934540910989601 0.1426785033902449 0 -0.21285482626407809 0.14163817146109711 0 -0.20387002238405871 0.14791341403863709 0 -0.25506580223295128 0.2411487079232523 0 -0.22878806516315511 0.2685138469506857 0 -0.2266261490060209 0.23718233066332961 0 -0.25506580223295128 0.2411487079232523 0 -0.2266261490060209 0.23718233066332961 0 -0.25506580223295128 0.2411487079232523 0 -0.2266261490060209 0.23718233066332961 0 -0.2468004677473643 0.2170241222054746 0 -0.2266261490060209 0.23718233066332961 0 -0.22949466004058791 0.21162706524888131 0 -0.2468004677473643 0.2170241222054746 0 -0.2266261490060209 0.23718233066332961 0 -0.22949466004058791 0.21162706524888131 0 -0.21213350641915921 0.21356770154732929 0 -0.22949466004058791 0.21162706524888131 0 -0.22331281472981479 0.19941002739074351 0 -0.21213350641915921 0.21356770154732929 0 -0.22949466004058791 0.21162706524888131 0 -0.2468004677473643 0.2170241222054746 0 -0.2386003623005804 0.1909511444375297 0 -0.25748109765676452 0.1974555209482948 0 -0.2468004677473643 0.2170241222054746 0 -0.2386003623005804 0.1909511444375297 0 -0.22308819977325281 0.18659374417030769 0 -0.2386003623005804 0.1909511444375297 0 -0.22331281472981479 0.19941002739074351 0 -0.22949466004058791 0.21162706524888131 0 -0.2386003623005804 0.1909511444375297 0 -0.22331281472981479 0.19941002739074351 0 -0.22308819977325281 0.18659374417030769 0 -0.22331281472981479 0.19941002739074351 0 -0.2108581259532305 0.196433072052736 0 -0.22331281472981479 0.19941002739074351 0 -0.2108581259532305 0.196433072052736 0 -0.21213350641915921 0.21356770154732929 0 -0.22308819977325281 0.18659374417030769 0 -0.2103796186657253 0.1853612412272814 0 -0.2108581259532305 0.196433072052736 0 -0.2103796186657253 0.1853612412272814 0 -0.2108581259532305 0.196433072052736 0 -0.1992939194676506 0.1903166279343825 0 -0.1992939194676506 0.1903166279343825 0 -0.1967230449097693 0.20663769063286269 0 -0.18724598743461859 0.19531615205254291 0 -0.1967230449097693 0.20663769063286269 0 -0.17875346917220061 0.20567825849763621 0 -0.18724598743461859 0.19531615205254291 0 -0.2108581259532305 0.196433072052736 0 -0.1992939194676506 0.1903166279343825 0 -0.1967230449097693 0.20663769063286269 0 -0.1913619921142618 0.1789926325341126 0 -0.1992939194676506 0.1903166279343825 0 -0.18724598743461859 0.19531615205254291 0 -0.1967230449097693 0.20663769063286269 0 -0.19993589619397911 0.22910899884796551 0 -0.1848750582098124 0.21746278525882101 0 -0.1967230449097693 0.20663769063286269 0 -0.21213350641915921 0.21356770154732929 0 -0.19993589619397911 0.22910899884796551 0 -0.2108581259532305 0.196433072052736 0 -0.1967230449097693 0.20663769063286269 0 -0.21213350641915921 0.21356770154732929 0 -0.2266261490060209 0.23718233066332961 0 -0.21213350641915921 0.21356770154732929 0 -0.19993589619397911 0.22910899884796551 0 -0.19993589619397911 0.22910899884796551 0 -0.17793159131783359 0.23200491972590259 0 -0.1848750582098124 0.21746278525882101 0 -0.19993589619397911 0.22910899884796551 0 -0.1889614215909477 0.24853840731164881 0 -0.17793159131783359 0.23200491972590259 0 -0.19993589619397911 0.22910899884796551 0 -0.1889614215909477 0.24853840731164881 0 -0.2095201173771308 0.2492192741355776 0 -0.2266261490060209 0.23718233066332961 0 -0.19993589619397911 0.22910899884796551 0 -0.2095201173771308 0.2492192741355776 0 -0.16334453339397681 0.24964550431787491 0 -0.17793159131783359 0.23200491972590259 0 -0.15683144258976339 0.232164263883782 0 -0.1889614215909477 0.24853840731164881 0 -0.16334453339397681 0.24964550431787491 0 -0.17793159131783359 0.23200491972590259 0 -0.17793159131783359 0.23200491972590259 0 -0.1678176945900057 0.21406341804545731 0 -0.1848750582098124 0.21746278525882101 0 -0.17793159131783359 0.23200491972590259 0 -0.15683144258976339 0.232164263883782 0 -0.1678176945900057 0.21406341804545731 0 -0.15683144258976339 0.232164263883782 0 -0.1678176945900057 0.21406341804545731 0 -0.14883303090415989 0.21091846879332821 0 -0.1678176945900057 0.21406341804545731 0 -0.17009751150921079 0.19495555066372039 0 -0.14883303090415989 0.21091846879332821 0 -0.1967230449097693 0.20663769063286269 0 -0.17875346917220061 0.20567825849763621 0 -0.1848750582098124 0.21746278525882101 0 -0.1678176945900057 0.21406341804545731 0 -0.17875346917220061 0.20567825849763621 0 -0.1848750582098124 0.21746278525882101 0 -0.1678176945900057 0.21406341804545731 0 -0.17875346917220061 0.20567825849763621 0 -0.17009751150921079 0.19495555066372039 0 -0.17875346917220061 0.20567825849763621 0 -0.18724598743461859 0.19531615205254291 0 -0.17009751150921079 0.19495555066372039 0 -0.1913619921142618 0.1789926325341126 0 -0.18724598743461859 0.19531615205254291 0 -0.17009751150921079 0.19495555066372039 0 -0.17009751150921079 0.19495555066372039 0 -0.15523893101018069 0.1967384745022755 0 -0.14883303090415989 0.21091846879332821 0 -0.17009751150921079 0.19495555066372039 0 -0.14883303090415989 0.21091846879332821 0 -0.17009751150921079 0.19495555066372039 0 -0.15523893101018069 0.1967384745022755 0 -0.16191825358189499 0.18373898964266311 0 -0.1401069280454568 0.19734088890939019 0 -0.16191825358189499 0.18373898964266311 0 -0.1401069280454568 0.19734088890939019 0 -0.16191825358189499 0.18373898964266311 0 -0.1471921085790189 0.1823677290377482 0 -0.15523893101018069 0.1967384745022755 0 -0.1401069280454568 0.19734088890939019 0 -0.16191825358189499 0.18373898964266311 0 -0.15523893101018069 0.1967384745022755 0 -0.1401069280454568 0.19734088890939019 0 -0.14883303090415989 0.21091846879332821 0 -0.1401069280454568 0.19734088890939019 0 -0.1471921085790189 0.1823677290377482 0 -0.13497535261431151 0.18475955556681181 0 -0.1401069280454568 0.19734088890939019 0 -0.1182956025090177 0.21094278817611581 0 -0.1232305665896709 0.19135488313375221 0 -0.1401069280454568 0.19734088890939019 0 -0.13497535261431151 0.18475955556681181 0 -0.1232305665896709 0.19135488313375221 0 -0.13356448223136139 0.21113847507904329 0 -0.12756855029910899 0.22688138692293611 0 -0.1182956025090177 0.21094278817611581 0 -0.1401069280454568 0.19734088890939019 0 -0.1182956025090177 0.21094278817611581 0 -0.13356448223136139 0.21113847507904329 0 -0.14883303090415989 0.21091846879332821 0 -0.12756855029910899 0.22688138692293611 0 -0.1401069280454568 0.19734088890939019 0 -0.13356448223136139 0.21113847507904329 0 -0.1182956025090177 0.21094278817611581 0 -0.1401069280454568 0.19734088890939019 0 -0.13356448223136139 0.21113847507904329 0 -0.14883303090415989 0.21091846879332821 0 -0.15683144258976339 0.232164263883782 0 -0.14883303090415989 0.21091846879332821 0 -0.14283952314335821 0.22874758550535079 0 -0.14883303090415989 0.21091846879332821 0 -0.12756855029910899 0.22688138692293611 0 -0.14883303090415989 0.21091846879332821 0 -0.14283952314335821 0.22874758550535079 0 -0.12756855029910899 0.22688138692293611 0 -0.14283952314335821 0.22874758550535079 0 -0.12756855029910899 0.22688138692293611 0 -0.13812506878039979 0.24502622242135749 0 -0.12756855029910899 0.22688138692293611 0 -0.13812506878039979 0.24502622242135749 0 -0.12756855029910899 0.22688138692293611 0 -0.13812506878039979 0.24502622242135749 0 -0.12460886415576621 0.23840672336615451 0 -0.13812506878039979 0.24502622242135749 0 -0.1222394844647914 0.24910471079974431 0 -0.12460886415576621 0.23840672336615451 0 -0.15683144258976339 0.232164263883782 0 -0.14283952314335821 0.22874758550535079 0 -0.13812506878039979 0.24502622242135749 0 -0.16334453339397681 0.24964550431787491 0 -0.15683144258976339 0.232164263883782 0 -0.13812506878039979 0.24502622242135749 0 -0.17533207119336339 0.1540093093632314 0 -0.16712289737125999 0.16456723843089521 0 -0.15557747197953359 0.14847168223728929 0 -0.16928959433972349 0.1376361882349518 0 -0.17533207119336339 0.1540093093632314 0 -0.15557747197953359 0.14847168223728929 0 -0.17227763584428141 0.1189777916361318 0 -0.16928959433972349 0.1376361882349518 0 -0.1493976711257016 0.12641162965511921 0 -0.16928959433972349 0.1376361882349518 0 -0.15557747197953359 0.14847168223728929 0 -0.1493976711257016 0.12641162965511921 0 -0.17227763584428141 0.1189777916361318 0 -0.16928959433972349 0.1376361882349518 0 -0.18001056856736669 0.12972871477387871 0 -0.16928959433972349 0.1376361882349518 0 -0.18001056856736669 0.12972871477387871 0 -0.18612008828178939 0.14340805299568099 0 -0.1892732801653953 0.1153091945389728 0 -0.19220600597646201 0.13131519097441319 0 -0.18001056856736669 0.12972871477387871 0 -0.19220600597646201 0.13131519097441319 0 -0.18001056856736669 0.12972871477387871 0 -0.18612008828178939 0.14340805299568099 0 -0.16928959433972349 0.1376361882349518 0 -0.18612008828178939 0.14340805299568099 0 -0.17533207119336339 0.1540093093632314 0 -0.19014692523711449 0.15613890059016411 0 -0.18612008828178939 0.14340805299568099 0 -0.17533207119336339 0.1540093093632314 0 -0.19014692523711449 0.15613890059016411 0 -0.17533207119336339 0.1540093093632314 0 -0.17989107517639111 0.16110468703480441 0 -0.17989107517639111 0.16110468703480441 0 -0.18372957911833329 0.17013709037593591 0 -0.16712289737125999 0.16456723843089521 0 -0.19014692523711449 0.15613890059016411 0 -0.17989107517639111 0.16110468703480441 0 -0.18372957911833329 0.17013709037593591 0 -0.17533207119336339 0.1540093093632314 0 -0.17989107517639111 0.16110468703480441 0 -0.16712289737125999 0.16456723843089521 0 -0.18372957911833329 0.17013709037593591 0 -0.16191825358189499 0.18373898964266311 0 -0.1913619921142618 0.1789926325341126 0 -0.17009751150921079 0.19495555066372039 0 -0.18372957911833329 0.17013709037593591 0 -0.17601279298496461 0.1820515631294424 0 -0.16191825358189499 0.18373898964266311 0 -0.1913619921142618 0.1789926325341126 0 -0.17009751150921079 0.19495555066372039 0 -0.17601279298496461 0.1820515631294424 0 -0.1913619921142618 0.1789926325341126 0 -0.18372957911833329 0.17013709037593591 0 -0.17601279298496461 0.1820515631294424 0 -0.16191825358189499 0.18373898964266311 0 -0.16712289737125999 0.16456723843089521 0 -0.15452428370892191 0.1728591506621836 0 -0.18372957911833329 0.17013709037593591 0 -0.16191825358189499 0.18373898964266311 0 -0.16712289737125999 0.16456723843089521 0 -0.17009751150921079 0.19495555066372039 0 -0.17601279298496461 0.1820515631294424 0 -0.16191825358189499 0.18373898964266311 0 -0.16712289737125999 0.16456723843089521 0 -0.1516613886293687 0.16198787634327319 0 -0.15557747197953359 0.14847168223728929 0 -0.16712289737125999 0.16456723843089521 0 -0.1516613886293687 0.16198787634327319 0 -0.15452428370892191 0.1728591506621836 0 -0.1516613886293687 0.16198787634327319 0 -0.14221186206667871 0.1720858131313184 0 -0.13384061138767339 0.15285928380463959 0 -0.1516613886293687 0.16198787634327319 0 -0.15452428370892191 0.1728591506621836 0 -0.14221186206667871 0.1720858131313184 0 -0.16191825358189499 0.18373898964266311 0 -0.15452428370892191 0.1728591506621836 0 -0.1471921085790189 0.1823677290377482 0 -0.15452428370892191 0.1728591506621836 0 -0.14221186206667871 0.1720858131313184 0 -0.1471921085790189 0.1823677290377482 0 -0.14221186206667871 0.1720858131313184 0 -0.1471921085790189 0.1823677290377482 0 -0.13497535261431151 0.18475955556681181 0 -0.14221186206667871 0.1720858131313184 0 -0.13497535261431151 0.18475955556681181 0 -0.12620640114624179 0.17481171848623989 0 -0.13497535261431151 0.18475955556681181 0 -0.12620640114624179 0.17481171848623989 0 -0.1232305665896709 0.19135488313375221 0 -0.14221186206667871 0.1720858131313184 0 -0.12620640114624179 0.17481171848623989 0 -0.13384061138767339 0.15285928380463959 0 -0.12620640114624179 0.17481171848623989 0 -0.13384061138767339 0.15285928380463959 0 -0.1210899227503185 0.16154960773464269 0 -0.1516613886293687 0.16198787634327319 0 -0.13384061138767339 0.15285928380463959 0 -0.15557747197953359 0.14847168223728929 0 -0.13384061138767339 0.15285928380463959 0 -0.15557747197953359 0.14847168223728929 0 -0.14330729280698551 0.14042857911042961 0 -0.15557747197953359 0.14847168223728929 0 -0.1493976711257016 0.12641162965511921 0 -0.14330729280698551 0.14042857911042961 0 -0.1493976711257016 0.12641162965511921 0 -0.14330729280698551 0.14042857911042961 0 -0.12421186667326629 0.12701614479988779 0 -0.13384061138767339 0.15285928380463959 0 -0.14330729280698551 0.14042857911042961 0 -0.12421186667326629 0.12701614479988779 0 -0.12421186667326629 0.12701614479988779 0 -0.099111108217919353 0.13324881416006179 0 -0.11124411524967991 0.14962948917731669 0 -0.12421186667326629 0.12701614479988779 0 -0.11124411524967991 0.14962948917731669 0 -0.12421186667326629 0.12701614479988779 0 -0.099111108217919353 0.13324881416006179 0 -0.10023674445333861 0.1155361956819236 0 -0.11124411524967991 0.14962948917731669 0 -0.089978278137391704 0.1579028492531786 0 -0.091701373076472165 0.14481716264799921 0 -0.099111108217919353 0.13324881416006179 0 -0.11124411524967991 0.14962948917731669 0 -0.091701373076472165 0.14481716264799921 0 -0.13384061138767339 0.15285928380463959 0 -0.12421186667326629 0.12701614479988779 0 -0.11124411524967991 0.14962948917731669 0 -0.13384061138767339 0.15285928380463959 0 -0.11124411524967991 0.14962948917731669 0 -0.1210899227503185 0.16154960773464269 0 -0.11124411524967991 0.14962948917731669 0 -0.1210899227503185 0.16154960773464269 0 -0.1122481878976704 0.16943639698454849 0 -0.12620640114624179 0.17481171848623989 0 -0.1210899227503185 0.16154960773464269 0 -0.1122481878976704 0.16943639698454849 0 -0.12620640114624179 0.17481171848623989 0 -0.1114335670784647 0.18330459381191211 0 -0.1232305665896709 0.19135488313375221 0 -0.1122481878976704 0.16943639698454849 0 -0.1114335670784647 0.18330459381191211 0 -0.10556216789682819 0.17624475895690189 0 -0.12620640114624179 0.17481171848623989 0 -0.1122481878976704 0.16943639698454849 0 -0.1114335670784647 0.18330459381191211 0 -0.098276363826093574 0.17224283355474551 0 -0.1002905527850841 0.17999521147640171 0 -0.085308612402507214 0.1948561779321743 0 -0.1114335670784647 0.18330459381191211 0 -0.10556216789682819 0.17624475895690189 0 -0.1002905527850841 0.17999521147640171 0 -0.1114335670784647 0.18330459381191211 0 -0.1002905527850841 0.17999521147640171 0 -0.1092930776470509 0.19546899982625879 0 -0.1122481878976704 0.16943639698454849 0 -0.10556216789682819 0.17624475895690189 0 -0.098276363826093574 0.17224283355474551 0 -0.10556216789682819 0.17624475895690189 0 -0.098276363826093574 0.17224283355474551 0 -0.1002905527850841 0.17999521147640171 0 -0.11124411524967991 0.14962948917731669 0 -0.1122481878976704 0.16943639698454849 0 -0.098276363826093574 0.17224283355474551 0 -0.11124411524967991 0.14962948917731669 0 -0.098276363826093574 0.17224283355474551 0 -0.11124411524967991 0.14962948917731669 0 -0.098276363826093574 0.17224283355474551 0 -0.089978278137391704 0.1579028492531786 0 -0.089978278137391704 0.1579028492531786 0 -0.084790080109471269 0.1735767488579523 0 -0.073236644846952512 0.1581952149148069 0 -0.098276363826093574 0.17224283355474551 0 -0.089978278137391704 0.1579028492531786 0 -0.084790080109471269 0.1735767488579523 0 -0.098276363826093574 0.17224283355474551 0 -0.085308612402507214 0.1948561779321743 0 -0.098276363826093574 0.17224283355474551 0 -0.08530912347887562 0.1809246403175121 0 -0.085308612402507214 0.1948561779321743 0 -0.098276363826093574 0.17224283355474551 0 -0.084790080109471269 0.1735767488579523 0 -0.08530912347887562 0.1809246403175121 0 -0.084790080109471269 0.1735767488579523 0 -0.08530912347887562 0.1809246403175121 0 -0.072861437577431659 0.18302280092517631 0 -0.084790080109471269 0.1735767488579523 0 -0.072861437577431659 0.18302280092517631 0 -0.08530912347887562 0.1809246403175121 0 -0.072861437577431659 0.18302280092517631 0 -0.085308612402507214 0.1948561779321743 0 -0.070886810071477041 0.18458646872598061 0 -0.072133971034981773 0.16500626563208851 0 -0.070886810071477041 0.18458646872598061 0 -0.072861437577431659 0.18302280092517631 0 -0.072133971034981773 0.16500626563208851 0 -0.070886810071477041 0.18458646872598061 0 -0.064965814605749725 0.1738851860021679 0 -0.072133971034981773 0.16500626563208851 0 -0.070886810071477041 0.18458646872598061 0 -0.072861437577431659 0.18302280092517631 0 -0.070886810071477041 0.18458646872598061 0 -0.064965814605749725 0.1738851860021679 0 -0.057834487212098551 0.18117340186791631 0 -0.072861437577431659 0.18302280092517631 0 -0.073236644846952512 0.1581952149148069 0 -0.072133971034981773 0.16500626563208851 0 -0.072861437577431659 0.18302280092517631 0 -0.073236644846952512 0.1581952149148069 0 -0.084790080109471269 0.1735767488579523 0 -0.072861437577431659 0.18302280092517631 0 -0.073236644846952512 0.1581952149148069 0 -0.072133971034981773 0.16500626563208851 0 -0.065226821557646572 0.16702852179112579 0 -0.065081140041862953 0.16088227616776621 0 -0.064965814605749725 0.1738851860021679 0 -0.072133971034981773 0.16500626563208851 0 -0.065226821557646572 0.16702852179112579 0 -0.064965814605749725 0.1738851860021679 0 -0.065226821557646572 0.16702852179112579 0 -0.058726360547991831 0.1683403593624806 0 -0.065226821557646572 0.16702852179112579 0 -0.065081140041862953 0.16088227616776621 0 -0.058726360547991831 0.1683403593624806 0 -0.073236644846952512 0.1581952149148069 0 -0.065081140041862953 0.16088227616776621 0 -0.064796278182968362 0.1533225517562459 0 -0.073236644846952512 0.1581952149148069 0 -0.072133971034981773 0.16500626563208851 0 -0.065081140041862953 0.16088227616776621 0 -0.073236644846952512 0.1581952149148069 0 -0.073611852116476376 0.13336762890443751 0 -0.081968658702550171 0.14628619266089249 0 -0.073236644846952512 0.1581952149148069 0 -0.064796278182968362 0.1533225517562459 0 -0.066231836376495989 0.1457384304010319 0 -0.073236644846952512 0.1581952149148069 0 -0.073611852116476376 0.13336762890443751 0 -0.065081140041862953 0.16088227616776621 0 -0.064796278182968362 0.1533225517562459 0 -0.059681974115544663 0.154184337292602 0 -0.073236644846952512 0.1581952149148069 0 -0.066231836376495989 0.1457384304010319 0 -0.073611852116476376 0.13336762890443751 0 -0.064796278182968362 0.1533225517562459 0 -0.066231836376495989 0.1457384304010319 0 -0.059965692205663237 0.14786138590479511 0 -0.066231836376495989 0.1457384304010319 0 -0.062616174441613368 0.13948154138884569 0 -0.059965692205663237 0.14786138590479511 0 -0.062616174441613368 0.13948154138884569 0 -0.073611852116476376 0.13336762890443751 0 -0.060124791069678322 0.12674870044246789 0 -0.066231836376495989 0.1457384304010319 0 -0.062616174441613368 0.13948154138884569 0 -0.073611852116476376 0.13336762890443751 0 -0.073611852116476376 0.13336762890443751 0 -0.060124791069678322 0.12674870044246789 0 -0.073611852116476376 0.13336762890443751 0 -0.081315145335459915 0.1371481075840405 0 -0.099111108217919353 0.13324881416006179 0 -0.081315145335459915 0.1371481075840405 0 -0.084165628347530691 0.1216012723361324 0 -0.073611852116476376 0.13336762890443751 0 -0.081315145335459915 0.1371481075840405 0 -0.081968658702550171 0.14628619266089249 0 -0.099111108217919353 0.13324881416006179 0 -0.081315145335459915 0.1371481075840405 0 -0.091701373076472165 0.14481716264799921 0 -0.073611852116476376 0.13336762890443751 0 -0.081315145335459915 0.1371481075840405 0 -0.084165628347530691 0.1216012723361324 0 -0.089978278137391704 0.1579028492531786 0 -0.073236644846952512 0.1581952149148069 0 -0.081968658702550171 0.14628619266089249 0 -0.089978278137391704 0.1579028492531786 0 -0.091701373076472165 0.14481716264799921 0 -0.081968658702550171 0.14628619266089249 0 -0.081315145335459915 0.1371481075840405 0 -0.091701373076472165 0.14481716264799921 0 -0.081968658702550171 0.14628619266089249 0 -0.1050285266412795 0.2360918941337975 0 -0.095250642176439193 0.22970785869457641 0 -0.087452885363448682 0.24508730646051219 0 -0.102842594246254 0.25433061782129768 0 -0.1050285266412795 0.2360918941337975 0 -0.102842594246254 0.25433061782129768 0 -0.1050285266412795 0.2360918941337975 0 -0.087452885363448682 0.24508730646051219 0 -0.102842594246254 0.25433061782129768 0 -0.1050285266412795 0.2360918941337975 0 -0.1118085010851831 0.24786095545684919 0 -0.102842594246254 0.25433061782129768 0 -0.087452885363448682 0.24508730646051219 0 -0.1118085010851831 0.24786095545684919 0 -0.1222394844647914 0.24910471079974431 0 -0.11525780449241479 0.2389413595002424 0 -0.12460886415576621 0.23840672336615451 0 -0.11525780449241479 0.2389413595002424 0 -0.12220325508004611 0.2309090314214681 0 -0.1222394844647914 0.24910471079974431 0 -0.12460886415576621 0.23840672336615451 0 -0.11525780449241479 0.2389413595002424 0 -0.1050285266412795 0.2360918941337975 0 -0.1118085010851831 0.24786095545684919 0 -0.11525780449241479 0.2389413595002424 0 -0.1050285266412795 0.2360918941337975 0 -0.11525780449241479 0.2389413595002424 0 -0.11341197441115319 0.22919240743712249 0 -0.11525780449241479 0.2389413595002424 0 -0.11341197441115319 0.22919240743712249 0 -0.12220325508004611 0.2309090314214681 0 -0.12756855029910899 0.22688138692293611 0 -0.1173558268057238 0.2221665816838076 0 -0.1182956025090177 0.21094278817611581 0 -0.12756855029910899 0.22688138692293611 0 -0.1182956025090177 0.21094278817611581 0 -0.12756855029910899 0.22688138692293611 0 -0.12460886415576621 0.23840672336615451 0 -0.12220325508004611 0.2309090314214681 0 -0.12756855029910899 0.22688138692293611 0 -0.12220325508004611 0.2309090314214681 0 -0.1173558268057238 0.2221665816838076 0 -0.11341197441115319 0.22919240743712249 0 -0.12220325508004611 0.2309090314214681 0 -0.1173558268057238 0.2221665816838076 0 -0.12756855029910899 0.22688138692293611 0 -0.12220325508004611 0.2309090314214681 0 -0.11341197441115319 0.22919240743712249 0 -0.1173558268057238 0.2221665816838076 0 -0.1072144590363005 0.21785317044629679 0 -0.1050285266412795 0.2360918941337975 0 -0.11341197441115319 0.22919240743712249 0 -0.1072144590363005 0.21785317044629679 0 -0.1050285266412795 0.2360918941337975 0 -0.10267731332775221 0.220682608702261 0 -0.1072144590363005 0.21785317044629679 0 -0.1050285266412795 0.2360918941337975 0 -0.1072144590363005 0.21785317044629679 0 -0.10267731332775221 0.220682608702261 0 -0.1072144590363005 0.21785317044629679 0 -0.1050285266412795 0.2360918941337975 0 -0.10267731332775221 0.220682608702261 0 -0.095250642176439193 0.22970785869457641 0 -0.10267731332775221 0.220682608702261 0 -0.095250642176439193 0.22970785869457641 0 -0.094259816047653433 0.21928184831196251 0 -0.094259816047653433 0.21928184831196251 0 -0.1011449759193724 0.2145058812118793 0 -0.094300442999850562 0.2080855298693351 0 -0.10267731332775221 0.220682608702261 0 -0.094259816047653433 0.21928184831196251 0 -0.1011449759193724 0.2145058812118793 0 -0.094300442999850562 0.2080855298693351 0 -0.10464013083611361 0.20442823453392339 0 -0.097441330834569018 0.2000694943071275 0 -0.1011449759193724 0.2145058812118793 0 -0.094300442999850562 0.2080855298693351 0 -0.1029725979426457 0.21009124390094419 0 -0.094300442999850562 0.2080855298693351 0 -0.10464013083611361 0.20442823453392339 0 -0.1029725979426457 0.21009124390094419 0 -0.10464013083611361 0.20442823453392339 0 -0.1029725979426457 0.21009124390094419 0 -0.1076692534659168 0.21405851057701011 0 -0.1011449759193724 0.2145058812118793 0 -0.1029725979426457 0.21009124390094419 0 -0.1076692534659168 0.21405851057701011 0 -0.1011449759193724 0.2145058812118793 0 -0.1076692534659168 0.21405851057701011 0 -0.1072144590363005 0.21785317044629679 0 -0.10267731332775221 0.220682608702261 0 -0.1011449759193724 0.2145058812118793 0 -0.1072144590363005 0.21785317044629679 0 -0.1076692534659168 0.21405851057701011 0 -0.1072144590363005 0.21785317044629679 0 -0.1173558268057238 0.2221665816838076 0 -0.1072144590363005 0.21785317044629679 0 -0.1182956025090177 0.21094278817611581 0 -0.1072144590363005 0.21785317044629679 0 -0.1182956025090177 0.21094278817611581 0 -0.1076692534659168 0.21405851057701011 0 -0.1072144590363005 0.21785317044629679 0 -0.1182956025090177 0.21094278817611581 0 -0.10464013083611361 0.20442823453392339 0 -0.1076692534659168 0.21405851057701011 0 -0.1182956025090177 0.21094278817611581 0 -0.1182956025090177 0.21094278817611581 0 -0.1092930776470509 0.19546899982625879 0 -0.10464013083611361 0.20442823453392339 0 -0.1182956025090177 0.21094278817611581 0 -0.1092930776470509 0.19546899982625879 0 -0.1182956025090177 0.21094278817611581 0 -0.1232305665896709 0.19135488313375221 0 -0.1092930776470509 0.19546899982625879 0 -0.1114335670784647 0.18330459381191211 0 -0.1232305665896709 0.19135488313375221 0 -0.1092930776470509 0.19546899982625879 0 -0.1002905527850841 0.17999521147640171 0 -0.1092930776470509 0.19546899982625879 0 -0.1002905527850841 0.17999521147640171 0 -0.1092930776470509 0.19546899982625879 0 -0.097960232794951071 0.1927343454253026 0 -0.10464013083611361 0.20442823453392339 0 -0.1092930776470509 0.19546899982625879 0 -0.097441330834569018 0.2000694943071275 0 -0.1092930776470509 0.19546899982625879 0 -0.097441330834569018 0.2000694943071275 0 -0.097960232794951071 0.1927343454253026 0 -0.1002905527850841 0.17999521147640171 0 -0.097960232794951071 0.1927343454253026 0 -0.085308612402507214 0.1948561779321743 0 -0.094300442999850562 0.2080855298693351 0 -0.097441330834569018 0.2000694943071275 0 -0.085308612402507214 0.1948561779321743 0 -0.097441330834569018 0.2000694943071275 0 -0.097960232794951071 0.1927343454253026 0 -0.085308612402507214 0.1948561779321743 0 -0.072861437577431659 0.18302280092517631 0 -0.085308612402507214 0.1948561779321743 0 -0.072601149278172558 0.2002461616173889 0 -0.072861437577431659 0.18302280092517631 0 -0.072601149278172558 0.2002461616173889 0 -0.070886810071477041 0.18458646872598061 0 -0.069617870865747625 0.204508586310678 0 -0.060715469893597773 0.20404579614692819 0 -0.070886810071477041 0.18458646872598061 0 -0.072601149278172558 0.2002461616173889 0 -0.069617870865747625 0.204508586310678 0 -0.070886810071477041 0.18458646872598061 0 -0.072861437577431659 0.18302280092517631 0 -0.072601149278172558 0.2002461616173889 0 -0.070886810071477041 0.18458646872598061 0 -0.069617870865747625 0.204508586310678 0 -0.069617870865747625 0.204508586310678 0 -0.06419586367155157 0.21368414470549851 0 -0.068348931660017362 0.22443070389537539 0 -0.072601149278172558 0.2002461616173889 0 -0.069617870865747625 0.204508586310678 0 -0.072340860978918176 0.21746952230960159 0 -0.069617870865747625 0.204508586310678 0 -0.072340860978918176 0.21746952230960159 0 -0.068348931660017362 0.22443070389537539 0 -0.072601149278172558 0.2002461616173889 0 -0.072340860978918176 0.21746952230960159 0 -0.069617870865747625 0.204508586310678 0 -0.068348931660017362 0.22443070389537539 0 -0.085308612402507214 0.1948561779321743 0 -0.072601149278172558 0.2002461616173889 0 -0.072340860978918176 0.21746952230960159 0 -0.069617870865747625 0.204508586310678 0 -0.06419586367155157 0.21368414470549851 0 -0.060715469893597773 0.20404579614692819 0 -0.072340860978918176 0.21746952230960159 0 -0.086012329961777309 0.2129013550117583 0 -0.083851917379960589 0.22481369663571821 0 -0.085308612402507214 0.1948561779321743 0 -0.072340860978918176 0.21746952230960159 0 -0.086012329961777309 0.2129013550117583 0 -0.085308612402507214 0.1948561779321743 0 -0.072340860978918176 0.21746952230960159 0 -0.094300442999850562 0.2080855298693351 0 -0.085308612402507214 0.1948561779321743 0 -0.086012329961777309 0.2129013550117583 0 -0.094259816047653433 0.21928184831196251 0 -0.094300442999850562 0.2080855298693351 0 -0.086012329961777309 0.2129013550117583 0 -0.095250642176439193 0.22970785869457641 0 -0.094259816047653433 0.21928184831196251 0 -0.083851917379960589 0.22481369663571821 0 -0.094259816047653433 0.21928184831196251 0 -0.086012329961777309 0.2129013550117583 0 -0.083851917379960589 0.22481369663571821 0 -0.095250642176439193 0.22970785869457641 0 -0.085601626604734873 0.23397967397568331 0 -0.083851917379960589 0.22481369663571821 0 -0.085601626604734873 0.23397967397568331 0 -0.083851917379960589 0.22481369663571821 0 -0.072063176480647501 0.2358439950997199 0 -0.072340860978918176 0.21746952230960159 0 -0.083851917379960589 0.22481369663571821 0 -0.072063176480647501 0.2358439950997199 0 -0.072340860978918176 0.21746952230960159 0 -0.068348931660017362 0.22443070389537539 0 -0.072063176480647501 0.2358439950997199 0 -0.072340860978918176 0.21746952230960159 0 -0.072063176480647501 0.2358439950997199 0 -0.072340860978918176 0.21746952230960159 0 -0.068348931660017362 0.22443070389537539 0 -0.06419586367155157 0.21368414470549851 0 -0.068348931660017362 0.22443070389537539 0 -0.059840474930323823 0.22850284024357079 0 -0.068348931660017362 0.22443070389537539 0 -0.064432220983191957 0.2312607181722294 0 -0.067785605962976225 0.23327481614619339 0 -0.068348931660017362 0.22443070389537539 0 -0.067785605962976225 0.23327481614619339 0 -0.072063176480647501 0.2358439950997199 0 -0.068348931660017362 0.22443070389537539 0 -0.064432220983191957 0.2312607181722294 0 -0.059840474930323823 0.22850284024357079 0 -0.068348931660017362 0.22443070389537539 0 -0.067785605962976225 0.23327481614619339 0 -0.064432220983191957 0.2312607181722294 0 -0.067785605962976225 0.23327481614619339 0 -0.068348931660017362 0.22443070389537539 0 -0.064432220983191957 0.2312607181722294 0 -0.066231629469996861 0.25767196793819719 0 -0.067785605962976225 0.23327481614619339 0 -0.072063176480647501 0.2358439950997199 0 -0.071727761108341045 0.25803853844034602 0 -0.072063176480647501 0.2358439950997199 0 -0.071727761108341045 0.25803853844034602 0 -0.072063176480647501 0.2358439950997199 0 -0.079546297441093719 0.2495057666221675 0 -0.066231629469996861 0.25767196793819719 0 -0.067785605962976225 0.23327481614619339 0 -0.067785605962976225 0.23327481614619339 0 -0.072063176480647501 0.2358439950997199 0 -0.072063176480647501 0.2358439950997199 0 -0.079546297441093719 0.2495057666221675 0 -0.087452885363448682 0.24508730646051219 0 -0.072063176480647501 0.2358439950997199 0 -0.087452885363448682 0.24508730646051219 0 -0.085601626604734873 0.23397967397568331 0 -0.072063176480647501 0.2358439950997199 0 -0.087452885363448682 0.24508730646051219 0 -0.095250642176439193 0.22970785869457641 0 -0.085601626604734873 0.23397967397568331 0 -0.087452885363448682 0.24508730646051219 0 -0.037653780083210062 0.24501718422763991 0 -0.045859901114375858 0.2437248156932848 0 -0.04817642933439191 0.23441196801452291 0 -0.037653780083210062 0.24501718422763991 0 -0.045859901114375858 0.2437248156932848 0 -0.045441256962230947 0.25037256953796999 0 -0.037653780083210062 0.24501718422763991 0 -0.045859901114375858 0.2437248156932848 0 -0.053349919069790662 0.25058618960334778 0 -0.045859901114375858 0.2437248156932848 0 -0.04817642933439191 0.23441196801452291 0 -0.053349919069790662 0.25058618960334778 0 -0.064432220983191957 0.2312607181722294 0 -0.059840474930323823 0.22850284024357079 0 -0.053349919069790662 0.25058618960334778 0 -0.04817642933439191 0.23441196801452291 0 -0.059840474930323823 0.22850284024357079 0 -0.053349919069790662 0.25058618960334778 0 -0.064432220983191957 0.2312607181722294 0 -0.067785605962976225 0.23327481614619339 0 -0.053349919069790662 0.25058618960334778 0 -0.045441256962230947 0.25037256953796999 0 -0.045859901114375858 0.2437248156932848 0 -0.053349919069790662 0.25058618960334778 0 -0.059840474930323823 0.22850284024357079 0 -0.066231629469996861 0.25767196793819719 0 -0.053349919069790662 0.25058618960334778 0 -0.067785605962976225 0.23327481614619339 0 -0.053349919069790662 0.25058618960334778 0 -0.064432220983191957 0.2312607181722294 0 -0.04817642933439191 0.23441196801452291 0 -0.059840474930323823 0.22850284024357079 0 -0.047920294326680567 0.22134338442569829 0 -0.04817642933439191 0.23441196801452291 0 -0.047920294326680567 0.22134338442569829 0 -0.064432220983191957 0.2312607181722294 0 -0.059840474930323823 0.22850284024357079 0 -0.06419586367155157 0.21368414470549851 0 -0.059840474930323823 0.22850284024357079 0 -0.059840474930323823 0.22850284024357079 0 -0.047920294326680567 0.22134338442569829 0 -0.059840474930323823 0.22850284024357079 0 -0.047920294326680567 0.22134338442569829 0 -0.055616627692797287 0.2141508284097485 0 -0.04817642933439191 0.23441196801452291 0 -0.047920294326680567 0.22134338442569829 0 -0.03887025106756288 0.2159077801326135 0 -0.037653780083210062 0.24501718422763991 0 -0.04817642933439191 0.23441196801452291 0 -0.030437865505320041 0.21661717426603011 0 -0.04817642933439191 0.23441196801452291 0 -0.03887025106756288 0.2159077801326135 0 -0.030437865505320041 0.21661717426603011 0 -0.037653780083210062 0.24501718422763991 0 -0.030437865505320041 0.21661717426603011 0 -0.047561894117250231 0.2030570004713578 0 -0.030437865505320041 0.21661717426603011 0 -0.047561894117250231 0.2030570004713578 0 -0.026258654167241529 0.20016885820686159 0 -0.030437865505320041 0.21661717426603011 0 -0.03887025106756288 0.2159077801326135 0 -0.047561894117250231 0.2030570004713578 0 -0.030437865505320041 0.21661717426603011 0 -0.047920294326680567 0.22134338442569829 0 -0.03887025106756288 0.2159077801326135 0 -0.047561894117250231 0.2030570004713578 0 -0.047920294326680567 0.22134338442569829 0 -0.03887025106756288 0.2159077801326135 0 -0.047920294326680567 0.22134338442569829 0 -0.047561894117250231 0.2030570004713578 0 -0.047920294326680567 0.22134338442569829 0 -0.055616627692797287 0.2141508284097485 0 -0.047561894117250231 0.2030570004713578 0 -0.06419586367155157 0.21368414470549851 0 -0.059840474930323823 0.22850284024357079 0 -0.055616627692797287 0.2141508284097485 0 -0.06419586367155157 0.21368414470549851 0 -0.055616627692797287 0.2141508284097485 0 -0.060715469893597773 0.20404579614692819 0 -0.055616627692797287 0.2141508284097485 0 -0.060715469893597773 0.20404579614692819 0 -0.047561894117250231 0.2030570004713578 0 -0.070886810071477041 0.18458646872598061 0 -0.047561894117250231 0.2030570004713578 0 -0.070886810071477041 0.18458646872598061 0 -0.047561894117250231 0.2030570004713578 0 -0.057834487212098551 0.18117340186791631 0 -0.070886810071477041 0.18458646872598061 0 -0.060715469893597773 0.20404579614692819 0 -0.047561894117250231 0.2030570004713578 0 -0.047561894117250231 0.2030570004713578 0 -0.047031556718023608 0.1759979947775942 0 -0.047561894117250231 0.2030570004713578 0 -0.038301196657113373 0.19135333913459021 0 -0.026258654167241529 0.20016885820686159 0 -0.047561894117250231 0.2030570004713578 0 -0.038301196657113373 0.19135333913459021 0 -0.047031556718023608 0.1759979947775942 0 -0.026258654167241529 0.20016885820686159 0 -0.026892462167339311 0.1817316457557826 0 -0.022079442829162878 0.18372054214769321 0 -0.038301196657113373 0.19135333913459021 0 -0.026258654167241529 0.20016885820686159 0 -0.026892462167339311 0.1817316457557826 0 -0.026258654167241529 0.20016885820686159 0 -0.022079442829162878 0.18372054214769321 0 -0.022079442829162878 0.18372054214769321 0 0.0019515735538277489 0.193650941013737 0 -0.026258654167241529 0.20016885820686159 0 -0.022079442829162878 0.18372054214769321 0 0.0019515735538277489 0.193650941013737 0 -0.026258654167241529 0.20016885820686159 0 -0.011073863881731269 0.21211622881038411 0 0.0019515735538277489 0.193650941013737 0 -0.011073863881731269 0.21211622881038411 0 0.0044275860113074939 0.21386206084711071 0 0.0019515735538277489 0.193650941013737 0 -0.026258654167241529 0.20016885820686159 0 -0.011073863881731269 0.21211622881038411 0 -0.030437865505320041 0.21661717426603011 0 -0.026258654167241529 0.20016885820686159 0 -0.030437865505320041 0.21661717426603011 0 -0.037653780083210062 0.24501718422763991 0 -0.030437865505320041 0.21661717426603011 0 -0.023585252023372711 0.23685088894750239 0 -0.030437865505320041 0.21661717426603011 0 -0.0099967432297582287 0.23280408780701989 0 -0.011073863881731269 0.21211622881038411 0 -0.030437865505320041 0.21661717426603011 0 -0.0099967432297582287 0.23280408780701989 0 -0.030437865505320041 0.21661717426603011 0 -0.0099967432297582287 0.23280408780701989 0 -0.023585252023372711 0.23685088894750239 0 -0.011073863881731269 0.21211622881038411 0 -0.0099967432297582287 0.23280408780701989 0 0.0044275860113074939 0.21386206084711071 0 -0.0099967432297582287 0.23280408780701989 0 -0.01368076861047251 0.24879265446303431 0 0.0044831673581638108 0.23823553642762901 0 -0.037653780083210062 0.24501718422763991 0 -0.01368076861047251 0.24879265446303431 0 -0.037653780083210062 0.24501718422763991 0 -0.01368076861047251 0.24879265446303431 0 -0.023585252023372711 0.23685088894750239 0 -0.015069837235323871 0.25425967632940732 0 -0.037653780083210062 0.24501718422763991 0 -0.01368076861047251 0.24879265446303431 0 -0.0099967432297582287 0.23280408780701989 0 -0.01368076861047251 0.24879265446303431 0 -0.023585252023372711 0.23685088894750239 0 -0.043740828784280407 0.14543934000375591 0 -0.046060309714110577 0.13767236211183631 0 -0.048072250444710342 0.14585990920917491 0 -0.043740828784280407 0.14543934000375591 0 -0.042041610320674473 0.14871013503965599 0 -0.038586107094818238 0.14391701110928301 0 -0.043740828784280407 0.14543934000375591 0 -0.038586107094818238 0.14391701110928301 0 -0.046060309714110577 0.13767236211183631 0 -0.043740828784280407 0.14543934000375591 0 -0.046501219318797367 0.14893898908383041 0 -0.042041610320674473 0.14871013503965599 0 -0.043740828784280407 0.14543934000375591 0 -0.046501219318797367 0.14893898908383041 0 -0.048072250444710342 0.14585990920917491 0 -0.039193154407868178 0.1550264695203443 0 -0.042041610320674473 0.14871013503965599 0 -0.038586107094818238 0.14391701110928301 0 -0.046501219318797367 0.14893898908383041 0 -0.039193154407868178 0.1550264695203443 0 -0.042041610320674473 0.14871013503965599 0 -0.039193154407868178 0.1550264695203443 0 -0.038586107094818238 0.14391701110928301 0 -0.030027078542261339 0.15081623959851601 0 -0.039193154407868178 0.1550264695203443 0 -0.03297659533437676 0.16228240742289299 0 -0.030027078542261339 0.15081623959851601 0 -0.038586107094818238 0.14391701110928301 0 -0.031372324914102752 0.13935934277023421 0 -0.030027078542261339 0.15081623959851601 0 -0.038778238160515767 0.13443716603757719 0 -0.031372324914102752 0.13935934277023421 0 -0.029806663249450551 0.1282409266149358 0 -0.038778238160515767 0.13443716603757719 0 -0.029806663249450551 0.1282409266149358 0 -0.042970508734694803 0.118330041462753 0 -0.038586107094818238 0.14391701110928301 0 -0.038778238160515767 0.13443716603757719 0 -0.031372324914102752 0.13935934277023421 0 -0.038778238160515767 0.13443716603757719 0 -0.0470596427306606 0.1296320458687589 0 -0.042970508734694803 0.118330041462753 0 -0.038778238160515767 0.13443716603757719 0 -0.046060309714110577 0.13767236211183631 0 -0.0470596427306606 0.1296320458687589 0 -0.038586107094818238 0.14391701110928301 0 -0.038778238160515767 0.13443716603757719 0 -0.046060309714110577 0.13767236211183631 0 -0.046060309714110577 0.13767236211183631 0 -0.060124791069678322 0.12674870044246789 0 -0.048072250444710342 0.14585990920917491 0 -0.062616174441613368 0.13948154138884569 0 -0.060124791069678322 0.12674870044246789 0 -0.055815489294176727 0.14332211809908699 0 -0.060124791069678322 0.12674870044246789 0 -0.055815489294176727 0.14332211809908699 0 -0.048072250444710342 0.14585990920917491 0 -0.060124791069678322 0.12674870044246789 0 -0.048072250444710342 0.14585990920917491 0 -0.046060309714110577 0.13767236211183631 0 -0.0470596427306606 0.1296320458687589 0 -0.060124791069678322 0.12674870044246789 0 -0.062616174441613368 0.13948154138884569 0 -0.059965692205663237 0.14786138590479511 0 -0.055815489294176727 0.14332211809908699 0 -0.059965692205663237 0.14786138590479511 0 -0.055815489294176727 0.14332211809908699 0 -0.055151182277392248 0.1509911060133505 0 -0.055815489294176727 0.14332211809908699 0 -0.051853642667917532 0.1494593366249137 0 -0.055151182277392248 0.1509911060133505 0 -0.055815489294176727 0.14332211809908699 0 -0.048072250444710342 0.14585990920917491 0 -0.051853642667917532 0.1494593366249137 0 -0.046501219318797367 0.14893898908383041 0 -0.048072250444710342 0.14585990920917491 0 -0.051853642667917532 0.1494593366249137 0 -0.051853642667917532 0.1494593366249137 0 -0.055151182277392248 0.1509911060133505 0 -0.053728072004510963 0.15818456071912559 0 -0.046501219318797367 0.14893898908383041 0 -0.051853642667917532 0.1494593366249137 0 -0.053728072004510963 0.15818456071912559 0 -0.055151182277392248 0.1509911060133505 0 -0.059681974115544663 0.154184337292602 0 -0.053728072004510963 0.15818456071912559 0 -0.059965692205663237 0.14786138590479511 0 -0.055151182277392248 0.1509911060133505 0 -0.059681974115544663 0.154184337292602 0 -0.064796278182968362 0.1533225517562459 0 -0.059965692205663237 0.14786138590479511 0 -0.059681974115544663 0.154184337292602 0 -0.059304386677477602 0.1603978833854936 0 -0.058726360547991831 0.1683403593624806 0 -0.053728072004510963 0.15818456071912559 0 -0.065081140041862953 0.16088227616776621 0 -0.059681974115544663 0.154184337292602 0 -0.059304386677477602 0.1603978833854936 0 -0.065081140041862953 0.16088227616776621 0 -0.059304386677477602 0.1603978833854936 0 -0.058726360547991831 0.1683403593624806 0 -0.058726360547991831 0.1683403593624806 0 -0.053728072004510963 0.15818456071912559 0 -0.047031556718023608 0.1759979947775942 0 -0.046501219318797367 0.14893898908383041 0 -0.053728072004510963 0.15818456071912559 0 -0.047031556718023608 0.1759979947775942 0 -0.059681974115544663 0.154184337292602 0 -0.059304386677477602 0.1603978833854936 0 -0.053728072004510963 0.15818456071912559 0 -0.047561894117250231 0.2030570004713578 0 -0.057834487212098551 0.18117340186791631 0 -0.047031556718023608 0.1759979947775942 0 -0.064965814605749725 0.1738851860021679 0 -0.058726360547991831 0.1683403593624806 0 -0.057834487212098551 0.18117340186791631 0 -0.058726360547991831 0.1683403593624806 0 -0.057834487212098551 0.18117340186791631 0 -0.047031556718023608 0.1759979947775942 0 -0.038301196657113373 0.19135333913459021 0 -0.047031556718023608 0.1759979947775942 0 -0.036464324404210699 0.18067706177592069 0 -0.032899554276718257 0.17244644916619661 0 -0.036464324404210699 0.18067706177592069 0 -0.026892462167339311 0.1817316457557826 0 -0.047031556718023608 0.1759979947775942 0 -0.032899554276718257 0.17244644916619661 0 -0.036464324404210699 0.18067706177592069 0 -0.038301196657113373 0.19135333913459021 0 -0.036464324404210699 0.18067706177592069 0 -0.026892462167339311 0.1817316457557826 0 -0.046501219318797367 0.14893898908383041 0 -0.039193154407868178 0.1550264695203443 0 -0.047031556718023608 0.1759979947775942 0 -0.046501219318797367 0.14893898908383041 0 -0.047031556718023608 0.1759979947775942 0 -0.039193154407868178 0.1550264695203443 0 -0.047031556718023608 0.1759979947775942 0 -0.03297659533437676 0.16228240742289299 0 -0.047031556718023608 0.1759979947775942 0 -0.032899554276718257 0.17244644916619661 0 -0.03297659533437676 0.16228240742289299 0 -0.032899554276718257 0.17244644916619661 0 -0.03297659533437676 0.16228240742289299 0 -0.016694109493111411 0.1625252357538127 0 -0.03297659533437676 0.16228240742289299 0 -0.016694109493111411 0.1625252357538127 0 -0.030027078542261339 0.15081623959851601 0 -0.016694109493111411 0.1625252357538127 0 -0.022079442829162878 0.18372054214769321 0 -0.016694109493111411 0.1625252357538127 0 -0.026892462167339311 0.1817316457557826 0 -0.022079442829162878 0.18372054214769321 0 -0.032899554276718257 0.17244644916619661 0 -0.016694109493111411 0.1625252357538127 0 -0.026892462167339311 0.1817316457557826 0 -0.026892462167339311 0.1817316457557826 0 -0.022079442829162878 0.18372054214769321 0 -0.016694109493111411 0.1625252357538127 0 -0.022079442829162878 0.18372054214769321 0 -0.0048120788223905506 0.17858148515489011 0 -0.022079442829162878 0.18372054214769321 0 -0.0048120788223905506 0.17858148515489011 0 0.0019515735538277489 0.193650941013737 0 -0.016694109493111411 0.1625252357538127 0 -0.0048120788223905506 0.17858148515489011 0 -0.00070336967280846575 0.1642978841142787 0 -0.016694109493111411 0.1625252357538127 0 -0.011308776157061259 0.14132992935993191 0 -0.016694109493111411 0.1625252357538127 0 -0.00070336967280846575 0.1642978841142787 0 -0.011308776157061259 0.14132992935993191 0 -0.00070336967280846575 0.1642978841142787 0 -0.011308776157061259 0.14132992935993191 0 -0.00070336967280846575 0.1642978841142787 0 -0.011308776157061259 0.14132992935993191 0 0.0030039891894815562 0.15161017628605661 0 -0.011308776157061259 0.14132992935993191 0 0.00038689558867741687 0.14221945409500009 0 0.0030039891894815562 0.15161017628605661 0 -0.016694109493111411 0.1625252357538127 0 -0.022961908939062279 0.1413153883364858 0 -0.030027078542261339 0.15081623959851601 0 -0.016694109493111411 0.1625252357538127 0 -0.011308776157061259 0.14132992935993191 0 -0.022961908939062279 0.1413153883364858 0 -0.031372324914102752 0.13935934277023421 0 -0.022961908939062279 0.1413153883364858 0 -0.030027078542261339 0.15081623959851601 0 -0.011308776157061259 0.14132992935993191 0 -0.022961908939062279 0.1413153883364858 0 -0.018562501278387829 0.12562065592148411 0 -0.022961908939062279 0.1413153883364858 0 -0.029806663249450551 0.1282409266149358 0 -0.018562501278387829 0.12562065592148411 0 -0.031372324914102752 0.13935934277023421 0 -0.022961908939062279 0.1413153883364858 0 -0.029806663249450551 0.1282409266149358 0 -0.011308776157061259 0.14132992935993191 0 -0.018562501278387829 0.12562065592148411 0 -0.011308776157061259 0.14132992935993191 0 -0.018562501278387829 0.12562065592148411 0 -0.01034049878410178 0.1375190351564633 0 -0.018562501278387829 0.12562065592148411 0 -0.0086080458088180212 0.12867572478784511 0 -0.01034049878410178 0.1375190351564633 0 -0.011308776157061259 0.14132992935993191 0 -0.01034049878410178 0.1375190351564633 0 -0.0035354357301469932 0.13621453203073661 0 -0.011308776157061259 0.14132992935993191 0 -0.01034049878410178 0.1375190351564633 0 -0.0086080458088180212 0.12867572478784511 0 -0.01034049878410178 0.1375190351564633 0 -0.0035354357301469932 0.13621453203073661 0 -0.011308776157061259 0.14132992935993191 0 -0.0035354357301469932 0.13621453203073661 0 0.00038689558867741687 0.14221945409500009 0 -0.0086080458088180212 0.12867572478784511 0 -0.0035354357301469932 0.13621453203073661 0 -0.00074169112318280927 0.1271885440150792 0 -0.0086080458088180212 0.12867572478784511 0 -0.00074169112318280927 0.1271885440150792 0 -0.0075495683861862093 0.1175268655262842 0 -0.018562501278387829 0.12562065592148411 0 -0.0086080458088180212 0.12867572478784511 0 -0.0075495683861862093 0.1175268655262842 0 -0.0010079970578314029 0.097736462038016503 0 -0.025816226399712601 0.10991138248303541 0 -0.019326448580962542 0.092197861461375791 0 -0.0075495683861862093 0.1175268655262842 0 -0.0010079970578314029 0.097736462038016503 0 -0.025816226399712601 0.10991138248303541 0 -0.0010079970578314029 0.097736462038016503 0 -0.025816226399712601 0.10991138248303541 0 -0.025816226399712601 0.10991138248303541 0 -0.019326448580962542 0.092197861461375791 0 -0.035600826502002997 0.088721034638054128 0 -0.025816226399712601 0.10991138248303541 0 -0.035600826502002997 0.088721034638054128 0 -0.018562501278387829 0.12562065592148411 0 -0.0075495683861862093 0.1175268655262842 0 -0.025816226399712601 0.10991138248303541 0 -0.029806663249450551 0.1282409266149358 0 -0.018562501278387829 0.12562065592148411 0 -0.025816226399712601 0.10991138248303541 0 -0.018562501278387829 0.12562065592148411 0 -0.025816226399712601 0.10991138248303541 0 -0.013512818089652731 0.072972381861569138 0 -0.02654760097591774 0.066108747830457643 0 0.00058338188650974149 0.068693108180541515 0 -0.02654760097591774 0.066108747830457643 0 0.00058338188650974149 0.068693108180541515 0 -0.02654760097591774 0.066108747830457643 0 -0.010441330557525779 0.058859046213765212 0 0.00058338188650974149 0.068693108180541515 0 -0.0057033238604127373 0.075142253150693866 0 -0.010754504976532121 0.08274821667816637 0 0.0008706457380241589 0.076155305882498497 0 -0.0057033238604127373 0.075142253150693866 0 -0.013512818089652731 0.072972381861569138 0 0.00058338188650974149 0.068693108180541515 0 -0.0057033238604127373 0.075142253150693866 0 0.0008706457380241589 0.076155305882498497 0 0.00058338188650974149 0.068693108180541515 0 -0.0057033238604127373 0.075142253150693866 0 -0.013512818089652731 0.072972381861569138 0 -0.010754504976532121 0.08274821667816637 0 -0.0010079970578314029 0.097736462038016503 0 -0.010754504976532121 0.08274821667816637 0 0.0008706457380241589 0.076155305882498497 0 -0.0010079970578314029 0.097736462038016503 0 -0.010754504976532121 0.08274821667816637 0 -0.019326448580962542 0.092197861461375791 0 -0.019326448580962542 0.092197861461375791 0 -0.023263292290622212 0.080815506013379279 0 -0.035600826502002997 0.088721034638054128 0 -0.023263292290622212 0.080815506013379279 0 -0.032746635512737203 0.076058170182797216 0 -0.035600826502002997 0.088721034638054128 0 -0.013512818089652731 0.072972381861569138 0 -0.010754504976532121 0.08274821667816637 0 -0.023263292290622212 0.080815506013379279 0 -0.010754504976532121 0.08274821667816637 0 -0.019326448580962542 0.092197861461375791 0 -0.023263292290622212 0.080815506013379279 0 -0.013512818089652731 0.072972381861569138 0 -0.023263292290622212 0.080815506013379279 0 -0.02654760097591774 0.066108747830457643 0 -0.023263292290622212 0.080815506013379279 0 -0.02654760097591774 0.066108747830457643 0 -0.032746635512737203 0.076058170182797216 0 -0.02654760097591774 0.066108747830457643 0 -0.045385426604293337 0.067530686793072864 0 -0.032746635512737203 0.076058170182797216 0 -0.045385426604293337 0.067530686793072864 0 -0.035600826502002997 0.088721034638054128 0 -0.02654760097591774 0.066108747830457643 0 -0.053678583838345229 0.063524387480373562 0 -0.02654760097591774 0.066108747830457643 0 -0.045385426604293337 0.067530686793072864 0 -0.053678583838345229 0.063524387480373562 0 -0.045385426604293337 0.067530686793072864 0 -0.035600826502002997 0.088721034638054128 0 -0.047204213631998511 0.077764062163756809 0 -0.045385426604293337 0.067530686793072864 0 -0.032746635512737203 0.076058170182797216 0 -0.035600826502002997 0.088721034638054128 0 -0.035600826502002997 0.088721034638054128 0 -0.048561420448899467 0.085933254328159139 0 -0.047204213631998511 0.077764062163756809 0 -0.035600826502002997 0.088721034638054128 0 -0.048561420448899467 0.085933254328159139 0 -0.047380611585594083 0.095024561164162094 0 -0.056457417535862198 0.08603354745180912 0 -0.048561420448899467 0.085933254328159139 0 -0.047380611585594083 0.095024561164162094 0 -0.056457417535862198 0.08603354745180912 0 -0.060857795863390497 0.087032123187722146 0 -0.064147684400115548 0.095853742934892627 0 -0.056457417535862198 0.08603354745180912 0 -0.061741248724494067 0.078652582733543572 0 -0.061094736548203903 0.07131553735355993 0 -0.056457417535862198 0.08603354745180912 0 -0.060857795863390497 0.087032123187722146 0 -0.061741248724494067 0.078652582733543572 0 -0.048561420448899467 0.085933254328159139 0 -0.05161085265061334 0.079026948914675252 0 -0.047204213631998511 0.077764062163756809 0 -0.056457417535862198 0.08603354745180912 0 -0.048561420448899467 0.085933254328159139 0 -0.05161085265061334 0.079026948914675252 0 -0.056457417535862198 0.08603354745180912 0 -0.05161085265061334 0.079026948914675252 0 -0.053877738264833788 0.07162492501563815 0 -0.056457417535862198 0.08603354745180912 0 -0.055735164895275108 0.062154780143131257 0 -0.056457417535862198 0.08603354745180912 0 -0.053877738264833788 0.07162492501563815 0 -0.055735164895275108 0.062154780143131257 0 -0.056457417535862198 0.08603354745180912 0 -0.061094736548203903 0.07131553735355993 0 -0.055735164895275108 0.062154780143131257 0 -0.045385426604293337 0.067530686793072864 0 -0.047204213631998511 0.077764062163756809 0 -0.049326199325513249 0.071047722993314077 0 -0.047204213631998511 0.077764062163756809 0 -0.049326199325513249 0.071047722993314077 0 -0.05091956577740709 0.074283793351009902 0 -0.05161085265061334 0.079026948914675252 0 -0.047204213631998511 0.077764062163756809 0 -0.05091956577740709 0.074283793351009902 0 -0.049326199325513249 0.071047722993314077 0 -0.051671710587110793 0.071093016108034687 0 -0.05091956577740709 0.074283793351009902 0 -0.051671710587110793 0.071093016108034687 0 -0.053877738264833788 0.07162492501563815 0 -0.05091956577740709 0.074283793351009902 0 -0.051671710587110793 0.071093016108034687 0 -0.053877738264833788 0.07162492501563815 0 -0.053045527380370321 0.068796917290151 0 -0.05161085265061334 0.079026948914675252 0 -0.053877738264833788 0.07162492501563815 0 -0.05091956577740709 0.074283793351009902 0 -0.061741248724494067 0.078652582733543572 0 -0.061094736548203903 0.07131553735355993 0 -0.063375305930626624 0.073706072155830166 0 -0.061094736548203903 0.07131553735355993 0 -0.06509328983950699 0.061926611503934907 0 -0.055735164895275108 0.062154780143131257 0 -0.045385426604293337 0.067530686793072864 0 -0.053678583838345229 0.063524387480373562 0 -0.048987638547322493 0.066648384498404156 0 -0.053678583838345229 0.063524387480373562 0 -0.054024397772955597 0.066687355216957581 0 -0.055735164895275108 0.062154780143131257 0 -0.053678583838345229 0.063524387480373562 0 -0.051886937316367919 0.066159087349471554 0 -0.048987638547322493 0.066648384498404156 0 -0.053678583838345229 0.063524387480373562 0 -0.055735164895275108 0.062154780143131257 0 -0.053877738264833788 0.07162492501563815 0 -0.054024397772955597 0.066687355216957581 0 -0.055735164895275108 0.062154780143131257 0 -0.053678583838345229 0.063524387480373562 0 -0.048987638547322493 0.066648384498404156 0 -0.053678583838345229 0.063524387480373562 0 -0.051886937316367919 0.066159087349471554 0 -0.054024397772955597 0.066687355216957581 0 -0.053877738264833788 0.07162492501563815 0 -0.054024397772955597 0.066687355216957581 0 -0.053045527380370321 0.068796917290151 0 -0.054024397772955597 0.066687355216957581 0 -0.053045527380370321 0.068796917290151 0 -0.051483146230799713 0.068581568483770186 0 -0.049326199325513249 0.071047722993314077 0 -0.051671710587110793 0.071093016108034687 0 -0.051483146230799713 0.068581568483770186 0 -0.051671710587110793 0.071093016108034687 0 -0.053045527380370321 0.068796917290151 0 -0.051483146230799713 0.068581568483770186 0 -0.051886937316367919 0.066159087349471554 0 -0.054024397772955597 0.066687355216957581 0 -0.051483146230799713 0.068581568483770186 0 -0.049326199325513249 0.071047722993314077 0 -0.051483146230799713 0.068581568483770186 0 -0.048987638547322493 0.066648384498404156 0 -0.045385426604293337 0.067530686793072864 0 -0.049326199325513249 0.071047722993314077 0 -0.048987638547322493 0.066648384498404156 0 -0.051886937316367919 0.066159087349471554 0 -0.051483146230799713 0.068581568483770186 0 -0.048987638547322493 0.066648384498404156 0 -0.025816226399712601 0.10991138248303541 0 -0.042970508734694803 0.118330041462753 0 -0.029806663249450551 0.1282409266149358 0 -0.025816226399712601 0.10991138248303541 0 -0.042970508734694803 0.118330041462753 0 -0.042970508734694803 0.118330041462753 0 -0.039802870863396213 0.1044854858218611 0 -0.057179670176449107 0.109912314760487 0 -0.025816226399712601 0.10991138248303541 0 -0.042970508734694803 0.118330041462753 0 -0.039802870863396213 0.1044854858218611 0 -0.025816226399712601 0.10991138248303541 0 -0.035600826502002997 0.088721034638054128 0 -0.039802870863396213 0.1044854858218611 0 -0.035600826502002997 0.088721034638054128 0 -0.039802870863396213 0.1044854858218611 0 -0.047380611585594083 0.095024561164162094 0 -0.056457417535862198 0.08603354745180912 0 -0.047380611585594083 0.095024561164162094 0 -0.057179670176449107 0.109912314760487 0 -0.056457417535862198 0.08603354745180912 0 -0.057179670176449107 0.109912314760487 0 -0.064147684400115548 0.095853742934892627 0 -0.056457417535862198 0.08603354745180912 0 -0.057179670176449107 0.109912314760487 0 -0.039802870863396213 0.1044854858218611 0 -0.047380611585594083 0.095024561164162094 0 -0.057179670176449107 0.109912314760487 0 -0.060124791069678322 0.12674870044246789 0 -0.042970508734694803 0.118330041462753 0 -0.060124791069678322 0.12674870044246789 0 -0.042970508734694803 0.118330041462753 0 -0.057179670176449107 0.109912314760487 0 -0.0470596427306606 0.1296320458687589 0 -0.060124791069678322 0.12674870044246789 0 -0.042970508734694803 0.118330041462753 0 -0.073611852116476376 0.13336762890443751 0 -0.060124791069678322 0.12674870044246789 0 -0.074045465830377716 0.1046752696361823 0 -0.060124791069678322 0.12674870044246789 0 -0.074045465830377716 0.1046752696361823 0 -0.060124791069678322 0.12674870044246789 0 -0.057179670176449107 0.109912314760487 0 -0.074045465830377716 0.1046752696361823 0 -0.073611852116476376 0.13336762890443751 0 -0.074045465830377716 0.1046752696361823 0 -0.073611852116476376 0.13336762890443751 0 -0.084165628347530691 0.1216012723361324 0 -0.074045465830377716 0.1046752696361823 0 -0.084165628347530691 0.1216012723361324 0 -0.089901314313172664 0.1042571436022733 0 -0.10023674445333861 0.1155361956819236 0 -0.084165628347530691 0.1216012723361324 0 -0.089901314313172664 0.1042571436022733 0 -0.074045465830377716 0.1046752696361823 0 -0.089901314313172664 0.1042571436022733 0 -0.087623327518894595 0.083145423157403947 0 -0.10343540541572301 0.096327557199727007 0 -0.089901314313172664 0.1042571436022733 0 -0.074045465830377716 0.1046752696361823 0 -0.087623327518894595 0.083145423157403947 0 -0.074045465830377716 0.1046752696361823 0 -0.087623327518894595 0.083145423157403947 0 -0.057179670176449107 0.109912314760487 0 -0.074045465830377716 0.1046752696361823 0 -0.064147684400115548 0.095853742934892627 0 -0.074045465830377716 0.1046752696361823 0 -0.064147684400115548 0.095853742934892627 0 -0.074341688981829912 0.08507408818707933 0 -0.074045465830377716 0.1046752696361823 0 -0.074341688981829912 0.08507408818707933 0 -0.060857795863390497 0.087032123187722146 0 -0.074341688981829912 0.08507408818707933 0 -0.060857795863390497 0.087032123187722146 0 -0.064147684400115548 0.095853742934892627 0 -0.074341688981829912 0.08507408818707933 0 -0.066534978489662708 0.079108445233846816 0 -0.074341688981829912 0.08507408818707933 0 -0.068080391328377177 0.072387673415755763 0 -0.060857795863390497 0.087032123187722146 0 -0.061741248724494067 0.078652582733543572 0 -0.066534978489662708 0.079108445233846816 0 -0.060857795863390497 0.087032123187722146 0 -0.066534978489662708 0.079108445233846816 0 -0.074341688981829912 0.08507408818707933 0 -0.074341688981829912 0.08507408818707933 0 -0.074714783782692432 0.060386284908982402 0 -0.074341688981829912 0.08507408818707933 0 -0.080680745806312737 0.074193106564943989 0 -0.074714783782692432 0.060386284908982402 0 -0.074341688981829912 0.08507408818707933 0 -0.068080391328377177 0.072387673415755763 0 -0.074714783782692432 0.060386284908982402 0 -0.065532296705178308 0.066348102939302114 0 -0.074714783782692432 0.060386284908982402 0 -0.06509328983950699 0.061926611503934907 0 -0.061094736548203903 0.07131553735355993 0 -0.065532296705178308 0.066348102939302114 0 -0.06509328983950699 0.061926611503934907 0 -0.065532296705178308 0.066348102939302114 0 -0.068080391328377177 0.072387673415755763 0 -0.074714783782692432 0.060386284908982402 0 -0.061094736548203903 0.07131553735355993 0 -0.065532296705178308 0.066348102939302114 0 -0.064520682628096501 0.070939346466111997 0 -0.065532296705178308 0.066348102939302114 0 -0.068080391328377177 0.072387673415755763 0 -0.064520682628096501 0.070939346466111997 0 -0.068080391328377177 0.072387673415755763 0 -0.064520682628096501 0.070939346466111997 0 -0.063375305930626624 0.073706072155830166 0 -0.061094736548203903 0.07131553735355993 0 -0.064520682628096501 0.070939346466111997 0 -0.063375305930626624 0.073706072155830166 0 -0.061741248724494067 0.078652582733543572 0 -0.066534978489662708 0.079108445233846816 0 -0.063375305930626624 0.073706072155830166 0 -0.066534978489662708 0.079108445233846816 0 -0.068080391328377177 0.072387673415755763 0 -0.063375305930626624 0.073706072155830166 0 -0.086043182941834412 0.0681666300063129 0 -0.087623327518894595 0.083145423157403947 0 -0.1002445187121974 0.063132529006277513 0 -0.080680745806312737 0.074193106564943989 0 -0.086043182941834412 0.0681666300063129 0 -0.074714783782692432 0.060386284908982402 0 -0.080680745806312737 0.074193106564943989 0 -0.086043182941834412 0.0681666300063129 0 -0.087623327518894595 0.083145423157403947 0 -0.086043182941834412 0.0681666300063129 0 -0.1002445187121974 0.063132529006277513 0 -0.086143465818363435 0.057753794365245539 0 -0.074045465830377716 0.1046752696361823 0 -0.074341688981829912 0.08507408818707933 0 -0.087623327518894595 0.083145423157403947 0 -0.074341688981829912 0.08507408818707933 0 -0.080680745806312737 0.074193106564943989 0 -0.087623327518894595 0.083145423157403947 0 -0.074341688981829912 0.08507408818707933 0 -0.087623327518894595 0.083145423157403947 0 -0.087623327518894595 0.083145423157403947 0 -0.1117253958496696 0.079645492316581787 0 -0.087623327518894595 0.083145423157403947 0 -0.1117253958496696 0.079645492316581787 0 -0.10343540541572301 0.096327557199727007 0 -0.087623327518894595 0.083145423157403947 0 -0.1002445187121974 0.063132529006277513 0 -0.1117253958496696 0.079645492316581787 0 -0.087623327518894595 0.083145423157403947 0 -0.1002445187121974 0.063132529006277513 0 -0.1002445187121974 0.063132529006277513 0 -0.1117253958496696 0.079645492316581787 0 -0.1155279387451971 0.058784820337056759 0 -0.1236179063483689 0.068109104510717458 0 -0.1117253958496696 0.079645492316581787 0 -0.1155279387451971 0.058784820337056759 0 -0.13582746418044511 0.07614556147576243 0 -0.1236179063483689 0.068109104510717458 0 -0.1117253958496696 0.079645492316581787 0 -0.13582746418044511 0.07614556147576243 0 -0.1117253958496696 0.079645492316581787 0 -0.12528968029428239 0.09151819051175078 0 -0.13582746418044511 0.07614556147576243 0 -0.1117253958496696 0.079645492316581787 0 -0.12528968029428239 0.09151819051175078 0 -0.1117253958496696 0.079645492316581787 0 -0.10343540541572301 0.096327557199727007 0 -0.12528968029428239 0.09151819051175078 0 -0.1181426053162586 0.1068152534780261 0 -0.10343540541572301 0.096327557199727007 0 -0.12421186667326629 0.12701614479988779 0 -0.1181426053162586 0.1068152534780261 0 -0.10023674445333861 0.1155361956819236 0 -0.099111108217919353 0.13324881416006179 0 -0.084165628347530691 0.1216012723361324 0 -0.10023674445333861 0.1155361956819236 0 -0.1181426053162586 0.1068152534780261 0 -0.10023674445333861 0.1155361956819236 0 -0.10343540541572301 0.096327557199727007 0 -0.089901314313172664 0.1042571436022733 0 -0.10023674445333861 0.1155361956819236 0 -0.10343540541572301 0.096327557199727007 0 -0.1080282679212924 0.022426888587669409 0 -0.091305967541573163 0.01957656053142939 0 -0.1080282679212924 0.022426888587669409 0 -0.098063217132251843 0.033965854294767402 0 -0.091305967541573163 0.01957656053142939 0 -0.1192272432507404 0.019871391370585571 0 -0.098063217132251843 0.033965854294767402 0 -0.1080282679212924 0.022426888587669409 0 -0.11011813711497111 0.0083671370953676306 0 -0.091305967541573163 0.01957656053142939 0 -0.1080282679212924 0.022426888587669409 0 -0.1192272432507404 0.019871391370585571 0 -0.098063217132251843 0.033965854294767402 0 -0.1014228131153851 -0.0043859886528729566 0 -0.11011813711497111 0.0083671370953676306 0 -0.091305967541573163 0.01957656053142939 0 -0.1014228131153851 -0.0043859886528729566 0 -0.091305967541573163 0.01957656053142939 0 -0.12470345280778559 -0.0046060833266749566 0 -0.11011813711497111 0.0083671370953676306 0 -0.1192272432507404 0.019871391370585571 0 -0.1192272432507404 0.019871391370585571 0 -0.1214102998521855 0.033587953871668602 0 -0.098063217132251843 0.033965854294767402 0 -0.1080282679212924 0.022426888587669409 0 -0.11011813711497111 0.0083671370953676306 0 -0.1192272432507404 0.019871391370585571 0 -0.1214102998521855 0.033587953871668602 0 -0.11286570990549651 0.04311963485514874 0 -0.098063217132251843 0.033965854294767402 0 -0.1214102998521855 0.033587953871668602 0 -0.1240751716511294 0.046421578455218437 0 -0.11286570990549651 0.04311963485514874 0 -0.1240751716511294 0.046421578455218437 0 -0.11286570990549651 0.04311963485514874 0 -0.1155279387451971 0.058784820337056759 0 -0.1313908266181639 0.057860543913468912 0 -0.1240751716511294 0.046421578455218437 0 -0.1155279387451971 0.058784820337056759 0 -0.1313908266181639 0.057860543913468912 0 -0.1236179063483689 0.068109104510717458 0 -0.1155279387451971 0.058784820337056759 0 -0.1002445187121974 0.063132529006277513 0 -0.11286570990549651 0.04311963485514874 0 -0.1155279387451971 0.058784820337056759 0 -0.1002445187121974 0.063132529006277513 0 -0.11286570990549651 0.04311963485514874 0 -0.1002445187121974 0.063132529006277513 0 -0.11286570990549651 0.04311963485514874 0 -0.092815652641329696 0.049023210685705629 0 -0.11286570990549651 0.04311963485514874 0 -0.098063217132251843 0.033965854294767402 0 -0.092815652641329696 0.049023210685705629 0 -0.098063217132251843 0.033965854294767402 0 -0.083644359247809108 0.03772368596006901 0 -0.076899191013763302 0.048060317218949239 0 -0.098063217132251843 0.033965854294767402 0 -0.076899191013763302 0.048060317218949239 0 -0.098063217132251843 0.033965854294767402 0 -0.092815652641329696 0.049023210685705629 0 -0.076899191013763302 0.048060317218949239 0 -0.083644359247809108 0.03772368596006901 0 -0.072426744463611664 0.035811000467901387 0 -0.078901366994303071 0.02750222366739364 0 -0.086143465818363435 0.057753794365245539 0 -0.092815652641329696 0.049023210685705629 0 -0.076899191013763302 0.048060317218949239 0 -0.1002445187121974 0.063132529006277513 0 -0.086143465818363435 0.057753794365245539 0 -0.092815652641329696 0.049023210685705629 0 -0.086143465818363435 0.057753794365245539 0 -0.074714783782692432 0.060386284908982402 0 -0.076899191013763302 0.048060317218949239 0 -0.086043182941834412 0.0681666300063129 0 -0.086143465818363435 0.057753794365245539 0 -0.074714783782692432 0.060386284908982402 0 -0.076899191013763302 0.048060317218949239 0 -0.055735164895275108 0.062154780143131257 0 -0.076899191013763302 0.048060317218949239 0 -0.06509328983950699 0.061926611503934907 0 -0.055735164895275108 0.062154780143131257 0 -0.076899191013763302 0.048060317218949239 0 -0.0632853203537352 0.050054345800853807 0 -0.055735164895275108 0.062154780143131257 0 -0.074714783782692432 0.060386284908982402 0 -0.076899191013763302 0.048060317218949239 0 -0.06509328983950699 0.061926611503934907 0 -0.076899191013763302 0.048060317218949239 0 -0.0632853203537352 0.050054345800853807 0 -0.06528048625160858 0.044666746670563952 0 -0.083644359247809108 0.03772368596006901 0 -0.076899191013763302 0.048060317218949239 0 -0.072426744463611664 0.035811000467901387 0 -0.076899191013763302 0.048060317218949239 0 -0.072426744463611664 0.035811000467901387 0 -0.06528048625160858 0.044666746670563952 0 -0.06528048625160858 0.044666746670563952 0 -0.062953012208252987 0.029506903039056339 0 -0.072426744463611664 0.035811000467901387 0 -0.06528048625160858 0.044666746670563952 0 -0.062953012208252987 0.029506903039056339 0 -0.06528048625160858 0.044666746670563952 0 -0.062953012208252987 0.029506903039056339 0 -0.059544412831866927 0.037006371769700362 0 -0.072426744463611664 0.035811000467901387 0 -0.070174482936861501 0.024825799310277501 0 -0.062953012208252987 0.029506903039056339 0 -0.070174482936861501 0.024825799310277501 0 -0.062953012208252987 0.029506903039056339 0 -0.060625538164902071 0.01434705940754797 0 -0.070174482936861501 0.024825799310277501 0 -0.075965752853237478 0.01696180996948965 0 -0.060625538164902071 0.01434705940754797 0 -0.075965752853237478 0.01696180996948965 0 -0.060625538164902071 0.01434705940754797 0 -0.070174482936861501 0.024825799310277501 0 -0.075965752853237478 0.01696180996948965 0 -0.078901366994303071 0.02750222366739364 0 -0.072426744463611664 0.035811000467901387 0 -0.070174482936861501 0.024825799310277501 0 -0.078901366994303071 0.02750222366739364 0 -0.083644359247809108 0.03772368596006901 0 -0.091305967541573163 0.01957656053142939 0 -0.098063217132251843 0.033965854294767402 0 -0.083644359247809108 0.03772368596006901 0 -0.091305967541573163 0.01957656053142939 0 -0.083644359247809108 0.03772368596006901 0 -0.078901366994303071 0.02750222366739364 0 -0.091305967541573163 0.01957656053142939 0 -0.075965752853237478 0.01696180996948965 0 -0.078901366994303071 0.02750222366739364 0 -0.091305967541573163 0.01957656053142939 0 -0.075965752853237478 0.01696180996948965 0 -0.091305967541573163 0.01957656053142939 0 -0.1014228131153851 -0.0043859886528729566 0 -0.091305967541573163 0.01957656053142939 0 -0.084275503061411641 0.0039398238969450472 0 -0.075965752853237478 0.01696180996948965 0 -0.091305967541573163 0.01957656053142939 0 -0.084275503061411641 0.0039398238969450472 0 -0.075965752853237478 0.01696180996948965 0 -0.071365404289364456 0.00062721705378197237 0 -0.060625538164902071 0.01434705940754797 0 -0.075965752853237478 0.01696180996948965 0 -0.084275503061411641 0.0039398238969450472 0 -0.071365404289364456 0.00062721705378197237 0 -0.057409893885416799 -0.0065978205539030804 0 -0.071365404289364456 0.00062721705378197237 0 -0.060625538164902071 0.01434705940754797 0 -0.055147189569754992 -0.0021387397046248322 0 -0.060625538164902071 0.01434705940754797 0 -0.033097787594703942 0.0096549346404016176 0 -0.057409893885416799 -0.0065978205539030804 0 -0.055147189569754992 -0.0021387397046248322 0 -0.060625538164902071 0.01434705940754797 0 -0.057409893885416799 -0.0065978205539030804 0 -0.060625538164902071 0.01434705940754797 0 -0.062953012208252987 0.029506903039056339 0 -0.060625538164902071 0.01434705940754797 0 -0.062953012208252987 0.029506903039056339 0 -0.060625538164902071 0.01434705940754797 0 -0.054717713613312333 0.02851629819841037 0 -0.054717713613312333 0.02851629819841037 0 -0.046519192877166979 0.020694491951849109 0 -0.043918769909669413 0.029115709654401179 0 -0.060625538164902071 0.01434705940754797 0 -0.054717713613312333 0.02851629819841037 0 -0.046519192877166979 0.020694491951849109 0 -0.046519192877166979 0.020694491951849109 0 -0.037757688123295753 0.022081225075083151 0 -0.033097787594703942 0.0096549346404016176 0 -0.046519192877166979 0.020694491951849109 0 -0.043918769909669413 0.029115709654401179 0 -0.037757688123295753 0.022081225075083151 0 -0.035260774688781728 0.02931696874705543 0 -0.037757688123295753 0.022081225075083151 0 -0.026812522761371221 0.02709411019265379 0 -0.043918769909669413 0.029115709654401179 0 -0.035260774688781728 0.02931696874705543 0 -0.037757688123295753 0.022081225075083151 0 -0.037757688123295753 0.022081225075083151 0 -0.033097787594703942 0.0096549346404016176 0 -0.02695823660923875 0.019042833632498691 0 -0.060625538164902071 0.01434705940754797 0 -0.033097787594703942 0.0096549346404016176 0 -0.055147189569754992 -0.0021387397046248322 0 -0.029463887190312722 -0.0033467651117375062 0 -0.033097787594703942 0.0096549346404016176 0 -0.060625538164902071 0.01434705940754797 0 -0.046519192877166979 0.020694491951849109 0 -0.033097787594703942 0.0096549346404016176 0 -0.055735164895275108 0.062154780143131257 0 -0.048785193081954253 0.053947679377206841 0 -0.055226439254293817 0.045335539170770787 0 -0.0632853203537352 0.050054345800853807 0 -0.055735164895275108 0.062154780143131257 0 -0.055226439254293817 0.045335539170770787 0 -0.055735164895275108 0.062154780143131257 0 -0.055226439254293817 0.045335539170770787 0 -0.053678583838345229 0.063524387480373562 0 -0.055735164895275108 0.062154780143131257 0 -0.048785193081954253 0.053947679377206841 0 -0.048785193081954253 0.053947679377206841 0 -0.055226439254293817 0.045335539170770787 0 -0.04207143762942446 0.045350739154437429 0 -0.054717713613312333 0.02851629819841037 0 -0.055226439254293817 0.045335539170770787 0 -0.054717713613312333 0.02851629819841037 0 -0.055226439254293817 0.045335539170770787 0 -0.047020358570869489 0.037243788064803128 0 -0.054717713613312333 0.02851629819841037 0 -0.055226439254293817 0.045335539170770787 0 -0.059544412831866927 0.037006371769700362 0 -0.055226439254293817 0.045335539170770787 0 -0.047020358570869489 0.037243788064803128 0 -0.04207143762942446 0.045350739154437429 0 -0.0632853203537352 0.050054345800853807 0 -0.06528048625160858 0.044666746670563952 0 -0.055226439254293817 0.045335539170770787 0 -0.06528048625160858 0.044666746670563952 0 -0.055226439254293817 0.045335539170770787 0 -0.059544412831866927 0.037006371769700362 0 -0.062953012208252987 0.029506903039056339 0 -0.054717713613312333 0.02851629819841037 0 -0.059544412831866927 0.037006371769700362 0 -0.054717713613312333 0.02851629819841037 0 -0.043918769909669413 0.029115709654401179 0 -0.047020358570869489 0.037243788064803128 0 -0.043918769909669413 0.029115709654401179 0 -0.047020358570869489 0.037243788064803128 0 -0.036288570832707409 0.037424127209039419 0 -0.035260774688781728 0.02931696874705543 0 -0.036288570832707409 0.037424127209039419 0 -0.024795708716753049 0.037439145881189913 0 -0.043918769909669413 0.029115709654401179 0 -0.035260774688781728 0.02931696874705543 0 -0.036288570832707409 0.037424127209039419 0 -0.036288570832707409 0.037424127209039419 0 -0.04207143762942446 0.045350739154437429 0 -0.030625289474842141 0.044348119221236333 0 -0.047020358570869489 0.037243788064803128 0 -0.036288570832707409 0.037424127209039419 0 -0.04207143762942446 0.045350739154437429 0 -0.02654760097591774 0.066108747830457643 0 -0.048785193081954253 0.053947679377206841 0 -0.033900617481605722 0.052144371460519978 0 -0.02654760097591774 0.066108747830457643 0 -0.053678583838345229 0.063524387480373562 0 -0.048785193081954253 0.053947679377206841 0 -0.048785193081954253 0.053947679377206841 0 -0.04207143762942446 0.045350739154437429 0 -0.033900617481605722 0.052144371460519978 0 -0.04207143762942446 0.045350739154437429 0 -0.033900617481605722 0.052144371460519978 0 -0.030625289474842141 0.044348119221236333 0 -0.02654760097591774 0.066108747830457643 0 -0.021451961654600529 0.050312773111188883 0 -0.010441330557525779 0.058859046213765212 0 -0.02654760097591774 0.066108747830457643 0 -0.033900617481605722 0.052144371460519978 0 -0.021451961654600529 0.050312773111188883 0 -0.033900617481605722 0.052144371460519978 0 -0.021451961654600529 0.050312773111188883 0 -0.030625289474842141 0.044348119221236333 0 -0.021451961654600529 0.050312773111188883 0 -0.024795708716753049 0.037439145881189913 0 -0.012926502307817949 0.045469986544674948 0 -0.036288570832707409 0.037424127209039419 0 -0.030625289474842141 0.044348119221236333 0 -0.024795708716753049 0.037439145881189913 0 -0.021451961654600529 0.050312773111188883 0 -0.030625289474842141 0.044348119221236333 0 -0.024795708716753049 0.037439145881189913 0 -0.035260774688781728 0.02931696874705543 0 -0.024795708716753049 0.037439145881189913 0 -0.026812522761371221 0.02709411019265379 0 -0.024795708716753049 0.037439145881189913 0 -0.0151521216588009 0.03260883839630109 0 -0.026812522761371221 0.02709411019265379 0 -0.024795708716753049 0.037439145881189913 0 -0.0151521216588009 0.03260883839630109 0 -0.012926502307817949 0.045469986544674948 0 -0.0151521216588009 0.03260883839630109 0 -0.0062985704424687369 0.03923704008544885 0 -0.0072786743432509456 0.03092245569401289 0 -3.8859931269809771e-05 0.027719798552577741 0 -0.0072786743432509456 0.03092245569401289 0 0.0041311244706536063 0.037187358634262549 0 -0.0062985704424687369 0.03923704008544885 0 -0.0072786743432509456 0.03092245569401289 0 0.0041311244706536063 0.037187358634262549 0 -0.0062985704424687369 0.03923704008544885 0 -0.0036203543111806421 0.051064949989090121 0 0.002247678540354155 0.045190845346159289 0 -0.0062985704424687369 0.03923704008544885 0 -0.012926502307817949 0.045469986544674948 0 -0.0036203543111806421 0.051064949989090121 0 -0.0151521216588009 0.03260883839630109 0 -0.0062985704424687369 0.03923704008544885 0 -0.012926502307817949 0.045469986544674948 0 -0.012926502307817949 0.045469986544674948 0 -0.0036203543111806421 0.051064949989090121 0 -0.010441330557525779 0.058859046213765212 0 -0.021451961654600529 0.050312773111188883 0 -0.012926502307817949 0.045469986544674948 0 -0.010441330557525779 0.058859046213765212 0 -0.0036203543111806421 0.051064949989090121 0 -0.00060082634844675447 0.059339562597417038 0 -0.010441330557525779 0.058859046213765212 0 -0.00060082634844675447 0.059339562597417038 0 -0.010441330557525779 0.058859046213765212 0 0.00058338188650974149 0.068693108180541515 0 -0.029463887190312722 -0.0033467651117375062 0 -0.033097787594703942 0.0096549346404016176 0 -0.0055700370245055711 0.0049628098732567346 0 -0.033097787594703942 0.0096549346404016176 0 -0.0173653101375205 0.015358842944252179 0 -0.0055700370245055711 0.0049628098732567346 0 -0.033097787594703942 0.0096549346404016176 0 -0.0173653101375205 0.015358842944252179 0 -0.02695823660923875 0.019042833632498691 0 -0.033097787594703942 0.0096549346404016176 0 -0.0055700370245055711 0.0049628098732567346 0 -0.037757688123295753 0.022081225075083151 0 -0.02695823660923875 0.019042833632498691 0 -0.026812522761371221 0.02709411019265379 0 -0.02695823660923875 0.019042833632498691 0 -0.026812522761371221 0.02709411019265379 0 -0.01919504393902129 0.023402143621146811 0 -0.0151521216588009 0.03260883839630109 0 -0.026812522761371221 0.02709411019265379 0 -0.01919504393902129 0.023402143621146811 0 -0.0173653101375205 0.015358842944252179 0 -0.02695823660923875 0.019042833632498691 0 -0.01919504393902129 0.023402143621146811 0 -0.0173653101375205 0.015358842944252179 0 -0.0096870285281750804 0.022906092940028301 0 -0.0070020017169459998 0.01414707748864759 0 -0.0173653101375205 0.015358842944252179 0 -0.01919504393902129 0.023402143621146811 0 -0.0096870285281750804 0.022906092940028301 0 -0.0151521216588009 0.03260883839630109 0 -0.0096870285281750804 0.022906092940028301 0 -0.0072786743432509456 0.03092245569401289 0 -0.0151521216588009 0.03260883839630109 0 -0.01919504393902129 0.023402143621146811 0 -0.0096870285281750804 0.022906092940028301 0 -0.0096870285281750804 0.022906092940028301 0 -3.8859931269809771e-05 0.027719798552577741 0 -0.0072786743432509456 0.03092245569401289 0 -0.0096870285281750804 0.022906092940028301 0 -3.8859931269809771e-05 0.027719798552577741 0 -0.0017775426417137731 0.017867627263828172 0 -0.0096870285281750804 0.022906092940028301 0 -0.0017775426417137731 0.017867627263828172 0 -0.0070020017169459998 0.01414707748864759 0 -0.0017775426417137731 0.017867627263828172 0 -0.00095399987968280845 0.01147662331624408 0 -0.0070020017169459998 0.01414707748864759 0 -0.00095399987968280845 0.01147662331624408 0 -0.0070020017169459998 0.01414707748864759 0 -0.0055700370245055711 0.0049628098732567346 0 -0.0173653101375205 0.015358842944252179 0 -0.0070020017169459998 0.01414707748864759 0 -0.0055700370245055711 0.0049628098732567346 0 -0.00095399987968280845 0.01147662331624408 0 -0.0055700370245055711 0.0049628098732567346 0 0.0050642399356044168 0.0067179476538266718 0 -0.0055700370245055711 0.0049628098732567346 0 0.0050642399356044168 0.0067179476538266718 0 0.02195771354569279 0.00027068510611185341 0 0.0050642399356044168 0.0067179476538266718 0 0.02195771354569279 0.00027068510611185341 0 0.01600560503876839 0.005481748362517515 0 -0.0055700370245055711 0.0049628098732567346 0 0.02195771354569279 0.00027068510611185341 0 -0.0037805848108704472 -0.0045547905188501802 0 -0.0055700370245055711 0.0049628098732567346 0 0.02195771354569279 0.00027068510611185341 0 0.0050642399356044168 0.0067179476538266718 0 0.01600560503876839 0.005481748362517515 0 0.01564988937870115 0.008496454742550336 0 0.01048115310955532 0.016035962826543831 0 0.017543732670180411 0.0171615668797633 0 0.01564988937870115 0.008496454742550336 0 0.0050642399356044168 0.0067179476538266718 0 0.0089461513616016647 0.01114802045102207 0 0.01564988937870115 0.008496454742550336 0 0.0089461513616016647 0.01114802045102207 0 0.01048115310955532 0.016035962826543831 0 0.01564988937870115 0.008496454742550336 0 0.0089461513616016647 0.01114802045102207 0 0.0045153420491468874 0.0136876543016612 0 0.01048115310955532 0.016035962826543831 0 0.0050642399356044168 0.0067179476538266718 0 0.0089461513616016647 0.01114802045102207 0 0.0045153420491468874 0.0136876543016612 0 -0.00095399987968280845 0.01147662331624408 0 0.0050642399356044168 0.0067179476538266718 0 0.0045153420491468874 0.0136876543016612 0 -0.0017775426417137731 0.017867627263828172 0 -0.00095399987968280845 0.01147662331624408 0 0.0045153420491468874 0.0136876543016612 0 -0.0017775426417137731 0.017867627263828172 0 0.0045153420491468874 0.0136876543016612 0 0.0049881407826487716 0.020716353192873901 0 -3.8859931269809771e-05 0.027719798552577741 0 -0.0017775426417137731 0.017867627263828172 0 0.0049881407826487716 0.020716353192873901 0 0.0045153420491468874 0.0136876543016612 0 0.0049881407826487716 0.020716353192873901 0 0.01048115310955532 0.016035962826543831 0 -3.8859931269809771e-05 0.027719798552577741 0 0.0081304455806060615 0.026435064458912211 0 0.0079856734183715097 0.03212105728172597 0 -3.8859931269809771e-05 0.027719798552577741 0 0.0049881407826487716 0.020716353192873901 0 0.0081304455806060615 0.026435064458912211 0 0.0081304455806060615 0.026435064458912211 0 0.01376415578664833 0.028700767963039511 0 0.0079856734183715097 0.03212105728172597 0 0.0081304455806060615 0.026435064458912211 0 0.01376415578664833 0.028700767963039511 0 0.01255428945724511 0.022072845731092781 0 0.01376415578664833 0.028700767963039511 0 0.01255428945724511 0.022072845731092781 0 0.01916839385342935 0.024477846738442451 0 0.0049881407826487716 0.020716353192873901 0 0.0081304455806060615 0.026435064458912211 0 0.01255428945724511 0.022072845731092781 0 0.0049881407826487716 0.020716353192873901 0 0.01048115310955532 0.016035962826543831 0 0.01255428945724511 0.022072845731092781 0 0.01048115310955532 0.016035962826543831 0 0.01255428945724511 0.022072845731092781 0 0.017543732670180411 0.0171615668797633 0 0.017543732670180411 0.0171615668797633 0 0.0257994418812049 0.019364344210664922 0 0.023463378769256811 0.012357843682270759 0 0.017543732670180411 0.0171615668797633 0 0.01916839385342935 0.024477846738442451 0 0.0257994418812049 0.019364344210664922 0 0.01255428945724511 0.022072845731092781 0 0.017543732670180411 0.0171615668797633 0 0.01916839385342935 0.024477846738442451 0 0.01916839385342935 0.024477846738442451 0 0.02770326633788921 0.027256273474278388 0 0.020540453802791708 0.031683096839066387 0 0.01376415578664833 0.028700767963039511 0 0.01916839385342935 0.024477846738442451 0 0.020540453802791708 0.031683096839066387 0 0.01916839385342935 0.024477846738442451 0 0.02770326633788921 0.027256273474278388 0 0.0257994418812049 0.019364344210664922 0 0.0257994418812049 0.019364344210664922 0 0.031931747711186363 0.013323949476079591 0 0.034986131945287241 0.02160858501315506 0 0.02770326633788921 0.027256273474278388 0 0.0257994418812049 0.019364344210664922 0 0.034986131945287241 0.02160858501315506 0 0.0257994418812049 0.019364344210664922 0 0.023463378769256811 0.012357843682270759 0 0.031931747711186363 0.013323949476079591 0 0.023463378769256811 0.012357843682270759 0 0.02752310910411386 0.0076120665755113016 0 0.031931747711186363 0.013323949476079591 0 0.023463378769256811 0.012357843682270759 0 0.02752310910411386 0.0076120665755113016 0 0.02135057729507521 0.0064419059475812022 0 0.02752310910411386 0.0076120665755113016 0 0.02195771354569279 0.00027068510611185341 0 0.03704068486499465 0.0056634933642452454 0 0.02752310910411386 0.0076120665755113016 0 0.02135057729507521 0.0064419059475812022 0 0.02195771354569279 0.00027068510611185341 0 0.02135057729507521 0.0064419059475812022 0 0.02195771354569279 0.00027068510611185341 0 0.01600560503876839 0.005481748362517515 0 0.02135057729507521 0.0064419059475812022 0 0.01600560503876839 0.005481748362517515 0 0.01564988937870115 0.008496454742550336 0 0.017543732670180411 0.0171615668797633 0 0.023463378769256811 0.012357843682270759 0 0.01564988937870115 0.008496454742550336 0 0.023463378769256811 0.012357843682270759 0 0.02135057729507521 0.0064419059475812022 0 0.01564988937870115 0.008496454742550336 0 0.013655421299077011 0.062036394183622431 0 0.0060982775645236978 0.054964218203853332 0 0.016532909339780751 0.054697802865331983 0 0.013655421299077011 0.062036394183622431 0 0.005200182148118019 0.062070433690284643 0 0.0060982775645236978 0.054964218203853332 0 -0.0036203543111806421 0.051064949989090121 0 -0.00060082634844675447 0.059339562597417038 0 0.0060982775645236978 0.054964218203853332 0 -0.00060082634844675447 0.059339562597417038 0 0.005200182148118019 0.062070433690284643 0 0.0060982775645236978 0.054964218203853332 0 0.0060982775645236978 0.054964218203853332 0 0.0096932941904509622 0.046100171246030289 0 0.002247678540354155 0.045190845346159289 0 -0.0036203543111806421 0.051064949989090121 0 0.0060982775645236978 0.054964218203853332 0 0.002247678540354155 0.045190845346159289 0 0.0060982775645236978 0.054964218203853332 0 0.0096932941904509622 0.046100171246030289 0 0.016532909339780751 0.054697802865331983 0 0.0096932941904509622 0.046100171246030289 0 0.020338963029098749 0.044954500170984443 0 0.016532909339780751 0.054697802865331983 0 0.0096932941904509622 0.046100171246030289 0 0.014043353638770011 0.041396703381813699 0 0.0041311244706536063 0.037187358634262549 0 0.0096932941904509622 0.046100171246030289 0 0.014043353638770011 0.041396703381813699 0 0.020338963029098749 0.044954500170984443 0 0.0096932941904509622 0.046100171246030289 0 0.002247678540354155 0.045190845346159289 0 0.0041311244706536063 0.037187358634262549 0 -0.0062985704424687369 0.03923704008544885 0 0.002247678540354155 0.045190845346159289 0 0.0041311244706536063 0.037187358634262549 0 -3.8859931269809771e-05 0.027719798552577741 0 0.0041311244706536063 0.037187358634262549 0 0.0079856734183715097 0.03212105728172597 0 0.014043353638770011 0.041396703381813699 0 0.0041311244706536063 0.037187358634262549 0 0.01365173384053326 0.035261135218780527 0 0.0041311244706536063 0.037187358634262549 0 0.0079856734183715097 0.03212105728172597 0 0.01365173384053326 0.035261135218780527 0 0.01376415578664833 0.028700767963039511 0 0.0079856734183715097 0.03212105728172597 0 0.01365173384053326 0.035261135218780527 0 0.01948513628611814 0.038055046960570549 0 0.020540453802791708 0.031683096839066387 0 0.02885117711939696 0.036979799192207667 0 0.01376415578664833 0.028700767963039511 0 0.01365173384053326 0.035261135218780527 0 0.020540453802791708 0.031683096839066387 0 0.01365173384053326 0.035261135218780527 0 0.01948513628611814 0.038055046960570549 0 0.020540453802791708 0.031683096839066387 0 0.014043353638770011 0.041396703381813699 0 0.01365173384053326 0.035261135218780527 0 0.01948513628611814 0.038055046960570549 0 0.02770326633788921 0.027256273474278388 0 0.020540453802791708 0.031683096839066387 0 0.02885117711939696 0.036979799192207667 0 0.02885117711939696 0.036979799192207667 0 0.029942600976039568 0.046216318443505877 0 0.020338963029098749 0.044954500170984443 0 0.01948513628611814 0.038055046960570549 0 0.02885117711939696 0.036979799192207667 0 0.020338963029098749 0.044954500170984443 0 0.014043353638770011 0.041396703381813699 0 0.01948513628611814 0.038055046960570549 0 0.020338963029098749 0.044954500170984443 0 0.020338963029098749 0.044954500170984443 0 0.016532909339780751 0.054697802865331983 0 0.024731973733742901 0.051858254981941618 0 0.029942600976039568 0.046216318443505877 0 0.024731973733742901 0.051858254981941618 0 0.033706152772870979 0.054017737361368418 0 0.029942600976039568 0.046216318443505877 0 0.020338963029098749 0.044954500170984443 0 0.024731973733742901 0.051858254981941618 0 0.024731973733742901 0.051858254981941618 0 0.025803412106592649 0.060515333631097713 0 0.033706152772870979 0.054017737361368418 0 0.013655421299077011 0.062036394183622431 0 0.016532909339780751 0.054697802865331983 0 0.025803412106592649 0.060515333631097713 0 0.016532909339780751 0.054697802865331983 0 0.024731973733742901 0.051858254981941618 0 0.025803412106592649 0.060515333631097713 0 0.043079692443665878 0.054299117395612051 0 0.055025863673827259 0.055699086985823709 0 0.040946979778779473 0.06397700773202461 0 0.033706152772870979 0.054017737361368418 0 0.043079692443665878 0.054299117395612051 0 0.040946979778779473 0.06397700773202461 0 0.025803412106592649 0.060515333631097713 0 0.033706152772870979 0.054017737361368418 0 0.040946979778779473 0.06397700773202461 0 0.029942600976039568 0.046216318443505877 0 0.033706152772870979 0.054017737361368418 0 0.042639773549185807 0.043502637503231488 0 0.033706152772870979 0.054017737361368418 0 0.043079692443665878 0.054299117395612051 0 0.042639773549185807 0.043502637503231488 0 0.042639773549185807 0.043502637503231488 0 0.037738533288155747 0.031339612408780741 0 0.049484392809002277 0.02639565561664985 0 0.02885117711939696 0.036979799192207667 0 0.029942600976039568 0.046216318443505877 0 0.042639773549185807 0.043502637503231488 0 0.02885117711939696 0.036979799192207667 0 0.042639773549185807 0.043502637503231488 0 0.037738533288155747 0.031339612408780741 0 0.02770326633788921 0.027256273474278388 0 0.02885117711939696 0.036979799192207667 0 0.037738533288155747 0.031339612408780741 0 0.042639773549185807 0.043502637503231488 0 0.060360837052947688 0.037280296658570571 0 0.055025863673827259 0.055699086985823709 0 0.042639773549185807 0.043502637503231488 0 0.060360837052947688 0.037280296658570571 0 0.049484392809002277 0.02639565561664985 0 0.043079692443665878 0.054299117395612051 0 0.042639773549185807 0.043502637503231488 0 0.055025863673827259 0.055699086985823709 0 0.02195771354569279 0.00027068510611185341 0 0.03704068486499465 0.0056634933642452454 0 0.049485464115891477 -0.0044214396610316922 0 0.041520090846527052 0.014264811507737511 0 0.03704068486499465 0.0056634933642452454 0 0.050705301798887457 0.009804714611996555 0 0.03704068486499465 0.0056634933642452454 0 0.050705301798887457 0.009804714611996555 0 0.049485464115891477 -0.0044214396610316922 0 0.02752310910411386 0.0076120665755113016 0 0.03704068486499465 0.0056634933642452454 0 0.031931747711186363 0.013323949476079591 0 0.041520090846527052 0.014264811507737511 0 0.03704068486499465 0.0056634933642452454 0 0.031931747711186363 0.013323949476079591 0 0.041520090846527052 0.014264811507737511 0 0.031931747711186363 0.013323949476079591 0 0.034986131945287241 0.02160858501315506 0 0.02770326633788921 0.027256273474278388 0 0.037738533288155747 0.031339612408780741 0 0.034986131945287241 0.02160858501315506 0 0.037738533288155747 0.031339612408780741 0 0.034986131945287241 0.02160858501315506 0 0.049484392809002277 0.02639565561664985 0 0.041520090846527052 0.014264811507737511 0 0.034986131945287241 0.02160858501315506 0 0.049484392809002277 0.02639565561664985 0 0.060360837052947688 0.037280296658570571 0 0.049484392809002277 0.02639565561664985 0 0.063987884188526009 0.01504346202290696 0 0.049484392809002277 0.02639565561664985 0 0.050705301798887457 0.009804714611996555 0 0.063987884188526009 0.01504346202290696 0 0.041520090846527052 0.014264811507737511 0 0.049484392809002277 0.02639565561664985 0 0.050705301798887457 0.009804714611996555 0 0.063987884188526009 0.01504346202290696 0 0.049485464115891477 -0.0044214396610316922 0 0.050705301798887457 0.009804714611996555 0 0.063987884188526009 0.01504346202290696 0 0.049485464115891477 -0.0044214396610316922 0 0.063722833214531371 0.0012779862689838799 0 0.063987884188526009 0.01504346202290696 0 0.049485464115891477 -0.0044214396610316922 0 0.063722833214531371 0.0012779862689838799 0 0.063987884188526009 0.01504346202290696 0 0.075980605946258856 0.005337783885724247 0 0.063987884188526009 0.01504346202290696 0 0.075980605946258856 0.005337783885724247 0 0.088072124082277894 0.01326935295464899 0 0.075980605946258856 0.005337783885724247 0 0.088072124082277894 0.01326935295464899 0 0.096943631097903618 -0.01251071815590111 0 0.088072124082277894 0.01326935295464899 0 0.078490304261161103 0.034508363706845332 0 0.10109097237402399 0.03108108960838786 0 0.060360837052947688 0.037280296658570571 0 0.063987884188526009 0.01504346202290696 0 0.078490304261161103 0.034508363706845332 0 0.063987884188526009 0.01504346202290696 0 0.078490304261161103 0.034508363706845332 0 0.063987884188526009 0.01504346202290696 0 0.088072124082277894 0.01326935295464899 0 0.078490304261161103 0.034508363706845332 0 0.060360837052947688 0.037280296658570571 0 0.072253343498573291 0.048718726283335533 0 0.078490304261161103 0.034508363706845332 0 0.055025863673827259 0.055699086985823709 0 0.072253343498573291 0.048718726283335533 0 0.071925214028914969 0.063755865574115653 0 0.060360837052947688 0.037280296658570571 0 0.055025863673827259 0.055699086985823709 0 0.072253343498573291 0.048718726283335533 0 0.072253343498573291 0.048718726283335533 0 0.092992724333796101 0.053973265390783579 0 0.071925214028914969 0.063755865574115653 0 0.092992724333796101 0.053973265390783579 0 0.078490304261161103 0.034508363706845332 0 0.10109097237402399 0.03108108960838786 0 0.092992724333796101 0.053973265390783579 0 0.078490304261161103 0.034508363706845332 0 0.072253343498573291 0.048718726283335533 0 0.092992724333796101 0.053973265390783579 0 0.078490304261161103 0.034508363706845332 0 0.092992724333796101 0.053973265390783579 0 0.11252852835466309 0.048519100547279627 0 0.10109097237402399 0.03108108960838786 0 0.092992724333796101 0.053973265390783579 0 0.11252852835466309 0.048519100547279627 0 0.10696001067640409 0.073854650715534986 0 0.11252852835466309 0.048519100547279627 0 0.1218844397962445 0.063850842824124454 0 0.1315586501983603 0.046849318201028597 0 0.11252852835466309 0.048519100547279627 0 0.1218844397962445 0.063850842824124454 0 0.10696001067640409 0.073854650715534986 0 0.11252852835466309 0.048519100547279627 0 0.12316692863345589 0.026054144435575698 0 0.10109097237402399 0.03108108960838786 0 0.11252852835466309 0.048519100547279627 0 0.12316692863345589 0.026054144435575698 0 0.1315586501983603 0.046849318201028597 0 0.12316692863345589 0.026054144435575698 0 0.111748691765997 0.0062994286708312674 0 0.10109097237402399 0.03108108960838786 0 0.12316692863345589 0.026054144435575698 0 0.111748691765997 0.0062994286708312674 0 0.13901877174334179 0.0058069614355472322 0 0.088072124082277894 0.01326935295464899 0 0.111748691765997 0.0062994286708312674 0 0.096943631097903618 -0.01251071815590111 0 0.088072124082277894 0.01326935295464899 0 0.111748691765997 0.0062994286708312674 0 0.10109097237402399 0.03108108960838786 0 0.1049309149624791 0.10171036192771379 0 0.095263339037144928 0.1148773264796832 0 0.086991710403399064 0.099247132944805888 0 0.095263339037144928 0.1148773264796832 0 0.10984246150268789 0.11529597629730109 0 0.11908437462151041 0.1246492547752462 0 0.095263339037144928 0.1148773264796832 0 0.11908437462151041 0.1246492547752462 0 0.1011992594238136 0.13432757037802651 0 0.095263339037144928 0.1148773264796832 0 0.11908437462151041 0.1246492547752462 0 0.1049309149624791 0.10171036192771379 0 0.095263339037144928 0.1148773264796832 0 0.10984246150268789 0.11529597629730109 0 0.1049309149624791 0.10171036192771379 0 0.1214337654292612 0.1206876101045128 0 0.1049309149624791 0.10171036192771379 0 0.1214337654292612 0.1206876101045128 0 0.1200850186641071 0.10971888276308971 0 0.1049309149624791 0.10171036192771379 0 0.10984246150268789 0.11529597629730109 0 0.1214337654292612 0.1206876101045128 0 0.10984246150268789 0.11529597629730109 0 0.1214337654292612 0.1206876101045128 0 0.11908437462151041 0.1246492547752462 0 0.1214337654292612 0.1206876101045128 0 0.1200850186641071 0.10971888276308971 0 0.12920432287192471 0.1142256489593122 0 0.1200850186641071 0.10971888276308971 0 0.1253062105446589 0.10636848884423419 0 0.12920432287192471 0.1142256489593122 0 0.1200850186641071 0.10971888276308971 0 0.1189882972733952 0.1024226391398724 0 0.1253062105446589 0.10636848884423419 0 0.1189882972733952 0.1024226391398724 0 0.12567030407927129 0.098681093654136853 0 0.1253062105446589 0.10636848884423419 0 0.1049309149624791 0.10171036192771379 0 0.1200850186641071 0.10971888276308971 0 0.1189882972733952 0.1024226391398724 0 0.1049309149624791 0.10171036192771379 0 0.1189882972733952 0.1024226391398724 0 0.1171506858609986 0.090705155522805281 0 0.1189882972733952 0.1024226391398724 0 0.1171506858609986 0.090705155522805281 0 0.12567030407927129 0.098681093654136853 0 0.1171506858609986 0.090705155522805281 0 0.10696001067640409 0.073854650715534986 0 0.12841296365015989 0.078558082126259296 0 0.1171506858609986 0.090705155522805281 0 0.10696001067640409 0.073854650715534986 0 0.10436741899889471 0.087250820479242194 0 0.1218844397962445 0.063850842824124454 0 0.10696001067640409 0.073854650715534986 0 0.12841296365015989 0.078558082126259296 0 0.092992724333796101 0.053973265390783579 0 0.10696001067640409 0.073854650715534986 0 0.088428064495697067 0.082733113750914744 0 0.1049309149624791 0.10171036192771379 0 0.10436741899889471 0.087250820479242194 0 0.088428064495697067 0.082733113750914744 0 0.10696001067640409 0.073854650715534986 0 0.10436741899889471 0.087250820479242194 0 0.088428064495697067 0.082733113750914744 0 0.1049309149624791 0.10171036192771379 0 0.088428064495697067 0.082733113750914744 0 0.1049309149624791 0.10171036192771379 0 0.1171506858609986 0.090705155522805281 0 0.10436741899889471 0.087250820479242194 0 0.088428064495697067 0.082733113750914744 0 0.067244527098883122 0.087786029510364599 0 0.086991710403399064 0.099247132944805888 0 0.088428064495697067 0.082733113750914744 0 0.071925214028914969 0.063755865574115653 0 0.092992724333796101 0.053973265390783579 0 0.088428064495697067 0.082733113750914744 0 0.071925214028914969 0.063755865574115653 0 0.071925214028914969 0.063755865574115653 0 0.067244527098883122 0.087786029510364599 0 0.054845347611364621 0.073861828880709246 0 0.088428064495697067 0.082733113750914744 0 0.071925214028914969 0.063755865574115653 0 0.067244527098883122 0.087786029510364599 0 0.067244527098883122 0.087786029510364599 0 0.071442303452779438 0.1051053981841203 0 0.086991710403399064 0.099247132944805888 0 0.1049309149624791 0.10171036192771379 0 0.088428064495697067 0.082733113750914744 0 0.086991710403399064 0.099247132944805888 0 0.095263339037144928 0.1148773264796832 0 0.071442303452779438 0.1051053981841203 0 0.086991710403399064 0.099247132944805888 0 0.095263339037144928 0.1148773264796832 0 0.071442303452779438 0.1051053981841203 0 0.095263339037144928 0.1148773264796832 0 0.071442303452779438 0.1051053981841203 0 0.083503428854915782 0.12891477582055669 0 0.071442303452779438 0.1051053981841203 0 0.083503428854915782 0.12891477582055669 0 0.064311449026543455 0.13511771870872949 0 0.071442303452779438 0.1051053981841203 0 0.049036282041468149 0.1181328813302224 0 0.064311449026543455 0.13511771870872949 0 0.067244527098883122 0.087786029510364599 0 0.071442303452779438 0.1051053981841203 0 0.047621267868414002 0.095333469888557426 0 0.071442303452779438 0.1051053981841203 0 0.049036282041468149 0.1181328813302224 0 0.047621267868414002 0.095333469888557426 0 0.071442303452779438 0.1051053981841203 0 0.047621267868414002 0.095333469888557426 0 0.049036282041468149 0.1181328813302224 0 0.047621267868414002 0.095333469888557426 0 0.029133689476611751 0.1068191049588739 0 0.047621267868414002 0.095333469888557426 0 0.023800232284048501 0.085561541592994839 0 0.029133689476611751 0.1068191049588739 0 0.049036282041468149 0.1181328813302224 0 0.0306044288722967 0.1234706617642817 0 0.029133689476611751 0.1068191049588739 0 0.055025863673827259 0.055699086985823709 0 0.071925214028914969 0.063755865574115653 0 0.054845347611364621 0.073861828880709246 0 0.055025863673827259 0.055699086985823709 0 0.054845347611364621 0.073861828880709246 0 0.040946979778779473 0.06397700773202461 0 0.067244527098883122 0.087786029510364599 0 0.047621267868414002 0.095333469888557426 0 0.054845347611364621 0.073861828880709246 0 0.047621267868414002 0.095333469888557426 0 0.054845347611364621 0.073861828880709246 0 0.038411981967420017 0.07839065940281445 0 0.047621267868414002 0.095333469888557426 0 0.023800232284048501 0.085561541592994839 0 0.047621267868414002 0.095333469888557426 0 0.038411981967420017 0.07839065940281445 0 0.023800232284048501 0.085561541592994839 0 0.054845347611364621 0.073861828880709246 0 0.027714364748937199 0.071277468530625387 0 0.054845347611364621 0.073861828880709246 0 0.038411981967420017 0.07839065940281445 0 0.027714364748937199 0.071277468530625387 0 0.054845347611364621 0.073861828880709246 0 0.040946979778779473 0.06397700773202461 0 0.027714364748937199 0.071277468530625387 0 0.025803412106592649 0.060515333631097713 0 0.040946979778779473 0.06397700773202461 0 0.027714364748937199 0.071277468530625387 0 0.013655421299077011 0.062036394183622431 0 0.025803412106592649 0.060515333631097713 0 0.027714364748937199 0.071277468530625387 0 0.027714364748937199 0.071277468530625387 0 0.023800232284048501 0.085561541592994839 0 0.01362757528827758 0.075404108964452099 0 0.038411981967420017 0.07839065940281445 0 0.023800232284048501 0.085561541592994839 0 0.038411981967420017 0.07839065940281445 0 0.027714364748937199 0.071277468530625387 0 0.023800232284048501 0.085561541592994839 0 -0.0010079970578314029 0.097736462038016503 0 0.023800232284048501 0.085561541592994839 0 0.023800232284048501 0.085561541592994839 0 0.01362757528827758 0.075404108964452099 0 0.0008706457380241589 0.076155305882498497 0 0.023800232284048501 0.085561541592994839 0 0.0008706457380241589 0.076155305882498497 0 -0.0010079970578314029 0.097736462038016503 0 0.023800232284048501 0.085561541592994839 0 0.0008706457380241589 0.076155305882498497 0 0.027714364748937199 0.071277468530625387 0 0.00058338188650974149 0.068693108180541515 0 0.013655421299077011 0.062036394183622431 0 0.027714364748937199 0.071277468530625387 0 0.00058338188650974149 0.068693108180541515 0 0.027714364748937199 0.071277468530625387 0 0.01362757528827758 0.075404108964452099 0 0.00058338188650974149 0.068693108180541515 0 0.01362757528827758 0.075404108964452099 0 0.0008706457380241589 0.076155305882498497 0 0.00058338188650974149 0.068693108180541515 0 0.013655421299077011 0.062036394183622431 0 0.005200182148118019 0.062070433690284643 0 0.00058338188650974149 0.068693108180541515 0 -0.00060082634844675447 0.059339562597417038 0 0.005200182148118019 0.062070433690284643 0 0.00058338188650974149 0.068693108180541515 0 0.0306044288722967 0.1234706617642817 0 0.029133689476611751 0.1068191049588739 0 0.0089234202042218491 0.119636660019085 0 0.029133689476611751 0.1068191049588739 0 0.015212336226762669 0.1024384421522426 0 0.0089234202042218491 0.119636660019085 0 0.023800232284048501 0.085561541592994839 0 0.029133689476611751 0.1068191049588739 0 0.015212336226762669 0.1024384421522426 0 -0.0010079970578314029 0.097736462038016503 0 0.023800232284048501 0.085561541592994839 0 0.015212336226762669 0.1024384421522426 0 -0.0010079970578314029 0.097736462038016503 0 0.015212336226762669 0.1024384421522426 0 0.0089234202042218491 0.119636660019085 0 -0.00074169112318280927 0.1271885440150792 0 -0.0075495683861862093 0.1175268655262842 0 0.0089234202042218491 0.119636660019085 0 -0.0075495683861862093 0.1175268655262842 0 -0.0010079970578314029 0.097736462038016503 0 0.0089234202042218491 0.119636660019085 0 -0.0035354357301469932 0.13621453203073661 0 -0.00074169112318280927 0.1271885440150792 0 0.0064243703255477897 0.13434232116053221 0 -0.00074169112318280927 0.1271885440150792 0 0.0089234202042218491 0.119636660019085 0 0.0064243703255477897 0.13434232116053221 0 0.0064243703255477897 0.13434232116053221 0 0.011764257538606481 0.14525505972588529 0 0.00038689558867741687 0.14221945409500009 0 -0.0035354357301469932 0.13621453203073661 0 0.0064243703255477897 0.13434232116053221 0 0.00038689558867741687 0.14221945409500009 0 0.0064243703255477897 0.13434232116053221 0 0.019118703931521971 0.1325358551507983 0 0.011764257538606481 0.14525505972588529 0 0.0089234202042218491 0.119636660019085 0 0.0064243703255477897 0.13434232116053221 0 0.019118703931521971 0.1325358551507983 0 0.0306044288722967 0.1234706617642817 0 0.0089234202042218491 0.119636660019085 0 0.019118703931521971 0.1325358551507983 0 0.0306044288722967 0.1234706617642817 0 0.019118703931521971 0.1325358551507983 0 0.033939586267659798 0.13805348686062111 0 0.019118703931521971 0.1325358551507983 0 0.026902788272917241 0.15208661628889561 0 0.033939586267659798 0.13805348686062111 0 0.019118703931521971 0.1325358551507983 0 0.026902788272917241 0.15208661628889561 0 0.011764257538606481 0.14525505972588529 0 0.026902788272917241 0.15208661628889561 0 0.011764257538606481 0.14525505972588529 0 0.01351409608450996 0.15659444804796091 0 0.011764257538606481 0.14525505972588529 0 0.0030039891894815562 0.15161017628605661 0 0.01351409608450996 0.15659444804796091 0 0.011764257538606481 0.14525505972588529 0 0.00038689558867741687 0.14221945409500009 0 0.0030039891894815562 0.15161017628605661 0 -0.00070336967280846575 0.1642978841142787 0 0.0030039891894815562 0.15161017628605661 0 0.01351409608450996 0.15659444804796091 0 -0.00070336967280846575 0.1642978841142787 0 0.01351409608450996 0.15659444804796091 0 0.020193097168975511 0.1695445213161092 0 -0.0048120788223905506 0.17858148515489011 0 -0.00070336967280846575 0.1642978841142787 0 0.0099020368114460834 0.18726583886862469 0 -0.00070336967280846575 0.1642978841142787 0 0.0099020368114460834 0.18726583886862469 0 0.020193097168975511 0.1695445213161092 0 -0.00070336967280846575 0.1642978841142787 0 0.0099020368114460834 0.18726583886862469 0 -0.0048120788223905506 0.17858148515489011 0 0.0099020368114460834 0.18726583886862469 0 0.0019515735538277489 0.193650941013737 0 0.0099020368114460834 0.18726583886862469 0 0.02939156878000904 0.18474958718378801 0 0.020193097168975511 0.1695445213161092 0 0.02939156878000904 0.18474958718378801 0 0.020193097168975511 0.1695445213161092 0 0.042458280654134942 0.17151816826310221 0 0.026902788272917241 0.15208661628889561 0 0.020193097168975511 0.1695445213161092 0 0.042458280654134942 0.17151816826310221 0 0.026902788272917241 0.15208661628889561 0 0.01351409608450996 0.15659444804796091 0 0.020193097168975511 0.1695445213161092 0 0.026902788272917241 0.15208661628889561 0 0.042458280654134942 0.17151816826310221 0 0.046947180209351347 0.14876104515662261 0 0.02939156878000904 0.18474958718378801 0 0.042458280654134942 0.17151816826310221 0 0.047898068817545443 0.19458896960933139 0 0.042458280654134942 0.17151816826310221 0 0.047898068817545443 0.19458896960933139 0 0.069291165280368924 0.18817398160348831 0 0.042458280654134942 0.17151816826310221 0 0.069291165280368924 0.18817398160348831 0 0.065287155513898923 0.162069137775329 0 0.042458280654134942 0.17151816826310221 0 0.046947180209351347 0.14876104515662261 0 0.065287155513898923 0.162069137775329 0 0.046947180209351347 0.14876104515662261 0 0.064311449026543455 0.13511771870872949 0 0.065287155513898923 0.162069137775329 0 0.046947180209351347 0.14876104515662261 0 0.048783821520953778 0.1337211430430584 0 0.064311449026543455 0.13511771870872949 0 0.049036282041468149 0.1181328813302224 0 0.048783821520953778 0.1337211430430584 0 0.064311449026543455 0.13511771870872949 0 0.049036282041468149 0.1181328813302224 0 0.0306044288722967 0.1234706617642817 0 0.048783821520953778 0.1337211430430584 0 0.0306044288722967 0.1234706617642817 0 0.048783821520953778 0.1337211430430584 0 0.033939586267659798 0.13805348686062111 0 0.046947180209351347 0.14876104515662261 0 0.048783821520953778 0.1337211430430584 0 0.033939586267659798 0.13805348686062111 0 0.026902788272917241 0.15208661628889561 0 0.046947180209351347 0.14876104515662261 0 0.033939586267659798 0.13805348686062111 0 0.015274373677380861 0.22715770672463129 0 0.03820791988652511 0.22954042994069479 0 0.033949902252661937 0.25099025126797392 0 0.015274373677380861 0.22715770672463129 0 0.010292242862265389 0.2525681246984261 0 0.033949902252661937 0.25099025126797392 0 0.0044831673581638108 0.23823553642762901 0 0.015274373677380861 0.22715770672463129 0 0.010292242862265389 0.2525681246984261 0 -0.01368076861047251 0.24879265446303431 0 0.0044831673581638108 0.23823553642762901 0 0.010292242862265389 0.2525681246984261 0 -0.0099967432297582287 0.23280408780701989 0 0.0044831673581638108 0.23823553642762901 0 0.015274373677380861 0.22715770672463129 0 -0.0099967432297582287 0.23280408780701989 0 0.015274373677380861 0.22715770672463129 0 0.0044275860113074939 0.21386206084711071 0 0.015274373677380861 0.22715770672463129 0 0.025982589936818359 0.20358133987978089 0 0.03820791988652511 0.22954042994069479 0 0.025982589936818359 0.20358133987978089 0 0.0044275860113074939 0.21386206084711071 0 0.0019515735538277489 0.193650941013737 0 0.015274373677380861 0.22715770672463129 0 0.025982589936818359 0.20358133987978089 0 0.0044275860113074939 0.21386206084711071 0 0.025982589936818359 0.20358133987978089 0 0.0019515735538277489 0.193650941013737 0 0.0099020368114460834 0.18726583886862469 0 0.025982589936818359 0.20358133987978089 0 0.0019515735538277489 0.193650941013737 0 0.0099020368114460834 0.18726583886862469 0 0.02939156878000904 0.18474958718378801 0 0.025982589936818359 0.20358133987978089 0 0.02939156878000904 0.18474958718378801 0 0.025982589936818359 0.20358133987978089 0 0.047898068817545443 0.19458896960933139 0 0.050013606319808918 0.2135117387458248 0 0.074044622702799462 0.2234421376118686 0 0.047898068817545443 0.19458896960933139 0 0.050013606319808918 0.2135117387458248 0 0.070251201934132479 0.20599900198000409 0 0.025982589936818359 0.20358133987978089 0 0.047898068817545443 0.19458896960933139 0 0.050013606319808918 0.2135117387458248 0 0.025982589936818359 0.20358133987978089 0 0.050013606319808918 0.2135117387458248 0 0.025982589936818359 0.20358133987978089 0 0.050013606319808918 0.2135117387458248 0 0.03820791988652511 0.22954042994069479 0 0.050013606319808918 0.2135117387458248 0 0.05693647339102198 0.2308008482095571 0 0.074044622702799462 0.2234421376118686 0 0.050013606319808918 0.2135117387458248 0 0.03820791988652511 0.22954042994069479 0 0.05693647339102198 0.2308008482095571 0 0.03820791988652511 0.22954042994069479 0 0.05693647339102198 0.2308008482095571 0 0.057607561643058448 0.24941237783752099 0 0.03820791988652511 0.22954042994069479 0 0.057607561643058448 0.24941237783752099 0 0.033949902252661937 0.25099025126797392 0 0.081265221033454946 0.2478345044070682 0 0.1049228804238513 0.24625663097661221 0 0.094133730228923601 0.2499439320252386 0 0.081265221033454946 0.2478345044070682 0 0.1049228804238513 0.24625663097661221 0 0.081265221033454946 0.2478345044070682 0 0.074044622702799462 0.2234421376118686 0 0.098075639085788868 0.2333725364779152 0 0.05693647339102198 0.2308008482095571 0 0.057607561643058448 0.24941237783752099 0 0.081265221033454946 0.2478345044070682 0 0.057607561643058448 0.24941237783752099 0 0.081265221033454946 0.2478345044070682 0 0.05693647339102198 0.2308008482095571 0 0.081265221033454946 0.2478345044070682 0 0.074044622702799462 0.2234421376118686 0 0.074044622702799462 0.2234421376118686 0 0.089243624144056302 0.22038407673143101 0 0.098075639085788868 0.2333725364779152 0 0.074044622702799462 0.2234421376118686 0 0.098075639085788868 0.2333725364779152 0 0.089243624144056302 0.22038407673143101 0 0.086897437797116936 0.19955261901017821 0 0.098621896780098889 0.20959671046503001 0 0.089243624144056302 0.22038407673143101 0 0.070251201934132479 0.20599900198000409 0 0.086897437797116936 0.19955261901017821 0 0.050013606319808918 0.2135117387458248 0 0.074044622702799462 0.2234421376118686 0 0.070251201934132479 0.20599900198000409 0 0.074044622702799462 0.2234421376118686 0 0.089243624144056302 0.22038407673143101 0 0.070251201934132479 0.20599900198000409 0 0.047898068817545443 0.19458896960933139 0 0.070251201934132479 0.20599900198000409 0 0.069291165280368924 0.18817398160348831 0 0.070251201934132479 0.20599900198000409 0 0.069291165280368924 0.18817398160348831 0 0.086897437797116936 0.19955261901017821 0 0.086897437797116936 0.19955261901017821 0 0.1078421805067222 0.19867399850315881 0 0.098621896780098889 0.20959671046503001 0 0.086897437797116936 0.19955261901017821 0 0.1078421805067222 0.19867399850315881 0 0.098642525816580701 0.175840131792695 0 0.1078421805067222 0.19867399850315881 0 0.1237934323733194 0.18715704302237679 0 0.13276537079288711 0.20502016790050309 0 0.11704183519686361 0.2215078652136224 0 0.12434045286256951 0.2269613531924709 0 0.13276537079288711 0.20502016790050309 0 0.1078421805067222 0.19867399850315881 0 0.11704183519686361 0.2215078652136224 0 0.1078421805067222 0.19867399850315881 0 0.11704183519686361 0.2215078652136224 0 0.13276537079288711 0.20502016790050309 0 0.1078421805067222 0.19867399850315881 0 0.098621896780098889 0.20959671046503001 0 0.11704183519686361 0.2215078652136224 0 0.098621896780098889 0.20959671046503001 0 0.10385912357778 0.22185453335093511 0 0.11704183519686361 0.2215078652136224 0 0.089243624144056302 0.22038407673143101 0 0.098621896780098889 0.20959671046503001 0 0.10385912357778 0.22185453335093511 0 0.089243624144056302 0.22038407673143101 0 0.1008659363758598 0.22784983138269929 0 0.10385912357778 0.22185453335093511 0 0.089243624144056302 0.22038407673143101 0 0.098075639085788868 0.2333725364779152 0 0.1008659363758598 0.22784983138269929 0 0.098075639085788868 0.2333725364779152 0 0.1004511313248924 0.23230707934381101 0 0.1008659363758598 0.22784983138269929 0 0.098075639085788868 0.2333725364779152 0 0.1007613618212676 0.23448236460926741 0 0.098075639085788868 0.2333725364779152 0 0.1004511313248924 0.23230707934381101 0 0.1007613618212676 0.23448236460926741 0 0.1008659363758598 0.22784983138269929 0 0.10457303259014281 0.23263867624071249 0 0.10585915696258701 0.22751536948562509 0 0.1004511313248924 0.23230707934381101 0 0.10457303259014281 0.23263867624071249 0 0.1007613618212676 0.23448236460926741 0 0.1004511313248924 0.23230707934381101 0 0.1008659363758598 0.22784983138269929 0 0.10457303259014281 0.23263867624071249 0 0.10457303259014281 0.23263867624071249 0 0.10989234403348 0.22971401169978381 0 0.11036772144022861 0.2342470908591833 0 0.10585915696258701 0.22751536948562509 0 0.1101053482356724 0.22551979475399511 0 0.10989234403348 0.22971401169978381 0 0.10457303259014281 0.23263867624071249 0 0.10585915696258701 0.22751536948562509 0 0.10989234403348 0.22971401169978381 0 0.10585915696258701 0.22751536948562509 0 0.10385912357778 0.22185453335093511 0 0.1101053482356724 0.22551979475399511 0 0.1008659363758598 0.22784983138269929 0 0.10585915696258701 0.22751536948562509 0 0.10385912357778 0.22185453335093511 0 0.11704183519686361 0.2215078652136224 0 0.12624148988700501 0.24434173192408601 0 0.11704183519686361 0.2215078652136224 0 0.12624148988700501 0.24434173192408601 0 0.1255878481319892 0.2356816044366209 0 0.11704183519686361 0.2215078652136224 0 0.1199273940317131 0.23594822895953929 0 0.12624148988700501 0.24434173192408601 0 0.10385912357778 0.22185453335093511 0 0.1101053482356724 0.22551979475399511 0 0.11704183519686361 0.2215078652136224 0 0.1101053482356724 0.22551979475399511 0 0.11704183519686361 0.2215078652136224 0 0.1137607443496408 0.22792648068673341 0 0.11704183519686361 0.2215078652136224 0 0.12434045286256951 0.2269613531924709 0 0.1255878481319892 0.2356816044366209 0 0.11704183519686361 0.2215078652136224 0 0.1161933485932751 0.2317740987918594 0 0.1199273940317131 0.23594822895953929 0 0.11704183519686361 0.2215078652136224 0 0.1161933485932751 0.2317740987918594 0 0.1137607443496408 0.22792648068673341 0 0.1161933485932751 0.2317740987918594 0 0.1133700203784116 0.2318333871634288 0 0.1137607443496408 0.22792648068673341 0 0.1161933485932751 0.2317740987918594 0 0.1133700203784116 0.2318333871634288 0 0.11448806984755371 0.2353806612416674 0 0.1101053482356724 0.22551979475399511 0 0.1137607443496408 0.22792648068673341 0 0.10989234403348 0.22971401169978381 0 0.1133700203784116 0.2318333871634288 0 0.1137607443496408 0.22792648068673341 0 0.10989234403348 0.22971401169978381 0 0.1133700203784116 0.2318333871634288 0 0.11036772144022861 0.2342470908591833 0 0.11448806984755371 0.2353806612416674 0 0.1133700203784116 0.2318333871634288 0 0.10989234403348 0.22971401169978381 0 0.11036772144022861 0.2342470908591833 0 0.1103474118349351 0.23846205740914489 0 0.1141564815513251 0.2398671570946784 0 0.11448806984755371 0.2353806612416674 0 0.12008009323077901 0.24785128397275361 0 0.1049228804238513 0.24625663097661221 0 0.12624148988700501 0.24434173192408601 0 0.1176053118307837 0.24232167176754141 0 0.1049228804238513 0.24625663097661221 0 0.12624148988700501 0.24434173192408601 0 0.1049228804238513 0.24625663097661221 0 0.12624148988700501 0.24434173192408601 0 0.1103474118349351 0.23846205740914489 0 0.1141564815513251 0.2398671570946784 0 0.1049228804238513 0.24625663097661221 0 0.11036772144022861 0.2342470908591833 0 0.1103474118349351 0.23846205740914489 0 0.11448806984755371 0.2353806612416674 0 0.1141564815513251 0.2398671570946784 0 0.1167741729668391 0.2365096907847494 0 0.1191055708103286 0.23957830783600231 0 0.1141564815513251 0.2398671570946784 0 0.1191055708103286 0.23957830783600231 0 0.1176053118307837 0.24232167176754141 0 0.1141564815513251 0.2398671570946784 0 0.11448806984755371 0.2353806612416674 0 0.1167741729668391 0.2365096907847494 0 0.1161933485932751 0.2317740987918594 0 0.11448806984755371 0.2353806612416674 0 0.1167741729668391 0.2365096907847494 0 0.1161933485932751 0.2317740987918594 0 0.1167741729668391 0.2365096907847494 0 0.1199273940317131 0.23594822895953929 0 0.1199273940317131 0.23594822895953929 0 0.1222437667911361 0.24135602943475051 0 0.12624148988700501 0.24434173192408601 0 0.1167741729668391 0.2365096907847494 0 0.1199273940317131 0.23594822895953929 0 0.1191055708103286 0.23957830783600231 0 0.1199273940317131 0.23594822895953929 0 0.1191055708103286 0.23957830783600231 0 0.1222437667911361 0.24135602943475051 0 0.1191055708103286 0.23957830783600231 0 0.1222437667911361 0.24135602943475051 0 0.1176053118307837 0.24232167176754141 0 0.1222437667911361 0.24135602943475051 0 0.1176053118307837 0.24232167176754141 0 0.12624148988700501 0.24434173192408601 0 0.12008009323077901 0.24785128397275361 0 0.1243937442617858 0.25004166130603311 0 0.1194715899708394 0.25199818021347231 0 0.12008009323077901 0.24785128397275361 0 0.12624148988700501 0.24434173192408601 0 0.12504815011385531 0.24707615519647119 0 0.12008009323077901 0.24785128397275361 0 0.12504815011385531 0.24707615519647119 0 0.1243937442617858 0.25004166130603311 0 0.1141564815513251 0.2398671570946784 0 0.1176053118307837 0.24232167176754141 0 0.1049228804238513 0.24625663097661221 0 0.12008009323077901 0.24785128397275361 0 0.1049228804238513 0.24625663097661221 0 0.1194715899708394 0.25199818021347231 0 0.081265221033454946 0.2478345044070682 0 0.098075639085788868 0.2333725364779152 0 0.1049228804238513 0.24625663097661221 0 0.1103474118349351 0.23846205740914489 0 0.1049228804238513 0.24625663097661221 0 0.10646868525923189 0.23715666592755641 0 0.1049228804238513 0.24625663097661221 0 0.10646868525923189 0.23715666592755641 0 0.1007613618212676 0.23448236460926741 0 0.11036772144022861 0.2342470908591833 0 0.1103474118349351 0.23846205740914489 0 0.10646868525923189 0.23715666592755641 0 0.10457303259014281 0.23263867624071249 0 0.11036772144022861 0.2342470908591833 0 0.10646868525923189 0.23715666592755641 0 0.10457303259014281 0.23263867624071249 0 0.10646868525923189 0.23715666592755641 0 0.1007613618212676 0.23448236460926741 0 0.098075639085788868 0.2333725364779152 0 0.1049228804238513 0.24625663097661221 0 0.1007613618212676 0.23448236460926741 0 0.098075639085788868 0.2333725364779152 0 0.1049228804238513 0.24625663097661221 0 0.095263339037144928 0.1148773264796832 0 0.083503428854915782 0.12891477582055669 0 0.1011992594238136 0.13432757037802651 0 0.089442871126439213 0.1530062650822312 0 0.083503428854915782 0.12891477582055669 0 0.1011992594238136 0.13432757037802651 0 0.089442871126439213 0.1530062650822312 0 0.083503428854915782 0.12891477582055669 0 0.064311449026543455 0.13511771870872949 0 0.089442871126439213 0.1530062650822312 0 0.064311449026543455 0.13511771870872949 0 0.065287155513898923 0.162069137775329 0 0.069291165280368924 0.18817398160348831 0 0.065287155513898923 0.162069137775329 0 0.07995140293262322 0.17245134572882129 0 0.086897437797116936 0.19955261901017821 0 0.07995140293262322 0.17245134572882129 0 0.098642525816580701 0.175840131792695 0 0.069291165280368924 0.18817398160348831 0 0.086897437797116936 0.19955261901017821 0 0.07995140293262322 0.17245134572882129 0 0.089442871126439213 0.1530062650822312 0 0.065287155513898923 0.162069137775329 0 0.07995140293262322 0.17245134572882129 0 0.089442871126439213 0.1530062650822312 0 0.07995140293262322 0.17245134572882129 0 0.098642525816580701 0.175840131792695 0 0.089442871126439213 0.1530062650822312 0 0.098642525816580701 0.175840131792695 0 0.11284989372635509 0.15084126949239279 0 0.089442871126439213 0.1530062650822312 0 0.098642525816580701 0.175840131792695 0 0.1078421805067222 0.19867399850315881 0 0.098642525816580701 0.175840131792695 0 0.098642525816580701 0.175840131792695 0 0.1237934323733194 0.18715704302237679 0 0.12052032374614929 0.16852953239240651 0 0.1078421805067222 0.19867399850315881 0 0.098642525816580701 0.175840131792695 0 0.1237934323733194 0.18715704302237679 0 0.12052032374614929 0.16852953239240651 0 0.11284989372635509 0.15084126949239279 0 0.13085238238207231 0.15591952847804791 0 0.098642525816580701 0.175840131792695 0 0.12052032374614929 0.16852953239240651 0 0.11284989372635509 0.15084126949239279 0 0.11284989372635509 0.15084126949239279 0 0.1235783582481218 0.1383494041676103 0 0.13085238238207231 0.15591952847804791 0 0.11284989372635509 0.15084126949239279 0 0.1137707679383597 0.13626228828385931 0 0.1235783582481218 0.1383494041676103 0 0.089442871126439213 0.1530062650822312 0 0.11284989372635509 0.15084126949239279 0 0.1011992594238136 0.13432757037802651 0 0.11284989372635509 0.15084126949239279 0 0.1011992594238136 0.13432757037802651 0 0.1137707679383597 0.13626228828385931 0 0.1214337654292612 0.1206876101045128 0 0.11908437462151041 0.1246492547752462 0 0.1235783582481218 0.1383494041676103 0 0.11908437462151041 0.1246492547752462 0 0.1011992594238136 0.13432757037802651 0 0.1137707679383597 0.13626228828385931 0 0.11908437462151041 0.1246492547752462 0 0.1137707679383597 0.13626228828385931 0 0.1235783582481218 0.1383494041676103 0 0.1214337654292612 0.1206876101045128 0 0.1235783582481218 0.1383494041676103 0 0.1379366158960432 0.13966485828131189 0 0.1214337654292612 0.1206876101045128 0 0.1379366158960432 0.13966485828131189 0 0.1214337654292612 0.1206876101045128 0 0.1379366158960432 0.13966485828131189 0 0.13579381173382071 0.1217654569702047 0 0.1379366158960432 0.13966485828131189 0 0.1456965733615152 0.12855459717088771 0 0.13579381173382071 0.1217654569702047 0 0.1456965733615152 0.12855459717088771 0 0.15804012458383959 0.13919661202459971 0 0.15515114505718969 0.1232226789215896 0 0.1379366158960432 0.13966485828131189 0 0.1456965733615152 0.12855459717088771 0 0.15804012458383959 0.13919661202459971 0 0.1496152066535221 0.16113779731656749 0 0.15804012458383959 0.13919661202459971 0 0.1379366158960432 0.13966485828131189 0 0.1496152066535221 0.16113779731656749 0 0.15804012458383959 0.13919661202459971 0 0.1379366158960432 0.13966485828131189 0 0.13085238238207231 0.15591952847804791 0 0.1496152066535221 0.16113779731656749 0 0.1235783582481218 0.1383494041676103 0 0.1379366158960432 0.13966485828131189 0 0.13085238238207231 0.15591952847804791 0 0.13085238238207231 0.15591952847804791 0 0.13319432677565349 0.17116457676358679 0 0.1496152066535221 0.16113779731656749 0 0.12052032374614929 0.16852953239240651 0 0.13085238238207231 0.15591952847804791 0 0.13319432677565349 0.17116457676358679 0 0.1237934323733194 0.18715704302237679 0 0.12052032374614929 0.16852953239240651 0 0.13319432677565349 0.17116457676358679 0 0.1237934323733194 0.18715704302237679 0 0.13319432677565349 0.17116457676358679 0 0.1411902887232046 0.18307898260853531 0 0.1411902887232046 0.18307898260853531 0 0.1496152066535221 0.16113779731656749 0 0.15802063845286979 0.18244091336529139 0 0.1411902887232046 0.18307898260853531 0 0.1496152066535221 0.16113779731656749 0 0.13319432677565349 0.17116457676358679 0 0.1411902887232046 0.18307898260853531 0 0.1496152066535221 0.16113779731656749 0 0.1496152066535221 0.16113779731656749 0 0.17046350373579139 0.16564022398455791 0 0.15802063845286979 0.18244091336529139 0 0.1496152066535221 0.16113779731656749 0 0.17046350373579139 0.16564022398455791 0 0.16839024249770371 0.15094502940529531 0 0.15802063845286979 0.18244091336529139 0 0.17482027660076169 0.18059162717772831 0 0.1683901438877104 0.19327963807563581 0 0.17046350373579139 0.16564022398455791 0 0.15802063845286979 0.18244091336529139 0 0.17482027660076169 0.18059162717772831 0 0.17046350373579139 0.16564022398455791 0 0.17482027660076169 0.18059162717772831 0 0.18931452128178969 0.172156246240001 0 0.17482027660076169 0.18059162717772831 0 0.1873110077552127 0.1894206465310192 0 0.18931452128178969 0.172156246240001 0 0.17046350373579139 0.16564022398455791 0 0.18194360367539661 0.14786018779245411 0 0.18931452128178969 0.172156246240001 0 0.18194360367539661 0.14786018779245411 0 0.18931452128178969 0.172156246240001 0 0.18194360367539661 0.14786018779245411 0 0.18522108444289559 0.13185151400460279 0 0.1929880036566709 0.15308149429542431 0 0.17046350373579139 0.16564022398455791 0 0.18194360367539661 0.14786018779245411 0 0.16839024249770371 0.15094502940529531 0 0.18194360367539661 0.14786018779245411 0 0.16947450543498241 0.13811715812132541 0 0.16839024249770371 0.15094502940529531 0 0.18194360367539661 0.14786018779245411 0 0.1745726860690035 0.12356412934490719 0 0.18194360367539661 0.14786018779245411 0 0.18522108444289559 0.13185151400460279 0 0.1745726860690035 0.12356412934490719 0 0.18194360367539661 0.14786018779245411 0 0.16947450543498241 0.13811715812132541 0 0.1745726860690035 0.12356412934490719 0 0.16442587034896861 0.1290198320393709 0 0.15804012458383959 0.13919661202459971 0 0.15515114505718969 0.1232226789215896 0 0.16947450543498241 0.13811715812132541 0 0.16442587034896861 0.1290198320393709 0 0.1745726860690035 0.12356412934490719 0 0.16947450543498241 0.13811715812132541 0 0.16442587034896861 0.1290198320393709 0 0.15804012458383959 0.13919661202459971 0 0.1496152066535221 0.16113779731656749 0 0.15804012458383959 0.13919661202459971 0 0.16839024249770371 0.15094502940529531 0 0.16947450543498241 0.13811715812132541 0 0.15804012458383959 0.13919661202459971 0 0.16839024249770371 0.15094502940529531 0 0.14531794354398009 0.2383769528027487 0 0.1491329735256666 0.2280142233559849 0 0.1443619108738301 0.25247881771211322 0 0.1491329735256666 0.2280142233559849 0 0.1573252455148316 0.24401431122676481 0 0.1443619108738301 0.25247881771211322 0 0.1491329735256666 0.2280142233559849 0 0.1443619108738301 0.25247881771211322 0 0.1573252455148316 0.24401431122676481 0 0.1443619108738301 0.25247881771211322 0 0.14531794354398009 0.2383769528027487 0 0.142637050000158 0.23613652006653699 0 0.14360464658032041 0.23330569595844769 0 0.14531794354398009 0.2383769528027487 0 0.142637050000158 0.23613652006653699 0 0.14277971427743411 0.23855152524813319 0 0.142637050000158 0.23613652006653699 0 0.14277971427743411 0.23855152524813319 0 0.14039477848573029 0.23755821111130129 0 0.142637050000158 0.23613652006653699 0 0.14039477848573029 0.23755821111130129 0 0.1403850977366104 0.23370419805840731 0 0.14531794354398009 0.2383769528027487 0 0.14316758688636499 0.2404678500502927 0 0.14403716052124341 0.24452272881869161 0 0.14531794354398009 0.2383769528027487 0 0.14316758688636499 0.2404678500502927 0 0.14277971427743411 0.23855152524813319 0 0.14316758688636499 0.2404678500502927 0 0.14277971427743411 0.23855152524813319 0 0.14152714110386469 0.2400575319925683 0 0.14277971427743411 0.23855152524813319 0 0.14152714110386469 0.2400575319925683 0 0.14039477848573029 0.23755821111130129 0 0.14152714110386469 0.2400575319925683 0 0.14214945930329259 0.24269244719585659 0 0.14040062615607179 0.24183918100281901 0 0.14316758688636499 0.2404678500502927 0 0.14152714110386469 0.2400575319925683 0 0.14214945930329259 0.24269244719585659 0 0.14531794354398009 0.2383769528027487 0 0.1439631473146373 0.2471711770375882 0 0.1443619108738301 0.25247881771211322 0 0.14531794354398009 0.2383769528027487 0 0.14403716052124341 0.24452272881869161 0 0.1439631473146373 0.2471711770375882 0 0.14316758688636499 0.2404678500502927 0 0.14214945930329259 0.24269244719585659 0 0.14403716052124341 0.24452272881869161 0 0.14214945930329259 0.24269244719585659 0 0.13972667657756169 0.24399188760368959 0 0.14040062615607179 0.24183918100281901 0 0.14214945930329259 0.24269244719585659 0 0.1419361283077416 0.24532812235129831 0 0.13972667657756169 0.24399188760368959 0 0.14214945930329259 0.24269244719585659 0 0.1419361283077416 0.24532812235129831 0 0.14403716052124341 0.24452272881869161 0 0.1419361283077416 0.24532812235129831 0 0.14403716052124341 0.24452272881869161 0 0.1439631473146373 0.2471711770375882 0 0.14259854284534321 0.24886567522877809 0 0.1439631473146373 0.2471711770375882 0 0.1443619108738301 0.25247881771211322 0 0.14259854284534321 0.24886567522877809 0 0.1439631473146373 0.2471711770375882 0 0.14123165767596271 0.24737362051809089 0 0.1419361283077416 0.24532812235129831 0 0.1439631473146373 0.2471711770375882 0 0.14123165767596271 0.24737362051809089 0 0.1419361283077416 0.24532812235129831 0 0.14123165767596271 0.24737362051809089 0 0.13914001890768121 0.24629405703643081 0 0.14259854284534321 0.24886567522877809 0 0.14123165767596271 0.24737362051809089 0 0.14041315158971951 0.24942753197291989 0 0.14259854284534321 0.24886567522877809 0 0.14041315158971951 0.24942753197291989 0 0.14204595666316641 0.25034823350876839 0 0.14123165767596271 0.24737362051809089 0 0.14041315158971951 0.24942753197291989 0 0.13838221720006039 0.24839597527095261 0 0.14041315158971951 0.24942753197291989 0 0.13838221720006039 0.24839597527095261 0 0.13828035729737059 0.25097015831794101 0 0.14123165767596271 0.24737362051809089 0 0.13914001890768121 0.24629405703643081 0 0.13838221720006039 0.24839597527095261 0 0.13914001890768121 0.24629405703643081 0 0.13711938065537921 0.24537741286346759 0 0.13641174447844279 0.24735960786331621 0 0.13914001890768121 0.24629405703643081 0 0.13838221720006039 0.24839597527095261 0 0.13641174447844279 0.24735960786331621 0 0.13838221720006039 0.24839597527095261 0 0.13828035729737059 0.25097015831794101 0 0.1350215923220012 0.25045035956268641 0 0.13972667657756169 0.24399188760368959 0 0.13852595525822409 0.2416455522168317 0 0.14040062615607179 0.24183918100281901 0 0.13914001890768121 0.24629405703643081 0 0.13972667657756169 0.24399188760368959 0 0.13711938065537921 0.24537741286346759 0 0.1419361283077416 0.24532812235129831 0 0.13914001890768121 0.24629405703643081 0 0.13972667657756169 0.24399188760368959 0 0.13972667657756169 0.24399188760368959 0 0.13711938065537921 0.24537741286346759 0 0.13713399693885511 0.24326407271926659 0 0.13972667657756169 0.24399188760368959 0 0.13713399693885511 0.24326407271926659 0 0.13852595525822409 0.2416455522168317 0 0.13713399693885511 0.24326407271926659 0 0.13543461958093969 0.24272498333297149 0 0.13627190150178201 0.2409095652466626 0 0.13713399693885511 0.24326407271926659 0 0.13543461958093969 0.24272498333297149 0 0.134977252094692 0.24463679257801149 0 0.13711938065537921 0.24537741286346759 0 0.13713399693885511 0.24326407271926659 0 0.134977252094692 0.24463679257801149 0 0.13711938065537921 0.24537741286346759 0 0.134977252094692 0.24463679257801149 0 0.13436858183098871 0.24675332890163951 0 0.134977252094692 0.24463679257801149 0 0.13436858183098871 0.24675332890163951 0 0.1324384787146804 0.24584956469359551 0 0.134977252094692 0.24463679257801149 0 0.13305670652874541 0.2437271252596426 0 0.1324384787146804 0.24584956469359551 0 0.13543461958093969 0.24272498333297149 0 0.13305670652874541 0.2437271252596426 0 0.13364765219749161 0.24177464497753079 0 0.13543461958093969 0.24272498333297149 0 0.134977252094692 0.24463679257801149 0 0.13305670652874541 0.2437271252596426 0 0.13641174447844279 0.24735960786331621 0 0.13436858183098871 0.24675332890163951 0 0.1350215923220012 0.25045035956268641 0 0.13838221720006039 0.24839597527095261 0 0.13641174447844279 0.24735960786331621 0 0.1350215923220012 0.25045035956268641 0 0.13711938065537921 0.24537741286346759 0 0.13641174447844279 0.24735960786331621 0 0.13436858183098871 0.24675332890163951 0 0.13436858183098871 0.24675332890163951 0 0.13165815118821411 0.24781687312107081 0 0.1324384787146804 0.24584956469359551 0 0.13436858183098871 0.24675332890163951 0 0.13165815118821411 0.24781687312107081 0 0.1350215923220012 0.25045035956268641 0 0.13165815118821411 0.24781687312107081 0 0.1350215923220012 0.25045035956268641 0 0.12912149283636359 0.25051101303651058 0 0.12898036779691119 0.24690819745947831 0 0.13165815118821411 0.24781687312107081 0 0.12912149283636359 0.25051101303651058 0 0.12898036779691119 0.24690819745947831 0 0.13165815118821411 0.24781687312107081 0 0.13039531606722601 0.2452432857319192 0 0.13165815118821411 0.24781687312107081 0 0.1324384787146804 0.24584956469359551 0 0.13039531606722601 0.2452432857319192 0 0.1324384787146804 0.24584956469359551 0 0.1307482234844653 0.2429431790494529 0 0.13039531606722601 0.2452432857319192 0 0.13305670652874541 0.2437271252596426 0 0.1307482234844653 0.2429431790494529 0 0.1316044895500372 0.2411683660158547 0 0.13305670652874541 0.2437271252596426 0 0.1324384787146804 0.24584956469359551 0 0.1307482234844653 0.2429431790494529 0 0.1307482234844653 0.2429431790494529 0 0.1283521534197716 0.24463700677024269 0 0.12880419203480831 0.24255428046228911 0 0.12898036779691119 0.24690819745947831 0 0.13039531606722601 0.2452432857319192 0 0.1283521534197716 0.24463700677024269 0 0.1307482234844653 0.2429431790494529 0 0.13039531606722601 0.2452432857319192 0 0.1283521534197716 0.24463700677024269 0 0.12898036779691119 0.24690819745947831 0 0.1283521534197716 0.24463700677024269 0 0.12624148988700501 0.24434173192408601 0 0.1283521534197716 0.24463700677024269 0 0.12880419203480831 0.24255428046228911 0 0.12624148988700501 0.24434173192408601 0 0.12880419203480831 0.24255428046228911 0 0.12624148988700501 0.24434173192408601 0 0.12771848155429069 0.24079574657382319 0 0.12624148988700501 0.24434173192408601 0 0.12504815011385531 0.24707615519647119 0 0.12720072216483541 0.24773338144816051 0 0.12720072216483541 0.24773338144816051 0 0.1243937442617858 0.25004166130603311 0 0.12912149283636359 0.25051101303651058 0 0.12504815011385531 0.24707615519647119 0 0.12720072216483541 0.24773338144816051 0 0.1243937442617858 0.25004166130603311 0 0.12898036779691119 0.24690819745947831 0 0.12720072216483541 0.24773338144816051 0 0.12912149283636359 0.25051101303651058 0 0.12898036779691119 0.24690819745947831 0 0.12624148988700501 0.24434173192408601 0 0.12720072216483541 0.24773338144816051 0 0.12624148988700501 0.24434173192408601 0 0.1255878481319892 0.2356816044366209 0 0.12771848155429069 0.24079574657382319 0 0.12851764059564391 0.23811121522218531 0 0.1255878481319892 0.2356816044366209 0 0.12771848155429069 0.24079574657382319 0 0.12851764059564391 0.23811121522218531 0 0.1255878481319892 0.2356816044366209 0 0.12891845670501689 0.23537971561461141 0 0.12880419203480831 0.24255428046228911 0 0.12771848155429069 0.24079574657382319 0 0.12965045232819111 0.2407421686663673 0 0.12851764059564391 0.23811121522218531 0 0.12771848155429069 0.24079574657382319 0 0.12965045232819111 0.2407421686663673 0 0.12851764059564391 0.23811121522218531 0 0.12965045232819111 0.2407421686663673 0 0.13165876541933799 0.23815762682404379 0 0.1307482234844653 0.2429431790494529 0 0.12965045232819111 0.2407421686663673 0 0.1316044895500372 0.2411683660158547 0 0.1307482234844653 0.2429431790494529 0 0.12880419203480831 0.24255428046228911 0 0.12965045232819111 0.2407421686663673 0 0.13305670652874541 0.2437271252596426 0 0.1316044895500372 0.2411683660158547 0 0.13364765219749161 0.24177464497753079 0 0.12965045232819111 0.2407421686663673 0 0.1316044895500372 0.2411683660158547 0 0.13165876541933799 0.23815762682404379 0 0.1316044895500372 0.2411683660158547 0 0.13165876541933799 0.23815762682404379 0 0.13453808453848959 0.2394320219837982 0 0.13165876541933799 0.23815762682404379 0 0.12891845670501689 0.23537971561461141 0 0.13215302146381641 0.23316594045333289 0 0.12851764059564391 0.23811121522218531 0 0.13165876541933799 0.23815762682404379 0 0.12891845670501689 0.23537971561461141 0 0.13512868432091851 0.2369220790806176 0 0.13656232797571699 0.23434323750299099 0 0.13215302146381641 0.23316594045333289 0 0.13165876541933799 0.23815762682404379 0 0.13512868432091851 0.2369220790806176 0 0.13215302146381641 0.23316594045333289 0 0.13165876541933799 0.23815762682404379 0 0.13512868432091851 0.2369220790806176 0 0.13453808453848959 0.2394320219837982 0 0.13512868432091851 0.2369220790806176 0 0.13792666748851931 0.23641190677799559 0 0.13656232797571699 0.23434323750299099 0 0.1316044895500372 0.2411683660158547 0 0.13364765219749161 0.24177464497753079 0 0.13453808453848959 0.2394320219837982 0 0.13512868432091851 0.2369220790806176 0 0.13453808453848959 0.2394320219837982 0 0.13738023863279419 0.2388289773978097 0 0.13453808453848959 0.2394320219837982 0 0.13627190150178201 0.2409095652466626 0 0.13738023863279419 0.2388289773978097 0 0.13543461958093969 0.24272498333297149 0 0.13364765219749161 0.24177464497753079 0 0.13627190150178201 0.2409095652466626 0 0.13364765219749161 0.24177464497753079 0 0.13453808453848959 0.2394320219837982 0 0.13627190150178201 0.2409095652466626 0 0.13627190150178201 0.2409095652466626 0 0.13852595525822409 0.2416455522168317 0 0.13738023863279419 0.2388289773978097 0 0.13713399693885511 0.24326407271926659 0 0.13627190150178201 0.2409095652466626 0 0.13852595525822409 0.2416455522168317 0 0.13852595525822409 0.2416455522168317 0 0.13738023863279419 0.2388289773978097 0 0.13943522396440419 0.23978810669039799 0 0.13738023863279419 0.2388289773978097 0 0.13943522396440419 0.23978810669039799 0 0.14039477848573029 0.23755821111130129 0 0.14152714110386469 0.2400575319925683 0 0.13943522396440419 0.23978810669039799 0 0.14039477848573029 0.23755821111130129 0 0.14152714110386469 0.2400575319925683 0 0.13943522396440419 0.23978810669039799 0 0.14040062615607179 0.24183918100281901 0 0.13852595525822409 0.2416455522168317 0 0.13943522396440419 0.23978810669039799 0 0.14040062615607179 0.24183918100281901 0 0.13792666748851931 0.23641190677799559 0 0.1403850977366104 0.23370419805840731 0 0.13656232797571699 0.23434323750299099 0 0.13512868432091851 0.2369220790806176 0 0.13738023863279419 0.2388289773978097 0 0.13792666748851931 0.23641190677799559 0 0.13738023863279419 0.2388289773978097 0 0.13792666748851931 0.23641190677799559 0 0.14039477848573029 0.23755821111130129 0 0.13792666748851931 0.23641190677799559 0 0.14039477848573029 0.23755821111130129 0 0.1403850977366104 0.23370419805840731 0 0.1403850977366104 0.23370419805840731 0 0.1382917589767842 0.23068828407379219 0 0.1418184857483738 0.22889905086288709 0 0.12434045286256951 0.2269613531924709 0 0.1349444003804644 0.22660354314857589 0 0.13276537079288711 0.20502016790050309 0 0.1403850977366104 0.23370419805840731 0 0.1382917589767842 0.23068828407379219 0 0.13656232797571699 0.23434323750299099 0 0.1382917589767842 0.23068828407379219 0 0.1349444003804644 0.22660354314857589 0 0.1418184857483738 0.22889905086288709 0 0.1382917589767842 0.23068828407379219 0 0.1349444003804644 0.22660354314857589 0 0.13656232797571699 0.23434323750299099 0 0.1349444003804644 0.22660354314857589 0 0.13656232797571699 0.23434323750299099 0 0.13215302146381641 0.23316594045333289 0 0.12434045286256951 0.2269613531924709 0 0.1349444003804644 0.22660354314857589 0 0.1299499668453318 0.22969598890633369 0 0.12434045286256951 0.2269613531924709 0 0.1255878481319892 0.2356816044366209 0 0.12836199267447701 0.23205311883095531 0 0.12891845670501689 0.23537971561461141 0 0.13215302146381641 0.23316594045333289 0 0.12836199267447701 0.23205311883095531 0 0.13215302146381641 0.23316594045333289 0 0.1299499668453318 0.22969598890633369 0 0.12836199267447701 0.23205311883095531 0 0.1349444003804644 0.22660354314857589 0 0.13215302146381641 0.23316594045333289 0 0.1299499668453318 0.22969598890633369 0 0.12434045286256951 0.2269613531924709 0 0.1299499668453318 0.22969598890633369 0 0.12836199267447701 0.23205311883095531 0 0.1255878481319892 0.2356816044366209 0 0.12891845670501689 0.23537971561461141 0 0.12836199267447701 0.23205311883095531 0 0.1349444003804644 0.22660354314857589 0 0.14284739291658399 0.22119563557565869 0 0.1418184857483738 0.22889905086288709 0 0.14284739291658399 0.22119563557565869 0 0.1451091310011853 0.22716139864178209 0 0.1491329735256666 0.2280142233559849 0 0.14284739291658399 0.22119563557565869 0 0.1418184857483738 0.22889905086288709 0 0.1451091310011853 0.22716139864178209 0 0.14531794354398009 0.2383769528027487 0 0.14663767181411691 0.2305366847725977 0 0.1491329735256666 0.2280142233559849 0 0.14531794354398009 0.2383769528027487 0 0.14360464658032041 0.23330569595844769 0 0.14663767181411691 0.2305366847725977 0 0.1403850977366104 0.23370419805840731 0 0.1418184857483738 0.22889905086288709 0 0.14360464658032041 0.23330569595844769 0 0.1418184857483738 0.22889905086288709 0 0.14360464658032041 0.23330569595844769 0 0.14663767181411691 0.2305366847725977 0 0.142637050000158 0.23613652006653699 0 0.1403850977366104 0.23370419805840731 0 0.14360464658032041 0.23330569595844769 0 0.1418184857483738 0.22889905086288709 0 0.14663767181411691 0.2305366847725977 0 0.1451091310011853 0.22716139864178209 0 0.14663767181411691 0.2305366847725977 0 0.1451091310011853 0.22716139864178209 0 0.1491329735256666 0.2280142233559849 0 0.14663767181411691 0.2305366847725977 0 0.1491329735256666 0.2280142233559849 0 0.14284739291658399 0.22119563557565869 0 0.1491329735256666 0.2280142233559849 0 0.15357680598926829 0.20522756836063821 0 0.14284739291658399 0.22119563557565869 0 0.15357680598926829 0.20522756836063821 0 0.13276537079288711 0.20502016790050309 0 0.1491329735256666 0.2280142233559849 0 0.15357680598926829 0.20522756836063821 0 0.1349444003804644 0.22660354314857589 0 0.14284739291658399 0.22119563557565869 0 0.13276537079288711 0.20502016790050309 0 0.12434045286256951 0.2269613531924709 0 0.13276537079288711 0.20502016790050309 0 0.1411902887232046 0.18307898260853531 0 0.13276537079288711 0.20502016790050309 0 0.1237934323733194 0.18715704302237679 0 0.1411902887232046 0.18307898260853531 0 0.13276537079288711 0.20502016790050309 0 0.1411902887232046 0.18307898260853531 0 0.15802063845286979 0.18244091336529139 0 0.15357680598926829 0.20522756836063821 0 0.1411902887232046 0.18307898260853531 0 0.15357680598926829 0.20522756836063821 0 0.13276537079288711 0.20502016790050309 0 0.15802063845286979 0.18244091336529139 0 0.15357680598926829 0.20522756836063821 0 0.15802063845286979 0.18244091336529139 0 0.15357680598926829 0.20522756836063821 0 0.1683901438877104 0.19327963807563581 0 0.15357680598926829 0.20522756836063821 0 0.1683901438877104 0.19327963807563581 0 0.16822199064043961 0.20871743494350201 0 0.1873110077552127 0.1894206465310192 0 0.16822199064043961 0.20871743494350201 0 0.1683901438877104 0.19327963807563581 0 0.1873110077552127 0.1894206465310192 0 0.16822199064043961 0.20871743494350201 0 0.1873110077552127 0.1894206465310192 0 0.18461037170364589 0.20822876729908771 0 0.16822199064043961 0.20871743494350201 0 0.17482027660076169 0.18059162717772831 0 0.1683901438877104 0.19327963807563581 0 0.1873110077552127 0.1894206465310192 0 0.18461037170364589 0.20822876729908771 0 0.16822199064043961 0.20871743494350201 0 0.1792255013352734 0.2193543876822362 0 0.18461037170364589 0.20822876729908771 0 0.1792255013352734 0.2193543876822362 0 0.19458599020051751 0.2183583632264762 0 0.1491329735256666 0.2280142233559849 0 0.15357680598926829 0.20522756836063821 0 0.16822199064043961 0.20871743494350201 0 0.1491329735256666 0.2280142233559849 0 0.16822199064043961 0.20871743494350201 0 0.1491329735256666 0.2280142233559849 0 0.1683723458939079 0.22846339265393559 0 0.1573252455148316 0.24401431122676481 0 0.1491329735256666 0.2280142233559849 0 0.16822199064043961 0.20871743494350201 0 0.1683723458939079 0.22846339265393559 0 0.16822199064043961 0.20871743494350201 0 0.1683723458939079 0.22846339265393559 0 0.1792255013352734 0.2193543876822362 0 0.1683723458939079 0.22846339265393559 0 0.1792255013352734 0.2193543876822362 0 0.18509672030685559 0.23514531266043431 0 0.1792255013352734 0.2193543876822362 0 0.18509672030685559 0.23514531266043431 0 0.19458599020051751 0.2183583632264762 0 0.18509672030685559 0.23514531266043431 0 0.17556005456088261 0.25282021001762578 0 0.1957303775968901 0.25102851163789047 0 0.1683723458939079 0.22846339265393559 0 0.18509672030685559 0.23514531266043431 0 0.17080413916406459 0.240584434929147 0 0.18509672030685559 0.23514531266043431 0 0.17080413916406459 0.240584434929147 0 0.17556005456088261 0.25282021001762578 0 0.17080413916406459 0.240584434929147 0 0.1573252455148316 0.24401431122676481 0 0.17556005456088261 0.25282021001762578 0 0.1683723458939079 0.22846339265393559 0 0.17080413916406459 0.240584434929147 0 0.1573252455148316 0.24401431122676481 0 0.21412688225170901 0.23387614180209779 0 0.1957303775968901 0.25102851163789047 0 0.2247480759374858 0.25363381999817292 0 0.18509672030685559 0.23514531266043431 0 0.21412688225170901 0.23387614180209779 0 0.1957303775968901 0.25102851163789047 0 0.18509672030685559 0.23514531266043431 0 0.21412688225170901 0.23387614180209779 0 0.19458599020051751 0.2183583632264762 0 0.21412688225170901 0.23387614180209779 0 0.21223506190825639 0.21152448372493149 0 0.19458599020051751 0.2183583632264762 0 0.21412688225170901 0.23387614180209779 0 0.21223506190825639 0.21152448372493149 0 0.2279112224870419 0.21916443938546121 0 0.21223506190825639 0.21152448372493149 0 0.19641988268526939 0.20513442394551781 0 0.20402209798668169 0.19568136624044591 0 0.21223506190825639 0.21152448372493149 0 0.19458599020051751 0.2183583632264762 0 0.19641988268526939 0.20513442394551781 0 0.18461037170364589 0.20822876729908771 0 0.19458599020051751 0.2183583632264762 0 0.19641988268526939 0.20513442394551781 0 0.1873110077552127 0.1894206465310192 0 0.19641988268526939 0.20513442394551781 0 0.20402209798668169 0.19568136624044591 0 0.1873110077552127 0.1894206465310192 0 0.20402209798668169 0.19568136624044591 0 0.20853784115913371 0.17841680103871649 0 0.1873110077552127 0.1894206465310192 0 0.18461037170364589 0.20822876729908771 0 0.19641988268526939 0.20513442394551781 0 0.20402209798668169 0.19568136624044591 0 0.21299794467301841 0.18880624635040291 0 0.22326928902826951 0.19353198252320619 0 0.21223506190825639 0.21152448372493149 0 0.20402209798668169 0.19568136624044591 0 0.22326928902826951 0.19353198252320619 0 0.20402209798668169 0.19568136624044591 0 0.21299794467301841 0.18880624635040291 0 0.20853784115913371 0.17841680103871649 0 0.22326928902826951 0.19353198252320619 0 0.2395965010490009 0.1901287184252386 0 0.23230108824805251 0.20600370467088019 0 0.2395965010490009 0.1901287184252386 0 0.24499284631802409 0.20546513931468269 0 0.23230108824805251 0.20600370467088019 0 0.2395965010490009 0.1901287184252386 0 0.2480553895173794 0.1960497071960107 0 0.25471357890003588 0.1899694505898043 0 0.2395965010490009 0.1901287184252386 0 0.2480553895173794 0.1960497071960107 0 0.24499284631802409 0.20546513931468269 0 0.2480553895173794 0.1960497071960107 0 0.24499284631802409 0.20546513931468269 0 0.25621476709212559 0.19942681763336759 0 0.24499284631802409 0.20546513931468269 0 0.2440714161500688 0.21658378946281839 0 0.23230108824805251 0.20600370467088019 0 0.2440714161500688 0.21658378946281839 0 0.23230108824805251 0.20600370467088019 0 0.2279112224870419 0.21916443938546121 0 0.24499284631802409 0.20546513931468269 0 0.2440714161500688 0.21658378946281839 0 0.25531256262919139 0.2096802635697369 0 0.21223506190825639 0.21152448372493149 0 0.23230108824805251 0.20600370467088019 0 0.2279112224870419 0.21916443938546121 0 0.21223506190825639 0.21152448372493149 0 0.22326928902826951 0.19353198252320619 0 0.23230108824805251 0.20600370467088019 0 0.21412688225170901 0.23387614180209779 0 0.2351920442440612 0.2280271130284848 0 0.23975313719016039 0.24094104287280149 0 0.21412688225170901 0.23387614180209779 0 0.2279112224870419 0.21916443938546121 0 0.2351920442440612 0.2280271130284848 0 0.24817913602054109 0.22671455816346611 0 0.23975313719016039 0.24094104287280149 0 0.25615816462987429 0.2346886777627154 0 0.2440714161500688 0.21658378946281839 0 0.2279112224870419 0.21916443938546121 0 0.2351920442440612 0.2280271130284848 0 0.2440714161500688 0.21658378946281839 0 0.24817913602054109 0.22671455816346611 0 0.2351920442440612 0.2280271130284848 0 0.24817913602054109 0.22671455816346611 0 0.2351920442440612 0.2280271130284848 0 0.23975313719016039 0.24094104287280149 0 0.23975313719016039 0.24094104287280149 0 0.25376577427808128 0.2562391283584553 0 0.25530153693490393 0.2469867472089167 0 0.21412688225170901 0.23387614180209779 0 0.23975313719016039 0.24094104287280149 0 0.2247480759374858 0.25363381999817292 0 0.20672645887295779 0.14247633744443519 0 0.21519473815608631 0.1497442289385503 0 0.21031694870416071 0.13272848401827941 0 0.21519473815608631 0.1497442289385503 0 0.21031694870416071 0.13272848401827941 0 0.22720244970410061 0.14545703240569041 0 0.20672645887295779 0.14247633744443519 0 0.20773335068687859 0.14908658870599709 0 0.21519473815608631 0.1497442289385503 0 0.20672645887295779 0.14247633744443519 0 0.20773335068687859 0.14908658870599709 0 0.20229036192054911 0.1484850187634173 0 0.2061675272540745 0.15510858685210371 0 0.20773335068687859 0.14908658870599709 0 0.20229036192054911 0.1484850187634173 0 0.2061675272540745 0.15510858685210371 0 0.20773335068687859 0.14908658870599709 0 0.21519473815608631 0.1497442289385503 0 0.2061675272540745 0.15510858685210371 0 0.21519473815608631 0.1497442289385503 0 0.21255314437466499 0.16322621669546319 0 0.21031694870416071 0.13272848401827941 0 0.20150671214797949 0.13501853353805729 0 0.20009355874064219 0.12502193661796601 0 0.21031694870416071 0.13272848401827941 0 0.20009355874064219 0.12502193661796601 0 0.20672645887295779 0.14247633744443519 0 0.21031694870416071 0.13272848401827941 0 0.20672645887295779 0.14247633744443519 0 0.21031694870416071 0.13272848401827941 0 0.20150671214797949 0.13501853353805729 0 0.20672645887295779 0.14247633744443519 0 0.20150671214797949 0.13501853353805729 0 0.19749002129225929 0.14233947225320001 0 0.18522108444289559 0.13185151400460279 0 0.20150671214797949 0.13501853353805729 0 0.19749002129225929 0.14233947225320001 0 0.18522108444289559 0.13185151400460279 0 0.20150671214797949 0.13501853353805729 0 0.20009355874064219 0.12502193661796601 0 0.18522108444289559 0.13185151400460279 0 0.18928627325935041 0.1189834273631236 0 0.20009355874064219 0.12502193661796601 0 0.18522108444289559 0.13185151400460279 0 0.19749002129225929 0.14233947225320001 0 0.1929880036566709 0.15308149429542431 0 0.18522108444289559 0.13185151400460279 0 0.1929880036566709 0.15308149429542431 0 0.20672645887295779 0.14247633744443519 0 0.19749002129225929 0.14233947225320001 0 0.20229036192054911 0.1484850187634173 0 0.19749002129225929 0.14233947225320001 0 0.20229036192054911 0.1484850187634173 0 0.1929880036566709 0.15308149429542431 0 0.2061675272540745 0.15510858685210371 0 0.20229036192054911 0.1484850187634173 0 0.1929880036566709 0.15308149429542431 0 0.18194360367539661 0.14786018779245411 0 0.1929880036566709 0.15308149429542431 0 0.18931452128178969 0.172156246240001 0 0.1929880036566709 0.15308149429542431 0 0.18931452128178969 0.172156246240001 0 0.20075492287044611 0.1743114745862456 0 0.1929880036566709 0.15308149429542431 0 0.20075492287044611 0.1743114745862456 0 0.1929880036566709 0.15308149429542431 0 0.20075492287044611 0.1743114745862456 0 0.20511796833822621 0.1631990775003748 0 0.2061675272540745 0.15510858685210371 0 0.1929880036566709 0.15308149429542431 0 0.20511796833822621 0.1631990775003748 0 0.1873110077552127 0.1894206465310192 0 0.18931452128178969 0.172156246240001 0 0.20075492287044611 0.1743114745862456 0 0.1873110077552127 0.1894206465310192 0 0.20853784115913371 0.17841680103871649 0 0.20640002486998579 0.17012385811853639 0 0.1873110077552127 0.1894206465310192 0 0.20075492287044611 0.1743114745862456 0 0.20640002486998579 0.17012385811853639 0 0.1873110077552127 0.1894206465310192 0 0.20640002486998579 0.17012385811853639 0 0.21299794467301841 0.18880624635040291 0 0.20853784115913371 0.17841680103871649 0 0.23370518571323259 0.17518596584353149 0 0.20853784115913371 0.17841680103871649 0 0.21255314437466499 0.16322621669546319 0 0.2237054071467473 0.16167692789720051 0 0.2061675272540745 0.15510858685210371 0 0.20511796833822621 0.1631990775003748 0 0.21255314437466499 0.16322621669546319 0 0.20853784115913371 0.17841680103871649 0 0.20640002486998579 0.17012385811853639 0 0.21255314437466499 0.16322621669546319 0 0.20075492287044611 0.1743114745862456 0 0.20511796833822621 0.1631990775003748 0 0.20640002486998579 0.17012385811853639 0 0.20511796833822621 0.1631990775003748 0 0.20640002486998579 0.17012385811853639 0 0.21255314437466499 0.16322621669546319 0 0.21519473815608631 0.1497442289385503 0 0.21255314437466499 0.16322621669546319 0 0.2237054071467473 0.16167692789720051 0 0.2237054071467473 0.16167692789720051 0 0.23370518571323259 0.17518596584353149 0 0.24408795070403941 0.15818558079310291 0 0.20853784115913371 0.17841680103871649 0 0.2237054071467473 0.16167692789720051 0 0.23370518571323259 0.17518596584353149 0 0.21299794467301841 0.18880624635040291 0 0.22326928902826951 0.19353198252320619 0 0.23370518571323259 0.17518596584353149 0 0.20853784115913371 0.17841680103871649 0 0.23370518571323259 0.17518596584353149 0 0.22326928902826951 0.19353198252320619 0 0.2395965010490009 0.1901287184252386 0 0.23370518571323259 0.17518596584353149 0 0.23370518571323259 0.17518596584353149 0 0.25887253026733148 0.1719551306483465 0 0.23370518571323259 0.17518596584353149 0 0.25075303062354087 0.18101709102735691 0 0.25887253026733148 0.1719551306483465 0 0.2395965010490009 0.1901287184252386 0 0.23370518571323259 0.17518596584353149 0 0.25075303062354087 0.18101709102735691 0 0.2395965010490009 0.1901287184252386 0 0.25075303062354087 0.18101709102735691 0 0.25471357890003588 0.1899694505898043 0 0.23370518571323259 0.17518596584353149 0 0.24408795070403941 0.15818558079310291 0 0.25887253026733148 0.1719551306483465 0 0.24408795070403941 0.15818558079310291 0 0.2497719483883557 0.145866114883938 0 0.22720244970410061 0.14545703240569041 0 0.24408795070403941 0.15818558079310291 0 0.22720244970410061 0.14545703240569041 0 0.2497719483883557 0.145866114883938 0 0.22720244970410061 0.14545703240569041 0 0.24269133559777911 0.13137959778602609 0 0.21519473815608631 0.1497442289385503 0 0.2237054071467473 0.16167692789720051 0 0.22720244970410061 0.14545703240569041 0 0.2237054071467473 0.16167692789720051 0 0.24408795070403941 0.15818558079310291 0 0.22720244970410061 0.14545703240569041 0 0.21031694870416071 0.13272848401827941 0 0.22720244970410061 0.14545703240569041 0 0.22573205208364 0.1239519970355296 0 0.22720244970410061 0.14545703240569041 0 0.24269133559777911 0.13137959778602609 0 0.22573205208364 0.1239519970355296 0 0.21031694870416071 0.13272848401827941 0 0.22720244970410061 0.14545703240569041 0 0.24269133559777911 0.13137959778602609 0 0.24680236178082729 0.10780736320091069 0 0.22573205208364 0.1239519970355296 0 0.24680236178082729 0.10780736320091069 0 0.22573205208364 0.1239519970355296 0 0.24680236178082729 0.10780736320091069 0 0.22006239306220199 0.10627048869145909 0 0.24819657032849199 0.087805226663106861 0 0.24680236178082729 0.10780736320091069 0 0.22006239306220199 0.10627048869145909 0 0.22573205208364 0.1239519970355296 0 0.21031694870416071 0.13272848401827941 0 0.20591929052721419 0.114739060913395 0 0.20009355874064219 0.12502193661796601 0 0.21031694870416071 0.13272848401827941 0 0.22006239306220199 0.10627048869145909 0 0.22573205208364 0.1239519970355296 0 0.21031694870416071 0.13272848401827941 0 0.22006239306220199 0.10627048869145909 0 0.20591929052721419 0.114739060913395 0 0.21031694870416071 0.13272848401827941 0 0.22006239306220199 0.10627048869145909 0 0.22006239306220199 0.10627048869145909 0 0.20503075601321591 0.1012591175961193 0 0.21180321984181039 0.085752904586728879 0 0.22006239306220199 0.10627048869145909 0 0.20591929052721419 0.114739060913395 0 0.20503075601321591 0.1012591175961193 0 0.20503075601321591 0.1012591175961193 0 0.1943762846247436 0.1084387251161444 0 0.19702039674447061 0.091427550369156618 0 0.1943762846247436 0.1084387251161444 0 0.19702039674447061 0.091427550369156618 0 0.1839230269969456 0.096819746828948144 0 0.20591929052721419 0.114739060913395 0 0.20503075601321591 0.1012591175961193 0 0.1943762846247436 0.1084387251161444 0 0.1943762846247436 0.1084387251161444 0 0.18928627325935041 0.1189834273631236 0 0.20009355874064219 0.12502193661796601 0 0.20591929052721419 0.114739060913395 0 0.1943762846247436 0.1084387251161444 0 0.20009355874064219 0.12502193661796601 0 0.19989493621741811 0.073301416157415533 0 0.18336841683116911 0.083222163258303616 0 0.183882594368703 0.068179824452650348 0 0.19989493621741811 0.073301416157415533 0 0.19515186333693249 0.052322574832778593 0 0.183882594368703 0.068179824452650348 0 0.19989493621741811 0.073301416157415533 0 0.19702039674447061 0.091427550369156618 0 0.21180321984181039 0.085752904586728879 0 0.19989493621741811 0.073301416157415533 0 0.19702039674447061 0.091427550369156618 0 0.18336841683116911 0.083222163258303616 0 0.19702039674447061 0.091427550369156618 0 0.1839230269969456 0.096819746828948144 0 0.18336841683116911 0.083222163258303616 0 0.20503075601321591 0.1012591175961193 0 0.19702039674447061 0.091427550369156618 0 0.21180321984181039 0.085752904586728879 0 0.19989493621741811 0.073301416157415533 0 0.21180321984181039 0.085752904586728879 0 0.21785894626095739 0.06320944739633233 0 0.19989493621741811 0.073301416157415533 0 0.21785894626095739 0.06320944739633233 0 0.19515186333693249 0.052322574832778593 0 0.21785894626095739 0.06320944739633233 0 0.22980783742024369 0.079812493364638915 0 0.23955328177828539 0.053354498037818762 0 0.21180321984181039 0.085752904586728879 0 0.21785894626095739 0.06320944739633233 0 0.22980783742024369 0.079812493364638915 0 0.22006239306220199 0.10627048869145909 0 0.22980783742024369 0.079812493364638915 0 0.24819657032849199 0.087805226663106861 0 0.22006239306220199 0.10627048869145909 0 0.22980783742024369 0.079812493364638915 0 0.22006239306220199 0.10627048869145909 0 0.21180321984181039 0.085752904586728879 0 0.22980783742024369 0.079812493364638915 0 0.22980783742024369 0.079812493364638915 0 0.24819657032849199 0.087805226663106861 0 0.25731429581274329 0.06984633570370237 0 0.22980783742024369 0.079812493364638915 0 0.23955328177828539 0.053354498037818762 0 0.25731429581274329 0.06984633570370237 0 0.22980783742024369 0.079812493364638915 0 0.23955328177828539 0.053354498037818762 0 0.23955328177828539 0.053354498037818762 0 0.2492987261363272 0.026896502710998641 0 0.23955328177828539 0.053354498037818762 0 0.2322231146269067 0.034883510666197742 0 0.2492987261363272 0.026896502710998641 0 0.23955328177828539 0.053354498037818762 0 0.2492987261363272 0.026896502710998641 0 0.25982628070769548 0.046958846885473977 0 0.2322231146269067 0.034883510666197742 0 0.22403570944878601 0.01683066639787395 0 0.21600474114422849 0.042452375518099619 0 0.23955328177828539 0.053354498037818762 0 0.2322231146269067 0.034883510666197742 0 0.21600474114422849 0.042452375518099619 0 0.21785894626095739 0.06320944739633233 0 0.23955328177828539 0.053354498037818762 0 0.21600474114422849 0.042452375518099619 0 0.22403570944878601 0.01683066639787395 0 0.25439399030610349 0.0079726127039095041 0 0.2414431017406225 -0.0042112777133020444 0 0.2492987261363272 0.026896502710998641 0 0.22403570944878601 0.01683066639787395 0 0.25439399030610349 0.0079726127039095041 0 0.2322231146269067 0.034883510666197742 0 0.2492987261363272 0.026896502710998641 0 0.22403570944878601 0.01683066639787395 0 0.22403570944878601 0.01683066639787395 0 0.2414431017406225 -0.0042112777133020444 0 0.22403570944878601 0.01683066639787395 0 0.19639849458081471 0.0066490508137971582 0 0.21151018488638801 -0.0065786541425667854 0 0.22403570944878601 0.01683066639787395 0 0.19714783558868129 0.028036351356561819 0 0.21600474114422849 0.042452375518099619 0 0.22403570944878601 0.01683066639787395 0 0.19714783558868129 0.028036351356561819 0 0.19639849458081471 0.0066490508137971582 0 0.21785894626095739 0.06320944739633233 0 0.21600474114422849 0.042452375518099619 0 0.19515186333693249 0.052322574832778593 0 0.19714783558868129 0.028036351356561819 0 0.21600474114422849 0.042452375518099619 0 0.19515186333693249 0.052322574832778593 0 0.19714783558868129 0.028036351356561819 0 0.19515186333693249 0.052322574832778593 0 0.17849227912652069 0.039272259673519029 0 0.19515186333693249 0.052322574832778593 0 0.17132543264893341 0.056452164821374232 0 0.183882594368703 0.068179824452650348 0 0.19515186333693249 0.052322574832778593 0 0.17849227912652069 0.039272259673519029 0 0.17132543264893341 0.056452164821374232 0 0.17849227912652069 0.039272259673519029 0 0.16136613224882021 0.040204518305629863 0 0.1683778517679409 0.0192053426712499 0 0.17849227912652069 0.039272259673519029 0 0.16136613224882021 0.040204518305629863 0 0.17132543264893341 0.056452164821374232 0 0.16136613224882021 0.040204518305629863 0 0.17132543264893341 0.056452164821374232 0 0.15036980440011841 0.054646620288008707 0 0.17132543264893341 0.056452164821374232 0 0.15036980440011841 0.054646620288008707 0 0.15922335590443851 0.069156326915318839 0 0.19639849458081471 0.0066490508137971582 0 0.1683778517679409 0.0192053426712499 0 0.17968128775432959 -0.0050233086812581373 0 0.1683778517679409 0.0192053426712499 0 0.17968128775432959 -0.0050233086812581373 0 0.19714783558868129 0.028036351356561819 0 0.19639849458081471 0.0066490508137971582 0 0.1683778517679409 0.0192053426712499 0 0.19714783558868129 0.028036351356561819 0 0.17849227912652069 0.039272259673519029 0 0.1683778517679409 0.0192053426712499 0 0.16136613224882021 0.040204518305629863 0 0.1683778517679409 0.0192053426712499 0 0.14618061134049329 0.030222383640390951 0 0.1683778517679409 0.0192053426712499 0 0.17968128775432959 -0.0050233086812581373 0 0.1596816684900709 -0.0045255925504788857 0 0.1683778517679409 0.0192053426712499 0 0.13901877174334179 0.0058069614355472322 0 0.1596816684900709 -0.0045255925504788857 0 0.1683778517679409 0.0192053426712499 0 0.14618061134049329 0.030222383640390951 0 0.13901877174334179 0.0058069614355472322 0 0.12316692863345589 0.026054144435575698 0 0.14618061134049329 0.030222383640390951 0 0.13901877174334179 0.0058069614355472322 0 0.16136613224882021 0.040204518305629863 0 0.14618061134049329 0.030222383640390951 0 0.15036980440011841 0.054646620288008707 0 0.14618061134049329 0.030222383640390951 0 0.15036980440011841 0.054646620288008707 0 0.1315586501983603 0.046849318201028597 0 0.12316692863345589 0.026054144435575698 0 0.14618061134049329 0.030222383640390951 0 0.1315586501983603 0.046849318201028597 0 0.15036980440011841 0.054646620288008707 0 0.1315586501983603 0.046849318201028597 0 0.13603356041663739 0.062781129069419087 0 0.1218844397962445 0.063850842824124454 0 0.1315586501983603 0.046849318201028597 0 0.13603356041663739 0.062781129069419087 0 0.13603356041663739 0.062781129069419087 0 0.1466177520256905 0.072083663629715772 0 0.12841296365015989 0.078558082126259296 0 0.1218844397962445 0.063850842824124454 0 0.13603356041663739 0.062781129069419087 0 0.12841296365015989 0.078558082126259296 0 0.15036980440011841 0.054646620288008707 0 0.1466177520256905 0.072083663629715772 0 0.15922335590443851 0.069156326915318839 0 0.15036980440011841 0.054646620288008707 0 0.13603356041663739 0.062781129069419087 0 0.1466177520256905 0.072083663629715772 0 0.1466177520256905 0.072083663629715772 0 0.15922335590443851 0.069156326915318839 0 0.1587207357609583 0.082671257288481431 0 0.15285987724235231 0.091518950942817895 0 0.1442129313240619 0.085476713817538935 0 0.1587207357609583 0.082671257288481431 0 0.1466177520256905 0.072083663629715772 0 0.1442129313240619 0.085476713817538935 0 0.1587207357609583 0.082671257288481431 0 0.15285987724235231 0.091518950942817895 0 0.1442129313240619 0.085476713817538935 0 0.14346504771796489 0.095572598611168291 0 0.1442129313240619 0.085476713817538935 0 0.13259698984574009 0.091114651797796611 0 0.14346504771796489 0.095572598611168291 0 0.1442129313240619 0.085476713817538935 0 0.12841296365015989 0.078558082126259296 0 0.13259698984574009 0.091114651797796611 0 0.1466177520256905 0.072083663629715772 0 0.1442129313240619 0.085476713817538935 0 0.12841296365015989 0.078558082126259296 0 0.1171506858609986 0.090705155522805281 0 0.12841296365015989 0.078558082126259296 0 0.13259698984574009 0.091114651797796611 0 0.1171506858609986 0.090705155522805281 0 0.13259698984574009 0.091114651797796611 0 0.12567030407927129 0.098681093654136853 0 0.13259698984574009 0.091114651797796611 0 0.12567030407927129 0.098681093654136853 0 0.13542256486792201 0.099433627488762721 0 0.1325831098345962 0.10679417970475991 0 0.1253062105446589 0.10636848884423419 0 0.12920432287192471 0.1142256489593122 0 0.12567030407927129 0.098681093654136853 0 0.1325831098345962 0.10679417970475991 0 0.1253062105446589 0.10636848884423419 0 0.12567030407927129 0.098681093654136853 0 0.1325831098345962 0.10679417970475991 0 0.13542256486792201 0.099433627488762721 0 0.1325831098345962 0.10679417970475991 0 0.13542256486792201 0.099433627488762721 0 0.1427973728620375 0.105005613675952 0 0.1325831098345962 0.10679417970475991 0 0.13782912025084099 0.1128874798904935 0 0.1427973728620375 0.105005613675952 0 0.13259698984574009 0.091114651797796611 0 0.13542256486792201 0.099433627488762721 0 0.14346504771796489 0.095572598611168291 0 0.13542256486792201 0.099433627488762721 0 0.14346504771796489 0.095572598611168291 0 0.1427973728620375 0.105005613675952 0 0.1214337654292612 0.1206876101045128 0 0.12920432287192471 0.1142256489593122 0 0.13579381173382071 0.1217654569702047 0 0.13782912025084099 0.1128874798904935 0 0.13579381173382071 0.1217654569702047 0 0.14588105847523811 0.11596926064119729 0 0.12920432287192471 0.1142256489593122 0 0.13782912025084099 0.1128874798904935 0 0.13579381173382071 0.1217654569702047 0 0.1325831098345962 0.10679417970475991 0 0.12920432287192471 0.1142256489593122 0 0.13782912025084099 0.1128874798904935 0 0.1456965733615152 0.12855459717088771 0 0.13579381173382071 0.1217654569702047 0 0.14588105847523811 0.11596926064119729 0 0.14588105847523811 0.11596926064119729 0 0.1534755849872223 0.1109137153352895 0 0.1427973728620375 0.105005613675952 0 0.13782912025084099 0.1128874798904935 0 0.14588105847523811 0.11596926064119729 0 0.1427973728620375 0.105005613675952 0 0.14588105847523811 0.11596926064119729 0 0.1534755849872223 0.1109137153352895 0 0.15515114505718969 0.1232226789215896 0 0.1456965733615152 0.12855459717088771 0 0.14588105847523811 0.11596926064119729 0 0.15515114505718969 0.1232226789215896 0 0.14346504771796489 0.095572598611168291 0 0.1427973728620375 0.105005613675952 0 0.1529100204382515 0.1002528228758283 0 0.1534755849872223 0.1109137153352895 0 0.1427973728620375 0.105005613675952 0 0.1529100204382515 0.1002528228758283 0 0.1534755849872223 0.1109137153352895 0 0.1529100204382515 0.1002528228758283 0 0.15958191852502759 0.1039622184947743 0 0.15285987724235231 0.091518950942817895 0 0.1529100204382515 0.1002528228758283 0 0.16093456015069901 0.093694427047200934 0 0.15285987724235231 0.091518950942817895 0 0.14346504771796489 0.095572598611168291 0 0.1529100204382515 0.1002528228758283 0 0.1529100204382515 0.1002528228758283 0 0.15958191852502759 0.1039622184947743 0 0.16093456015069901 0.093694427047200934 0 0.16720176846261031 0.099268070897360366 0 0.1774541652291203 0.11062153371378131 0 0.16968724601534499 0.089391553422959791 0 0.15958191852502759 0.1039622184947743 0 0.16720176846261031 0.099268070897360366 0 0.16093456015069901 0.093694427047200934 0 0.15958191852502759 0.1039622184947743 0 0.16720176846261031 0.099268070897360366 0 0.1625702757440444 0.11469088411519029 0 0.16720176846261031 0.099268070897360366 0 0.16093456015069901 0.093694427047200934 0 0.16968724601534499 0.089391553422959791 0 0.16720176846261031 0.099268070897360366 0 0.1745726860690035 0.12356412934490719 0 0.16720176846261031 0.099268070897360366 0 0.1625702757440444 0.11469088411519029 0 0.1745726860690035 0.12356412934490719 0 0.16442587034896861 0.1290198320393709 0 0.15515114505718969 0.1232226789215896 0 0.1625702757440444 0.11469088411519029 0 0.1534755849872223 0.1109137153352895 0 0.15515114505718969 0.1232226789215896 0 0.1625702757440444 0.11469088411519029 0 0.1534755849872223 0.1109137153352895 0 0.15958191852502759 0.1039622184947743 0 0.1625702757440444 0.11469088411519029 0 0.16442587034896861 0.1290198320393709 0 0.1625702757440444 0.11469088411519029 0 0.1745726860690035 0.12356412934490719 0 0.1943762846247436 0.1084387251161444 0 0.18928627325935041 0.1189834273631236 0 0.1774541652291203 0.11062153371378131 0 0.18522108444289559 0.13185151400460279 0 0.18928627325935041 0.1189834273631236 0 0.1774541652291203 0.11062153371378131 0 0.18522108444289559 0.13185151400460279 0 0.1774541652291203 0.11062153371378131 0 0.18522108444289559 0.13185151400460279 0 0.1774541652291203 0.11062153371378131 0 0.1745726860690035 0.12356412934490719 0 0.16720176846261031 0.099268070897360366 0 0.1774541652291203 0.11062153371378131 0 0.1745726860690035 0.12356412934490719 0 0.1943762846247436 0.1084387251161444 0 0.1774541652291203 0.11062153371378131 0 0.1839230269969456 0.096819746828948144 0 0.1774541652291203 0.11062153371378131 0 0.16968724601534499 0.089391553422959791 0 0.1774541652291203 0.11062153371378131 0 0.1839230269969456 0.096819746828948144 0 0.16968724601534499 0.089391553422959791 0 0.1839230269969456 0.096819746828948144 0 0.18336841683116911 0.083222163258303616 0 0.16968724601534499 0.089391553422959791 0 0.18336841683116911 0.083222163258303616 0 0.17130159934842151 0.077819588484143193 0 0.16968724601534499 0.089391553422959791 0 0.17132543264893341 0.056452164821374232 0 0.183882594368703 0.068179824452650348 0 0.17130159934842151 0.077819588484143193 0 0.18336841683116911 0.083222163258303616 0 0.183882594368703 0.068179824452650348 0 0.17130159934842151 0.077819588484143193 0 0.17132543264893341 0.056452164821374232 0 0.17130159934842151 0.077819588484143193 0 0.15922335590443851 0.069156326915318839 0 0.17130159934842151 0.077819588484143193 0 0.15922335590443851 0.069156326915318839 0 0.1587207357609583 0.082671257288481431 0 0.15285987724235231 0.091518950942817895 0 0.1587207357609583 0.082671257288481431 0 0.16093456015069901 0.093694427047200934 0 0.1587207357609583 0.082671257288481431 0 0.16093456015069901 0.093694427047200934 0 0.16968724601534499 0.089391553422959791 0 0.17130159934842151 0.077819588484143193 0 0.1587207357609583 0.082671257288481431 0 0.16968724601534499 0.089391553422959791 0 0.097812311883621036 0.48526178404939702 0 0.1024619942423341 0.46441886247103592 0 0.088634834907405993 0.47227436216828428 0 0.097812311883621036 0.48526178404939702 0 0.1109313248280587 0.48038627566150921 0 0.1024619942423341 0.46441886247103592 0 0.1062908314195916 0.5 0 0.097812311883621036 0.48526178404939702 0 0.1209089265155784 0.49055785899466942 0 0.1062908314195916 0.5 0 0.097812311883621036 0.48526178404939702 0 0.077245609517296199 0.5 0 0.1062908314195916 0.5 0 0.1209089265155784 0.49055785899466942 0 0.135336053321887 0.5 0 0.097812311883621036 0.48526178404939702 0 0.1209089265155784 0.49055785899466942 0 0.097812311883621036 0.48526178404939702 0 0.1209089265155784 0.49055785899466942 0 0.1109313248280587 0.48038627566150921 0 0.1109313248280587 0.48038627566150921 0 0.12310175456961669 0.47627924164735752 0 0.1024619942423341 0.46441886247103592 0 0.1209089265155784 0.49055785899466942 0 0.1109313248280587 0.48038627566150921 0 0.12310175456961669 0.47627924164735752 0 0.12310175456961669 0.47627924164735752 0 0.1024619942423341 0.46441886247103592 0 0.12310175456961669 0.47627924164735752 0 0.1024619942423341 0.46441886247103592 0 0.12914023368394451 0.46430113757102448 0 0.12427296261541031 0.45059466218880112 0 0.1024619942423341 0.46441886247103592 0 0.12914023368394451 0.46430113757102448 0 0.12427296261541031 0.45059466218880112 0 0.10223026774733721 0.4411303279604365 0 0.1243924963286317 0.43374985511904263 0 0.12427296261541031 0.45059466218880112 0 0.10223026774733721 0.4411303279604365 0 0.1024619942423341 0.46441886247103592 0 0.10223026774733721 0.4411303279604365 0 0.1024619942423341 0.46441886247103592 0 0.081822233915051418 0.45255848329471438 0 0.081822233915051418 0.45255848329471438 0 0.067581489833198644 0.46349089495542151 0 0.088634834907405993 0.47227436216828428 0 0.1024619942423341 0.46441886247103592 0 0.081822233915051418 0.45255848329471438 0 0.088634834907405993 0.47227436216828428 0 0.1024619942423341 0.46441886247103592 0 0.081822233915051418 0.45255848329471438 0 0.10223026774733721 0.4411303279604365 0 0.081822233915051418 0.45255848329471438 0 0.076596762527261039 0.43688657693499577 0 0.081822233915051418 0.45255848329471438 0 0.056594297121595333 0.44811582188839211 0 0.076596762527261039 0.43688657693499577 0 0.056594297121595333 0.44811582188839211 0 0.061860057264888892 0.42942040534693537 0 0.076596762527261039 0.43688657693499577 0 0.081822233915051418 0.45255848329471438 0 0.067581489833198644 0.46349089495542151 0 0.056594297121595333 0.44811582188839211 0 0.067581489833198644 0.46349089495542151 0 0.07471569725166366 0.47996570910412462 0 0.088634834907405993 0.47227436216828428 0 0.07471569725166366 0.47996570910412462 0 0.062945194250916742 0.48865883581574421 0 0.051619082619706338 0.47466963415885222 0 0.07471569725166366 0.47996570910412462 0 0.051619082619706338 0.47466963415885222 0 0.067581489833198644 0.46349089495542151 0 0.07471569725166366 0.47996570910412462 0 0.051619082619706338 0.47466963415885222 0 0.097812311883621036 0.48526178404939702 0 0.07471569725166366 0.47996570910412462 0 0.088634834907405993 0.47227436216828428 0 0.097812311883621036 0.48526178404939702 0 0.07471569725166366 0.47996570910412462 0 0.097812311883621036 0.48526178404939702 0 0.07471569725166366 0.47996570910412462 0 0.077245609517296199 0.5 0 0.07471569725166366 0.47996570910412462 0 0.077245609517296199 0.5 0 0.062945194250916742 0.48865883581574421 0 0.077245609517296199 0.5 0 0.062945194250916742 0.48865883581574421 0 0.048200387615000777 0.5 0 0.062945194250916742 0.48865883581574421 0 0.048200387615000777 0.5 0 0.051619082619706338 0.47466963415885222 0 0.051619082619706338 0.47466963415885222 0 0.033877800276231433 0.48215639961694179 0 0.031846167499078717 0.462372708680304 0 0.048200387615000777 0.5 0 0.033877800276231433 0.48215639961694179 0 0.019155165712705091 0.4999999999999975 0 0.048200387615000777 0.5 0 0.051619082619706338 0.47466963415885222 0 0.033877800276231433 0.48215639961694179 0 0.033877800276231433 0.48215639961694179 0 0.019155165712705091 0.4999999999999975 0 0.018568197934666211 0.4737396552455525 0 0.033877800276231433 0.48215639961694179 0 0.018568197934666211 0.4737396552455525 0 0.031846167499078717 0.462372708680304 0 0.018568197934666211 0.4737396552455525 0 0.0036080210499636681 0.48169505634828769 0 0.0041572681536312089 0.46313827509128441 0 0.019155165712705091 0.4999999999999975 0 0.0036080210499636681 0.48169505634828769 0 0.019155165712705091 0.4999999999999975 0 0.018568197934666211 0.4737396552455525 0 0.0036080210499636681 0.48169505634828769 0 -0.0075750716008230468 0.5 0 0.019155165712705091 0.4999999999999975 0 0.0036080210499636681 0.48169505634828769 0 -0.0056788975283216074 0.45314311847938649 0 0.0081710322401465675 0.43902006880664718 0 0.0060525274966358907 0.43394064196042442 0 -0.0056788975283216074 0.45314311847938649 0 0.0060525274966358907 0.43394064196042442 0 0.013929177776412741 0.44695376038717388 0 0.0070132975125512843 0.45172378675669028 0 0.015317695118172841 0.45703237083623088 0 0.013929177776412741 0.44695376038717388 0 0.0081710322401465675 0.43902006880664718 0 0.0070132975125512843 0.45172378675669028 0 0.013929177776412741 0.44695376038717388 0 0.0081710322401465675 0.43902006880664718 0 0.020320166557919381 0.43950330400725018 0 -0.0056788975283216074 0.45314311847938649 0 0.0081710322401465675 0.43902006880664718 0 0.0070132975125512843 0.45172378675669028 0 -0.0056788975283216074 0.45314311847938649 0 0.0081710322401465675 0.43902006880664718 0 0.018568197934666211 0.4737396552455525 0 0.0041572681536312089 0.46313827509128441 0 0.015317695118172841 0.45703237083623088 0 -0.0056788975283216074 0.45314311847938649 0 0.0070132975125512843 0.45172378675669028 0 0.0041572681536312089 0.46313827509128441 0 0.0070132975125512843 0.45172378675669028 0 0.0041572681536312089 0.46313827509128441 0 0.015317695118172841 0.45703237083623088 0 0.018568197934666211 0.4737396552455525 0 0.015317695118172841 0.45703237083623088 0 0.031846167499078717 0.462372708680304 0 0.015317695118172841 0.45703237083623088 0 0.022412396710285051 0.44847548961875161 0 0.031846167499078717 0.462372708680304 0 0.022412396710285051 0.44847548961875161 0 0.03506726405413807 0.43817018208977032 0 0.031846167499078717 0.462372708680304 0 0.013929177776412741 0.44695376038717388 0 0.015317695118172841 0.45703237083623088 0 0.022412396710285051 0.44847548961875161 0 0.013929177776412741 0.44695376038717388 0 0.022412396710285051 0.44847548961875161 0 0.020320166557919381 0.43950330400725018 0 0.022412396710285051 0.44847548961875161 0 0.020320166557919381 0.43950330400725018 0 0.03506726405413807 0.43817018208977032 0 0.03506726405413807 0.43817018208977032 0 0.031846167499078717 0.462372708680304 0 0.056594297121595333 0.44811582188839211 0 0.03506726405413807 0.43817018208977032 0 0.031846167499078717 0.462372708680304 0 0.03506726405413807 0.43817018208977032 0 0.056594297121595333 0.44811582188839211 0 0.047174138007546697 0.42757250254246709 0 0.051619082619706338 0.47466963415885222 0 0.031846167499078717 0.462372708680304 0 0.056594297121595333 0.44811582188839211 0 0.067581489833198644 0.46349089495542151 0 0.051619082619706338 0.47466963415885222 0 0.056594297121595333 0.44811582188839211 0 0.056594297121595333 0.44811582188839211 0 0.047174138007546697 0.42757250254246709 0 0.061860057264888892 0.42942040534693537 0 0.047174138007546697 0.42757250254246709 0 0.061860057264888892 0.42942040534693537 0 0.055609239761021473 0.41124050951896401 0 0.047174138007546697 0.42757250254246709 0 0.055609239761021473 0.41124050951896401 0 0.038288360609197422 0.41396765549923659 0 0.03506726405413807 0.43817018208977032 0 0.047174138007546697 0.42757250254246709 0 0.038288360609197422 0.41396765549923659 0 0.03506726405413807 0.43817018208977032 0 0.038288360609197422 0.41396765549923659 0 0.03506726405413807 0.43817018208977032 0 0.038288360609197422 0.41396765549923659 0 0.0220209620086145 0.42489701913390793 0 0.020320166557919381 0.43950330400725018 0 0.03506726405413807 0.43817018208977032 0 0.0220209620086145 0.42489701913390793 0 0.0081710322401465675 0.43902006880664718 0 0.020320166557919381 0.43950330400725018 0 0.0220209620086145 0.42489701913390793 0 0.038288360609197422 0.41396765549923659 0 0.018821029035075591 0.41061432609642312 0 0.029059549657656222 0.40140974931211648 0 0.038288360609197422 0.41396765549923659 0 0.0220209620086145 0.42489701913390793 0 0.018821029035075591 0.41061432609642312 0 0.0220209620086145 0.42489701913390793 0 0.018821029035075591 0.41061432609642312 0 0.007698142858603943 0.42186184439159558 0 0.018821029035075591 0.41061432609642312 0 0.001738985615909209 0.40767877470127428 0 0.007698142858603943 0.42186184439159558 0 -0.0046041233353045982 0.42054886433158079 0 0.001738985615909209 0.40767877470127428 0 0.007698142858603943 0.42186184439159558 0 0.007698142858603943 0.42186184439159558 0 0.001571042455832043 0.42695653658648552 0 0.0060525274966358907 0.43394064196042442 0 0.0220209620086145 0.42489701913390793 0 0.007698142858603943 0.42186184439159558 0 0.0060525274966358907 0.43394064196042442 0 0.0081710322401465675 0.43902006880664718 0 0.0220209620086145 0.42489701913390793 0 0.0060525274966358907 0.43394064196042442 0 -0.0046041233353045982 0.42054886433158079 0 0.007698142858603943 0.42186184439159558 0 0.001571042455832043 0.42695653658648552 0 -0.0043858365965349757 0.43091195994427978 0 0.001571042455832043 0.42695653658648552 0 0.0060525274966358907 0.43394064196042442 0 0.0081710322401465675 0.43902006880664718 0 0.0220209620086145 0.42489701913390793 0 -0.006197098098082339 0.38887427719183432 0 0.01761935182209512 0.39129188674410309 0 0.0092361384877125696 0.36858803067752749 0 -0.006197098098082339 0.38887427719183432 0 0.0092361384877125696 0.36858803067752749 0 -0.006197098098082339 0.38887427719183432 0 0.001738985615909209 0.40767877470127428 0 0.01761935182209512 0.39129188674410309 0 0.018821029035075591 0.41061432609642312 0 0.001738985615909209 0.40767877470127428 0 0.01761935182209512 0.39129188674410309 0 0.01761935182209512 0.39129188674410309 0 0.029059549657656222 0.40140974931211648 0 0.041509457164256768 0.38976512890870302 0 0.018821029035075591 0.41061432609642312 0 0.01761935182209512 0.39129188674410309 0 0.029059549657656222 0.40140974931211648 0 0.01761935182209512 0.39129188674410309 0 0.027632810693984041 0.37469485433322419 0 0.0092361384877125696 0.36858803067752749 0 0.01761935182209512 0.39129188674410309 0 0.041509457164256768 0.38976512890870302 0 0.027632810693984041 0.37469485433322419 0 0.041509457164256768 0.38976512890870302 0 0.04473055371931612 0.36556260231816923 0 0.041509457164256768 0.38976512890870302 0 0.04473055371931612 0.36556260231816923 0 0.027632810693984041 0.37469485433322419 0 0.038288360609197422 0.41396765549923659 0 0.041509457164256768 0.38976512890870302 0 0.055609239761021473 0.41124050951896401 0 0.038288360609197422 0.41396765549923659 0 0.041509457164256768 0.38976512890870302 0 0.038288360609197422 0.41396765549923659 0 0.029059549657656222 0.40140974931211648 0 0.041509457164256768 0.38976512890870302 0 0.055609239761021473 0.41124050951896401 0 0.041509457164256768 0.38976512890870302 0 0.061154443135443867 0.39081635661596381 0 0.041509457164256768 0.38976512890870302 0 0.061154443135443867 0.39081635661596381 0 0.060040271578410249 0.37267405173945889 0 0.041509457164256768 0.38976512890870302 0 0.060040271578410249 0.37267405173945889 0 0.04473055371931612 0.36556260231816923 0 0.061154443135443867 0.39081635661596381 0 0.075075793088175802 0.37988519375570629 0 0.060040271578410249 0.37267405173945889 0 0.075075793088175802 0.37988519375570629 0 0.086508594005036243 0.39210844190671368 0 0.093421763068598729 0.3732746329651811 0 0.086508594005036243 0.39210844190671368 0 0.072355359819658793 0.4032620226490824 0 0.097464306129530401 0.40627607045229042 0 0.075075793088175802 0.37988519375570629 0 0.086508594005036243 0.39210844190671368 0 0.072355359819658793 0.4032620226490824 0 0.075075793088175802 0.37988519375570629 0 0.072355359819658793 0.4032620226490824 0 0.055609239761021473 0.41124050951896401 0 0.061154443135443867 0.39081635661596381 0 0.072355359819658793 0.4032620226490824 0 0.061154443135443867 0.39081635661596381 0 0.075075793088175802 0.37988519375570629 0 0.072355359819658793 0.4032620226490824 0 0.061860057264888892 0.42942040534693537 0 0.055609239761021473 0.41124050951896401 0 0.072355359819658793 0.4032620226490824 0 0.061860057264888892 0.42942040534693537 0 0.072355359819658793 0.4032620226490824 0 0.087598047920335723 0.4245623763575736 0 0.061860057264888892 0.42942040534693537 0 0.076596762527261039 0.43688657693499577 0 0.087598047920335723 0.4245623763575736 0 0.10223026774733721 0.4411303279604365 0 0.076596762527261039 0.43688657693499577 0 0.087598047920335723 0.4245623763575736 0 0.072355359819658793 0.4032620226490824 0 0.087598047920335723 0.4245623763575736 0 0.097464306129530401 0.40627607045229042 0 0.087598047920335723 0.4245623763575736 0 0.11304778029845911 0.42145253789261988 0 0.097464306129530401 0.40627607045229042 0 0.10223026774733721 0.4411303279604365 0 0.087598047920335723 0.4245623763575736 0 0.11304778029845911 0.42145253789261988 0 0.10223026774733721 0.4411303279604365 0 0.1243924963286317 0.43374985511904263 0 0.11304778029845911 0.42145253789261988 0 0.1243924963286317 0.43374985511904263 0 0.11304778029845911 0.42145253789261988 0 0.1369231587652131 0.4148184148180396 0 0.11304778029845911 0.42145253789261988 0 0.12124423323304589 0.40464992307237418 0 0.097464306129530401 0.40627607045229042 0 0.11304778029845911 0.42145253789261988 0 0.12124423323304589 0.40464992307237418 0 0.1369231587652131 0.4148184148180396 0 0.12124423323304589 0.40464992307237418 0 0.10530203828580589 0.39081501087735721 0 0.12511485180878659 0.38669155364253999 0 0.10530203828580589 0.39081501087735721 0 0.11572839933565 0.36901112731387931 0 0.12511485180878659 0.38669155364253999 0 0.10530203828580589 0.39081501087735721 0 0.11572839933565 0.36901112731387931 0 0.093421763068598729 0.3732746329651811 0 0.086508594005036243 0.39210844190671368 0 0.10530203828580589 0.39081501087735721 0 0.093421763068598729 0.3732746329651811 0 0.086508594005036243 0.39210844190671368 0 0.10530203828580589 0.39081501087735721 0 0.097464306129530401 0.40627607045229042 0 0.12124423323304589 0.40464992307237418 0 0.10530203828580589 0.39081501087735721 0 0.097464306129530401 0.40627607045229042 0 0.1013897441253909 0.35051354911707838 0 0.11572839933565 0.36901112731387931 0 0.093421763068598729 0.3732746329651811 0 0.11572839933565 0.36901112731387931 0 0.11950838885500729 0.35295264304180468 0 0.1335444958012677 0.35713356896564219 0 0.1013897441253909 0.35051354911707838 0 0.11572839933565 0.36901112731387931 0 0.11950838885500729 0.35295264304180468 0 0.1013897441253909 0.35051354911707838 0 0.11950838885500729 0.35295264304180468 0 0.1193185522089424 0.33837469460089648 0 0.11950838885500729 0.35295264304180468 0 0.1193185522089424 0.33837469460089648 0 0.1288537052033524 0.34405262424154759 0 0.1193185522089424 0.33837469460089648 0 0.1186596399420512 0.32518763369556519 0 0.1025984126411506 0.33217160592188177 0 0.1193185522089424 0.33837469460089648 0 0.1186596399420512 0.32518763369556519 0 0.12912453341153041 0.33299194894352813 0 0.1186596399420512 0.32518763369556519 0 0.10770230056735849 0.31765813870021659 0 0.1025984126411506 0.33217160592188177 0 0.11795154367990079 0.31285788244540341 0 0.1186596399420512 0.32518763369556519 0 0.13159280756532371 0.3183841303460837 0 0.11795154367990079 0.31285788244540341 0 0.1186596399420512 0.32518763369556519 0 0.10770230056735849 0.31765813870021659 0 0.10770230056735849 0.31765813870021659 0 0.1025984126411506 0.33217160592188177 0 0.093611812646468368 0.32088958161890829 0 0.10770230056735849 0.31765813870021659 0 0.093611812646468368 0.32088958161890829 0 0.098626063533215541 0.30876786225500108 0 0.1013897441253909 0.35051354911707838 0 0.1025984126411506 0.33217160592188177 0 0.080516659625209819 0.33313153596895412 0 0.1013897441253909 0.35051354911707838 0 0.1193185522089424 0.33837469460089648 0 0.1025984126411506 0.33217160592188177 0 0.1025984126411506 0.33217160592188177 0 0.080516659625209819 0.33313153596895412 0 0.093611812646468368 0.32088958161890829 0 0.080516659625209819 0.33313153596895412 0 0.093611812646468368 0.32088958161890829 0 0.083237092893726827 0.30975470707557801 0 0.080516659625209819 0.33313153596895412 0 0.083237092893726827 0.30975470707557801 0 0.093611812646468368 0.32088958161890829 0 0.083237092893726827 0.30975470707557801 0 0.098626063533215541 0.30876786225500108 0 0.080516659625209819 0.33313153596895412 0 0.063109662235112246 0.31789764175099672 0 0.083237092893726827 0.30975470707557801 0 0.080516659625209819 0.33313153596895412 0 0.063109662235112246 0.31789764175099672 0 0.063855688578372094 0.33721765494684458 0 0.080516659625209819 0.33313153596895412 0 0.063855688578372094 0.33721765494684458 0 0.07779622635669281 0.35650836486233017 0 0.063855688578372094 0.33721765494684458 0 0.07779622635669281 0.35650836486233017 0 0.05997515600657613 0.35350666397588137 0 0.1013897441253909 0.35051354911707838 0 0.080516659625209819 0.33313153596895412 0 0.07779622635669281 0.35650836486233017 0 0.080516659625209819 0.33313153596895412 0 0.07779622635669281 0.35650836486233017 0 0.1013897441253909 0.35051354911707838 0 0.07779622635669281 0.35650836486233017 0 0.093421763068598729 0.3732746329651811 0 0.075075793088175802 0.37988519375570629 0 0.07779622635669281 0.35650836486233017 0 0.093421763068598729 0.3732746329651811 0 0.07779622635669281 0.35650836486233017 0 0.060040271578410249 0.37267405173945889 0 0.05997515600657613 0.35350666397588137 0 0.075075793088175802 0.37988519375570629 0 0.07779622635669281 0.35650836486233017 0 0.060040271578410249 0.37267405173945889 0 0.075075793088175802 0.37988519375570629 0 0.07779622635669281 0.35650836486233017 0 0.060040271578410249 0.37267405173945889 0 0.05997515600657613 0.35350666397588137 0 0.04473055371931612 0.36556260231816923 0 0.05997515600657613 0.35350666397588137 0 0.04473055371931612 0.36556260231816923 0 0.047951650274375458 0.3413600757276356 0 0.063855688578372094 0.33721765494684458 0 0.05997515600657613 0.35350666397588137 0 0.047951650274375458 0.3413600757276356 0 0.04473055371931612 0.36556260231816923 0 0.047951650274375458 0.3413600757276356 0 0.04473055371931612 0.36556260231816923 0 0.024669375073507482 0.34830178416322077 0 0.047951650274375458 0.3413600757276356 0 0.04473055371931612 0.36556260231816923 0 0.027632810693984041 0.37469485433322419 0 0.024669375073507482 0.34830178416322077 0 0.027632810693984041 0.37469485433322419 0 0.024669375073507482 0.34830178416322077 0 0.0092361384877125696 0.36858803067752749 0 0.024669375073507482 0.34830178416322077 0 0.0092361384877125696 0.36858803067752749 0 -0.0069400381463707471 0.35673085073994759 0 0.0065766348852069924 0.3498664669526052 0 0.0092361384877125696 0.36858803067752749 0 0.024669375073507482 0.34830178416322077 0 0.0065766348852069924 0.3498664669526052 0 0.0078668993514150222 0.33388449334639941 0 0.024669375073507482 0.34830178416322077 0 0.0065766348852069924 0.3498664669526052 0 0.0092361384877125696 0.36858803067752749 0 0.0099744516145248013 0.32166174431860478 0 0.0078668993514150222 0.33388449334639941 0 0.022386496304973458 0.32777665776924392 0 0.0099744516145248013 0.32166174431860478 0 0.02028330536135799 0.31679865294512449 0 0.0066862934846831923 0.3120948041403328 0 0.0099744516145248013 0.32166174431860478 0 0.001640553041194217 0.31653633429737832 0 0.0066862934846831923 0.3120948041403328 0 0.001640553041194217 0.31653633429737832 0 0.0021809559534737852 0.31154143232201797 0 0.0066862934846831923 0.3120948041403328 0 0.0099744516145248013 0.32166174431860478 0 0.0005881388663088069 0.323179086459774 0 0.0078668993514150222 0.33388449334639941 0 0.0099744516145248013 0.32166174431860478 0 0.001640553041194217 0.31653633429737832 0 0.0005881388663088069 0.323179086459774 0 -0.0019492003402293669 0.34182717583593059 0 0.0065766348852069924 0.3498664669526052 0 0.0078668993514150222 0.33388449334639941 0 -0.0019492003402293669 0.34182717583593059 0 -0.003384044066198042 0.33179074559994298 0 0.0078668993514150222 0.33388449334639941 0 -0.003384044066198042 0.33179074559994298 0 0.0005881388663088069 0.323179086459774 0 0.0078668993514150222 0.33388449334639941 0 0.024669375073507482 0.34830178416322077 0 0.022386496304973458 0.32777665776924392 0 0.040102611659302387 0.32801553764891411 0 0.024669375073507482 0.34830178416322077 0 0.0078668993514150222 0.33388449334639941 0 0.022386496304973458 0.32777665776924392 0 0.022386496304973458 0.32777665776924392 0 0.02028330536135799 0.31679865294512449 0 0.031720402573412347 0.31844172173615892 0 0.0099744516145248013 0.32166174431860478 0 0.022386496304973458 0.32777665776924392 0 0.02028330536135799 0.31679865294512449 0 0.02028330536135799 0.31679865294512449 0 0.031720402573412347 0.31844172173615892 0 0.03064888282919611 0.30401833676128198 0 0.022386496304973458 0.32777665776924392 0 0.031720402573412347 0.31844172173615892 0 0.040102611659302387 0.32801553764891411 0 0.031720402573412347 0.31844172173615892 0 0.045283354367441582 0.31556221763832631 0 0.03064888282919611 0.30401833676128198 0 0.031720402573412347 0.31844172173615892 0 0.040102611659302387 0.32801553764891411 0 0.045283354367441582 0.31556221763832631 0 0.040102611659302387 0.32801553764891411 0 0.045283354367441582 0.31556221763832631 0 0.05226322562125181 0.32844916351181008 0 0.024669375073507482 0.34830178416322077 0 0.040102611659302387 0.32801553764891411 0 0.024669375073507482 0.34830178416322077 0 0.040102611659302387 0.32801553764891411 0 0.047951650274375458 0.3413600757276356 0 0.040102611659302387 0.32801553764891411 0 0.047951650274375458 0.3413600757276356 0 0.05226322562125181 0.32844916351181008 0 0.063855688578372094 0.33721765494684458 0 0.047951650274375458 0.3413600757276356 0 0.05226322562125181 0.32844916351181008 0 0.063109662235112246 0.31789764175099672 0 0.045283354367441582 0.31556221763832631 0 0.05226322562125181 0.32844916351181008 0 0.063109662235112246 0.31789764175099672 0 0.063855688578372094 0.33721765494684458 0 0.05226322562125181 0.32844916351181008 0 0.063109662235112246 0.31789764175099672 0 0.045283354367441582 0.31556221763832631 0 0.054611472173709028 0.29594186938223133 0 0.054611472173709028 0.29594186938223133 0 0.04151409299547814 0.27732892706730361 0 0.056079507430009327 0.28082843577884647 0 0.054611472173709028 0.29594186938223133 0 0.056079507430009327 0.28082843577884647 0 0.066115564417110737 0.28389611949775789 0 0.054611472173709028 0.29594186938223133 0 0.03064888282919611 0.30401833676128198 0 0.030791284849696281 0.28797757585195932 0 0.054611472173709028 0.29594186938223133 0 0.030791284849696281 0.28797757585195932 0 0.04151409299547814 0.27732892706730361 0 0.054611472173709028 0.29594186938223133 0 0.03064888282919611 0.30401833676128198 0 0.045283354367441582 0.31556221763832631 0 0.054611472173709028 0.29594186938223133 0 0.03064888282919611 0.30401833676128198 0 0.02028330536135799 0.31679865294512449 0 0.03064888282919611 0.30401833676128198 0 0.0066862934846831923 0.3120948041403328 0 0.03064888282919611 0.30401833676128198 0 0.0066862934846831923 0.3120948041403328 0 0.03064888282919611 0.30401833676128198 0 0.015815348062033979 0.29622107302558509 0 0.0066862934846831923 0.3120948041403328 0 0.03064888282919611 0.30401833676128198 0 0.030791284849696281 0.28797757585195932 0 0.015815348062033979 0.29622107302558509 0 0.030791284849696281 0.28797757585195932 0 0.015815348062033979 0.29622107302558509 0 0.015345424557816199 0.28221461304220941 0 0.015815348062033979 0.29622107302558509 0 0.0056590684270016872 0.29069243878221251 0 0.0077651505362812366 0.29928355996104178 0 0.015815348062033979 0.29622107302558509 0 0.015345424557816199 0.28221461304220941 0 0.0056590684270016872 0.29069243878221251 0 0.015345424557816199 0.28221461304220941 0 0.0056590684270016872 0.29069243878221251 0 0.0036022908640532341 0.28003696460785432 0 -0.0073978362223277166 0.28689032226821071 0 0.0056590684270016872 0.29069243878221251 0 0.0036022908640532341 0.28003696460785432 0 0.0056590684270016872 0.29069243878221251 0 0.0077651505362812366 0.29928355996104178 0 0.00015927102486981489 0.29745675896918089 0 0.0077651505362812366 0.29928355996104178 0 0.00015927102486981489 0.29745675896918089 0 0.0048028054488206129 0.30550447276361348 0 0.015815348062033979 0.29622107302558509 0 0.0077651505362812366 0.29928355996104178 0 0.0066862934846831923 0.3120948041403328 0 0.0077651505362812366 0.29928355996104178 0 0.0066862934846831923 0.3120948041403328 0 0.0048028054488206129 0.30550447276361348 0 -0.0049034890932287863 0.31236688705127519 0 0.0021809559534737852 0.31154143232201797 0 0.0048028054488206129 0.30550447276361348 0 0.0021809559534737852 0.31154143232201797 0 0.0066862934846831923 0.3120948041403328 0 0.0048028054488206129 0.30550447276361348 0 -0.0060435029931193646 0.2694932765028964 0 0.010292242862265389 0.2525681246984261 0 0.01306813282474412 0.26953469552069298 0 -0.0060435029931193646 0.2694932765028964 0 0.0036022908640532341 0.28003696460785432 0 0.01306813282474412 0.26953469552069298 0 0.015345424557816199 0.28221461304220941 0 0.0036022908640532341 0.28003696460785432 0 0.01306813282474412 0.26953469552069298 0 0.01306813282474412 0.26953469552069298 0 0.026902396621463601 0.27347931653131008 0 0.024003353803029769 0.2633590462593593 0 0.015345424557816199 0.28221461304220941 0 0.01306813282474412 0.26953469552069298 0 0.026902396621463601 0.27347931653131008 0 0.030791284849696281 0.28797757585195932 0 0.015345424557816199 0.28221461304220941 0 0.026902396621463601 0.27347931653131008 0 0.026902396621463601 0.27347931653131008 0 0.024003353803029769 0.2633590462593593 0 0.03427396259753248 0.2669729532344669 0 0.010292242862265389 0.2525681246984261 0 0.024003353803029769 0.2633590462593593 0 0.033139822705026432 0.25616635255332632 0 0.010292242862265389 0.2525681246984261 0 0.01306813282474412 0.26953469552069298 0 0.024003353803029769 0.2633590462593593 0 0.010292242862265389 0.2525681246984261 0 0.033139822705026432 0.25616635255332632 0 0.033949902252661937 0.25099025126797392 0 0.024003353803029769 0.2633590462593593 0 0.033139822705026432 0.25616635255332632 0 0.03427396259753248 0.2669729532344669 0 0.010292242862265389 0.2525681246984261 0 0.033949902252661937 0.25099025126797392 0 0.010292242862265389 0.2525681246984261 0 0.033139822705026432 0.25616635255332632 0 0.033139822705026432 0.25616635255332632 0 0.043692585901091818 0.26607285035189487 0 0.055987402547787377 0.25976458040822709 0 0.033139822705026432 0.25616635255332632 0 0.033949902252661937 0.25099025126797392 0 0.055987402547787377 0.25976458040822709 0 0.057607561643058448 0.24941237783752099 0 0.033949902252661937 0.25099025126797392 0 0.033139822705026432 0.25616635255332632 0 0.055987402547787377 0.25976458040822709 0 0.033139822705026432 0.25616635255332632 0 0.03427396259753248 0.2669729532344669 0 0.043692585901091818 0.26607285035189487 0 0.030791284849696281 0.28797757585195932 0 0.026902396621463601 0.27347931653131008 0 0.04151409299547814 0.27732892706730361 0 0.026902396621463601 0.27347931653131008 0 0.03427396259753248 0.2669729532344669 0 0.04151409299547814 0.27732892706730361 0 0.043692585901091818 0.26607285035189487 0 0.04151409299547814 0.27732892706730361 0 0.053496989854195542 0.27179509672454932 0 0.03427396259753248 0.2669729532344669 0 0.043692585901091818 0.26607285035189487 0 0.04151409299547814 0.27732892706730361 0 0.04151409299547814 0.27732892706730361 0 0.053496989854195542 0.27179509672454932 0 0.056079507430009327 0.28082843577884647 0 0.043692585901091818 0.26607285035189487 0 0.053496989854195542 0.27179509672454932 0 0.055987402547787377 0.25976458040822709 0 0.053496989854195542 0.27179509672454932 0 0.061182601618360657 0.26863394601220508 0 0.055987402547787377 0.25976458040822709 0 0.053496989854195542 0.27179509672454932 0 0.061182601618360657 0.26863394601220508 0 0.06465941770955326 0.27518016622239061 0 0.056079507430009327 0.28082843577884647 0 0.06465941770955326 0.27518016622239061 0 0.066115564417110737 0.28389611949775789 0 0.053496989854195542 0.27179509672454932 0 0.056079507430009327 0.28082843577884647 0 0.06465941770955326 0.27518016622239061 0 0.057607561643058448 0.24941237783752099 0 0.033949902252661937 0.25099025126797392 0 0.055987402547787377 0.25976458040822709 0 0.061182601618360657 0.26863394601220508 0 0.055987402547787377 0.25976458040822709 0 0.068335178103150235 0.26846197012310918 0 0.057607561643058448 0.24941237783752099 0 0.055987402547787377 0.25976458040822709 0 0.068423791903712283 0.25509356772898611 0 0.055987402547787377 0.25976458040822709 0 0.078834982390548328 0.26336280826312808 0 0.057607561643058448 0.24941237783752099 0 0.081265221033454946 0.2478345044070682 0 0.068423791903712283 0.25509356772898611 0 0.055987402547787377 0.25976458040822709 0 0.078834982390548328 0.26336280826312808 0 0.068335178103150235 0.26846197012310918 0 0.055987402547787377 0.25976458040822709 0 0.068423791903712283 0.25509356772898611 0 0.078834982390548328 0.26336280826312808 0 0.081265221033454946 0.2478345044070682 0 0.068423791903712283 0.25509356772898611 0 0.078834982390548328 0.26336280826312808 0 0.078834982390548328 0.26336280826312808 0 0.10168256223330931 0.26696103611802902 0 0.081265221033454946 0.2478345044070682 0 0.078834982390548328 0.26336280826312808 0 0.088979123971559035 0.25702557020336592 0 0.078834982390548328 0.26336280826312808 0 0.088979123971559035 0.25702557020336592 0 0.10168256223330931 0.26696103611802902 0 0.081265221033454946 0.2478345044070682 0 0.094133730228923601 0.2499439320252386 0 0.088979123971559035 0.25702557020336592 0 0.078834982390548328 0.26336280826312808 0 0.096283043085207534 0.27376292121262469 0 0.10168256223330931 0.26696103611802902 0 0.087355403787320623 0.27499192928933669 0 0.08624369147506665 0.27983666862128842 0 0.10253665086273479 0.27978893462412951 0 0.078834982390548328 0.26336280826312808 0 0.087355403787320623 0.27499192928933669 0 0.096283043085207534 0.27376292121262469 0 0.078834982390548328 0.26336280826312808 0 0.087355403787320623 0.27499192928933669 0 0.07650864973198919 0.27670040856850692 0 0.087355403787320623 0.27499192928933669 0 0.08624369147506665 0.27983666862128842 0 0.07650864973198919 0.27670040856850692 0 0.078834982390548328 0.26336280826312808 0 0.07650864973198919 0.27670040856850692 0 0.068335178103150235 0.26846197012310918 0 0.07650864973198919 0.27670040856850692 0 0.068335178103150235 0.26846197012310918 0 0.06465941770955326 0.27518016622239061 0 0.061182601618360657 0.26863394601220508 0 0.068335178103150235 0.26846197012310918 0 0.06465941770955326 0.27518016622239061 0 0.07650864973198919 0.27670040856850692 0 0.06465941770955326 0.27518016622239061 0 0.066115564417110737 0.28389611949775789 0 0.054611472173709028 0.29594186938223133 0 0.06972341808185685 0.30119216574250729 0 0.078574061518221938 0.28786540200318061 0 0.054611472173709028 0.29594186938223133 0 0.078574061518221938 0.28786540200318061 0 0.054611472173709028 0.29594186938223133 0 0.066115564417110737 0.28389611949775789 0 0.078574061518221938 0.28786540200318061 0 0.06972341808185685 0.30119216574250729 0 0.081944944392469798 0.29858864039282368 0 0.078574061518221938 0.28786540200318061 0 0.07650864973198919 0.27670040856850692 0 0.066115564417110737 0.28389611949775789 0 0.078574061518221938 0.28786540200318061 0 0.063109662235112246 0.31789764175099672 0 0.054611472173709028 0.29594186938223133 0 0.06972341808185685 0.30119216574250729 0 0.063109662235112246 0.31789764175099672 0 0.06972341808185685 0.30119216574250729 0 0.083237092893726827 0.30975470707557801 0 0.06972341808185685 0.30119216574250729 0 0.083237092893726827 0.30975470707557801 0 0.081944944392469798 0.29858864039282368 0 0.083237092893726827 0.30975470707557801 0 0.081944944392469798 0.29858864039282368 0 0.093088862082737867 0.29827092976994107 0 0.083237092893726827 0.30975470707557801 0 0.093088862082737867 0.29827092976994107 0 0.098626063533215541 0.30876786225500108 0 0.078574061518221938 0.28786540200318061 0 0.088124784779528703 0.28919927056820333 0 0.10253665086273479 0.27978893462412951 0 0.08624369147506665 0.27983666862128842 0 0.078574061518221938 0.28786540200318061 0 0.10253665086273479 0.27978893462412951 0 0.078574061518221938 0.28786540200318061 0 0.10253665086273479 0.27978893462412951 0 0.08624369147506665 0.27983666862128842 0 0.07650864973198919 0.27670040856850692 0 0.078574061518221938 0.28786540200318061 0 0.081944944392469798 0.29858864039282368 0 0.078574061518221938 0.28786540200318061 0 0.088124784779528703 0.28919927056820333 0 0.081944944392469798 0.29858864039282368 0 0.093088862082737867 0.29827092976994107 0 0.088124784779528703 0.28919927056820333 0 0.093088862082737867 0.29827092976994107 0 0.088124784779528703 0.28919927056820333 0 0.099290996135621798 0.2905122564806159 0 0.088124784779528703 0.28919927056820333 0 0.099290996135621798 0.2905122564806159 0 0.10253665086273479 0.27978893462412951 0 0.088124784779528703 0.28919927056820333 0 0.10253665086273479 0.27978893462412951 0 0.093088862082737867 0.29827092976994107 0 0.099290996135621798 0.2905122564806159 0 0.10385283442102761 0.29745051655551208 0 0.1083374392040988 0.28880317715077042 0 0.10385283442102761 0.29745051655551208 0 0.1109983109874742 0.29732830079785838 0 0.099290996135621798 0.2905122564806159 0 0.1083374392040988 0.28880317715077042 0 0.10385283442102761 0.29745051655551208 0 0.1083374392040988 0.28880317715077042 0 0.10253665086273479 0.27978893462412951 0 0.1092333112159426 0.27753185972651823 0 0.099290996135621798 0.2905122564806159 0 0.1083374392040988 0.28880317715077042 0 0.10253665086273479 0.27978893462412951 0 0.093088862082737867 0.29827092976994107 0 0.098626063533215541 0.30876786225500108 0 0.10385283442102761 0.29745051655551208 0 0.098626063533215541 0.30876786225500108 0 0.10385283442102761 0.29745051655551208 0 0.1113899109341374 0.30510151444885031 0 0.10385283442102761 0.29745051655551208 0 0.1113899109341374 0.30510151444885031 0 0.1109983109874742 0.29732830079785838 0 0.10770230056735849 0.31765813870021659 0 0.098626063533215541 0.30876786225500108 0 0.1113899109341374 0.30510151444885031 0 0.11795154367990079 0.31285788244540341 0 0.1204130593906332 0.29795799503630088 0 0.13159280756532371 0.3183841303460837 0 0.11795154367990079 0.31285788244540341 0 0.1113899109341374 0.30510151444885031 0 0.1204130593906332 0.29795799503630088 0 0.11795154367990079 0.31285788244540341 0 0.10770230056735849 0.31765813870021659 0 0.1113899109341374 0.30510151444885031 0 0.1113899109341374 0.30510151444885031 0 0.1109983109874742 0.29732830079785838 0 0.1204130593906332 0.29795799503630088 0 0.1204130593906332 0.29795799503630088 0 0.1196739284139124 0.2740129034482871 0 0.1092333112159426 0.27753185972651823 0 0.1083374392040988 0.28880317715077042 0 0.1204130593906332 0.29795799503630088 0 0.1092333112159426 0.27753185972651823 0 0.1204130593906332 0.29795799503630088 0 0.1092333112159426 0.27753185972651823 0 0.1204130593906332 0.29795799503630088 0 0.1196739284139124 0.2740129034482871 0 0.13196094985899071 0.29713274654857019 0 0.1083374392040988 0.28880317715077042 0 0.1109983109874742 0.29732830079785838 0 0.1204130593906332 0.29795799503630088 0 0.1196739284139124 0.2740129034482871 0 0.1215894476224209 0.27336728756016082 0 0.1270667152088438 0.27765839622302518 0 0.1196739284139124 0.2740129034482871 0 0.1215894476224209 0.27336728756016082 0 0.1196739284139124 0.2740129034482871 0 0.1092333112159426 0.27753185972651823 0 0.1175379416872884 0.26999372937875782 0 0.1092333112159426 0.27753185972651823 0 0.10838027097209289 0.27597329908871993 0 0.1196739284139124 0.2740129034482871 0 0.1175379416872884 0.26999372937875782 0 0.1092333112159426 0.27753185972651823 0 0.1175379416872884 0.26999372937875782 0 0.10624370582803951 0.26054189786733228 0 0.10838027097209289 0.27597329908871993 0 0.1175379416872884 0.26999372937875782 0 0.10838027097209289 0.27597329908871993 0 0.1175379416872884 0.26999372937875782 0 0.13057551891849831 0.26148074563784818 0 0.1175379416872884 0.26999372937875782 0 0.1215894476224209 0.27336728756016082 0 0.12895750457270869 0.26959749535915228 0 0.1196739284139124 0.2740129034482871 0 0.1175379416872884 0.26999372937875782 0 0.1215894476224209 0.27336728756016082 0 0.1196739284139124 0.2740129034482871 0 0.1175379416872884 0.26999372937875782 0 0.1049228804238513 0.24625663097661221 0 0.1175379416872884 0.26999372937875782 0 0.10624370582803951 0.26054189786733228 0 0.1175379416872884 0.26999372937875782 0 0.1218527202382514 0.26092344621917302 0 0.13057551891849831 0.26148074563784818 0 0.1175379416872884 0.26999372937875782 0 0.1218527202382514 0.26092344621917302 0 0.1160967455614962 0.2556012162986796 0 0.1049228804238513 0.24625663097661221 0 0.1175379416872884 0.26999372937875782 0 0.1160967455614962 0.2556012162986796 0 0.1049228804238513 0.24625663097661221 0 0.1175379416872884 0.26999372937875782 0 0.1243937442617858 0.25004166130603311 0 0.1194715899708394 0.25199818021347231 0 0.12544041725404201 0.25507995396883087 0 0.1218527202382514 0.26092344621917302 0 0.12071536825615729 0.25590069917503888 0 0.12544041725404201 0.25507995396883087 0 0.12071536825615729 0.25590069917503888 0 0.1194715899708394 0.25199818021347231 0 0.12544041725404201 0.25507995396883087 0 0.1218527202382514 0.26092344621917302 0 0.12071536825615729 0.25590069917503888 0 0.1160967455614962 0.2556012162986796 0 0.12071536825615729 0.25590069917503888 0 0.1194715899708394 0.25199818021347231 0 0.1160967455614962 0.2556012162986796 0 0.1049228804238513 0.24625663097661221 0 0.1194715899708394 0.25199818021347231 0 0.1160967455614962 0.2556012162986796 0 0.094133730228923601 0.2499439320252386 0 0.088979123971559035 0.25702557020336592 0 0.10168256223330931 0.26696103611802902 0 0.094133730228923601 0.2499439320252386 0 0.10624370582803951 0.26054189786733228 0 0.10838027097209289 0.27597329908871993 0 0.094133730228923601 0.2499439320252386 0 0.10838027097209289 0.27597329908871993 0 0.094133730228923601 0.2499439320252386 0 0.10838027097209289 0.27597329908871993 0 0.10168256223330931 0.26696103611802902 0 0.1049228804238513 0.24625663097661221 0 0.094133730228923601 0.2499439320252386 0 0.10624370582803951 0.26054189786733228 0 0.087355403787320623 0.27499192928933669 0 0.096283043085207534 0.27376292121262469 0 0.10253665086273479 0.27978893462412951 0 0.096283043085207534 0.27376292121262469 0 0.10253665086273479 0.27978893462412951 0 0.10838027097209289 0.27597329908871993 0 0.10253665086273479 0.27978893462412951 0 0.1092333112159426 0.27753185972651823 0 0.10253665086273479 0.27978893462412951 0 0.10838027097209289 0.27597329908871993 0 0.10253665086273479 0.27978893462412951 0 0.1092333112159426 0.27753185972651823 0 0.10838027097209289 0.27597329908871993 0 0.1092333112159426 0.27753185972651823 0 0.10838027097209289 0.27597329908871993 0 0.096283043085207534 0.27376292121262469 0 0.10838027097209289 0.27597329908871993 0 0.10168256223330931 0.26696103611802902 0 0.14087151274909901 0.27037654417144458 0 0.1472467686032686 0.28167751943633462 0 0.1590106400025342 0.27870529424610951 0 0.14087151274909901 0.27037654417144458 0 0.137637115967055 0.28696157166610509 0 0.1472467686032686 0.28167751943633462 0 0.14087151274909901 0.27037654417144458 0 0.1443619108738301 0.25247881771211322 0 0.1590106400025342 0.27870529424610951 0 0.1443619108738301 0.25247881771211322 0 0.1590106400025342 0.27870529424610951 0 0.15546590024771509 0.25532561954491562 0 0.1443619108738301 0.25247881771211322 0 0.1590106400025342 0.27870529424610951 0 0.14087151274909901 0.27037654417144458 0 0.1443619108738301 0.25247881771211322 0 0.1573252455148316 0.24401431122676481 0 0.15546590024771509 0.25532561954491562 0 0.1443619108738301 0.25247881771211322 0 0.1443619108738301 0.25247881771211322 0 0.14204595666316641 0.25034823350876839 0 0.1401670312829249 0.25151985074522798 0 0.14041315158971951 0.24942753197291989 0 0.14204595666316641 0.25034823350876839 0 0.1401670312829249 0.25151985074522798 0 0.14259854284534321 0.24886567522877809 0 0.1443619108738301 0.25247881771211322 0 0.14204595666316641 0.25034823350876839 0 0.1443619108738301 0.25247881771211322 0 0.14204595666316641 0.25034823350876839 0 0.14087151274909901 0.27037654417144458 0 0.1443619108738301 0.25247881771211322 0 0.13057551891849831 0.26148074563784818 0 0.1443619108738301 0.25247881771211322 0 0.13057551891849831 0.26148074563784818 0 0.1443619108738301 0.25247881771211322 0 0.13662379559331919 0.25414596372308951 0 0.13057551891849831 0.26148074563784818 0 0.1443619108738301 0.25247881771211322 0 0.1401670312829249 0.25151985074522798 0 0.13662379559331919 0.25414596372308951 0 0.14041315158971951 0.24942753197291989 0 0.13828035729737059 0.25097015831794101 0 0.1401670312829249 0.25151985074522798 0 0.13828035729737059 0.25097015831794101 0 0.1401670312829249 0.25151985074522798 0 0.13662379559331919 0.25414596372308951 0 0.13662379559331919 0.25414596372308951 0 0.1350215923220012 0.25045035956268641 0 0.13077498251412609 0.25497968982481117 0 0.13828035729737059 0.25097015831794101 0 0.13662379559331919 0.25414596372308951 0 0.1350215923220012 0.25045035956268641 0 0.1350215923220012 0.25045035956268641 0 0.12912149283636359 0.25051101303651058 0 0.13077498251412609 0.25497968982481117 0 0.13077498251412609 0.25497968982481117 0 0.12544041725404201 0.25507995396883087 0 0.13057551891849831 0.26148074563784818 0 0.13662379559331919 0.25414596372308951 0 0.13077498251412609 0.25497968982481117 0 0.13057551891849831 0.26148074563784818 0 0.12912149283636359 0.25051101303651058 0 0.13077498251412609 0.25497968982481117 0 0.12544041725404201 0.25507995396883087 0 0.1243937442617858 0.25004166130603311 0 0.12912149283636359 0.25051101303651058 0 0.12544041725404201 0.25507995396883087 0 0.1218527202382514 0.26092344621917302 0 0.12544041725404201 0.25507995396883087 0 0.13057551891849831 0.26148074563784818 0 0.1175379416872884 0.26999372937875782 0 0.13057551891849831 0.26148074563784818 0 0.12895750457270869 0.26959749535915228 0 0.14087151274909901 0.27037654417144458 0 0.137637115967055 0.28696157166610509 0 0.14087151274909901 0.27037654417144458 0 0.1332853947535983 0.27978500510323201 0 0.137637115967055 0.28696157166610509 0 0.14087151274909901 0.27037654417144458 0 0.13057551891849831 0.26148074563784818 0 0.12895750457270869 0.26959749535915228 0 0.14087151274909901 0.27037654417144458 0 0.12895750457270869 0.26959749535915228 0 0.1332853947535983 0.27978500510323201 0 0.12895750457270869 0.26959749535915228 0 0.1332853947535983 0.27978500510323201 0 0.1270667152088438 0.27765839622302518 0 0.1215894476224209 0.27336728756016082 0 0.12895750457270869 0.26959749535915228 0 0.1270667152088438 0.27765839622302518 0 0.1196739284139124 0.2740129034482871 0 0.13196094985899071 0.29713274654857019 0 0.1196739284139124 0.2740129034482871 0 0.1270667152088438 0.27765839622302518 0 0.13196094985899071 0.29713274654857019 0 0.1332853947535983 0.27978500510323201 0 0.1270667152088438 0.27765839622302518 0 0.13196094985899071 0.29713274654857019 0 0.1332853947535983 0.27978500510323201 0 0.137637115967055 0.28696157166610509 0 0.13196094985899071 0.29713274654857019 0 0.137637115967055 0.28696157166610509 0 0.13196094985899071 0.29713274654857019 0 0.14365610637095899 0.29974045243296282 0 0.13196094985899071 0.29713274654857019 0 0.14424797130406919 0.32025258964885323 0 0.13159280756532371 0.3183841303460837 0 0.13196094985899071 0.29713274654857019 0 0.14424797130406919 0.32025258964885323 0 0.13196094985899071 0.29713274654857019 0 0.14365610637095899 0.29974045243296282 0 0.14424797130406919 0.32025258964885323 0 0.1204130593906332 0.29795799503630088 0 0.13159280756532371 0.3183841303460837 0 0.1204130593906332 0.29795799503630088 0 0.13196094985899071 0.29713274654857019 0 0.13159280756532371 0.3183841303460837 0 0.14365610637095899 0.29974045243296282 0 0.15296668903029359 0.30368868663960619 0 0.14424797130406919 0.32025258964885323 0 0.15296668903029359 0.30368868663960619 0 0.15920065970910599 0.31281292939005467 0 0.14424797130406919 0.32025258964885323 0 0.14365610637095899 0.29974045243296282 0 0.15296668903029359 0.30368868663960619 0 0.15146780569438639 0.29066666766167948 0 0.137637115967055 0.28696157166610509 0 0.1472467686032686 0.28167751943633462 0 0.15146780569438639 0.29066666766167948 0 0.137637115967055 0.28696157166610509 0 0.14365610637095899 0.29974045243296282 0 0.15146780569438639 0.29066666766167948 0 0.1472467686032686 0.28167751943633462 0 0.15146780569438639 0.29066666766167948 0 0.1590106400025342 0.27870529424610951 0 0.17391537047392899 0.30361907181543429 0 0.1869964277111536 0.27812606629616021 0 0.2004640181506038 0.30943886487345201 0 0.17391537047392899 0.30361907181543429 0 0.1590106400025342 0.27870529424610951 0 0.15146780569438639 0.29066666766167948 0 0.17391537047392899 0.30361907181543429 0 0.1590106400025342 0.27870529424610951 0 0.15296668903029359 0.30368868663960619 0 0.15146780569438639 0.29066666766167948 0 0.17391537047392899 0.30361907181543429 0 0.15296668903029359 0.30368868663960619 0 0.17391537047392899 0.30361907181543429 0 0.15920065970910599 0.31281292939005467 0 0.17391537047392899 0.30361907181543429 0 0.1869964277111536 0.27812606629616021 0 0.1590106400025342 0.27870529424610951 0 0.15546590024771509 0.25532561954491562 0 0.1590106400025342 0.27870529424610951 0 0.16694323571279471 0.26554402592919502 0 0.1869964277111536 0.27812606629616021 0 0.1590106400025342 0.27870529424610951 0 0.16694323571279471 0.26554402592919502 0 0.15546590024771509 0.25532561954491562 0 0.16694323571279471 0.26554402592919502 0 0.17556005456088261 0.25282021001762578 0 0.1573252455148316 0.24401431122676481 0 0.15546590024771509 0.25532561954491562 0 0.17556005456088261 0.25282021001762578 0 0.1869964277111536 0.27812606629616021 0 0.17556005456088261 0.25282021001762578 0 0.1957303775968901 0.25102851163789047 0 0.1869964277111536 0.27812606629616021 0 0.16694323571279471 0.26554402592919502 0 0.17556005456088261 0.25282021001762578 0 0.1869964277111536 0.27812606629616021 0 0.1957303775968901 0.25102851163789047 0 0.20859310347495191 0.27005830743708981 0 0.1869964277111536 0.27812606629616021 0 0.20859310347495191 0.27005830743708981 0 0.21468433307135321 0.29238275457262769 0 0.20859310347495191 0.27005830743708981 0 0.22976672920207361 0.27898172925180431 0 0.21468433307135321 0.29238275457262769 0 0.1957303775968901 0.25102851163789047 0 0.2247480759374858 0.25363381999817292 0 0.1957303775968901 0.25102851163789047 0 0.20859310347495191 0.27005830743708981 0 0.2247480759374858 0.25363381999817292 0 0.2247480759374858 0.25363381999817292 0 0.22976672920207361 0.27898172925180431 0 0.24818291015165639 0.27185899357569421 0 0.20859310347495191 0.27005830743708981 0 0.2247480759374858 0.25363381999817292 0 0.22976672920207361 0.27898172925180431 0 0.22976672920207361 0.27898172925180431 0 0.24818291015165639 0.27185899357569421 0 0.24476088505220339 0.28838227761736962 0 0.2247480759374858 0.25363381999817292 0 0.25376577427808128 0.2562391283584553 0 0.2247480759374858 0.25363381999817292 0 0.24818291015165639 0.27185899357569421 0 0.25376577427808128 0.2562391283584553 0 0.23975313719016039 0.24094104287280149 0 0.2247480759374858 0.25363381999817292 0 0.25376577427808128 0.2562391283584553 0 0.24936287331975429 0.30425101235067858 0 0.23136697213319921 0.29791466132909827 0 0.2236342183071425 0.31777387285034198 0 0.24936287331975429 0.30425101235067858 0 0.24476088505220339 0.28838227761736962 0 0.23136697213319921 0.29791466132909827 0 0.22976672920207361 0.27898172925180431 0 0.24476088505220339 0.28838227761736962 0 0.23136697213319921 0.29791466132909827 0 0.22976672920207361 0.27898172925180431 0 0.23136697213319921 0.29791466132909827 0 0.21468433307135321 0.29238275457262769 0 0.23136697213319921 0.29791466132909827 0 0.21468433307135321 0.29238275457262769 0 0.2236342183071425 0.31777387285034198 0 0.1869964277111536 0.27812606629616021 0 0.21468433307135321 0.29238275457262769 0 0.2004640181506038 0.30943886487345201 0 0.21468433307135321 0.29238275457262769 0 0.2004640181506038 0.30943886487345201 0 0.2236342183071425 0.31777387285034198 0 0.17391537047392899 0.30361907181543429 0 0.2004640181506038 0.30943886487345201 0 0.18882010094532381 0.32853284938475907 0 0.2004640181506038 0.30943886487345201 0 0.18882010094532381 0.32853284938475907 0 0.2126249060589302 0.33517881555297319 0 0.18882010094532381 0.32853284938475907 0 0.2126249060589302 0.33517881555297319 0 0.2037248314167186 0.35344662695408402 0 0.18882010094532381 0.32853284938475907 0 0.2037248314167186 0.35344662695408402 0 0.2004640181506038 0.30943886487345201 0 0.2126249060589302 0.33517881555297319 0 0.2236342183071425 0.31777387285034198 0 0.2126249060589302 0.33517881555297319 0 0.2236342183071425 0.31777387285034198 0 0.2345470438696666 0.34223768178528952 0 0.2236342183071425 0.31777387285034198 0 0.2345470438696666 0.34223768178528952 0 0.25447644981259437 0.32863660406410278 0 0.2345470438696666 0.34223768178528952 0 0.2595900263054346 0.35302219577752708 0 0.25447644981259437 0.32863660406410278 0 0.24936287331975429 0.30425101235067858 0 0.2236342183071425 0.31777387285034198 0 0.25447644981259437 0.32863660406410278 0 0.23534969233987901 0.36059926727266151 0 0.246670792481233 0.36870527606286629 0 0.2595900263054346 0.35302219577752708 0 0.23534969233987901 0.36059926727266151 0 0.23813136220717021 0.37316407394409251 0 0.246670792481233 0.36870527606286629 0 0.23813136220717021 0.37316407394409251 0 0.246670792481233 0.36870527606286629 0 0.24529423467437711 0.38121207215925851 0 0.2345470438696666 0.34223768178528952 0 0.23534969233987901 0.36059926727266151 0 0.2595900263054346 0.35302219577752708 0 0.2345470438696666 0.34223768178528952 0 0.23534969233987901 0.36059926727266151 0 0.22024731155368379 0.35599416430982872 0 0.2126249060589302 0.33517881555297319 0 0.2345470438696666 0.34223768178528952 0 0.22024731155368379 0.35599416430982872 0 0.23534969233987901 0.36059926727266151 0 0.22024731155368379 0.35599416430982872 0 0.2268639341744543 0.37163858768994151 0 0.23534969233987901 0.36059926727266151 0 0.23813136220717021 0.37316407394409251 0 0.2268639341744543 0.37163858768994151 0 0.22024731155368379 0.35599416430982872 0 0.20837346146245431 0.37286400660402219 0 0.2037248314167186 0.35344662695408402 0 0.22024731155368379 0.35599416430982872 0 0.2268639341744543 0.37163858768994151 0 0.20837346146245431 0.37286400660402219 0 0.2126249060589302 0.33517881555297319 0 0.22024731155368379 0.35599416430982872 0 0.2037248314167186 0.35344662695408402 0 0.18882010094532381 0.32853284938475907 0 0.2037248314167186 0.35344662695408402 0 0.18714289961731029 0.35805741253673351 0 0.20837346146245431 0.37286400660402219 0 0.2037248314167186 0.35344662695408402 0 0.18714289961731029 0.35805741253673351 0 0.20837346146245431 0.37286400660402219 0 0.18633460989848119 0.3736667424822579 0 0.18714289961731029 0.35805741253673351 0 0.18633460989848119 0.3736667424822579 0 0.17729258649539201 0.35828068411803132 0 0.18714289961731029 0.35805741253673351 0 0.17230449471873019 0.36677759292220691 0 0.16979870464824359 0.35664108568927511 0 0.17729258649539201 0.35828068411803132 0 0.18633460989848119 0.3736667424822579 0 0.17230449471873019 0.36677759292220691 0 0.17729258649539201 0.35828068411803132 0 0.1598871069648794 0.36716630027733749 0 0.1539523039147048 0.35923640096564918 0 0.15514727985487359 0.37531332599848399 0 0.17230449471873019 0.36677759292220691 0 0.16508091835153399 0.37169809974097928 0 0.16924369602496059 0.3827410036574489 0 0.16508091835153399 0.37169809974097928 0 0.16882201419422641 0.36649227584941912 0 0.1598871069648794 0.36716630027733749 0 0.17230449471873019 0.36677759292220691 0 0.16508091835153399 0.37169809974097928 0 0.16882201419422641 0.36649227584941912 0 0.17230449471873019 0.36677759292220691 0 0.16882201419422641 0.36649227584941912 0 0.16979870464824359 0.35664108568927511 0 0.16882201419422641 0.36649227584941912 0 0.1598871069648794 0.36716630027733749 0 0.1539523039147048 0.35923640096564918 0 0.16508091835153399 0.37169809974097928 0 0.1598871069648794 0.36716630027733749 0 0.15514727985487359 0.37531332599848399 0 0.16882201419422641 0.36649227584941912 0 0.15653499274914789 0.34337243274913609 0 0.1539523039147048 0.35923640096564918 0 0.16979870464824359 0.35664108568927511 0 0.1740394350837218 0.34828244280758219 0 0.15653499274914789 0.34337243274913609 0 0.16882201419422641 0.36649227584941912 0 0.15653499274914789 0.34337243274913609 0 0.16882201419422641 0.36649227584941912 0 0.16979870464824359 0.35664108568927511 0 0.15653499274914789 0.34337243274913609 0 0.18882010094532381 0.32853284938475907 0 0.1740394350837218 0.34828244280758219 0 0.18714289961731029 0.35805741253673351 0 0.16979870464824359 0.35664108568927511 0 0.1740394350837218 0.34828244280758219 0 0.17729258649539201 0.35828068411803132 0 0.1740394350837218 0.34828244280758219 0 0.17729258649539201 0.35828068411803132 0 0.18714289961731029 0.35805741253673351 0 0.18882010094532381 0.32853284938475907 0 0.16567260802813241 0.32369136945632537 0 0.16844301565747741 0.33693938598190282 0 0.18882010094532381 0.32853284938475907 0 0.1740394350837218 0.34828244280758219 0 0.16844301565747741 0.33693938598190282 0 0.17391537047392899 0.30361907181543429 0 0.18882010094532381 0.32853284938475907 0 0.16567260802813241 0.32369136945632537 0 0.17391537047392899 0.30361907181543429 0 0.18882010094532381 0.32853284938475907 0 0.17391537047392899 0.30361907181543429 0 0.16567260802813241 0.32369136945632537 0 0.15920065970910599 0.31281292939005467 0 0.16567260802813241 0.32369136945632537 0 0.15920065970910599 0.31281292939005467 0 0.14424797130406919 0.32025258964885323 0 0.16567260802813241 0.32369136945632537 0 0.15653499274914789 0.34337243274913609 0 0.16844301565747741 0.33693938598190282 0 0.1740394350837218 0.34828244280758219 0 0.15653499274914789 0.34337243274913609 0 0.16844301565747741 0.33693938598190282 0 0.15653499274914789 0.34337243274913609 0 0.14424797130406919 0.32025258964885323 0 0.16567260802813241 0.32369136945632537 0 0.15653499274914789 0.34337243274913609 0 0.14424797130406919 0.32025258964885323 0 0.15653499274914789 0.34337243274913609 0 0.1427725557400143 0.33881026565586653 0 0.14424797130406919 0.32025258964885323 0 0.1427725557400143 0.33881026565586653 0 0.14424797130406919 0.32025258964885323 0 0.13159280756532371 0.3183841303460837 0 0.1186596399420512 0.32518763369556519 0 0.13159280756532371 0.3183841303460837 0 0.12912453341153041 0.33299194894352813 0 0.1427725557400143 0.33881026565586653 0 0.13159280756532371 0.3183841303460837 0 0.12912453341153041 0.33299194894352813 0 0.1427725557400143 0.33881026565586653 0 0.13159280756532371 0.3183841303460837 0 0.1427725557400143 0.33881026565586653 0 0.12912453341153041 0.33299194894352813 0 0.1288537052033524 0.34405262424154759 0 0.1193185522089424 0.33837469460089648 0 0.12912453341153041 0.33299194894352813 0 0.1288537052033524 0.34405262424154759 0 0.1427725557400143 0.33881026565586653 0 0.1288537052033524 0.34405262424154759 0 0.1335444958012677 0.35713356896564219 0 0.11950838885500729 0.35295264304180468 0 0.1288537052033524 0.34405262424154759 0 0.1335444958012677 0.35713356896564219 0 0.11572839933565 0.36901112731387931 0 0.1335444958012677 0.35713356896564219 0 0.1376818072938602 0.37425684328978931 0 0.1376818072938602 0.37425684328978931 0 0.1539523039147048 0.35923640096564918 0 0.15514727985487359 0.37531332599848399 0 0.1335444958012677 0.35713356896564219 0 0.1376818072938602 0.37425684328978931 0 0.1539523039147048 0.35923640096564918 0 0.15653499274914789 0.34337243274913609 0 0.1427725557400143 0.33881026565586653 0 0.1539523039147048 0.35923640096564918 0 0.1427725557400143 0.33881026565586653 0 0.1539523039147048 0.35923640096564918 0 0.1427725557400143 0.33881026565586653 0 0.1335444958012677 0.35713356896564219 0 0.1539523039147048 0.35923640096564918 0 0.14601974965678741 0.39282470576807232 0 0.15223086508772049 0.407685016642376 0 0.16490248354313361 0.40089824947794223 0 0.14601974965678741 0.39282470576807232 0 0.1369231587652131 0.4148184148180396 0 0.15223086508772049 0.407685016642376 0 0.1376818072938602 0.37425684328978931 0 0.14601974965678741 0.39282470576807232 0 0.15514727985487359 0.37531332599848399 0 0.11572839933565 0.36901112731387931 0 0.1376818072938602 0.37425684328978931 0 0.12511485180878659 0.38669155364253999 0 0.1376818072938602 0.37425684328978931 0 0.14601974965678741 0.39282470576807232 0 0.12511485180878659 0.38669155364253999 0 0.12124423323304589 0.40464992307237418 0 0.14601974965678741 0.39282470576807232 0 0.12511485180878659 0.38669155364253999 0 0.12124423323304589 0.40464992307237418 0 0.14601974965678741 0.39282470576807232 0 0.1369231587652131 0.4148184148180396 0 0.1243924963286317 0.43374985511904263 0 0.1369231587652131 0.4148184148180396 0 0.1443792090245829 0.43881948472884058 0 0.1369231587652131 0.4148184148180396 0 0.16107806838574801 0.42219869650545022 0 0.1443792090245829 0.43881948472884058 0 0.1369231587652131 0.4148184148180396 0 0.15223086508772049 0.407685016642376 0 0.16107806838574801 0.42219869650545022 0 0.16107806838574801 0.42219869650545022 0 0.17834669085368349 0.41076904033809908 0 0.16490248354313361 0.40089824947794223 0 0.15223086508772049 0.407685016642376 0 0.16107806838574801 0.42219869650545022 0 0.16490248354313361 0.40089824947794223 0 0.16107806838574801 0.42219869650545022 0 0.16354273359832719 0.43734855014497032 0 0.1443792090245829 0.43881948472884058 0 0.16107806838574801 0.42219869650545022 0 0.16354273359832719 0.43734855014497032 0 0.18450734251648401 0.42804379818540611 0 0.16107806838574801 0.42219869650545022 0 0.18450734251648401 0.42804379818540611 0 0.16354273359832719 0.43734855014497032 0 0.18450734251648401 0.42804379818540611 0 0.17480146778640351 0.44625417746530738 0 0.18450734251648401 0.42804379818540611 0 0.17834669085368349 0.41076904033809908 0 0.19605924267105601 0.41151846421764432 0 0.16107806838574801 0.42219869650545022 0 0.18450734251648401 0.42804379818540611 0 0.17834669085368349 0.41076904033809908 0 0.16490248354313361 0.40089824947794223 0 0.16924369602496059 0.3827410036574489 0 0.18418186869489311 0.38914802856992547 0 0.17834669085368349 0.41076904033809908 0 0.16490248354313361 0.40089824947794223 0 0.18418186869489311 0.38914802856992547 0 0.17834669085368349 0.41076904033809908 0 0.18418186869489311 0.38914802856992547 0 0.19605924267105601 0.41151846421764432 0 0.14601974965678741 0.39282470576807232 0 0.16490248354313361 0.40089824947794223 0 0.16924369602496059 0.3827410036574489 0 0.14601974965678741 0.39282470576807232 0 0.15514727985487359 0.37531332599848399 0 0.16924369602496059 0.3827410036574489 0 0.16508091835153399 0.37169809974097928 0 0.15514727985487359 0.37531332599848399 0 0.16924369602496059 0.3827410036574489 0 0.17230449471873019 0.36677759292220691 0 0.16924369602496059 0.3827410036574489 0 0.18418186869489311 0.38914802856992547 0 0.18633460989848119 0.3736667424822579 0 0.17230449471873019 0.36677759292220691 0 0.18418186869489311 0.38914802856992547 0 0.17230449471873019 0.36677759292220691 0 0.18418186869489311 0.38914802856992547 0 0.18633460989848119 0.3736667424822579 0 0.18418186869489311 0.38914802856992547 0 0.20058264334411111 0.39264119034550882 0 0.20837346146245431 0.37286400660402219 0 0.18633460989848119 0.3736667424822579 0 0.20058264334411111 0.39264119034550882 0 0.18418186869489311 0.38914802856992547 0 0.19605924267105601 0.41151846421764432 0 0.20058264334411111 0.39264119034550882 0 0.2116361461029363 0.40445017875469591 0 0.19605924267105601 0.41151846421764432 0 0.18418186869489311 0.38914802856992547 0 0.20058264334411111 0.39264119034550882 0 0.19605924267105601 0.41151846421764432 0 0.20058264334411111 0.39264119034550882 0 0.21671874204281699 0.39187709560108192 0 0.2116361461029363 0.40445017875469591 0 0.21671874204281699 0.39187709560108192 0 0.2116361461029363 0.40445017875469591 0 0.22692556413919701 0.40000303368052231 0 0.20837346146245431 0.37286400660402219 0 0.21671874204281699 0.39187709560108192 0 0.2239305940649044 0.38235688975574678 0 0.20837346146245431 0.37286400660402219 0 0.20058264334411111 0.39264119034550882 0 0.21671874204281699 0.39187709560108192 0 0.2268639341744543 0.37163858768994151 0 0.20837346146245431 0.37286400660402219 0 0.2239305940649044 0.38235688975574678 0 0.23813136220717021 0.37316407394409251 0 0.2268639341744543 0.37163858768994151 0 0.2364781573659078 0.3836651665357344 0 0.2268639341744543 0.37163858768994151 0 0.2239305940649044 0.38235688975574678 0 0.2364781573659078 0.3836651665357344 0 0.2239305940649044 0.38235688975574678 0 0.23121867527888851 0.39173959234795402 0 0.2364781573659078 0.3836651665357344 0 0.21671874204281699 0.39187709560108192 0 0.2239305940649044 0.38235688975574678 0 0.23121867527888851 0.39173959234795402 0 0.22692556413919701 0.40000303368052231 0 0.23764146343608381 0.40129475356239458 0 0.22012717539615351 0.41248091403237502 0 0.21671874204281699 0.39187709560108192 0 0.22692556413919701 0.40000303368052231 0 0.23121867527888851 0.39173959234795402 0 0.2116361461029363 0.40445017875469591 0 0.22692556413919701 0.40000303368052231 0 0.22012717539615351 0.41248091403237502 0 0.22692556413919701 0.40000303368052231 0 0.23767379343177311 0.39901581279923581 0 0.23764146343608381 0.40129475356239458 0 0.22692556413919701 0.40000303368052231 0 0.23121867527888851 0.39173959234795402 0 0.23767379343177311 0.39901581279923581 0 0.23764146343608381 0.40129475356239458 0 0.25515575147601421 0.39010859309241408 0 0.23700320198057989 0.39082753298329359 0 0.23767379343177311 0.39901581279923581 0 0.24264218184575001 0.38888956025025001 0 0.23767379343177311 0.39901581279923581 0 0.25515575147601421 0.39010859309241408 0 0.25118869811502348 0.38821180014509332 0 0.23767379343177311 0.39901581279923581 0 0.23764146343608381 0.40129475356239458 0 0.25515575147601421 0.39010859309241408 0 0.23121867527888851 0.39173959234795402 0 0.23700320198057989 0.39082753298329359 0 0.23767379343177311 0.39901581279923581 0 0.23764146343608381 0.40129475356239458 0 0.24995095369317111 0.39620072566853132 0 0.25515575147601421 0.39010859309241408 0 0.23764146343608381 0.40129475356239458 0 0.24105258334039639 0.40564219575119442 0 0.23183619594644869 0.4115096176479966 0 0.23764146343608381 0.40129475356239458 0 0.24105258334039639 0.40564219575119442 0 0.24356990306139689 0.40128392484801201 0 0.23764146343608381 0.40129475356239458 0 0.24356990306139689 0.40128392484801201 0 0.24995095369317111 0.39620072566853132 0 0.24105258334039639 0.40564219575119442 0 0.24356990306139689 0.40128392484801201 0 0.24563461177593651 0.40199802440992771 0 0.24105258334039639 0.40564219575119442 0 0.24563461177593651 0.40199802440992771 0 0.2474090061986832 0.40646211069571608 0 0.24563461177593651 0.40199802440992771 0 0.24995095369317111 0.39620072566853132 0 0.25004975604466068 0.40127158124585871 0 0.24356990306139689 0.40128392484801201 0 0.24563461177593651 0.40199802440992771 0 0.24995095369317111 0.39620072566853132 0 0.24563461177593651 0.40199802440992771 0 0.2474090061986832 0.40646211069571608 0 0.25004975604466068 0.40127158124585871 0 0.23767379343177311 0.39901581279923581 0 0.25118869811502348 0.38821180014509332 0 0.23767379343177311 0.39901581279923581 0 0.24264218184575001 0.38888956025025001 0 0.25118869811502348 0.38821180014509332 0 0.24264218184575001 0.38888956025025001 0 0.24785067346605749 0.385029010107866 0 0.25118869811502348 0.38821180014509332 0 0.24264218184575001 0.38888956025025001 0 0.24785067346605749 0.385029010107866 0 0.24529423467437711 0.38121207215925851 0 0.246670792481233 0.36870527606286629 0 0.24529423467437711 0.38121207215925851 0 0.25355866323752352 0.37612312171136558 0 0.24785067346605749 0.385029010107866 0 0.24529423467437711 0.38121207215925851 0 0.25227757922907917 0.38180260787686238 0 0.23813136220717021 0.37316407394409251 0 0.24529423467437711 0.38121207215925851 0 0.2364781573659078 0.3836651665357344 0 0.24264218184575001 0.38888956025025001 0 0.24529423467437711 0.38121207215925851 0 0.2364781573659078 0.3836651665357344 0 0.23121867527888851 0.39173959234795402 0 0.23700320198057989 0.39082753298329359 0 0.2364781573659078 0.3836651665357344 0 0.23700320198057989 0.39082753298329359 0 0.24264218184575001 0.38888956025025001 0 0.2364781573659078 0.3836651665357344 0 0.24124550947380199 0.43102988490364491 0 0.24150496855590439 0.4190374530466322 0 0.2241087305113301 0.42892305736655029 0 0.24124550947380199 0.43102988490364491 0 0.25151076163888869 0.43866935593718998 0 0.25304994479985798 0.42761618794987027 0 0.24124550947380199 0.43102988490364491 0 0.23605314186302889 0.44090337021798148 0 0.25151076163888869 0.43866935593718998 0 0.24124550947380199 0.43102988490364491 0 0.24150496855590439 0.4190374530466322 0 0.25304994479985798 0.42761618794987027 0 0.24150496855590439 0.4190374530466322 0 0.25140306968762238 0.41271565753001971 0 0.25304994479985798 0.42761618794987027 0 0.24257462414137479 0.41097843220614633 0 0.24150496855590439 0.4190374530466322 0 0.25140306968762238 0.41271565753001971 0 0.2474090061986832 0.40646211069571608 0 0.24257462414137479 0.41097843220614633 0 0.25140306968762238 0.41271565753001971 0 0.24105258334039639 0.40564219575119442 0 0.2474090061986832 0.40646211069571608 0 0.24257462414137479 0.41097843220614633 0 0.24105258334039639 0.40564219575119442 0 0.24257462414137479 0.41097843220614633 0 0.23183619594644869 0.4115096176479966 0 0.24257462414137479 0.41097843220614633 0 0.24150496855590439 0.4190374530466322 0 0.23183619594644869 0.4115096176479966 0 0.23764146343608381 0.40129475356239458 0 0.22012717539615351 0.41248091403237502 0 0.23764146343608381 0.40129475356239458 0 0.23183619594644869 0.4115096176479966 0 0.22012717539615351 0.41248091403237502 0 0.23183619594644869 0.4115096176479966 0 0.22012717539615351 0.41248091403237502 0 0.2241087305113301 0.42892305736655029 0 0.24150496855590439 0.4190374530466322 0 0.23183619594644869 0.4115096176479966 0 0.2241087305113301 0.42892305736655029 0 0.22012717539615351 0.41248091403237502 0 0.2241087305113301 0.42892305736655029 0 0.21487305918230709 0.42547900548672091 0 0.2241087305113301 0.42892305736655029 0 0.20793661664721971 0.4338888998653625 0 0.23605314186302889 0.44090337021798148 0 0.20793661664721971 0.4338888998653625 0 0.23605314186302889 0.44090337021798148 0 0.24124550947380199 0.43102988490364491 0 0.2241087305113301 0.42892305736655029 0 0.23605314186302889 0.44090337021798148 0 0.2241087305113301 0.42892305736655029 0 0.21487305918230709 0.42547900548672091 0 0.20793661664721971 0.4338888998653625 0 0.21487305918230709 0.42547900548672091 0 0.20793661664721971 0.4338888998653625 0 0.20940350902428351 0.41818037465104341 0 0.2059171868190583 0.43715724390971761 0 0.20793661664721971 0.4338888998653625 0 0.2008944684868369 0.43904622282782507 0 0.20793661664721971 0.4338888998653625 0 0.2091115386453615 0.43610180627070888 0 0.2059171868190583 0.43715724390971761 0 0.20793661664721971 0.4338888998653625 0 0.2091115386453615 0.43610180627070888 0 0.20793661664721971 0.4338888998653625 0 0.20940350902428351 0.41818037465104341 0 0.19605924267105601 0.41151846421764432 0 0.2116361461029363 0.40445017875469591 0 0.22012717539615351 0.41248091403237502 0 0.20940350902428351 0.41818037465104341 0 0.22012717539615351 0.41248091403237502 0 0.21487305918230709 0.42547900548672091 0 0.20940350902428351 0.41818037465104341 0 0.2116361461029363 0.40445017875469591 0 0.20940350902428351 0.41818037465104341 0 0.19605924267105601 0.41151846421764432 0 0.18450734251648401 0.42804379818540611 0 0.20793661664721971 0.4338888998653625 0 0.2008944684868369 0.43904622282782507 0 0.20793661664721971 0.4338888998653625 0 0.19605924267105601 0.41151846421764432 0 0.18450734251648401 0.42804379818540611 0 0.20793661664721971 0.4338888998653625 0 0.18450734251648401 0.42804379818540611 0 0.20793661664721971 0.4338888998653625 0 0.19605924267105601 0.41151846421764432 0 0.18450734251648401 0.42804379818540611 0 0.18863655108727331 0.44323525299701089 0 0.2008944684868369 0.43904622282782507 0 0.18863655108727331 0.44323525299701089 0 0.19957693304141841 0.45219772336365432 0 0.18490629246302731 0.45416438021168598 0 0.19957693304141841 0.45219772336365432 0 0.2008944684868369 0.43904622282782507 0 0.20708325445230269 0.44425267344075309 0 0.18863655108727331 0.44323525299701089 0 0.19957693304141841 0.45219772336365432 0 0.2008944684868369 0.43904622282782507 0 0.19957693304141841 0.45219772336365432 0 0.19137329433235131 0.46690188062811439 0 0.2143073262087706 0.46725806051305913 0 0.19957693304141841 0.45219772336365432 0 0.19137329433235131 0.46690188062811439 0 0.18490629246302731 0.45416438021168598 0 0.2143073262087706 0.46725806051305913 0 0.21064551516360619 0.45104464828115159 0 0.2217404716690988 0.44322631776875859 0 0.19957693304141841 0.45219772336365432 0 0.2143073262087706 0.46725806051305913 0 0.21064551516360619 0.45104464828115159 0 0.20708325445230269 0.44425267344075309 0 0.21086138068543681 0.44284349848726912 0 0.20572612349681499 0.43959204667497359 0 0.2091115386453615 0.43610180627070888 0 0.21086138068543681 0.44284349848726912 0 0.20572612349681499 0.43959204667497359 0 0.2059171868190583 0.43715724390971761 0 0.2008944684868369 0.43904622282782507 0 0.20572612349681499 0.43959204667497359 0 0.2008944684868369 0.43904622282782507 0 0.20708325445230269 0.44425267344075309 0 0.20572612349681499 0.43959204667497359 0 0.2059171868190583 0.43715724390971761 0 0.2091115386453615 0.43610180627070888 0 0.20572612349681499 0.43959204667497359 0 0.19957693304141841 0.45219772336365432 0 0.20708325445230269 0.44425267344075309 0 0.21064551516360619 0.45104464828115159 0 0.20708325445230269 0.44425267344075309 0 0.21086138068543681 0.44284349848726912 0 0.21064551516360619 0.45104464828115159 0 0.21086138068543681 0.44284349848726912 0 0.21064551516360619 0.45104464828115159 0 0.2217404716690988 0.44322631776875859 0 0.2091115386453615 0.43610180627070888 0 0.21086138068543681 0.44284349848726912 0 0.2217404716690988 0.44322631776875859 0 0.20793661664721971 0.4338888998653625 0 0.2091115386453615 0.43610180627070888 0 0.2217404716690988 0.44322631776875859 0 0.20793661664721971 0.4338888998653625 0 0.2217404716690988 0.44322631776875859 0 0.23605314186302889 0.44090337021798148 0 0.2217404716690988 0.44322631776875859 0 0.24117942549472979 0.46264850750935671 0 0.23605314186302889 0.44090337021798148 0 0.2143073262087706 0.46725806051305913 0 0.24117942549472979 0.46264850750935671 0 0.2143073262087706 0.46725806051305913 0 0.2217404716690988 0.44322631776875859 0 0.24117942549472979 0.46264850750935671 0 0.24117942549472979 0.46264850750935671 0 0.23605314186302889 0.44090337021798148 0 0.25044804825627182 0.44832552466992942 0 0.23605314186302889 0.44090337021798148 0 0.25151076163888869 0.43866935593718998 0 0.25044804825627182 0.44832552466992942 0 0.24609029091591761 0.5 0 0.24526596292353051 0.48089910258822882 0 0.22743878084138591 0.48235786242852963 0 0.24117942549472979 0.46264850750935671 0 0.24526596292353051 0.48089910258822882 0 0.22743878084138591 0.48235786242852963 0 0.24117942549472979 0.46264850750935671 0 0.24526596292353051 0.48089910258822882 0 0.25719316374993118 0.47101281443680271 0 0.2143073262087706 0.46725806051305913 0 0.24117942549472979 0.46264850750935671 0 0.22743878084138591 0.48235786242852963 0 0.24609029091591761 0.5 0 0.22743878084138591 0.48235786242852963 0 0.2188539523520058 0.5 0 0.2188539523520058 0.5 0 0.20313979765261231 0.48332560531795221 0 0.19161761378809411 0.5 0 0.22743878084138591 0.48235786242852963 0 0.2188539523520058 0.5 0 0.20313979765261231 0.48332560531795221 0 0.2143073262087706 0.46725806051305913 0 0.22743878084138591 0.48235786242852963 0 0.20313979765261231 0.48332560531795221 0 0.19137329433235131 0.46690188062811439 0 0.20313979765261231 0.48332560531795221 0 0.17699951443442041 0.48342920390360072 0 0.19137329433235131 0.46690188062811439 0 0.2143073262087706 0.46725806051305913 0 0.20313979765261231 0.48332560531795221 0 0.20313979765261231 0.48332560531795221 0 0.19161761378809411 0.5 0 0.17699951443442041 0.48342920390360072 0 0.19161761378809411 0.5 0 0.16438127522418239 0.50000000000000044 0 0.17699951443442041 0.48342920390360072 0 0.16438127522418239 0.50000000000000044 0 0.15840000788164399 0.48619376636504141 0 0.17699951443442041 0.48342920390360072 0 0.1620560445473968 0.47555956366516672 0 0.17699951443442041 0.48342920390360072 0 0.17175955787616801 0.46327097731238359 0 0.15840000788164399 0.48619376636504141 0 0.1620560445473968 0.47555956366516672 0 0.17699951443442041 0.48342920390360072 0 0.1620560445473968 0.47555956366516672 0 0.15713630264902251 0.46454892067335479 0 0.1504364645044575 0.47482809876141707 0 0.15840000788164399 0.48619376636504141 0 0.1620560445473968 0.47555956366516672 0 0.1504364645044575 0.47482809876141707 0 0.19137329433235131 0.46690188062811439 0 0.17699951443442041 0.48342920390360072 0 0.17175955787616801 0.46327097731238359 0 0.18490629246302731 0.45416438021168598 0 0.17480146778640351 0.44625417746530738 0 0.17175955787616801 0.46327097731238359 0 0.19137329433235131 0.46690188062811439 0 0.18490629246302731 0.45416438021168598 0 0.17175955787616801 0.46327097731238359 0 0.18450734251648401 0.42804379818540611 0 0.18863655108727331 0.44323525299701089 0 0.17480146778640351 0.44625417746530738 0 0.18863655108727331 0.44323525299701089 0 0.18490629246302731 0.45416438021168598 0 0.17480146778640351 0.44625417746530738 0 0.16354273359832719 0.43734855014497032 0 0.17480146778640351 0.44625417746530738 0 0.15871211671682481 0.45172427227574002 0 0.17480146778640351 0.44625417746530738 0 0.15871211671682481 0.45172427227574002 0 0.17175955787616801 0.46327097731238359 0 0.15871211671682481 0.45172427227574002 0 0.17175955787616801 0.46327097731238359 0 0.15713630264902251 0.46454892067335479 0 0.1620560445473968 0.47555956366516672 0 0.17175955787616801 0.46327097731238359 0 0.15713630264902251 0.46454892067335479 0 0.15713630264902251 0.46454892067335479 0 0.14375105758180259 0.46101306549370369 0 0.1504364645044575 0.47482809876141707 0 0.15871211671682481 0.45172427227574002 0 0.15713630264902251 0.46454892067335479 0 0.14375105758180259 0.46101306549370369 0 0.16354273359832719 0.43734855014497032 0 0.15871211671682481 0.45172427227574002 0 0.1443792090245829 0.43881948472884058 0 0.15871211671682481 0.45172427227574002 0 0.14375105758180259 0.46101306549370369 0 0.1443792090245829 0.43881948472884058 0 0.12427296261541031 0.45059466218880112 0 0.1243924963286317 0.43374985511904263 0 0.1443792090245829 0.43881948472884058 0 0.12427296261541031 0.45059466218880112 0 0.14375105758180259 0.46101306549370369 0 0.1443792090245829 0.43881948472884058 0 0.12427296261541031 0.45059466218880112 0 0.14375105758180259 0.46101306549370369 0 0.12914023368394451 0.46430113757102448 0 0.14375105758180259 0.46101306549370369 0 0.12914023368394451 0.46430113757102448 0 0.13774921946613339 0.47427435849373117 0 0.12310175456961669 0.47627924164735752 0 0.14374151489689951 0.48813962082367901 0 0.12310175456961669 0.47627924164735752 0 0.12914023368394451 0.46430113757102448 0 0.13774921946613339 0.47427435849373117 0 0.12310175456961669 0.47627924164735752 0 0.13774921946613339 0.47427435849373117 0 0.14374151489689951 0.48813962082367901 0 0.1209089265155784 0.49055785899466942 0 0.135336053321887 0.5 0 0.14400554114753561 0.49585393393994182 0 0.1209089265155784 0.49055785899466942 0 0.14400554114753561 0.49585393393994182 0 0.1209089265155784 0.49055785899466942 0 0.12310175456961669 0.47627924164735752 0 0.14374151489689951 0.48813962082367901 0 0.1209089265155784 0.49055785899466942 0 0.14400554114753561 0.49585393393994182 0 0.14374151489689951 0.48813962082367901 0 0.16438127522418239 0.50000000000000044 0 0.14374151489689951 0.48813962082367901 0 0.16438127522418239 0.50000000000000044 0 0.15840000788164399 0.48619376636504141 0 0.14374151489689951 0.48813962082367901 0 0.16438127522418239 0.50000000000000044 0 0.135336053321887 0.5 0 0.14400554114753561 0.49585393393994182 0 0.16438127522418239 0.50000000000000044 0 0.14400554114753561 0.49585393393994182 0 0.14374151489689951 0.48813962082367901 0 0.15840000788164399 0.48619376636504141 0 0.14374151489689951 0.48813962082367901 0 0.1504364645044575 0.47482809876141707 0 0.14375105758180259 0.46101306549370369 0 0.13774921946613339 0.47427435849373117 0 0.1504364645044575 0.47482809876141707 0 0.13774921946613339 0.47427435849373117 0 0.14374151489689951 0.48813962082367901 0 0.1504364645044575 0.47482809876141707 0 0.36877755766426512 0.47054572945530332 0 0.346864202122113 0.46281035374483342 0 0.34268768494839302 0.4853167424743331 0 0.35772252615405209 0.5 0 0.36877755766426512 0.47054572945530332 0 0.34268768494839302 0.4853167424743331 0 0.35772252615405209 0.5 0 0.36877755766426512 0.47054572945530332 0 0.38764574570045163 0.5 0 0.36877755766426512 0.47054572945530332 0 0.35284003441975992 0.44196199883051079 0 0.38086335578200059 0.43865929797511738 0 0.35284003441975992 0.44196199883051079 0 0.38086335578200059 0.43865929797511738 0 0.36877755766426512 0.47054572945530332 0 0.35284003441975992 0.44196199883051079 0 0.346864202122113 0.46281035374483342 0 0.346864202122113 0.46281035374483342 0 0.32481671305751908 0.44526469968590421 0 0.32872010539934832 0.46895587462778859 0 0.35284003441975992 0.44196199883051079 0 0.32481671305751908 0.44526469968590421 0 0.33518639731393551 0.42792258754846157 0 0.35284003441975992 0.44196199883051079 0 0.346864202122113 0.46281035374483342 0 0.32481671305751908 0.44526469968590421 0 0.35284003441975992 0.44196199883051079 0 0.32481671305751908 0.44526469968590421 0 0.31320307213532322 0.45895883780989882 0 0.31712289012103168 0.47545018757382779 0 0.32872010539934832 0.46895587462778859 0 0.32481671305751908 0.44526469968590421 0 0.31320307213532322 0.45895883780989882 0 0.32872010539934832 0.46895587462778859 0 0.31712289012103168 0.47545018757382779 0 0.32872010539934832 0.46895587462778859 0 0.32545072518042062 0.4846519975366439 0 0.31712289012103168 0.47545018757382779 0 0.32545072518042062 0.4846519975366439 0 0.31183739896237977 0.48878990462240568 0 0.346864202122113 0.46281035374483342 0 0.32872010539934832 0.46895587462778859 0 0.34268768494839302 0.4853167424743331 0 0.32872010539934832 0.46895587462778859 0 0.34268768494839302 0.4853167424743331 0 0.32545072518042062 0.4846519975366439 0 0.35772252615405209 0.5 0 0.34268768494839302 0.4853167424743331 0 0.32779930660765272 0.49999999999999839 0 0.34268768494839302 0.4853167424743331 0 0.32779930660765272 0.49999999999999839 0 0.32545072518042062 0.4846519975366439 0 0.32779930660765272 0.49999999999999839 0 0.32545072518042062 0.4846519975366439 0 0.31183739896237977 0.48878990462240568 0 0.32779930660765272 0.49999999999999839 0 0.31183739896237977 0.48878990462240568 0 0.300562968043741 0.5 0 0.32779930660765272 0.49999999999999839 0 0.31183739896237977 0.48878990462240568 0 0.31183739896237977 0.48878990462240568 0 0.29587549131710589 0.47757980924481441 0 0.29659198408467441 0.49107926217759418 0 0.31183739896237977 0.48878990462240568 0 0.300562968043741 0.5 0 0.29659198408467441 0.49107926217759418 0 0.31712289012103168 0.47545018757382779 0 0.31183739896237977 0.48878990462240568 0 0.30452965492371431 0.47090226513023059 0 0.31183739896237977 0.48878990462240568 0 0.29587549131710589 0.47757980924481441 0 0.31183739896237977 0.48878990462240568 0 0.30452965492371431 0.47090226513023059 0 0.29587549131710589 0.47757980924481441 0 0.29587549131710589 0.47757980924481441 0 0.29659198408467441 0.49107926217759418 0 0.28026686449641369 0.48257497031404561 0 0.29587549131710589 0.47757980924481441 0 0.29659198408467441 0.49107926217759418 0 0.29587549131710589 0.47757980924481441 0 0.28196350804889753 0.46780938187523491 0 0.29587549131710589 0.47757980924481441 0 0.28026686449641369 0.48257497031404561 0 0.28196350804889753 0.46780938187523491 0 0.300562968043741 0.5 0 0.29659198408467441 0.49107926217759418 0 0.27332662947982928 0.5 0 0.29659198408467441 0.49107926217759418 0 0.27332662947982928 0.5 0 0.28026686449641369 0.48257497031404561 0 0.27332662947982928 0.5 0 0.28026686449641369 0.48257497031404561 0 0.26213885328632303 0.48279110116766111 0 0.28026686449641369 0.48257497031404561 0 0.26994868040609882 0.47175680046472251 0 0.26213885328632303 0.48279110116766111 0 0.28026686449641369 0.48257497031404561 0 0.26994868040609882 0.47175680046472251 0 0.28196350804889753 0.46780938187523491 0 0.24526596292353051 0.48089910258822882 0 0.26213885328632303 0.48279110116766111 0 0.25719316374993118 0.47101281443680271 0 0.26994868040609882 0.47175680046472251 0 0.26213885328632303 0.48279110116766111 0 0.25719316374993118 0.47101281443680271 0 0.24609029091591761 0.5 0 0.24526596292353051 0.48089910258822882 0 0.26213885328632303 0.48279110116766111 0 0.24609029091591761 0.5 0 0.27332662947982928 0.5 0 0.26213885328632303 0.48279110116766111 0 0.2615266696302988 0.44563833776633438 0 0.26197024265441288 0.45376805191878461 0 0.26774323969420122 0.45069865164003109 0 0.2615266696302988 0.44563833776633438 0 0.25044804825627182 0.44832552466992942 0 0.26197024265441288 0.45376805191878461 0 0.2615266696302988 0.44563833776633438 0 0.25151076163888869 0.43866935593718998 0 0.26453644906506868 0.4353701567158037 0 0.2615266696302988 0.44563833776633438 0 0.27013494314296349 0.44427033029229462 0 0.26453644906506868 0.4353701567158037 0 0.2615266696302988 0.44563833776633438 0 0.25151076163888869 0.43866935593718998 0 0.25044804825627182 0.44832552466992942 0 0.24117942549472979 0.46264850750935671 0 0.25719316374993118 0.47101281443680271 0 0.26805152478068939 0.45803895450565518 0 0.24117942549472979 0.46264850750935671 0 0.26805152478068939 0.45803895450565518 0 0.24117942549472979 0.46264850750935671 0 0.25044804825627182 0.44832552466992942 0 0.26197024265441288 0.45376805191878461 0 0.24117942549472979 0.46264850750935671 0 0.26197024265441288 0.45376805191878461 0 0.26805152478068939 0.45803895450565518 0 0.26994868040609882 0.47175680046472251 0 0.25719316374993118 0.47101281443680271 0 0.26805152478068939 0.45803895450565518 0 0.26197024265441288 0.45376805191878461 0 0.26805152478068939 0.45803895450565518 0 0.26805152478068939 0.45803895450565518 0 0.27736074592454729 0.45085764354925262 0 0.26774323969420122 0.45069865164003109 0 0.26805152478068939 0.45803895450565518 0 0.2898584815353934 0.45429825967044363 0 0.26805152478068939 0.45803895450565518 0 0.27736074592454729 0.45085764354925262 0 0.2898584815353934 0.45429825967044363 0 0.26805152478068939 0.45803895450565518 0 0.2898584815353934 0.45429825967044363 0 0.28196350804889753 0.46780938187523491 0 0.26197024265441288 0.45376805191878461 0 0.26805152478068939 0.45803895450565518 0 0.26774323969420122 0.45069865164003109 0 0.26994868040609882 0.47175680046472251 0 0.26805152478068939 0.45803895450565518 0 0.28196350804889753 0.46780938187523491 0 0.26805152478068939 0.45803895450565518 0 0.28196350804889753 0.46780938187523491 0 0.27736074592454729 0.45085764354925262 0 0.26774323969420122 0.45069865164003109 0 0.27013494314296349 0.44427033029229462 0 0.2615266696302988 0.44563833776633438 0 0.26774323969420122 0.45069865164003109 0 0.27013494314296349 0.44427033029229462 0 0.27013494314296349 0.44427033029229462 0 0.27952231661206117 0.43699862919104471 0 0.26453644906506868 0.4353701567158037 0 0.27736074592454729 0.45085764354925262 0 0.27013494314296349 0.44427033029229462 0 0.27952231661206117 0.43699862919104471 0 0.27736074592454729 0.45085764354925262 0 0.28628121519057831 0.44422482139825931 0 0.27952231661206117 0.43699862919104471 0 0.27736074592454729 0.45085764354925262 0 0.29435091604820679 0.44885525958215089 0 0.27736074592454729 0.45085764354925262 0 0.28628121519057831 0.44422482139825931 0 0.29435091604820679 0.44885525958215089 0 0.28628121519057831 0.44422482139825931 0 0.29389088217749898 0.44018775327058862 0 0.27952231661206117 0.43699862919104471 0 0.27736074592454729 0.45085764354925262 0 0.29435091604820679 0.44885525958215089 0 0.2898584815353934 0.45429825967044363 0 0.29435091604820679 0.44885525958215089 0 0.2967933916952783 0.4485674005412979 0 0.29389088217749898 0.44018775327058862 0 0.29435091604820679 0.44885525958215089 0 0.2967933916952783 0.4485674005412979 0 0.2967933916952783 0.4485674005412979 0 0.29389088217749898 0.44018775327058862 0 0.28628121519057831 0.44422482139825931 0 0.29435091604820679 0.44885525958215089 0 0.29389088217749898 0.44018775327058862 0 0.29435091604820679 0.44885525958215089 0 0.29389088217749898 0.44018775327058862 0 0.29587549131710589 0.47757980924481441 0 0.2898584815353934 0.45429825967044363 0 0.28196350804889753 0.46780938187523491 0 0.29587549131710589 0.47757980924481441 0 0.29435091604820679 0.44885525958215089 0 0.2898584815353934 0.45429825967044363 0 0.29587549131710589 0.47757980924481441 0 0.29435091604820679 0.44885525958215089 0 0.31320307213532322 0.45895883780989882 0 0.31712289012103168 0.47545018757382779 0 0.30452965492371431 0.47090226513023059 0 0.30452965492371431 0.47090226513023059 0 0.2967933916952783 0.4485674005412979 0 0.30452965492371431 0.47090226513023059 0 0.29587549131710589 0.47757980924481441 0 0.29435091604820679 0.44885525958215089 0 0.31320307213532322 0.45895883780989882 0 0.30452965492371431 0.47090226513023059 0 0.2967933916952783 0.4485674005412979 0 0.30452965492371431 0.47090226513023059 0 0.29435091604820679 0.44885525958215089 0 0.2967933916952783 0.4485674005412979 0 0.32481671305751908 0.44526469968590421 0 0.31320307213532322 0.45895883780989882 0 0.2967933916952783 0.4485674005412979 0 0.32481671305751908 0.44526469968590421 0 0.2967933916952783 0.4485674005412979 0 0.32481671305751908 0.44526469968590421 0 0.2967933916952783 0.4485674005412979 0 0.30903965173906423 0.43963308518686628 0 0.2967933916952783 0.4485674005412979 0 0.29389088217749898 0.44018775327058862 0 0.30903965173906423 0.43963308518686628 0 0.29389088217749898 0.44018775327058862 0 0.3122921934265192 0.4248272130921899 0 0.29236830286256188 0.41150080941186429 0 0.29389088217749898 0.44018775327058862 0 0.30903965173906423 0.43963308518686628 0 0.3122921934265192 0.4248272130921899 0 0.3122921934265192 0.4248272130921899 0 0.29236830286256188 0.41150080941186429 0 0.31170404326174911 0.39520012455862508 0 0.29236830286256188 0.41150080941186429 0 0.28681726795698098 0.41976597972120372 0 0.27974365373646398 0.39934420617181848 0 0.28681726795698098 0.41976597972120372 0 0.27974365373646398 0.39934420617181848 0 0.29389088217749898 0.44018775327058862 0 0.29236830286256188 0.41150080941186429 0 0.28681726795698098 0.41976597972120372 0 0.29389088217749898 0.44018775327058862 0 0.28681726795698098 0.41976597972120372 0 0.27952231661206117 0.43699862919104471 0 0.29389088217749898 0.44018775327058862 0 0.29236830286256188 0.41150080941186429 0 0.29389088217749898 0.44018775327058862 0 0.28681726795698098 0.41976597972120372 0 0.28681726795698098 0.41976597972120372 0 0.27952231661206117 0.43699862919104471 0 0.2704440057336569 0.42422930268491549 0 0.27952231661206117 0.43699862919104471 0 0.2704440057336569 0.42422930268491549 0 0.26453644906506868 0.4353701567158037 0 0.2704440057336569 0.42422930268491549 0 0.26453644906506868 0.4353701567158037 0 0.2620945542395261 0.42601689265171322 0 0.28681726795698098 0.41976597972120372 0 0.27043450052689688 0.4110378862642961 0 0.27974365373646398 0.39934420617181848 0 0.28681726795698098 0.41976597972120372 0 0.2704440057336569 0.42422930268491549 0 0.27043450052689688 0.4110378862642961 0 0.2704440057336569 0.42422930268491549 0 0.27043450052689688 0.4110378862642961 0 0.26034781735952078 0.41685192325626341 0 0.27043450052689688 0.4110378862642961 0 0.26034781735952078 0.41685192325626341 0 0.25948107731225378 0.40705279069613393 0 0.26034781735952078 0.41685192325626341 0 0.25948107731225378 0.40705279069613393 0 0.25140306968762238 0.41271565753001971 0 0.25948107731225378 0.40705279069613393 0 0.25140306968762238 0.41271565753001971 0 0.25301497344078211 0.40456560599219638 0 0.2474090061986832 0.40646211069571608 0 0.25140306968762238 0.41271565753001971 0 0.25301497344078211 0.40456560599219638 0 0.26034781735952078 0.41685192325626341 0 0.25140306968762238 0.41271565753001971 0 0.25304994479985798 0.42761618794987027 0 0.25151076163888869 0.43866935593718998 0 0.25304994479985798 0.42761618794987027 0 0.26453644906506868 0.4353701567158037 0 0.25304994479985798 0.42761618794987027 0 0.26453644906506868 0.4353701567158037 0 0.2620945542395261 0.42601689265171322 0 0.26034781735952078 0.41685192325626341 0 0.25304994479985798 0.42761618794987027 0 0.2620945542395261 0.42601689265171322 0 0.2704440057336569 0.42422930268491549 0 0.26034781735952078 0.41685192325626341 0 0.2620945542395261 0.42601689265171322 0 0.26538223603200439 0.38064404942700819 0 0.25515575147601421 0.39010859309241408 0 0.27267003951594482 0.37892243262243402 0 0.25515575147601421 0.39010859309241408 0 0.27267003951594482 0.37892243262243402 0 0.25515575147601421 0.39010859309241408 0 0.26653280527435158 0.38861753290444279 0 0.27267003951594482 0.37892243262243402 0 0.26470360279827437 0.37740778749095127 0 0.25118869811502348 0.38821180014509332 0 0.26538223603200439 0.38064404942700819 0 0.26470360279827437 0.37740778749095127 0 0.25118869811502348 0.38821180014509332 0 0.26538223603200439 0.38064404942700819 0 0.26470360279827437 0.37740778749095127 0 0.26470360279827437 0.37740778749095127 0 0.25227757922907917 0.38180260787686238 0 0.25118869811502348 0.38821180014509332 0 0.24529423467437711 0.38121207215925851 0 0.25355866323752352 0.37612312171136558 0 0.25227757922907917 0.38180260787686238 0 0.26470360279827437 0.37740778749095127 0 0.25355866323752352 0.37612312171136558 0 0.25227757922907917 0.38180260787686238 0 0.24785067346605749 0.385029010107866 0 0.25227757922907917 0.38180260787686238 0 0.25118869811502348 0.38821180014509332 0 0.26538223603200439 0.38064404942700819 0 0.25515575147601421 0.39010859309241408 0 0.25118869811502348 0.38821180014509332 0 0.24995095369317111 0.39620072566853132 0 0.25515575147601421 0.39010859309241408 0 0.25534244482523522 0.39476787705141941 0 0.25534244482523522 0.39476787705141941 0 0.25659150695252858 0.39857514677456252 0 0.25967156717922701 0.3941870426701698 0 0.24995095369317111 0.39620072566853132 0 0.25534244482523522 0.39476787705141941 0 0.25659150695252858 0.39857514677456252 0 0.25515575147601421 0.39010859309241408 0 0.25534244482523522 0.39476787705141941 0 0.25967156717922701 0.3941870426701698 0 0.25948107731225378 0.40705279069613393 0 0.25301497344078211 0.40456560599219638 0 0.25659150695252858 0.39857514677456252 0 0.2474090061986832 0.40646211069571608 0 0.25301497344078211 0.40456560599219638 0 0.25004975604466068 0.40127158124585871 0 0.25301497344078211 0.40456560599219638 0 0.25004975604466068 0.40127158124585871 0 0.25659150695252858 0.39857514677456252 0 0.24995095369317111 0.39620072566853132 0 0.25004975604466068 0.40127158124585871 0 0.25659150695252858 0.39857514677456252 0 0.27043450052689688 0.4110378862642961 0 0.25948107731225378 0.40705279069613393 0 0.2657731810625053 0.39898311505544248 0 0.25948107731225378 0.40705279069613393 0 0.25659150695252858 0.39857514677456252 0 0.2657731810625053 0.39898311505544248 0 0.25515575147601421 0.39010859309241408 0 0.25967156717922701 0.3941870426701698 0 0.26653280527435158 0.38861753290444279 0 0.25967156717922701 0.3941870426701698 0 0.2657731810625053 0.39898311505544248 0 0.26653280527435158 0.38861753290444279 0 0.25659150695252858 0.39857514677456252 0 0.25967156717922701 0.3941870426701698 0 0.2657731810625053 0.39898311505544248 0 0.2657731810625053 0.39898311505544248 0 0.27974365373646398 0.39934420617181848 0 0.26653280527435158 0.38861753290444279 0 0.27043450052689688 0.4110378862642961 0 0.2657731810625053 0.39898311505544248 0 0.27974365373646398 0.39934420617181848 0 0.27974365373646398 0.39934420617181848 0 0.27267003951594482 0.37892243262243402 0 0.27974365373646398 0.39934420617181848 0 0.26653280527435158 0.38861753290444279 0 0.27267003951594482 0.37892243262243402 0 0.27974365373646398 0.39934420617181848 0 0.27267003951594482 0.37892243262243402 0 0.28252745662049061 0.38922051377901667 0 0.26538223603200439 0.38064404942700819 0 0.26470360279827437 0.37740778749095127 0 0.27267003951594482 0.37892243262243402 0 0.27267003951594482 0.37892243262243402 0 0.28417159710781142 0.37885058088535162 0 0.28252745662049061 0.38922051377901667 0 0.27267003951594482 0.37892243262243402 0 0.28417159710781142 0.37885058088535162 0 0.29005002266061092 0.36782205103806409 0 0.28417159710781142 0.37885058088535162 0 0.29084572354762228 0.38281386555314012 0 0.29005002266061092 0.36782205103806409 0 0.28417159710781142 0.37885058088535162 0 0.29084572354762228 0.38281386555314012 0 0.28417159710781142 0.37885058088535162 0 0.28252745662049061 0.38922051377901667 0 0.29084572354762228 0.38281386555314012 0 0.29084572354762228 0.38281386555314012 0 0.29005002266061092 0.36782205103806409 0 0.29236830286256188 0.41150080941186429 0 0.27974365373646398 0.39934420617181848 0 0.28252745662049061 0.38922051377901667 0 0.29236830286256188 0.41150080941186429 0 0.28252745662049061 0.38922051377901667 0 0.29084572354762228 0.38281386555314012 0 0.29236830286256188 0.41150080941186429 0 0.29084572354762228 0.38281386555314012 0 0.29236830286256188 0.41150080941186429 0 0.29084572354762228 0.38281386555314012 0 0.31170404326174911 0.39520012455862508 0 0.29084572354762228 0.38281386555314012 0 0.31170404326174911 0.39520012455862508 0 0.3109245665821907 0.37821127627698081 0 0.29084572354762228 0.38281386555314012 0 0.31170404326174911 0.39520012455862508 0 0.29084572354762228 0.38281386555314012 0 0.3109245665821907 0.37821127627698081 0 0.29931456377869869 0.37222313164017051 0 0.3109245665821907 0.37821127627698081 0 0.32700489161507312 0.38675477444000922 0 0.32856861382066122 0.37034723661492119 0 0.31170404326174911 0.39520012455862508 0 0.3109245665821907 0.37821127627698081 0 0.32700489161507312 0.38675477444000922 0 0.32700489161507312 0.38675477444000922 0 0.34438767579843582 0.38640754729802279 0 0.32856861382066122 0.37034723661492119 0 0.3325623629758761 0.40758638356410942 0 0.34438767579843582 0.38640754729802279 0 0.34929888867759112 0.40203369400090461 0 0.32700489161507312 0.38675477444000922 0 0.3325623629758761 0.40758638356410942 0 0.34438767579843582 0.38640754729802279 0 0.31170404326174911 0.39520012455862508 0 0.32700489161507312 0.38675477444000922 0 0.3325623629758761 0.40758638356410942 0 0.31170404326174911 0.39520012455862508 0 0.3325623629758761 0.40758638356410942 0 0.3122921934265192 0.4248272130921899 0 0.33518639731393551 0.42792258754846157 0 0.3325623629758761 0.40758638356410942 0 0.3122921934265192 0.4248272130921899 0 0.31170404326174911 0.39520012455862508 0 0.3325623629758761 0.40758638356410942 0 0.32481671305751908 0.44526469968590421 0 0.30903965173906423 0.43963308518686628 0 0.3122921934265192 0.4248272130921899 0 0.32481671305751908 0.44526469968590421 0 0.3122921934265192 0.4248272130921899 0 0.33518639731393551 0.42792258754846157 0 0.3325623629758761 0.40758638356410942 0 0.35342068269000321 0.41997264256959371 0 0.33518639731393551 0.42792258754846157 0 0.3325623629758761 0.40758638356410942 0 0.35342068269000321 0.41997264256959371 0 0.3325623629758761 0.40758638356410942 0 0.35342068269000321 0.41997264256959371 0 0.34929888867759112 0.40203369400090461 0 0.35284003441975992 0.44196199883051079 0 0.33518639731393551 0.42792258754846157 0 0.35342068269000321 0.41997264256959371 0 0.35342068269000321 0.41997264256959371 0 0.37649774249058748 0.41557642998314498 0 0.38086335578200059 0.43865929797511738 0 0.35284003441975992 0.44196199883051079 0 0.35342068269000321 0.41997264256959371 0 0.38086335578200059 0.43865929797511738 0 0.35342068269000321 0.41997264256959371 0 0.3668248332460492 0.39416820257189239 0 0.37649774249058748 0.41557642998314498 0 0.3668248332460492 0.39416820257189239 0 0.36105533763489162 0.36928349394367371 0 0.3668248332460492 0.39416820257189239 0 0.36105533763489162 0.36928349394367371 0 0.38914475094166479 0.3737032734489204 0 0.3668248332460492 0.39416820257189239 0 0.34438767579843582 0.38640754729802279 0 0.36105533763489162 0.36928349394367371 0 0.3668248332460492 0.39416820257189239 0 0.34438767579843582 0.38640754729802279 0 0.34929888867759112 0.40203369400090461 0 0.35342068269000321 0.41997264256959371 0 0.3668248332460492 0.39416820257189239 0 0.34929888867759112 0.40203369400090461 0 0.35528584202373398 0.34439878531545459 0 0.36105533763489162 0.36928349394367371 0 0.35528584202373398 0.34439878531545459 0 0.34426241597605328 0.3617075304779539 0 0.36105533763489162 0.36928349394367371 0 0.34438767579843582 0.38640754729802279 0 0.34426241597605328 0.3617075304779539 0 0.36105533763489162 0.36928349394367371 0 0.35528584202373398 0.34439878531545459 0 0.36105533763489162 0.36928349394367371 0 0.37886266102280108 0.35019441646859872 0 0.35528584202373398 0.34439878531545459 0 0.36774978834910349 0.33166204010182182 0 0.37886266102280108 0.35019441646859872 0 0.36774978834910349 0.33166204010182182 0 0.36901307458494381 0.31499790822539708 0 0.34951634641257651 0.31951407668723569 0 0.36774978834910349 0.33166204010182182 0 0.36901307458494381 0.31499790822539708 0 0.38607101770146218 0.3292050138124229 0 0.36901307458494381 0.31499790822539708 0 0.34951634641257651 0.31951407668723569 0 0.35780076864639082 0.30379175874055708 0 0.35528584202373398 0.34439878531545459 0 0.34951634641257651 0.31951407668723569 0 0.3308880279692587 0.3288836338847772 0 0.35528584202373398 0.34439878531545459 0 0.36774978834910349 0.33166204010182182 0 0.34951634641257651 0.31951407668723569 0 0.35528584202373398 0.34439878531545459 0 0.34951634641257651 0.31951407668723569 0 0.35528584202373398 0.34439878531545459 0 0.3308880279692587 0.3288836338847772 0 0.32939433148801089 0.3495845338433155 0 0.34951634641257651 0.31951407668723569 0 0.3308880279692587 0.3288836338847772 0 0.32099314227787951 0.30961466816668182 0 0.3308880279692587 0.3288836338847772 0 0.31234063666961048 0.33932604523570631 0 0.32099314227787951 0.30961466816668182 0 0.3308880279692587 0.3288836338847772 0 0.32939433148801089 0.3495845338433155 0 0.31234063666961048 0.33932604523570631 0 0.32939433148801089 0.3495845338433155 0 0.31439850726347951 0.36284435962969158 0 0.31234063666961048 0.33932604523570631 0 0.35528584202373398 0.34439878531545459 0 0.34426241597605328 0.3617075304779539 0 0.32939433148801089 0.3495845338433155 0 0.34438767579843582 0.38640754729802279 0 0.34426241597605328 0.3617075304779539 0 0.32856861382066122 0.37034723661492119 0 0.34426241597605328 0.3617075304779539 0 0.32939433148801089 0.3495845338433155 0 0.32856861382066122 0.37034723661492119 0 0.32939433148801089 0.3495845338433155 0 0.32856861382066122 0.37034723661492119 0 0.31439850726347951 0.36284435962969158 0 0.3109245665821907 0.37821127627698081 0 0.32856861382066122 0.37034723661492119 0 0.31439850726347951 0.36284435962969158 0 0.3109245665821907 0.37821127627698081 0 0.31439850726347951 0.36284435962969158 0 0.29931456377869869 0.37222313164017051 0 0.31439850726347951 0.36284435962969158 0 0.29921761162942911 0.36196682465979341 0 0.29931456377869869 0.37222313164017051 0 0.31439850726347951 0.36284435962969158 0 0.29921761162942911 0.36196682465979341 0 0.31234063666961048 0.33932604523570631 0 0.28950642145853861 0.35758005115508013 0 0.31234063666961048 0.33932604523570631 0 0.29921761162942911 0.36196682465979341 0 0.28950642145853861 0.35758005115508013 0 0.31234063666961048 0.33932604523570631 0 0.28950642145853861 0.35758005115508013 0 0.27708013075948801 0.3482856172285943 0 0.28796734871693858 0.32858235435231042 0 0.27267003951594482 0.37892243262243402 0 0.29005002266061092 0.36782205103806409 0 0.29084572354762228 0.38281386555314012 0 0.29931456377869869 0.37222313164017051 0 0.29005002266061092 0.36782205103806409 0 0.29921761162942911 0.36196682465979341 0 0.29931456377869869 0.37222313164017051 0 0.29005002266061092 0.36782205103806409 0 0.29921761162942911 0.36196682465979341 0 0.28950642145853861 0.35758005115508013 0 0.29005002266061092 0.36782205103806409 0 0.28950642145853861 0.35758005115508013 0 0.29005002266061092 0.36782205103806409 0 0.29921761162942911 0.36196682465979341 0 0.29005002266061092 0.36782205103806409 0 0.28950642145853861 0.35758005115508013 0 0.29005002266061092 0.36782205103806409 0 0.27710501212840638 0.36749391932301562 0 0.28950642145853861 0.35758005115508013 0 0.27710501212840638 0.36749391932301562 0 0.26470360279827437 0.37740778749095127 0 0.27710501212840638 0.36749391932301562 0 0.2595900263054346 0.35302219577752708 0 0.27267003951594482 0.37892243262243402 0 0.29005002266061092 0.36782205103806409 0 0.27710501212840638 0.36749391932301562 0 0.26470360279827437 0.37740778749095127 0 0.27267003951594482 0.37892243262243402 0 0.27710501212840638 0.36749391932301562 0 0.26470360279827437 0.37740778749095127 0 0.27710501212840638 0.36749391932301562 0 0.27710501212840638 0.36749391932301562 0 0.27708013075948801 0.3482856172285943 0 0.2595900263054346 0.35302219577752708 0 0.27708013075948801 0.3482856172285943 0 0.2595900263054346 0.35302219577752708 0 0.27042096272877081 0.33463702893495839 0 0.28950642145853861 0.35758005115508013 0 0.27710501212840638 0.36749391932301562 0 0.27708013075948801 0.3482856172285943 0 0.26470360279827437 0.37740778749095127 0 0.25355866323752352 0.37612312171136558 0 0.2595900263054346 0.35302219577752708 0 0.26470360279827437 0.37740778749095127 0 0.2595900263054346 0.35302219577752708 0 0.246670792481233 0.36870527606286629 0 0.25355866323752352 0.37612312171136558 0 0.2595900263054346 0.35302219577752708 0 0.24936287331975429 0.30425101235067858 0 0.25447644981259437 0.32863660406410278 0 0.26909862224451359 0.31411819757187381 0 0.24936287331975429 0.30425101235067858 0 0.25447644981259437 0.32863660406410278 0 0.25447644981259437 0.32863660406410278 0 0.27042096272877081 0.33463702893495839 0 0.26909862224451359 0.31411819757187381 0 0.2595900263054346 0.35302219577752708 0 0.25447644981259437 0.32863660406410278 0 0.2595900263054346 0.35302219577752708 0 0.25447644981259437 0.32863660406410278 0 0.27042096272877081 0.33463702893495839 0 0.27708013075948801 0.3482856172285943 0 0.27042096272877081 0.33463702893495839 0 0.28796734871693858 0.32858235435231042 0 0.27042096272877081 0.33463702893495839 0 0.26909862224451359 0.31411819757187381 0 0.28796734871693858 0.32858235435231042 0 0.26909862224451359 0.31411819757187381 0 0.28796734871693858 0.32858235435231042 0 0.28642827597533949 0.29958465754954078 0 0.28796734871693858 0.32858235435231042 0 0.30068490484227622 0.31336766922204939 0 0.28642827597533949 0.29958465754954078 0 0.28796734871693858 0.32858235435231042 0 0.28642827597533949 0.29958465754954078 0 0.28950642145853861 0.35758005115508013 0 0.28796734871693858 0.32858235435231042 0 0.28950642145853861 0.35758005115508013 0 0.28796734871693858 0.32858235435231042 0 0.31234063666961048 0.33932604523570631 0 0.28796734871693858 0.32858235435231042 0 0.31234063666961048 0.33932604523570631 0 0.30068490484227622 0.31336766922204939 0 0.31234063666961048 0.33932604523570631 0 0.30068490484227622 0.31336766922204939 0 0.32099314227787951 0.30961466816668182 0 0.30068490484227622 0.31336766922204939 0 0.30694606684793302 0.29207928035575959 0 0.32099314227787951 0.30961466816668182 0 0.30068490484227622 0.31336766922204939 0 0.30694606684793302 0.29207928035575959 0 0.28642827597533949 0.29958465754954078 0 0.30694606684793302 0.29207928035575959 0 0.28642827597533949 0.29958465754954078 0 0.28498925099079953 0.28025545404466617 0 0.26909862224451359 0.31411819757187381 0 0.28642827597533949 0.29958465754954078 0 0.26512494045433338 0.28890499157957228 0 0.28642827597533949 0.29958465754954078 0 0.26512494045433338 0.28890499157957228 0 0.28498925099079953 0.28025545404466617 0 0.24818291015165639 0.27185899357569421 0 0.24476088505220339 0.28838227761736962 0 0.26512494045433338 0.28890499157957228 0 0.24936287331975429 0.30425101235067858 0 0.24476088505220339 0.28838227761736962 0 0.26512494045433338 0.28890499157957228 0 0.24936287331975429 0.30425101235067858 0 0.26909862224451359 0.31411819757187381 0 0.26512494045433338 0.28890499157957228 0 0.25376577427808128 0.2562391283584553 0 0.26912176461869219 0.24690757237928929 0 0.25530153693490393 0.2469867472089167 0 0.24818291015165639 0.27185899357569421 0 0.26512494045433338 0.28890499157957228 0 0.26671005857432001 0.27123225948055357 0 0.24818291015165639 0.27185899357569421 0 0.25376577427808128 0.2562391283584553 0 0.26671005857432001 0.27123225948055357 0 0.26671005857432001 0.27123225948055357 0 0.28278347261867692 0.25884443671873769 0 0.28498925099079953 0.28025545404466617 0 0.26512494045433338 0.28890499157957228 0 0.26671005857432001 0.27123225948055357 0 0.28498925099079953 0.28025545404466617 0 0.25376577427808128 0.2562391283584553 0 0.28278347261867692 0.25884443671873769 0 0.25376577427808128 0.2562391283584553 0 0.28278347261867692 0.25884443671873769 0 0.26912176461869219 0.24690757237928929 0 0.25376577427808128 0.2562391283584553 0 0.26671005857432001 0.27123225948055357 0 0.28278347261867692 0.25884443671873769 0 0.28278347261867692 0.25884443671873769 0 0.30194269147419411 0.27088709858383342 0 0.30146467536468602 0.25021594144589671 0 0.28278347261867692 0.25884443671873769 0 0.28498925099079953 0.28025545404466617 0 0.30194269147419411 0.27088709858383342 0 0.30694606684793302 0.29207928035575959 0 0.30194269147419411 0.27088709858383342 0 0.32173137490931569 0.27819847563105421 0 0.30694606684793302 0.29207928035575959 0 0.28498925099079953 0.28025545404466617 0 0.30194269147419411 0.27088709858383342 0 0.30146467536468602 0.25021594144589671 0 0.31924956552896577 0.25938538138266742 0 0.31538450869092283 0.24427669968039431 0 0.30194269147419411 0.27088709858383342 0 0.30146467536468602 0.25021594144589671 0 0.31924956552896577 0.25938538138266742 0 0.31924956552896577 0.25938538138266742 0 0.32593120003520498 0.24928429442965511 0 0.31538450869092283 0.24427669968039431 0 0.31924956552896577 0.25938538138266742 0 0.3329649822690478 0.25700753017131572 0 0.32593120003520498 0.24928429442965511 0 0.3329649822690478 0.25700753017131572 0 0.33759176045048761 0.24838750703047241 0 0.32593120003520498 0.24928429442965511 0 0.31924956552896577 0.25938538138266742 0 0.3329649822690478 0.25700753017131572 0 0.33417752924314292 0.26793653251188282 0 0.3329649822690478 0.25700753017131572 0 0.33417752924314292 0.26793653251188282 0 0.34518142854538009 0.25777564478709541 0 0.3329649822690478 0.25700753017131572 0 0.34518142854538009 0.25777564478709541 0 0.33759176045048761 0.24838750703047241 0 0.3462408118975176 0.25091156327815561 0 0.34518142854538009 0.25777564478709541 0 0.33759176045048761 0.24838750703047241 0 0.33417752924314292 0.26793653251188282 0 0.33918209720607179 0.28243456273815648 0 0.35272271040324388 0.26877810422437731 0 0.33417752924314292 0.26793653251188282 0 0.32173137490931569 0.27819847563105421 0 0.33918209720607179 0.28243456273815648 0 0.30194269147419411 0.27088709858383342 0 0.31924956552896577 0.25938538138266742 0 0.32173137490931569 0.27819847563105421 0 0.31924956552896577 0.25938538138266742 0 0.33417752924314292 0.26793653251188282 0 0.32173137490931569 0.27819847563105421 0 0.30694606684793302 0.29207928035575959 0 0.32173137490931569 0.27819847563105421 0 0.32529564352881629 0.29333051430394469 0 0.30694606684793302 0.29207928035575959 0 0.32529564352881629 0.29333051430394469 0 0.32099314227787951 0.30961466816668182 0 0.34951634641257651 0.31951407668723569 0 0.32099314227787951 0.30961466816668182 0 0.34129985622164632 0.29932108571532812 0 0.32529564352881629 0.29333051430394469 0 0.32099314227787951 0.30961466816668182 0 0.34129985622164632 0.29932108571532812 0 0.32173137490931569 0.27819847563105421 0 0.32529564352881629 0.29333051430394469 0 0.33918209720607179 0.28243456273815648 0 0.32529564352881629 0.29333051430394469 0 0.34129985622164632 0.29932108571532812 0 0.33918209720607179 0.28243456273815648 0 0.34129985622164632 0.29932108571532812 0 0.33918209720607179 0.28243456273815648 0 0.35986546893026589 0.2870426640423519 0 0.34129985622164632 0.29932108571532812 0 0.35780076864639082 0.30379175874055708 0 0.35986546893026589 0.2870426640423519 0 0.34951634641257651 0.31951407668723569 0 0.34129985622164632 0.29932108571532812 0 0.35780076864639082 0.30379175874055708 0 0.36901307458494381 0.31499790822539708 0 0.35780076864639082 0.30379175874055708 0 0.37264861077365352 0.29819187054260787 0 0.35780076864639082 0.30379175874055708 0 0.37264861077365352 0.29819187054260787 0 0.35986546893026589 0.2870426640423519 0 0.37264861077365352 0.29819187054260787 0 0.35986546893026589 0.2870426640423519 0 0.3758594923236841 0.28404401702109661 0 0.35986546893026589 0.2870426640423519 0 0.36780983675575968 0.27205620071725078 0 0.35272271040324388 0.26877810422437731 0 0.35986546893026589 0.2870426640423519 0 0.36780983675575968 0.27205620071725078 0 0.3758594923236841 0.28404401702109661 0 0.36780983675575968 0.27205620071725078 0 0.38006758922625489 0.27279064708013723 0 0.3758594923236841 0.28404401702109661 0 0.36780983675575968 0.27205620071725078 0 0.36408430899470923 0.26159363922086432 0 0.35272271040324388 0.26877810422437731 0 0.36780983675575968 0.27205620071725078 0 0.36408430899470923 0.26159363922086432 0 0.37565902099549903 0.26489344899689871 0 0.36780983675575968 0.27205620071725078 0 0.37565902099549903 0.26489344899689871 0 0.38006758922625489 0.27279064708013723 0 0.37011917829529278 0.25163757421081712 0 0.36408430899470923 0.26159363922086432 0 0.37565902099549903 0.26489344899689871 0 0.37011917829529278 0.25163757421081712 0 0.36408430899470923 0.26159363922086432 0 0.35512444659002668 0.25480827031026182 0 0.33417752924314292 0.26793653251188282 0 0.34518142854538009 0.25777564478709541 0 0.35272271040324388 0.26877810422437731 0 0.36408430899470923 0.26159363922086432 0 0.35512444659002668 0.25480827031026182 0 0.35272271040324388 0.26877810422437731 0 0.35512444659002668 0.25480827031026182 0 0.3462408118975176 0.25091156327815561 0 0.34518142854538009 0.25777564478709541 0 0.35512444659002668 0.25480827031026182 0 0.34518142854538009 0.25777564478709541 0 0.35272271040324388 0.26877810422437731 0 0.33918209720607179 0.28243456273815648 0 0.35986546893026589 0.2870426640423519 0 0.35272271040324388 0.26877810422437731 0 0.40281471466278562 0.27376675476038898 0 0.40332458944413829 0.26395123811910759 0 0.38646694647903918 0.26270216448560302 0 0.40281471466278562 0.27376675476038898 0 0.38646694647903918 0.26270216448560302 0 0.38978580879152558 0.27269258137868302 0 0.40281471466278562 0.27376675476038898 0 0.38646694647903918 0.26270216448560302 0 0.39527033507956261 0.27900545431596557 0 0.38978580879152558 0.27269258137868302 0 0.38697851885116619 0.28093033536058221 0 0.39527033507956261 0.27900545431596557 0 0.40281471466278562 0.27376675476038898 0 0.38978580879152558 0.27269258137868302 0 0.39527033507956261 0.27900545431596557 0 0.40281471466278562 0.27376675476038898 0 0.39878468326547012 0.28755665558224441 0 0.40332458944413829 0.26395123811910759 0 0.40283323196787102 0.25492583153775922 0 0.39678785447368259 0.25534977859903651 0 0.40332458944413829 0.26395123811910759 0 0.38646694647903918 0.26270216448560302 0 0.38672188386971562 0.25779440616496241 0 0.40332458944413829 0.26395123811910759 0 0.39678785447368259 0.25534977859903651 0 0.38672188386971562 0.25779440616496241 0 0.40332458944413829 0.26395123811910759 0 0.38672188386971562 0.25779440616496241 0 0.40332458944413829 0.26395123811910759 0 0.40283323196787102 0.25492583153775922 0 0.4100966285239741 0.25413930845292282 0 0.40283323196787102 0.25492583153775922 0 0.4100966285239741 0.25413930845292282 0 0.39965183542691551 0.2483911979605406 0 0.40283323196787102 0.25492583153775922 0 0.39678785447368259 0.25534977859903651 0 0.39965183542691551 0.2483911979605406 0 0.39678785447368259 0.25534977859903651 0 0.39139925032212047 0.25129699245501858 0 0.39965183542691551 0.2483911979605406 0 0.39678785447368259 0.25534977859903651 0 0.39139925032212047 0.25129699245501858 0 0.38672188386971562 0.25779440616496241 0 0.37011917829529278 0.25163757421081712 0 0.38646694647903918 0.26270216448560302 0 0.38672188386971562 0.25779440616496241 0 0.37011917829529278 0.25163757421081712 0 0.38646694647903918 0.26270216448560302 0 0.37565902099549903 0.26489344899689871 0 0.37011917829529278 0.25163757421081712 0 0.38672188386971562 0.25779440616496241 0 0.38366519138630029 0.25066367921554511 0 0.37011917829529278 0.25163757421081712 0 0.38646694647903918 0.26270216448560302 0 0.37011917829529278 0.25163757421081712 0 0.38672188386971562 0.25779440616496241 0 0.39139925032212047 0.25129699245501858 0 0.38672188386971562 0.25779440616496241 0 0.38366519138630029 0.25066367921554511 0 0.38646694647903918 0.26270216448560302 0 0.37565902099549903 0.26489344899689871 0 0.38368381990132489 0.2683584984228703 0 0.37565902099549903 0.26489344899689871 0 0.38006758922625489 0.27279064708013723 0 0.38368381990132489 0.2683584984228703 0 0.38646694647903918 0.26270216448560302 0 0.38368381990132489 0.2683584984228703 0 0.38978580879152558 0.27269258137868302 0 0.38006758922625489 0.27279064708013723 0 0.38368381990132489 0.2683584984228703 0 0.38978580879152558 0.27269258137868302 0 0.38006758922625489 0.27279064708013723 0 0.38978580879152558 0.27269258137868302 0 0.38697851885116619 0.28093033536058221 0 0.38006758922625489 0.27279064708013723 0 0.38697851885116619 0.28093033536058221 0 0.3758594923236841 0.28404401702109661 0 0.37264861077365352 0.29819187054260787 0 0.3758594923236841 0.28404401702109661 0 0.38761351817062079 0.29347020386387151 0 0.38697851885116619 0.28093033536058221 0 0.3758594923236841 0.28404401702109661 0 0.38761351817062079 0.29347020386387151 0 0.36901307458494381 0.31499790822539708 0 0.37264861077365352 0.29819187054260787 0 0.38694942786459507 0.30934361990439008 0 0.37264861077365352 0.29819187054260787 0 0.38761351817062079 0.29347020386387151 0 0.38694942786459507 0.30934361990439008 0 0.38694942786459507 0.30934361990439008 0 0.40446037594515638 0.30075472477230841 0 0.40243962086597451 0.31961954690418792 0 0.38761351817062079 0.29347020386387151 0 0.38694942786459507 0.30934361990439008 0 0.40446037594515638 0.30075472477230841 0 0.38761351817062079 0.29347020386387151 0 0.40446037594515638 0.30075472477230841 0 0.39878468326547012 0.28755665558224441 0 0.38697851885116619 0.28093033536058221 0 0.38761351817062079 0.29347020386387151 0 0.39878468326547012 0.28755665558224441 0 0.39527033507956261 0.27900545431596557 0 0.38697851885116619 0.28093033536058221 0 0.39878468326547012 0.28755665558224441 0 0.40446037594515638 0.30075472477230841 0 0.39878468326547012 0.28755665558224441 0 0.412062587200553 0.28736505209618668 0 0.40281471466278562 0.27376675476038898 0 0.39878468326547012 0.28755665558224441 0 0.412062587200553 0.28736505209618668 0 0.412062587200553 0.28736505209618668 0 0.42072807747916802 0.30577807364085929 0 0.42876108441117827 0.28890000864454041 0 0.40446037594515638 0.30075472477230841 0 0.412062587200553 0.28736505209618668 0 0.42072807747916802 0.30577807364085929 0 0.40446037594515638 0.30075472477230841 0 0.42072807747916802 0.30577807364085929 0 0.40243962086597451 0.31961954690418792 0 0.42072807747916802 0.30577807364085929 0 0.42876108441117827 0.28890000864454041 0 0.44204420128763539 0.31061977496201149 0 0.42876108441117827 0.28890000864454041 0 0.44204420128763539 0.31061977496201149 0 0.42876108441117827 0.28890000864454041 0 0.41547796753472122 0.26718024232706927 0 0.42876108441117827 0.28890000864454041 0 0.41547796753472122 0.26718024232706927 0 0.42888598096485309 0.26290540039406568 0 0.42876108441117827 0.28890000864454041 0 0.42888598096485309 0.26290540039406568 0 0.44553790501761881 0.27989921265375411 0 0.40281471466278562 0.27376675476038898 0 0.412062587200553 0.28736505209618668 0 0.41547796753472122 0.26718024232706927 0 0.412062587200553 0.28736505209618668 0 0.42876108441117827 0.28890000864454041 0 0.41547796753472122 0.26718024232706927 0 0.40281471466278562 0.27376675476038898 0 0.40332458944413829 0.26395123811910759 0 0.41547796753472122 0.26718024232706927 0 0.4100966285239741 0.25413930845292282 0 0.42888598096485309 0.26290540039406568 0 0.41991785031408768 0.24738075242205379 0 0.41547796753472122 0.26718024232706927 0 0.4100966285239741 0.25413930845292282 0 0.42888598096485309 0.26290540039406568 0 0.40332458944413829 0.26395123811910759 0 0.41547796753472122 0.26718024232706927 0 0.4100966285239741 0.25413930845292282 0 0.42888598096485309 0.26290540039406568 0 0.41991785031408768 0.24738075242205379 0 0.43752244361671061 0.24216136226966281 0 0.44697479743853169 0.26041490130989958 0 0.46725173377110663 0.24760942947930911 0 0.43752244361671061 0.24216136226966281 0 0.42888598096485309 0.26290540039406568 0 0.44697479743853169 0.26041490130989958 0 0.43752244361671061 0.24216136226966281 0 0.44697479743853169 0.26041490130989958 0 0.44553790501761881 0.27989921265375411 0 0.46265432237271231 0.26793700185230901 0 0.42888598096485309 0.26290540039406568 0 0.44697479743853169 0.26041490130989958 0 0.44553790501761881 0.27989921265375411 0 0.44553790501761881 0.27989921265375411 0 0.46265432237271231 0.26793700185230901 0 0.46390704363080232 0.28861818875969819 0 0.44697479743853169 0.26041490130989958 0 0.46265432237271231 0.26793700185230901 0 0.46725173377110663 0.24760942947930911 0 0.48224923920548002 0.27043962230224378 0 0.46725173377110663 0.24760942947930911 0 0.46265432237271231 0.26793700185230901 0 0.48224923920548002 0.27043962230224378 0 0.46725173377110663 0.24760942947930911 0 0.48224923920548002 0.27043962230224378 0 0.46725173377110663 0.24760942947930911 0 0.48592415648076481 0.2393923229360943 0 0.46265432237271231 0.26793700185230901 0 0.48224923920548002 0.27043962230224378 0 0.46390704363080232 0.28861818875969819 0 0.48224923920548002 0.27043962230224378 0 0.5 0.25415886752217498 0 0.5 0.28369195669433628 0 0.48224923920548002 0.27043962230224378 0 0.5 0.25415886752217498 0 0.48592415648076481 0.2393923229360943 0 0.48224923920548002 0.27043962230224378 0 0.5 0.28369195669433628 0 0.48116724493420648 0.29195825700558192 0 0.5 0.28369195669433628 0 0.48116724493420648 0.29195825700558192 0 0.5 0.31322504586649758 0 0.48224923920548002 0.27043962230224378 0 0.48116724493420648 0.29195825700558192 0 0.46390704363080232 0.28861818875969819 0 0.48116724493420648 0.29195825700558192 0 0.47085643440467628 0.31094134374063781 0 0.5 0.31322504586649758 0 0.48116724493420648 0.29195825700558192 0 0.47085643440467628 0.31094134374063781 0 0.46390704363080232 0.28861818875969819 0 0.47085643440467628 0.31094134374063781 0 0.46390704363080232 0.28861818875969819 0 0.44204420128763539 0.31061977496201149 0 0.44553790501761881 0.27989921265375411 0 0.46390704363080232 0.28861818875969819 0 0.44204420128763539 0.31061977496201149 0 0.42876108441117827 0.28890000864454041 0 0.44553790501761881 0.27989921265375411 0 0.44204420128763539 0.31061977496201149 0 0.44204420128763539 0.31061977496201149 0 0.45532731816409261 0.33233954127948268 0 0.43450966243716088 0.33943226475088989 0 0.44204420128763539 0.31061977496201149 0 0.45532731816409261 0.33233954127948268 0 0.45532731816409261 0.33233954127948268 0 0.45104544831051879 0.35096434350013872 0 0.43450966243716088 0.33943226475088989 0 0.47085643440467628 0.31094134374063781 0 0.44204420128763539 0.31061977496201149 0 0.45532731816409261 0.33233954127948268 0 0.47085643440467628 0.31094134374063781 0 0.45532731816409261 0.33233954127948268 0 0.48229932702424039 0.32957464728372682 0 0.45532731816409261 0.33233954127948268 0 0.48229932702424039 0.32957464728372682 0 0.47502236560370342 0.35023042479134608 0 0.48229932702424039 0.32957464728372682 0 0.5 0.34275813503865871 0 0.47502236560370342 0.35023042479134608 0 0.48229932702424039 0.32957464728372682 0 0.5 0.34275813503865871 0 0.5 0.31322504586649758 0 0.47085643440467628 0.31094134374063781 0 0.48229932702424039 0.32957464728372682 0 0.5 0.31322504586649758 0 0.5 0.37229122421081973 0 0.47502236560370342 0.35023042479134608 0 0.47715054038888532 0.38230752984532068 0 0.47502236560370342 0.35023042479134608 0 0.45782643748677071 0.36791087856453941 0 0.47715054038888532 0.38230752984532068 0 0.5 0.34275813503865871 0 0.5 0.37229122421081973 0 0.47502236560370342 0.35023042479134608 0 0.47502236560370342 0.35023042479134608 0 0.45782643748677071 0.36791087856453941 0 0.45104544831051879 0.35096434350013872 0 0.45532731816409261 0.33233954127948268 0 0.47502236560370342 0.35023042479134608 0 0.45104544831051879 0.35096434350013872 0 0.45104544831051879 0.35096434350013872 0 0.43332026563462012 0.36517631522462329 0 0.43450966243716088 0.33943226475088989 0 0.45782643748677071 0.36791087856453941 0 0.43332026563462012 0.36517631522462329 0 0.44975553432195181 0.38691157442844548 0 0.45782643748677071 0.36791087856453941 0 0.45104544831051879 0.35096434350013872 0 0.43332026563462012 0.36517631522462329 0 0.43332026563462012 0.36517631522462329 0 0.41124350856202679 0.36969801041770189 0 0.40691948920655768 0.34694237740987088 0 0.43332026563462012 0.36517631522462329 0 0.40691948920655768 0.34694237740987088 0 0.43450966243716088 0.33943226475088989 0 0.42072807747916802 0.30577807364085929 0 0.44204420128763539 0.31061977496201149 0 0.42048863648028212 0.32475301824655639 0 0.44204420128763539 0.31061977496201149 0 0.43450966243716088 0.33943226475088989 0 0.42048863648028212 0.32475301824655639 0 0.42072807747916802 0.30577807364085929 0 0.42048863648028212 0.32475301824655639 0 0.40243962086597451 0.31961954690418792 0 0.40691948920655768 0.34694237740987088 0 0.42048863648028212 0.32475301824655639 0 0.40243962086597451 0.31961954690418792 0 0.40691948920655768 0.34694237740987088 0 0.43450966243716088 0.33943226475088989 0 0.42048863648028212 0.32475301824655639 0 0.40691948920655768 0.34694237740987088 0 0.40243962086597451 0.31961954690418792 0 0.38607101770146218 0.3292050138124229 0 0.38694942786459507 0.30934361990439008 0 0.40243962086597451 0.31961954690418792 0 0.38607101770146218 0.3292050138124229 0 0.36901307458494381 0.31499790822539708 0 0.38694942786459507 0.30934361990439008 0 0.38607101770146218 0.3292050138124229 0 0.36774978834910349 0.33166204010182182 0 0.38607101770146218 0.3292050138124229 0 0.37886266102280108 0.35019441646859872 0 0.40691948920655768 0.34694237740987088 0 0.38607101770146218 0.3292050138124229 0 0.37886266102280108 0.35019441646859872 0 0.36105533763489162 0.36928349394367371 0 0.37886266102280108 0.35019441646859872 0 0.38914475094166479 0.3737032734489204 0 0.41124350856202679 0.36969801041770189 0 0.40691948920655768 0.34694237740987088 0 0.38914475094166479 0.3737032734489204 0 0.40691948920655768 0.34694237740987088 0 0.37886266102280108 0.35019441646859872 0 0.38914475094166479 0.3737032734489204 0 0.4057807177490369 0.39093983473168692 0 0.38707389679242987 0.39588960272943502 0 0.39960485118541411 0.40804306212374358 0 0.38914475094166479 0.3737032734489204 0 0.4057807177490369 0.39093983473168692 0 0.38707389679242987 0.39588960272943502 0 0.41124350856202679 0.36969801041770189 0 0.38914475094166479 0.3737032734489204 0 0.4057807177490369 0.39093983473168692 0 0.3668248332460492 0.39416820257189239 0 0.38914475094166479 0.3737032734489204 0 0.38707389679242987 0.39588960272943502 0 0.3668248332460492 0.39416820257189239 0 0.38707389679242987 0.39588960272943502 0 0.37649774249058748 0.41557642998314498 0 0.38707389679242987 0.39588960272943502 0 0.37649774249058748 0.41557642998314498 0 0.39960485118541411 0.40804306212374358 0 0.37649774249058748 0.41557642998314498 0 0.40517687005024838 0.43205828399945367 0 0.38086335578200059 0.43865929797511738 0 0.37649774249058748 0.41557642998314498 0 0.40517687005024838 0.43205828399945367 0 0.39960485118541411 0.40804306212374358 0 0.40517687005024838 0.43205828399945367 0 0.39960485118541411 0.40804306212374358 0 0.4195788395441612 0.40889998137087719 0 0.40517687005024838 0.43205828399945367 0 0.4195788395441612 0.40889998137087719 0 0.43131584853017879 0.42767865121188281 0 0.40517687005024838 0.43205828399945367 0 0.43131584853017879 0.42767865121188281 0 0.42249732388653288 0.4481418694587837 0 0.4195788395441612 0.40889998137087719 0 0.43131584853017879 0.42767865121188281 0 0.44099613070235688 0.40651827256072748 0 0.4195788395441612 0.40889998137087719 0 0.42928016529382651 0.39089647290555007 0 0.44099613070235688 0.40651827256072748 0 0.4057807177490369 0.39093983473168692 0 0.39960485118541411 0.40804306212374358 0 0.4195788395441612 0.40889998137087719 0 0.4057807177490369 0.39093983473168692 0 0.4195788395441612 0.40889998137087719 0 0.42928016529382651 0.39089647290555007 0 0.41124350856202679 0.36969801041770189 0 0.4057807177490369 0.39093983473168692 0 0.42928016529382651 0.39089647290555007 0 0.43332026563462012 0.36517631522462329 0 0.41124350856202679 0.36969801041770189 0 0.42928016529382651 0.39089647290555007 0 0.43332026563462012 0.36517631522462329 0 0.42928016529382651 0.39089647290555007 0 0.44975553432195181 0.38691157442844548 0 0.44975553432195181 0.38691157442844548 0 0.46501948549226368 0.40424823237584412 0 0.44099613070235688 0.40651827256072748 0 0.42928016529382651 0.39089647290555007 0 0.44975553432195181 0.38691157442844548 0 0.44099613070235688 0.40651827256072748 0 0.44975553432195181 0.38691157442844548 0 0.46501948549226368 0.40424823237584412 0 0.47715054038888532 0.38230752984532068 0 0.45782643748677071 0.36791087856453941 0 0.44975553432195181 0.38691157442844548 0 0.47715054038888532 0.38230752984532068 0 0.46501948549226368 0.40424823237584412 0 0.47715054038888532 0.38230752984532068 0 0.5 0.40182431338298069 0 0.5 0.37229122421081973 0 0.47715054038888532 0.38230752984532068 0 0.5 0.40182431338298069 0 0.46501948549226368 0.40424823237584412 0 0.5 0.40182431338298069 0 0.47521213986980071 0.42291000989019789 0 0.5 0.40182431338298069 0 0.5 0.43135740255514182 0 0.47521213986980071 0.42291000989019789 0 0.47521213986980071 0.42291000989019789 0 0.46034807395773703 0.43752212009805819 0 0.47487836873704442 0.44203326785739688 0 0.5 0.43135740255514182 0 0.47521213986980071 0.42291000989019789 0 0.47487836873704442 0.44203326785739688 0 0.47521213986980071 0.42291000989019789 0 0.46034807395773703 0.43752212009805819 0 0.45102691103175918 0.42047472307176559 0 0.46501948549226368 0.40424823237584412 0 0.47521213986980071 0.42291000989019789 0 0.45102691103175918 0.42047472307176559 0 0.43131584853017879 0.42767865121188281 0 0.44099613070235688 0.40651827256072748 0 0.45102691103175918 0.42047472307176559 0 0.46501948549226368 0.40424823237584412 0 0.44099613070235688 0.40651827256072748 0 0.45102691103175918 0.42047472307176559 0 0.43131584853017879 0.42767865121188281 0 0.45102691103175918 0.42047472307176559 0 0.44682287928632108 0.43449016241350591 0 0.46034807395773703 0.43752212009805819 0 0.45102691103175918 0.42047472307176559 0 0.44682287928632108 0.43449016241350591 0 0.43131584853017879 0.42767865121188281 0 0.44682287928632108 0.43449016241350591 0 0.43788774254271678 0.44305989309685301 0 0.44682287928632108 0.43449016241350591 0 0.43788774254271678 0.44305989309685301 0 0.45008512135067108 0.44786101078481821 0 0.43788774254271678 0.44305989309685301 0 0.45008512135067108 0.44786101078481821 0 0.43809757834419621 0.4581263572450669 0 0.46034807395773703 0.43752212009805819 0 0.44682287928632108 0.43449016241350591 0 0.45008512135067108 0.44786101078481821 0 0.43809757834419621 0.4581263572450669 0 0.45121355366587551 0.46899735155801808 0 0.43840135219440668 0.4701976136105378 0 0.43809757834419621 0.4581263572450669 0 0.45121355366587551 0.46899735155801808 0 0.44890925761768757 0.45747136357111712 0 0.45096593032197491 0.46661422868346109 0 0.45648840045390843 0.45728385757112239 0 0.43809757834419621 0.4581263572450669 0 0.44890925761768757 0.45747136357111712 0 0.45096593032197491 0.46661422868346109 0 0.45008512135067108 0.44786101078481821 0 0.44890925761768757 0.45747136357111712 0 0.45648840045390843 0.45728385757112239 0 0.45008512135067108 0.44786101078481821 0 0.43809757834419621 0.4581263572450669 0 0.44890925761768757 0.45747136357111712 0 0.43809757834419621 0.4581263572450669 0 0.45096593032197491 0.46661422868346109 0 0.45121355366587551 0.46899735155801808 0 0.45096593032197491 0.46661422868346109 0 0.46088128359396729 0.464699818619979 0 0.46835349820240091 0.47505706711321011 0 0.46088128359396729 0.464699818619979 0 0.46801474591010173 0.45782463469299839 0 0.46835349820240091 0.47505706711321011 0 0.45096593032197491 0.46661422868346109 0 0.46088128359396729 0.464699818619979 0 0.45648840045390843 0.45728385757112239 0 0.45648840045390843 0.45728385757112239 0 0.46801474591010173 0.45782463469299839 0 0.46159211209517381 0.44818571787633021 0 0.46088128359396729 0.464699818619979 0 0.45648840045390843 0.45728385757112239 0 0.46801474591010173 0.45782463469299839 0 0.46801474591010173 0.45782463469299839 0 0.46159211209517381 0.44818571787633021 0 0.47487836873704442 0.44203326785739688 0 0.46034807395773703 0.43752212009805819 0 0.45008512135067108 0.44786101078481821 0 0.46159211209517381 0.44818571787633021 0 0.45008512135067108 0.44786101078481821 0 0.45648840045390843 0.45728385757112239 0 0.46159211209517381 0.44818571787633021 0 0.46034807395773703 0.43752212009805819 0 0.46159211209517381 0.44818571787633021 0 0.47487836873704442 0.44203326785739688 0 0.46801474591010173 0.45782463469299839 0 0.47487836873704442 0.44203326785739688 0 0.48528743244576028 0.45480992461276698 0 0.48528743244576028 0.45480992461276698 0 0.48445441993734001 0.46837445186490451 0 0.46835349820240091 0.47505706711321011 0 0.48528743244576028 0.45480992461276698 0 0.46835349820240091 0.47505706711321011 0 0.46801474591010173 0.45782463469299839 0 0.48528743244576028 0.45480992461276698 0 0.46835349820240091 0.47505706711321011 0 0.48528743244576028 0.45480992461276698 0 0.48445441993734001 0.46837445186490451 0 0.5 0.46089049172730279 0 0.5 0.43135740255514182 0 0.47487836873704442 0.44203326785739688 0 0.48528743244576028 0.45480992461276698 0 0.5 0.43135740255514182 0 0.48528743244576028 0.45480992461276698 0 0.5 0.46089049172730279 0 0.49999999999999872 0.49042358089946381 0 0.48417674910119918 0.48274032400633821 0 0.48996535084690968 0.49197980760498211 0 0.49999999999999872 0.49042358089946381 0 0.48417674910119918 0.48274032400633821 0 0.48996535084690968 0.49197980760498211 0 0.48861859318348921 0.4999999999999985 0 0.47647406108552232 0.48993417293548353 0 0.48996535084690968 0.49197980760498211 0 0.5 0.5 0 0.49999999999999872 0.49042358089946381 0 0.48996535084690968 0.49197980760498211 0 0.48861859318348921 0.4999999999999985 0 0.5 0.5 0 0.5 0.46089049172730279 0 0.49999999999999872 0.49042358089946381 0 0.48417674910119918 0.48274032400633821 0 0.48445441993734001 0.46837445186490451 0 0.5 0.46089049172730279 0 0.48417674910119918 0.48274032400633821 0 0.48417674910119918 0.48274032400633821 0 0.46835349820240091 0.47505706711321011 0 0.48417674910119918 0.48274032400633821 0 0.47647406108552232 0.48993417293548353 0 0.46835349820240091 0.47505706711321011 0 0.48445441993734001 0.46837445186490451 0 0.48417674910119918 0.48274032400633821 0 0.46835349820240091 0.47505706711321011 0 0.47647406108552232 0.48993417293548353 0 0.46835349820240091 0.47505706711321011 0 0.46432952898755431 0.47986834587096983 0 0.48861859318348921 0.4999999999999985 0 0.47647406108552232 0.48993417293548353 0 0.46805538898837012 0.5 0 0.47647406108552232 0.48993417293548353 0 0.46432952898755431 0.47986834587096983 0 0.48996535084690968 0.49197980760498211 0 0.48417674910119918 0.48274032400633821 0 0.47647406108552232 0.48993417293548353 0 0.48861859318348921 0.4999999999999985 0 0.47647406108552232 0.48993417293548353 0 0.47647406108552232 0.48993417293548353 0 0.46805538898837012 0.5 0 0.46408779096367442 0.4924506297016133 0 0.46432952898755431 0.47986834587096983 0 0.44749218479325098 0.49999999999999989 0 0.46408779096367442 0.4924506297016133 0 0.46432952898755431 0.47986834587096983 0 0.44749218479325098 0.49999999999999989 0 0.46432952898755431 0.47986834587096983 0 0.44749218479325098 0.49999999999999989 0 0.44942176570829168 0.48450694569220232 0 0.46805538898837012 0.5 0 0.46408779096367442 0.4924506297016133 0 0.44749218479325098 0.49999999999999989 0 0.47647406108552232 0.48993417293548353 0 0.46408779096367442 0.4924506297016133 0 0.46432952898755431 0.47986834587096983 0 0.45096593032197491 0.46661422868346109 0 0.46835349820240091 0.47505706711321011 0 0.45096593032197491 0.46661422868346109 0 0.46835349820240091 0.47505706711321011 0 0.45121355366587551 0.46899735155801808 0 0.46835349820240091 0.47505706711321011 0 0.46432952898755431 0.47986834587096983 0 0.45121355366587551 0.46899735155801808 0 0.46835349820240091 0.47505706711321011 0 0.46432952898755431 0.47986834587096983 0 0.46432952898755431 0.47986834587096983 0 0.45270300793539359 0.47740208195935052 0 0.44942176570829168 0.48450694569220232 0 0.46432952898755431 0.47986834587096983 0 0.45121355366587551 0.46899735155801808 0 0.46432952898755431 0.47986834587096983 0 0.45121355366587551 0.46899735155801808 0 0.45270300793539359 0.47740208195935052 0 0.44584718337985291 0.47623568471621158 0 0.44942176570829168 0.48450694569220232 0 0.43322646267562598 0.48247803450012311 0 0.44584718337985291 0.47623568471621158 0 0.45121355366587551 0.46899735155801808 0 0.45270300793539359 0.47740208195935052 0 0.44584718337985291 0.47623568471621158 0 0.45270300793539359 0.47740208195935052 0 0.44942176570829168 0.48450694569220232 0 0.44584718337985291 0.47623568471621158 0 0.45121355366587551 0.46899735155801808 0 0.43840135219440668 0.4701976136105378 0 0.44584718337985291 0.47623568471621158 0 0.43840135219440668 0.4701976136105378 0 0.43322646267562598 0.48247803450012311 0 0.44749218479325098 0.49999999999999989 0 0.44942176570829168 0.48450694569220232 0 0.43322646267562598 0.48247803450012311 0 0.44749218479325098 0.49999999999999989 0 0.41756896524685128 0.5 0 0.43322646267562598 0.48247803450012311 0 0.41756896524685128 0.5 0 0.40983307706140881 0.48006851486557178 0 0.43322646267562598 0.48247803450012311 0 0.43840135219440668 0.4701976136105378 0 0.43322646267562598 0.48247803450012311 0 0.42456566629778619 0.46604249570289508 0 0.40983307706140881 0.48006851486557178 0 0.43322646267562598 0.48247803450012311 0 0.42456566629778619 0.46604249570289508 0 0.43809757834419621 0.4581263572450669 0 0.43840135219440668 0.4701976136105378 0 0.42456566629778619 0.46604249570289508 0 0.43809757834419621 0.4581263572450669 0 0.42456566629778619 0.46604249570289508 0 0.42249732388653288 0.4481418694587837 0 0.43131584853017879 0.42767865121188281 0 0.43788774254271678 0.44305989309685301 0 0.42249732388653288 0.4481418694587837 0 0.43788774254271678 0.44305989309685301 0 0.43809757834419621 0.4581263572450669 0 0.42249732388653288 0.4481418694587837 0 0.40517687005024838 0.43205828399945367 0 0.42249732388653288 0.4481418694587837 0 0.40525095694043889 0.45658995614973891 0 0.42456566629778619 0.46604249570289508 0 0.42249732388653288 0.4481418694587837 0 0.40525095694043889 0.45658995614973891 0 0.40983307706140881 0.48006851486557178 0 0.42456566629778619 0.46604249570289508 0 0.40525095694043889 0.45658995614973891 0 0.36877755766426512 0.47054572945530332 0 0.38086335578200059 0.43865929797511738 0 0.3905021230390483 0.47140695031187868 0 0.40525095694043889 0.45658995614973891 0 0.38086335578200059 0.43865929797511738 0 0.3905021230390483 0.47140695031187868 0 0.40517687005024838 0.43205828399945367 0 0.40525095694043889 0.45658995614973891 0 0.38086335578200059 0.43865929797511738 0 0.36877755766426512 0.47054572945530332 0 0.3905021230390483 0.47140695031187868 0 0.38764574570045163 0.5 0 0.41756896524685128 0.5 0 0.40983307706140881 0.48006851486557178 0 0.38764574570045163 0.5 0 0.40983307706140881 0.48006851486557178 0 0.40525095694043889 0.45658995614973891 0 0.3905021230390483 0.47140695031187868 0 0.40983307706140881 0.48006851486557178 0 0.3905021230390483 0.47140695031187868 0 0.38764574570045163 0.5 0 0.32611797869693998 0.091116820578872146 0 0.32661682693008243 0.059220969580115697 0 0.30898442488672678 0.079852405637602333 0 0.33982308330351291 0.069285533955390929 0 0.32611797869693998 0.091116820578872146 0 0.32661682693008243 0.059220969580115697 0 0.33982308330351291 0.069285533955390929 0 0.32611797869693998 0.091116820578872146 0 0.35106649576624982 0.08552846335685714 0 0.33982308330351291 0.069285533955390929 0 0.32611797869693998 0.091116820578872146 0 0.32611797869693998 0.091116820578872146 0 0.34692438686725968 0.10191997769153389 0 0.35106649576624982 0.08552846335685714 0 0.32661682693008243 0.059220969580115697 0 0.31001329087238938 0.059373461697053931 0 0.30898442488672678 0.079852405637602333 0 0.32611797869693998 0.091116820578872146 0 0.31241287409036711 0.11294810720235331 0 0.32611797869693998 0.091116820578872146 0 0.33662920649515071 0.11518814068880349 0 0.31241287409036711 0.11294810720235331 0 0.32611797869693998 0.091116820578872146 0 0.30898442488672678 0.079852405637602333 0 0.31241287409036711 0.11294810720235331 0 0.33662920649515071 0.11518814068880349 0 0.31241287409036711 0.11294810720235331 0 0.32755549012633473 0.13682458378493681 0 0.32611797869693998 0.091116820578872146 0 0.33662920649515071 0.11518814068880349 0 0.34692438686725968 0.10191997769153389 0 0.34692438686725968 0.10191997769153389 0 0.36246885629017911 0.10166021012621169 0 0.35106649576624982 0.08552846335685714 0 0.34692438686725968 0.10191997769153389 0 0.35833939708777879 0.11610625370692509 0 0.36246885629017911 0.10166021012621169 0 0.33662920649515071 0.11518814068880349 0 0.34692438686725968 0.10191997769153389 0 0.35833939708777879 0.11610625370692509 0 0.33662920649515071 0.11518814068880349 0 0.35833939708777879 0.11610625370692509 0 0.35064023520833881 0.1329898896907023 0 0.35833939708777879 0.11610625370692509 0 0.37120910800260049 0.12031008916013471 0 0.37012590845665888 0.13485257920775379 0 0.35833939708777879 0.11610625370692509 0 0.36921265499125933 0.1110503829388633 0 0.37120910800260049 0.12031008916013471 0 0.35833939708777879 0.11610625370692509 0 0.36921265499125933 0.1110503829388633 0 0.36246885629017911 0.10166021012621169 0 0.36921265499125933 0.1110503829388633 0 0.37120910800260049 0.12031008916013471 0 0.37824108730571487 0.1140252367328918 0 0.36246885629017911 0.10166021012621169 0 0.37987520861954338 0.10636090335559539 0 0.36246885629017911 0.10166021012621169 0 0.37294726897623032 0.090994200858692725 0 0.37987520861954338 0.10636090335559539 0 0.36921265499125933 0.1110503829388633 0 0.36246885629017911 0.10166021012621169 0 0.37987520861954338 0.10636090335559539 0 0.37294726897623032 0.090994200858692725 0 0.37145101605117792 0.079757884964720541 0 0.36371769801571369 0.086484064338018071 0 0.37145101605117792 0.079757884964720541 0 0.36371769801571369 0.086484064338018071 0 0.36145870584429363 0.074302194163780547 0 0.36246885629017911 0.10166021012621169 0 0.37294726897623032 0.090994200858692725 0 0.36371769801571369 0.086484064338018071 0 0.36246885629017911 0.10166021012621169 0 0.36371769801571369 0.086484064338018071 0 0.35106649576624982 0.08552846335685714 0 0.36371769801571369 0.086484064338018071 0 0.35106649576624982 0.08552846335685714 0 0.36145870584429363 0.074302194163780547 0 0.33982308330351291 0.069285533955390929 0 0.36145870584429363 0.074302194163780547 0 0.36047425163554531 0.060872664175095362 0 0.33982308330351291 0.069285533955390929 0 0.35106649576624982 0.08552846335685714 0 0.36145870584429363 0.074302194163780547 0 0.36145870584429363 0.074302194163780547 0 0.3741290530260471 0.066491756604030422 0 0.36047425163554531 0.060872664175095362 0 0.37145101605117792 0.079757884964720541 0 0.36145870584429363 0.074302194163780547 0 0.3741290530260471 0.066491756604030422 0 0.37223077046365582 0.050975196737324521 0 0.36936968064527431 0.045709038863678053 0 0.35352818791008622 0.047454247331909921 0 0.36047425163554531 0.060872664175095362 0 0.37223077046365582 0.050975196737324521 0 0.35352818791008622 0.047454247331909921 0 0.3741290530260471 0.066491756604030422 0 0.36047425163554531 0.060872664175095362 0 0.37223077046365582 0.050975196737324521 0 0.37223077046365582 0.050975196737324521 0 0.35352818791008622 0.047454247331909921 0 0.36936968064527431 0.045709038863678053 0 0.36325589052666762 0.031958687822734387 0 0.35352818791008622 0.047454247331909921 0 0.37223077046365582 0.050975196737324521 0 0.36936968064527431 0.045709038863678053 0 0.37379025911705338 0.041685833419247732 0 0.36936968064527431 0.045709038863678053 0 0.37379025911705338 0.041685833419247732 0 0.37127347453404391 0.036298138459317661 0 0.37127347453404391 0.036298138459317661 0 0.36325589052666762 0.031958687822734387 0 0.36912131176078189 0.031232242996071271 0 0.36936968064527431 0.045709038863678053 0 0.37127347453404391 0.036298138459317661 0 0.36325589052666762 0.031958687822734387 0 0.37379025911705338 0.041685833419247732 0 0.37127347453404391 0.036298138459317661 0 0.37932829785323607 0.035065727517223692 0 0.37127347453404391 0.036298138459317661 0 0.37446090596142928 0.031199830640749129 0 0.36912131176078189 0.031232242996071271 0 0.36936968064527431 0.045709038863678053 0 0.36325589052666762 0.031958687822734387 0 0.35352818791008622 0.047454247331909921 0 0.35078207600669842 0.031031544612179478 0 0.34025615969545381 0.036200568167066363 0 0.36325589052666762 0.031958687822734387 0 0.35352818791008622 0.047454247331909921 0 0.36325589052666762 0.031958687822734387 0 0.35352818791008622 0.047454247331909921 0 0.35078207600669842 0.031031544612179478 0 0.33982308330351291 0.069285533955390929 0 0.36047425163554531 0.060872664175095362 0 0.35352818791008622 0.047454247331909921 0 0.33982308330351291 0.069285533955390929 0 0.35352818791008622 0.047454247331909921 0 0.37275790797876851 0.010516135893525231 0 0.37021777456307747 0.01852826638736655 0 0.35561079671821449 0.01476432531310836 0 0.37275790797876851 0.010516135893525231 0 0.3479657029097607 -0.0024300371965174389 0 0.37275790797876851 0.010516135893525231 0 0.38112383196394201 0.0038196551432573039 0 0.36390872345592179 -0.012123251129401109 0 0.36325589052666762 0.031958687822734387 0 0.35561079671821449 0.01476432531310836 0 0.36325589052666762 0.031958687822734387 0 0.36617442837876962 0.024425084737957941 0 0.35561079671821449 0.01476432531310836 0 0.37021777456307747 0.01852826638736655 0 0.36617442837876962 0.024425084737957941 0 0.35561079671821449 0.01476432531310836 0 0.37275790797876851 0.010516135893525231 0 0.37021777456307747 0.01852826638736655 0 0.38068389602866542 0.024404222700930921 0 0.37021777456307747 0.01852826638736655 0 0.37229933367479562 0.026226562060131901 0 0.38068389602866542 0.024404222700930921 0 0.37021777456307747 0.01852826638736655 0 0.37229933367479562 0.026226562060131901 0 0.36617442837876962 0.024425084737957941 0 0.37229933367479562 0.026226562060131901 0 0.36912131176078189 0.031232242996071271 0 0.36617442837876962 0.024425084737957941 0 0.37229933367479562 0.026226562060131901 0 0.37446090596142928 0.031199830640749129 0 0.36912131176078189 0.031232242996071271 0 0.36325589052666762 0.031958687822734387 0 0.36912131176078189 0.031232242996071271 0 0.36617442837876962 0.024425084737957941 0 0.36325589052666762 0.031958687822734387 0 0.35078207600669842 0.031031544612179478 0 0.35561079671821449 0.01476432531310836 0 0.35078207600669842 0.031031544612179478 0 0.35561079671821449 0.01476432531310836 0 0.33915965681587351 0.024112348851237 0 0.35561079671821449 0.01476432531310836 0 0.3479657029097607 -0.0024300371965174389 0 0.35561079671821449 0.01476432531310836 0 0.33658577833022779 0.0080623827189060058 0 0.33915965681587351 0.024112348851237 0 0.35561079671821449 0.01476432531310836 0 0.33658577833022779 0.0080623827189060058 0 0.3479657029097607 -0.0024300371965174389 0 0.37275790797876851 0.010516135893525231 0 0.35561079671821449 0.01476432531310836 0 0.3479657029097607 -0.0024300371965174389 0 0.33658577833022779 0.0080623827189060058 0 0.33915965681587351 0.024112348851237 0 0.32179946340398913 0.02283176201638323 0 0.33915965681587351 0.024112348851237 0 0.32179946340398913 0.02283176201638323 0 0.32941093423100032 0.032066390767525342 0 0.35078207600669842 0.031031544612179478 0 0.33915965681587351 0.024112348851237 0 0.34025615969545381 0.036200568167066363 0 0.33915965681587351 0.024112348851237 0 0.34025615969545381 0.036200568167066363 0 0.32941093423100032 0.032066390767525342 0 0.32179946340398913 0.02283176201638323 0 0.31368596473978883 0.039953547811938647 0 0.30817809602880541 0.029134745411721719 0 0.33658577833022779 0.0080623827189060058 0 0.32179946340398913 0.02283176201638323 0 0.31890639314761021 0.001858299874506916 0 0.32179946340398913 0.02283176201638323 0 0.31890639314761021 0.001858299874506916 0 0.30093862706144298 0.017075404057122389 0 0.32179946340398913 0.02283176201638323 0 0.31890639314761021 0.001858299874506916 0 0.35352818791008622 0.047454247331909921 0 0.33108360056957697 0.043228827862435468 0 0.32661682693008243 0.059220969580115697 0 0.33982308330351291 0.069285533955390929 0 0.35352818791008622 0.047454247331909921 0 0.32661682693008243 0.059220969580115697 0 0.35352818791008622 0.047454247331909921 0 0.34025615969545381 0.036200568167066363 0 0.33108360056957697 0.043228827862435468 0 0.35352818791008622 0.047454247331909921 0 0.33108360056957697 0.043228827862435468 0 0.34025615969545381 0.036200568167066363 0 0.32941093423100032 0.032066390767525342 0 0.33108360056957697 0.043228827862435468 0 0.34025615969545381 0.036200568167066363 0 0.33108360056957697 0.043228827862435468 0 0.33108360056957697 0.043228827862435468 0 0.31368596473978883 0.039953547811938647 0 0.32941093423100032 0.032066390767525342 0 0.33108360056957697 0.043228827862435468 0 0.31368596473978883 0.039953547811938647 0 0.32179946340398913 0.02283176201638323 0 0.32941093423100032 0.032066390767525342 0 0.31368596473978883 0.039953547811938647 0 0.33108360056957697 0.043228827862435468 0 0.31001329087238938 0.059373461697053931 0 0.33108360056957697 0.043228827862435468 0 0.31368596473978883 0.039953547811938647 0 0.31001329087238938 0.059373461697053931 0 0.33108360056957697 0.043228827862435468 0 0.32661682693008243 0.059220969580115697 0 0.31001329087238938 0.059373461697053931 0 0.31368596473978883 0.039953547811938647 0 0.31001329087238938 0.059373461697053931 0 0.30093217799162381 0.046388632833065699 0 0.31001329087238938 0.059373461697053931 0 0.30093217799162381 0.046388632833065699 0 0.2937568269693952 0.055659759942877918 0 0.31368596473978883 0.039953547811938647 0 0.29628832891000051 0.036678267761442583 0 0.31368596473978883 0.039953547811938647 0 0.29628832891000051 0.036678267761442583 0 0.30817809602880541 0.029134745411721719 0 0.31368596473978883 0.039953547811938647 0 0.30093217799162381 0.046388632833065699 0 0.29628832891000051 0.036678267761442583 0 0.30093217799162381 0.046388632833065699 0 0.29568190712639081 0.039234577740781797 0 0.29628832891000051 0.036678267761442583 0 0.30093217799162381 0.046388632833065699 0 0.29568190712639081 0.039234577740781797 0 0.29458815439472358 0.047012797625906953 0 0.29628832891000051 0.036678267761442583 0 0.2669590241104427 0.031156730936277761 0 0.29568190712639081 0.039234577740781797 0 0.29628832891000051 0.036678267761442583 0 0.28014445958587042 0.039377249324961713 0 0.29568190712639081 0.039234577740781797 0 0.28798170549148511 0.046768219986902393 0 0.29458815439472358 0.047012797625906953 0 0.29568190712639081 0.039234577740781797 0 0.29628832891000051 0.036678267761442583 0 0.29568190712639081 0.039234577740781797 0 0.28798170549148511 0.046768219986902393 0 0.28014445958587042 0.039377249324961713 0 0.28798170549148511 0.046768219986902393 0 0.27676452373790472 0.055165006418791712 0 0.28014445958587042 0.039377249324961713 0 0.28798170549148511 0.046768219986902393 0 0.2937568269693952 0.055659759942877918 0 0.27676452373790472 0.055165006418791712 0 0.2937568269693952 0.055659759942877918 0 0.27676452373790472 0.055165006418791712 0 0.28894298117520212 0.075518095531672796 0 0.28798170549148511 0.046768219986902393 0 0.2937568269693952 0.055659759942877918 0 0.29458815439472358 0.047012797625906953 0 0.30093217799162381 0.046388632833065699 0 0.2937568269693952 0.055659759942877918 0 0.29458815439472358 0.047012797625906953 0 0.31890639314761021 0.001858299874506916 0 0.30093862706144298 0.017075404057122389 0 0.3055889252128855 -0.0025274596471978501 0 0.30093862706144298 0.017075404057122389 0 0.3055889252128855 -0.0025274596471978501 0 0.30093862706144298 0.017075404057122389 0 0.29084464891779471 0.0018398696142846471 0 0.3055889252128855 -0.0025274596471978501 0 0.29628832891000051 0.036678267761442583 0 0.30817809602880541 0.029134745411721719 0 0.30093862706144298 0.017075404057122389 0 0.32179946340398913 0.02283176201638323 0 0.30817809602880541 0.029134745411721719 0 0.30093862706144298 0.017075404057122389 0 0.29628832891000051 0.036678267761442583 0 0.30093862706144298 0.017075404057122389 0 0.29628832891000051 0.036678267761442583 0 0.30093862706144298 0.017075404057122389 0 0.28333349524028528 0.023755243344766551 0 0.30093862706144298 0.017075404057122389 0 0.28333349524028528 0.023755243344766551 0 0.27932500178730191 0.012299697814634679 0 0.29628832891000051 0.036678267761442583 0 0.28333349524028528 0.023755243344766551 0 0.2669590241104427 0.031156730936277761 0 0.29084464891779471 0.0018398696142846471 0 0.27932500178730191 0.012299697814634679 0 0.27629462104729002 -0.0034176145621518761 0 0.30093862706144298 0.017075404057122389 0 0.29084464891779471 0.0018398696142846471 0 0.27932500178730191 0.012299697814634679 0 0.26933135881329878 0.0059442809288262066 0 0.2590441704943689 0.00043850738417854302 0 0.27629462104729002 -0.0034176145621518761 0 0.26933135881329878 0.0059442809288262066 0 0.27932500178730191 0.012299697814634679 0 0.27629462104729002 -0.0034176145621518761 0 0.26933135881329878 0.0059442809288262066 0 0.27932500178730191 0.012299697814634679 0 0.26537506954755569 0.016165463870178611 0 0.28333349524028528 0.023755243344766551 0 0.2731564943322386 0.021566116154355299 0 0.2669590241104427 0.031156730936277761 0 0.27932500178730191 0.012299697814634679 0 0.2731564943322386 0.021566116154355299 0 0.26537506954755569 0.016165463870178611 0 0.2731564943322386 0.021566116154355299 0 0.2669590241104427 0.031156730936277761 0 0.26537506954755569 0.016165463870178611 0 0.28333349524028528 0.023755243344766551 0 0.27932500178730191 0.012299697814634679 0 0.2731564943322386 0.021566116154355299 0 0.2492987261363272 0.026896502710998641 0 0.2669590241104427 0.031156730936277761 0 0.26537506954755569 0.016165463870178611 0 0.25439399030610349 0.0079726127039095041 0 0.2590441704943689 0.00043850738417854302 0 0.2414431017406225 -0.0042112777133020444 0 0.2492987261363272 0.026896502710998641 0 0.2590441704943689 0.00043850738417854302 0 0.2492987261363272 0.026896502710998641 0 0.25439399030610349 0.0079726127039095041 0 0.2590441704943689 0.00043850738417854302 0 0.2492987261363272 0.026896502710998641 0 0.26537506954755569 0.016165463870178611 0 0.2590441704943689 0.00043850738417854302 0 0.26933135881329878 0.0059442809288262066 0 0.26537506954755569 0.016165463870178611 0 0.2590441704943689 0.00043850738417854302 0 0.25439399030610349 0.0079726127039095041 0 0.2590441704943689 0.00043850738417854302 0 0.27676452373790472 0.055165006418791712 0 0.28014445958587042 0.039377249324961713 0 0.25982628070769548 0.046958846885473977 0 0.2669590241104427 0.031156730936277761 0 0.28014445958587042 0.039377249324961713 0 0.25982628070769548 0.046958846885473977 0 0.29628832891000051 0.036678267761442583 0 0.2669590241104427 0.031156730936277761 0 0.28014445958587042 0.039377249324961713 0 0.2492987261363272 0.026896502710998641 0 0.2669590241104427 0.031156730936277761 0 0.25982628070769548 0.046958846885473977 0 0.23955328177828539 0.053354498037818762 0 0.25982628070769548 0.046958846885473977 0 0.25731429581274329 0.06984633570370237 0 0.27676452373790472 0.055165006418791712 0 0.25982628070769548 0.046958846885473977 0 0.25731429581274329 0.06984633570370237 0 0.27676452373790472 0.055165006418791712 0 0.25731429581274329 0.06984633570370237 0 0.28894298117520212 0.075518095531672796 0 0.25731429581274329 0.06984633570370237 0 0.26787267147801469 0.091662729366291718 0 0.28894298117520212 0.075518095531672796 0 0.24819657032849199 0.087805226663106861 0 0.25731429581274329 0.06984633570370237 0 0.26787267147801469 0.091662729366291718 0 0.26787267147801469 0.091662729366291718 0 0.28894298117520212 0.075518095531672796 0 0.26787267147801469 0.091662729366291718 0 0.28894298117520212 0.075518095531672796 0 0.2918706057483148 0.10216008922418229 0 0.28894298117520212 0.075518095531672796 0 0.30898442488672678 0.079852405637602333 0 0.2918706057483148 0.10216008922418229 0 0.31001329087238938 0.059373461697053931 0 0.28894298117520212 0.075518095531672796 0 0.30898442488672678 0.079852405637602333 0 0.31001329087238938 0.059373461697053931 0 0.2937568269693952 0.055659759942877918 0 0.28894298117520212 0.075518095531672796 0 0.31001329087238938 0.059373461697053931 0 0.28894298117520212 0.075518095531672796 0 0.2918706057483148 0.10216008922418229 0 0.27430291337578411 0.1181998037813389 0 0.29870776948379418 0.13477939382583459 0 0.30898442488672678 0.079852405637602333 0 0.31241287409036711 0.11294810720235331 0 0.2918706057483148 0.10216008922418229 0 0.31241287409036711 0.11294810720235331 0 0.2918706057483148 0.10216008922418229 0 0.29870776948379418 0.13477939382583459 0 0.31241287409036711 0.11294810720235331 0 0.29870776948379418 0.13477939382583459 0 0.26787267147801469 0.091662729366291718 0 0.2918706057483148 0.10216008922418229 0 0.27430291337578411 0.1181998037813389 0 0.24680236178082729 0.10780736320091069 0 0.24819657032849199 0.087805226663106861 0 0.26787267147801469 0.091662729366291718 0 0.24680236178082729 0.10780736320091069 0 0.26787267147801469 0.091662729366291718 0 0.24680236178082729 0.10780736320091069 0 0.26787267147801469 0.091662729366291718 0 0.27430291337578411 0.1181998037813389 0 0.24269133559777911 0.13137959778602609 0 0.24680236178082729 0.10780736320091069 0 0.26056485633468729 0.13235628504639149 0 0.24680236178082729 0.10780736320091069 0 0.27430291337578411 0.1181998037813389 0 0.26056485633468729 0.13235628504639149 0 0.2497719483883557 0.145866114883938 0 0.24269133559777911 0.13137959778602609 0 0.26056485633468729 0.13235628504639149 0 0.26056485633468729 0.13235628504639149 0 0.27901146735326721 0.1390546755683659 0 0.26422352032783991 0.1490383368624954 0 0.27430291337578411 0.1181998037813389 0 0.26056485633468729 0.13235628504639149 0 0.27901146735326721 0.1390546755683659 0 0.27901146735326721 0.1390546755683659 0 0.27527848219122669 0.15099862393651259 0 0.28500266487722131 0.15661068044931589 0 0.27527848219122669 0.15099862393651259 0 0.2789947610076961 0.1592835577089243 0 0.28500266487722131 0.15661068044931589 0 0.27901146735326721 0.1390546755683659 0 0.27527848219122669 0.15099862393651259 0 0.26422352032783991 0.1490383368624954 0 0.27527848219122669 0.15099862393651259 0 0.26422352032783991 0.1490383368624954 0 0.2716580221409059 0.16080063099670711 0 0.2497719483883557 0.145866114883938 0 0.26422352032783991 0.1490383368624954 0 0.25986157766168821 0.1587798564099222 0 0.2497719483883557 0.145866114883938 0 0.26056485633468729 0.13235628504639149 0 0.26422352032783991 0.1490383368624954 0 0.26422352032783991 0.1490383368624954 0 0.25986157766168821 0.1587798564099222 0 0.2716580221409059 0.16080063099670711 0 0.24408795070403941 0.15818558079310291 0 0.2497719483883557 0.145866114883938 0 0.25986157766168821 0.1587798564099222 0 0.24408795070403941 0.15818558079310291 0 0.26097345170397829 0.17091412918051541 0 0.24408795070403941 0.15818558079310291 0 0.26097345170397829 0.17091412918051541 0 0.25887253026733148 0.1719551306483465 0 0.24408795070403941 0.15818558079310291 0 0.26097345170397829 0.17091412918051541 0 0.25986157766168821 0.1587798564099222 0 0.26097345170397829 0.17091412918051541 0 0.25986157766168821 0.1587798564099222 0 0.26806771885575748 0.1649122704990604 0 0.25075303062354087 0.18101709102735691 0 0.25865581748313282 0.18351022266873501 0 0.25471357890003588 0.1899694505898043 0 0.25075303062354087 0.18101709102735691 0 0.26026460097189791 0.17719743362907561 0 0.25865581748313282 0.18351022266873501 0 0.25075303062354087 0.18101709102735691 0 0.25887253026733148 0.1719551306483465 0 0.26026460097189791 0.17719743362907561 0 0.25887253026733148 0.1719551306483465 0 0.26026460097189791 0.17719743362907561 0 0.2673259118125218 0.17580445469214681 0 0.26026460097189791 0.17719743362907561 0 0.2634754929596112 0.18161841761735401 0 0.2673259118125218 0.17580445469214681 0 0.25865581748313282 0.18351022266873501 0 0.25471357890003588 0.1899694505898043 0 0.26407238396057747 0.1877487204800842 0 0.26026460097189791 0.17719743362907561 0 0.25865581748313282 0.18351022266873501 0 0.2634754929596112 0.18161841761735401 0 0.25865581748313282 0.18351022266873501 0 0.2634754929596112 0.18161841761735401 0 0.26407238396057747 0.1877487204800842 0 0.2673259118125218 0.17580445469214681 0 0.27428229251050851 0.176551687178994 0 0.2840398748214305 0.1687242954531615 0 0.25887253026733148 0.1719551306483465 0 0.2673259118125218 0.17580445469214681 0 0.2840398748214305 0.1687242954531615 0 0.26936028369614778 0.18470796762070429 0 0.27500189540401432 0.18265520523474821 0 0.27253298742491039 0.19093473212174869 0 0.2634754929596112 0.18161841761735401 0 0.26936028369614778 0.18470796762070429 0 0.26407238396057747 0.1877487204800842 0 0.2634754929596112 0.18161841761735401 0 0.26936028369614778 0.18470796762070429 0 0.26927587749269521 0.18012596370736969 0 0.26936028369614778 0.18470796762070429 0 0.26927587749269521 0.18012596370736969 0 0.27500189540401432 0.18265520523474821 0 0.26927587749269521 0.18012596370736969 0 0.27428229251050851 0.176551687178994 0 0.27500189540401432 0.18265520523474821 0 0.26927587749269521 0.18012596370736969 0 0.2673259118125218 0.17580445469214681 0 0.27428229251050851 0.176551687178994 0 0.2634754929596112 0.18161841761735401 0 0.26927587749269521 0.18012596370736969 0 0.2673259118125218 0.17580445469214681 0 0.2800252149496254 0.17778638735428071 0 0.27428229251050851 0.176551687178994 0 0.2840398748214305 0.1687242954531615 0 0.2800252149496254 0.17778638735428071 0 0.27428229251050851 0.176551687178994 0 0.27500189540401432 0.18265520523474821 0 0.2800252149496254 0.17778638735428071 0 0.27500189540401432 0.18265520523474821 0 0.28087292718286072 0.18280343823204909 0 0.27500189540401432 0.18265520523474821 0 0.28087292718286072 0.18280343823204909 0 0.2792495355715589 0.1890943347616876 0 0.26097345170397829 0.17091412918051541 0 0.26806771885575748 0.1649122704990604 0 0.2840398748214305 0.1687242954531615 0 0.25887253026733148 0.1719551306483465 0 0.2840398748214305 0.1687242954531615 0 0.26097345170397829 0.17091412918051541 0 0.25887253026733148 0.1719551306483465 0 0.2840398748214305 0.1687242954531615 0 0.2716580221409059 0.16080063099670711 0 0.26806771885575748 0.1649122704990604 0 0.2840398748214305 0.1687242954531615 0 0.25986157766168821 0.1587798564099222 0 0.2716580221409059 0.16080063099670711 0 0.26806771885575748 0.1649122704990604 0 0.2716580221409059 0.16080063099670711 0 0.2789947610076961 0.1592835577089243 0 0.2840398748214305 0.1687242954531615 0 0.27527848219122669 0.15099862393651259 0 0.2716580221409059 0.16080063099670711 0 0.2789947610076961 0.1592835577089243 0 0.2789947610076961 0.1592835577089243 0 0.28500266487722131 0.15661068044931589 0 0.2840398748214305 0.1687242954531615 0 0.2840398748214305 0.1687242954531615 0 0.30920721937552947 0.16549346025797651 0 0.2840398748214305 0.1687242954531615 0 0.29517239775881449 0.17684511710201109 0 0.30920721937552947 0.16549346025797651 0 0.28500266487722131 0.15661068044931589 0 0.2840398748214305 0.1687242954531615 0 0.29928104890507118 0.1542173814913422 0 0.28087292718286072 0.18280343823204909 0 0.28601626503767702 0.17870595268637871 0 0.28475681282311288 0.1878168441767136 0 0.28601626503767702 0.17870595268637871 0 0.29027263954460247 0.18497173312047219 0 0.28475681282311288 0.1878168441767136 0 0.28087292718286072 0.18280343823204909 0 0.2792495355715589 0.1890943347616876 0 0.28475681282311288 0.1878168441767136 0 0.2800252149496254 0.17778638735428071 0 0.28087292718286072 0.18280343823204909 0 0.28601626503767702 0.17870595268637871 0 0.2800252149496254 0.17778638735428071 0 0.2840398748214305 0.1687242954531615 0 0.28601626503767702 0.17870595268637871 0 0.2840398748214305 0.1687242954531615 0 0.28601626503767702 0.17870595268637871 0 0.29517239775881449 0.17684511710201109 0 0.29517239775881449 0.17684511710201109 0 0.29660781122391278 0.18303730115675829 0 0.29027263954460247 0.18497173312047219 0 0.28601626503767702 0.17870595268637871 0 0.29517239775881449 0.17684511710201109 0 0.29027263954460247 0.18497173312047219 0 0.29660781122391278 0.18303730115675829 0 0.29027263954460247 0.18497173312047219 0 0.29459352182595022 0.18859049387674401 0 0.29517239775881449 0.17684511710201109 0 0.30526640402263089 0.18113709164010131 0 0.30920721937552947 0.16549346025797651 0 0.30526640402263089 0.18113709164010131 0 0.30920721937552947 0.16549346025797651 0 0.31939733882409649 0.17648179005875159 0 0.29517239775881449 0.17684511710201109 0 0.29660781122391278 0.18303730115675829 0 0.30526640402263089 0.18113709164010131 0 0.300003311814518 0.18688894151176991 0 0.30526640402263089 0.18113709164010131 0 0.30320960047579287 0.18965006997741671 0 0.29660781122391278 0.18303730115675829 0 0.300003311814518 0.18688894151176991 0 0.30526640402263089 0.18113709164010131 0 0.29660781122391278 0.18303730115675829 0 0.300003311814518 0.18688894151176991 0 0.29459352182595022 0.18859049387674401 0 0.30526640402263089 0.18113709164010131 0 0.30320960047579287 0.18965006997741671 0 0.30699029836191022 0.18852932130376901 0 0.30526640402263089 0.18113709164010131 0 0.30699029836191022 0.18852932130376901 0 0.3130308910177686 0.18684414348819439 0 0.2840398748214305 0.1687242954531615 0 0.30920721937552947 0.16549346025797651 0 0.29928104890507118 0.1542173814913422 0 0.30920721937552947 0.16549346025797651 0 0.29928104890507118 0.1542173814913422 0 0.31660480719000028 0.15141558151091039 0 0.29928104890507118 0.1542173814913422 0 0.29870776948379418 0.13477939382583459 0 0.31660480719000028 0.15141558151091039 0 0.27430291337578411 0.1181998037813389 0 0.27901146735326721 0.1390546755683659 0 0.29870776948379418 0.13477939382583459 0 0.28500266487722131 0.15661068044931589 0 0.29870776948379418 0.13477939382583459 0 0.28500266487722131 0.15661068044931589 0 0.29928104890507118 0.1542173814913422 0 0.29870776948379418 0.13477939382583459 0 0.27901146735326721 0.1390546755683659 0 0.28500266487722131 0.15661068044931589 0 0.29870776948379418 0.13477939382583459 0 0.28278347261867692 0.25884443671873769 0 0.26912176461869219 0.24690757237928929 0 0.28503218327263141 0.23946629581162221 0 0.26912176461869219 0.24690757237928929 0 0.26872585598916732 0.23300125379871489 0 0.28503218327263141 0.23946629581162221 0 0.26912176461869219 0.24690757237928929 0 0.25530153693490393 0.2469867472089167 0 0.26872585598916732 0.23300125379871489 0 0.23975313719016039 0.24094104287280149 0 0.25530153693490393 0.2469867472089167 0 0.25615816462987429 0.2346886777627154 0 0.25530153693490393 0.2469867472089167 0 0.25615816462987429 0.2346886777627154 0 0.26872585598916732 0.23300125379871489 0 0.25530153693490393 0.2469867472089167 0 0.26872585598916732 0.23300125379871489 0 0.25615816462987429 0.2346886777627154 0 0.25880726040974689 0.2206572208500871 0 0.26872585598916732 0.23300125379871489 0 0.24817913602054109 0.22671455816346611 0 0.25615816462987429 0.2346886777627154 0 0.25880726040974689 0.2206572208500871 0 0.2440714161500688 0.21658378946281839 0 0.24817913602054109 0.22671455816346611 0 0.25880726040974689 0.2206572208500871 0 0.25880726040974689 0.2206572208500871 0 0.26872585598916732 0.23300125379871489 0 0.26764224605308362 0.21804135528154911 0 0.26872585598916732 0.23300125379871489 0 0.28215017504342982 0.21901576038851209 0 0.28503218327263141 0.23946629581162221 0 0.26872585598916732 0.23300125379871489 0 0.27536518476494382 0.2164996617461612 0 0.28215017504342982 0.21901576038851209 0 0.26872585598916732 0.23300125379871489 0 0.27536518476494382 0.2164996617461612 0 0.26764224605308362 0.21804135528154911 0 0.26872585598916732 0.23300125379871489 0 0.28215017504342982 0.21901576038851209 0 0.27536518476494382 0.2164996617461612 0 0.2808727211082625 0.21004496244868731 0 0.27141893219397112 0.2087238272097415 0 0.27536518476494382 0.2164996617461612 0 0.2808727211082625 0.21004496244868731 0 0.28215017504342982 0.21901576038851209 0 0.27536518476494382 0.2164996617461612 0 0.28215017504342982 0.21901576038851209 0 0.2808727211082625 0.21004496244868731 0 0.27712147809756882 0.20396038662813079 0 0.28444759951916182 0.20137653352581811 0 0.2808727211082625 0.21004496244868731 0 0.27712147809756882 0.20396038662813079 0 0.27141893219397112 0.2087238272097415 0 0.27712147809756882 0.20396038662813079 0 0.27141893219397112 0.2087238272097415 0 0.27116891415155808 0.19957315232089759 0 0.27141893219397112 0.2087238272097415 0 0.26363366955756679 0.20390584236505249 0 0.27116891415155808 0.19957315232089759 0 0.27141893219397112 0.2087238272097415 0 0.26351466637981968 0.2119511621260356 0 0.26363366955756679 0.20390584236505249 0 0.27536518476494382 0.2164996617461612 0 0.27141893219397112 0.2087238272097415 0 0.26764224605308362 0.21804135528154911 0 0.27141893219397112 0.2087238272097415 0 0.26764224605308362 0.21804135528154911 0 0.26351466637981968 0.2119511621260356 0 0.25880726040974689 0.2206572208500871 0 0.26764224605308362 0.21804135528154911 0 0.26351466637981968 0.2119511621260356 0 0.25880726040974689 0.2206572208500871 0 0.26351466637981968 0.2119511621260356 0 0.25531256262919139 0.2096802635697369 0 0.2440714161500688 0.21658378946281839 0 0.25880726040974689 0.2206572208500871 0 0.25531256262919139 0.2096802635697369 0 0.24499284631802409 0.20546513931468269 0 0.25531256262919139 0.2096802635697369 0 0.25621476709212559 0.19942681763336759 0 0.25531256262919139 0.2096802635697369 0 0.26363366955756679 0.20390584236505249 0 0.25621476709212559 0.19942681763336759 0 0.26351466637981968 0.2119511621260356 0 0.25531256262919139 0.2096802635697369 0 0.26363366955756679 0.20390584236505249 0 0.26363366955756679 0.20390584236505249 0 0.25621476709212559 0.19942681763336759 0 0.26392895186116588 0.19510225560234451 0 0.2480553895173794 0.1960497071960107 0 0.25621476709212559 0.19942681763336759 0 0.25471357890003588 0.1899694505898043 0 0.25621476709212559 0.19942681763336759 0 0.25471357890003588 0.1899694505898043 0 0.26392895186116588 0.19510225560234451 0 0.25471357890003588 0.1899694505898043 0 0.26392895186116588 0.19510225560234451 0 0.26407238396057747 0.1877487204800842 0 0.26392895186116588 0.19510225560234451 0 0.26407238396057747 0.1877487204800842 0 0.27253298742491039 0.19093473212174869 0 0.26936028369614778 0.18470796762070429 0 0.26407238396057747 0.1877487204800842 0 0.27253298742491039 0.19093473212174869 0 0.26392895186116588 0.19510225560234451 0 0.27253298742491039 0.19093473212174869 0 0.27116891415155808 0.19957315232089759 0 0.26363366955756679 0.20390584236505249 0 0.26392895186116588 0.19510225560234451 0 0.27116891415155808 0.19957315232089759 0 0.27253298742491039 0.19093473212174869 0 0.27116891415155808 0.19957315232089759 0 0.27818135153451512 0.19654204621121529 0 0.27712147809756882 0.20396038662813079 0 0.27116891415155808 0.19957315232089759 0 0.27818135153451512 0.19654204621121529 0 0.27712147809756882 0.20396038662813079 0 0.27818135153451512 0.19654204621121529 0 0.28444759951916182 0.20137653352581811 0 0.27818135153451512 0.19654204621121529 0 0.2792495355715589 0.1890943347616876 0 0.28456759444233271 0.19431313790900909 0 0.27500189540401432 0.18265520523474821 0 0.27253298742491039 0.19093473212174869 0 0.2792495355715589 0.1890943347616876 0 0.27253298742491039 0.19093473212174869 0 0.27818135153451512 0.19654204621121529 0 0.2792495355715589 0.1890943347616876 0 0.28456759444233271 0.19431313790900909 0 0.28971258925330878 0.19748965626004769 0 0.28985594047030327 0.19135490841885289 0 0.28475681282311288 0.1878168441767136 0 0.28456759444233271 0.19431313790900909 0 0.28985594047030327 0.19135490841885289 0 0.29027263954460247 0.18497173312047219 0 0.28475681282311288 0.1878168441767136 0 0.28985594047030327 0.19135490841885289 0 0.2792495355715589 0.1890943347616876 0 0.28475681282311288 0.1878168441767136 0 0.28456759444233271 0.19431313790900909 0 0.27818135153451512 0.19654204621121529 0 0.28456759444233271 0.19431313790900909 0 0.28444759951916182 0.20137653352581811 0 0.28456759444233271 0.19431313790900909 0 0.28444759951916182 0.20137653352581811 0 0.28971258925330878 0.19748965626004769 0 0.28444759951916182 0.20137653352581811 0 0.28971258925330878 0.19748965626004769 0 0.29476598073502502 0.20587257847731291 0 0.29492583109972159 0.19453112296924549 0 0.30081197545075172 0.19270618246351809 0 0.29476598073502502 0.20587257847731291 0 0.28971258925330878 0.19748965626004769 0 0.29492583109972159 0.19453112296924549 0 0.29476598073502502 0.20587257847731291 0 0.29492583109972159 0.19453112296924549 0 0.28985594047030327 0.19135490841885289 0 0.29459352182595022 0.18859049387674401 0 0.29492583109972159 0.19453112296924549 0 0.29459352182595022 0.18859049387674401 0 0.30081197545075172 0.19270618246351809 0 0.28971258925330878 0.19748965626004769 0 0.29492583109972159 0.19453112296924549 0 0.28985594047030327 0.19135490841885289 0 0.29027263954460247 0.18497173312047219 0 0.28985594047030327 0.19135490841885289 0 0.29459352182595022 0.18859049387674401 0 0.300003311814518 0.18688894151176991 0 0.29459352182595022 0.18859049387674401 0 0.30081197545075172 0.19270618246351809 0 0.3073817864266184 0.1927293965661119 0 0.29476598073502502 0.20587257847731291 0 0.31254161374659339 0.20966234570515721 0 0.30081197545075172 0.19270618246351809 0 0.30320960047579287 0.18965006997741671 0 0.3073817864266184 0.1927293965661119 0 0.300003311814518 0.18688894151176991 0 0.30081197545075172 0.19270618246351809 0 0.30320960047579287 0.18965006997741671 0 0.30320960047579287 0.18965006997741671 0 0.30699029836191022 0.18852932130376901 0 0.3073817864266184 0.1927293965661119 0 0.3073817864266184 0.1927293965661119 0 0.3130308910177686 0.18684414348819439 0 0.30699029836191022 0.18852932130376901 0 0.3073817864266184 0.1927293965661119 0 0.3130308910177686 0.18684414348819439 0 0.30081197545075172 0.19270618246351809 0 0.3073817864266184 0.1927293965661119 0 0.29476598073502502 0.20587257847731291 0 0.3073817864266184 0.1927293965661119 0 0.29476598073502502 0.20587257847731291 0 0.29476598073502502 0.20587257847731291 0 0.30414242585639573 0.227171213844088 0 0.31254161374659339 0.20966234570515721 0 0.29476598073502502 0.20587257847731291 0 0.28215017504342982 0.21901576038851209 0 0.30414242585639573 0.227171213844088 0 0.2808727211082625 0.21004496244868731 0 0.28444759951916182 0.20137653352581811 0 0.29476598073502502 0.20587257847731291 0 0.2808727211082625 0.21004496244868731 0 0.29476598073502502 0.20587257847731291 0 0.28215017504342982 0.21901576038851209 0 0.29476598073502502 0.20587257847731291 0 0.28215017504342982 0.21901576038851209 0 0.28215017504342982 0.21901576038851209 0 0.30414242585639573 0.227171213844088 0 0.28215017504342982 0.21901576038851209 0 0.30414242585639573 0.227171213844088 0 0.28503218327263141 0.23946629581162221 0 0.30146467536468602 0.25021594144589671 0 0.30414242585639573 0.227171213844088 0 0.31538450869092283 0.24427669968039431 0 0.30146467536468602 0.25021594144589671 0 0.30414242585639573 0.227171213844088 0 0.28503218327263141 0.23946629581162221 0 0.28278347261867692 0.25884443671873769 0 0.30146467536468602 0.25021594144589671 0 0.28503218327263141 0.23946629581162221 0 0.33759176045048761 0.24838750703047241 0 0.32613467666936141 0.23532666729966439 0 0.3481269274823271 0.24348212075524081 0 0.32613467666936141 0.23532666729966439 0 0.33717625971158022 0.22934095901004531 0 0.3481269274823271 0.24348212075524081 0 0.32613467666936141 0.23532666729966439 0 0.3481269274823271 0.24348212075524081 0 0.33759176045048761 0.24838750703047241 0 0.32593120003520498 0.24928429442965511 0 0.32613467666936141 0.23532666729966439 0 0.30414242585639573 0.227171213844088 0 0.31538450869092283 0.24427669968039431 0 0.32613467666936141 0.23532666729966439 0 0.32593120003520498 0.24928429442965511 0 0.31538450869092283 0.24427669968039431 0 0.32613467666936141 0.23532666729966439 0 0.30414242585639573 0.227171213844088 0 0.32613467666936141 0.23532666729966439 0 0.30414242585639573 0.227171213844088 0 0.32613467666936141 0.23532666729966439 0 0.32503165300345888 0.21931425969319229 0 0.32613467666936141 0.23532666729966439 0 0.32503165300345888 0.21931425969319229 0 0.33717625971158022 0.22934095901004531 0 0.32503165300345888 0.21931425969319229 0 0.33717625971158022 0.22934095901004531 0 0.33954264197860828 0.2154730139616009 0 0.33717625971158022 0.22934095901004531 0 0.33954264197860828 0.2154730139616009 0 0.34827913430880991 0.22233123275844491 0 0.33078871294022388 0.20059972451121311 0 0.35419563945382943 0.2084700524563147 0 0.33954264197860828 0.2154730139616009 0 0.33078871294022388 0.20059972451121311 0 0.35419563945382943 0.2084700524563147 0 0.32503165300345888 0.21931425969319229 0 0.33954264197860828 0.2154730139616009 0 0.33078871294022388 0.20059972451121311 0 0.30414242585639573 0.227171213844088 0 0.32503165300345888 0.21931425969319229 0 0.31254161374659339 0.20966234570515721 0 0.32503165300345888 0.21931425969319229 0 0.31254161374659339 0.20966234570515721 0 0.33078871294022388 0.20059972451121311 0 0.3073817864266184 0.1927293965661119 0 0.32128607362698453 0.18877983073418719 0 0.33078871294022388 0.20059972451121311 0 0.3073817864266184 0.1927293965661119 0 0.33078871294022388 0.20059972451121311 0 0.3073817864266184 0.1927293965661119 0 0.31254161374659339 0.20966234570515721 0 0.33078871294022388 0.20059972451121311 0 0.32128607362698453 0.18877983073418719 0 0.33078871294022388 0.20059972451121311 0 0.33088287770729852 0.18213810627092589 0 0.3073817864266184 0.1927293965661119 0 0.32128607362698453 0.18877983073418719 0 0.3130308910177686 0.18684414348819439 0 0.33078871294022388 0.20059972451121311 0 0.33088287770729852 0.18213810627092589 0 0.34986965791521912 0.18549410654511631 0 0.33078871294022388 0.20059972451121311 0 0.35419563945382943 0.2084700524563147 0 0.34986965791521912 0.18549410654511631 0 0.37072231173173847 0.19290053099416751 0 0.35419563945382943 0.2084700524563147 0 0.34986965791521912 0.18549410654511631 0 0.35419563945382943 0.2084700524563147 0 0.37760256596743469 0.21634038040141701 0 0.37072231173173847 0.19290053099416751 0 0.35419563945382943 0.2084700524563147 0 0.37760256596743469 0.21634038040141701 0 0.35419563945382943 0.2084700524563147 0 0.37133869010193638 0.2250262086389043 0 0.37760256596743469 0.21634038040141701 0 0.33954264197860828 0.2154730139616009 0 0.35419563945382943 0.2084700524563147 0 0.34827913430880991 0.22233123275844491 0 0.35419563945382943 0.2084700524563147 0 0.34827913430880991 0.22233123275844491 0 0.35853609156533878 0.22775480903011791 0 0.33717625971158022 0.22934095901004531 0 0.35194503883469302 0.23061732933414561 0 0.3536477190034365 0.24048926661043121 0 0.33717625971158022 0.22934095901004531 0 0.34827913430880991 0.22233123275844491 0 0.35194503883469302 0.23061732933414561 0 0.34827913430880991 0.22233123275844491 0 0.35194503883469302 0.23061732933414561 0 0.35853609156533878 0.22775480903011791 0 0.35194503883469302 0.23061732933414561 0 0.35853609156533878 0.22775480903011791 0 0.35882085756933629 0.235043498626271 0 0.35419563945382943 0.2084700524563147 0 0.35853609156533878 0.22775480903011791 0 0.37133869010193638 0.2250262086389043 0 0.37133869010193638 0.2250262086389043 0 0.37760256596743469 0.21634038040141701 0 0.37133869010193638 0.2250262086389043 0 0.3672250261609537 0.23817131878495701 0 0.37668450458748759 0.23241512326001951 0 0.35853609156533878 0.22775480903011791 0 0.37133869010193638 0.2250262086389043 0 0.3672250261609537 0.23817131878495701 0 0.35853609156533878 0.22775480903011791 0 0.3672250261609537 0.23817131878495701 0 0.35882085756933629 0.235043498626271 0 0.3672250261609537 0.23817131878495701 0 0.3536477190034365 0.24048926661043121 0 0.35882085756933629 0.235043498626271 0 0.37011917829529278 0.25163757421081712 0 0.3672250261609537 0.23817131878495701 0 0.3536477190034365 0.24048926661043121 0 0.37011917829529278 0.25163757421081712 0 0.3536477190034365 0.24048926661043121 0 0.3672250261609537 0.23817131878495701 0 0.37748376068463863 0.2399051906974751 0 0.37668450458748759 0.23241512326001951 0 0.37011917829529278 0.25163757421081712 0 0.3672250261609537 0.23817131878495701 0 0.37748376068463863 0.2399051906974751 0 0.37011917829529278 0.25163757421081712 0 0.3481269274823271 0.24348212075524081 0 0.33717625971158022 0.22934095901004531 0 0.3536477190034365 0.24048926661043121 0 0.37011917829529278 0.25163757421081712 0 0.35512444659002668 0.25480827031026182 0 0.3481269274823271 0.24348212075524081 0 0.37011917829529278 0.25163757421081712 0 0.3536477190034365 0.24048926661043121 0 0.3481269274823271 0.24348212075524081 0 0.33717625971158022 0.22934095901004531 0 0.3536477190034365 0.24048926661043121 0 0.3481269274823271 0.24348212075524081 0 0.35194503883469302 0.23061732933414561 0 0.3536477190034365 0.24048926661043121 0 0.35882085756933629 0.235043498626271 0 0.35512444659002668 0.25480827031026182 0 0.3462408118975176 0.25091156327815561 0 0.3481269274823271 0.24348212075524081 0 0.3462408118975176 0.25091156327815561 0 0.33759176045048761 0.24838750703047241 0 0.3481269274823271 0.24348212075524081 0 0.34351897448706359 0.14818834851316209 0 0.32755549012633473 0.13682458378493681 0 0.3343745639296285 0.16226262506279149 0 0.33662920649515071 0.11518814068880349 0 0.32755549012633473 0.13682458378493681 0 0.35064023520833881 0.1329898896907023 0 0.34351897448706359 0.14818834851316209 0 0.32755549012633473 0.13682458378493681 0 0.35064023520833881 0.1329898896907023 0 0.31241287409036711 0.11294810720235331 0 0.29870776948379418 0.13477939382583459 0 0.32755549012633473 0.13682458378493681 0 0.29870776948379418 0.13477939382583459 0 0.32755549012633473 0.13682458378493681 0 0.31660480719000028 0.15141558151091039 0 0.32755549012633473 0.13682458378493681 0 0.31660480719000028 0.15141558151091039 0 0.3343745639296285 0.16226262506279149 0 0.30920721937552947 0.16549346025797651 0 0.3343745639296285 0.16226262506279149 0 0.30920721937552947 0.16549346025797651 0 0.31939733882409649 0.17648179005875159 0 0.3343745639296285 0.16226262506279149 0 0.30920721937552947 0.16549346025797651 0 0.31660480719000028 0.15141558151091039 0 0.3343745639296285 0.16226262506279149 0 0.32128607362698453 0.18877983073418719 0 0.3130308910177686 0.18684414348819439 0 0.31939733882409649 0.17648179005875159 0 0.30526640402263089 0.18113709164010131 0 0.3130308910177686 0.18684414348819439 0 0.31939733882409649 0.17648179005875159 0 0.32128607362698453 0.18877983073418719 0 0.31939733882409649 0.17648179005875159 0 0.33088287770729852 0.18213810627092589 0 0.31939733882409649 0.17648179005875159 0 0.33088287770729852 0.18213810627092589 0 0.3343745639296285 0.16226262506279149 0 0.33088287770729852 0.18213810627092589 0 0.3343745639296285 0.16226262506279149 0 0.35138225699938591 0.16664522676749841 0 0.34351897448706359 0.14818834851316209 0 0.3343745639296285 0.16226262506279149 0 0.35138225699938591 0.16664522676749841 0 0.35138225699938591 0.16664522676749841 0 0.34986965791521912 0.18549410654511631 0 0.36857331342268779 0.17076909798226139 0 0.33088287770729852 0.18213810627092589 0 0.35138225699938591 0.16664522676749841 0 0.34986965791521912 0.18549410654511631 0 0.37072231173173847 0.19290053099416751 0 0.36857331342268779 0.17076909798226139 0 0.38537481846649418 0.17967143466162561 0 0.37072231173173847 0.19290053099416751 0 0.34986965791521912 0.18549410654511631 0 0.36857331342268779 0.17076909798226139 0 0.35138225699938591 0.16664522676749841 0 0.36857331342268779 0.17076909798226139 0 0.36000380042912422 0.15134366442418479 0 0.36857331342268779 0.17076909798226139 0 0.36000380042912422 0.15134366442418479 0 0.37641002572566851 0.15121705522149001 0 0.36000380042912422 0.15134366442418479 0 0.37012590845665888 0.13485257920775379 0 0.37641002572566851 0.15121705522149001 0 0.34351897448706359 0.14818834851316209 0 0.35138225699938591 0.16664522676749841 0 0.36000380042912422 0.15134366442418479 0 0.34351897448706359 0.14818834851316209 0 0.36000380042912422 0.15134366442418479 0 0.35064023520833881 0.1329898896907023 0 0.35833939708777879 0.11610625370692509 0 0.35064023520833881 0.1329898896907023 0 0.37012590845665888 0.13485257920775379 0 0.36000380042912422 0.15134366442418479 0 0.35064023520833881 0.1329898896907023 0 0.37012590845665888 0.13485257920775379 0 0.37120910800260049 0.12031008916013471 0 0.37012590845665888 0.13485257920775379 0 0.38097448849440718 0.12618490537828991 0 0.37012590845665888 0.13485257920775379 0 0.38097448849440718 0.12618490537828991 0 0.39170502547058089 0.1436168606717565 0 0.38097448849440718 0.12618490537828991 0 0.39319634884953109 0.1263148887895835 0 0.39170502547058089 0.1436168606717565 0 0.39170502547058089 0.1436168606717565 0 0.4077230318570077 0.13091200147065901 0 0.39319634884953109 0.1263148887895835 0 0.39170502547058089 0.1436168606717565 0 0.4077230318570077 0.13091200147065901 0 0.40488689539465011 0.15422621495652561 0 0.39170502547058089 0.1436168606717565 0 0.4077230318570077 0.13091200147065901 0 0.40488689539465011 0.15422621495652561 0 0.39170502547058089 0.1436168606717565 0 0.38841392339279701 0.16296327579530001 0 0.39170502547058089 0.1436168606717565 0 0.37641002572566851 0.15121705522149001 0 0.38841392339279701 0.16296327579530001 0 0.37012590845665888 0.13485257920775379 0 0.39170502547058089 0.1436168606717565 0 0.37641002572566851 0.15121705522149001 0 0.36857331342268779 0.17076909798226139 0 0.37641002572566851 0.15121705522149001 0 0.38841392339279701 0.16296327579530001 0 0.36857331342268779 0.17076909798226139 0 0.38841392339279701 0.16296327579530001 0 0.38537481846649418 0.17967143466162561 0 0.38841392339279701 0.16296327579530001 0 0.38537481846649418 0.17967143466162561 0 0.40690884053435289 0.17570271889045999 0 0.40690884053435289 0.17570271889045999 0 0.39225570325089459 0.19602154964593901 0 0.38537481846649418 0.17967143466162561 0 0.40690884053435289 0.17570271889045999 0 0.39225570325089459 0.19602154964593901 0 0.40488689539465011 0.15422621495652561 0 0.38841392339279701 0.16296327579530001 0 0.40690884053435289 0.17570271889045999 0 0.40488689539465011 0.15422621495652561 0 0.40690884053435289 0.17570271889045999 0 0.42156197781781107 0.15538388813498111 0 0.40690884053435289 0.17570271889045999 0 0.42493541969541782 0.18133769568643429 0 0.42156197781781107 0.15538388813498111 0 0.40690884053435289 0.17570271889045999 0 0.42156197781781107 0.15538388813498111 0 0.40690884053435289 0.17570271889045999 0 0.42493541969541782 0.18133769568643429 0 0.41502437241638512 0.1924723059160271 0 0.42493541969541782 0.18133769568643429 0 0.42156197781781107 0.15538388813498111 0 0.44084161017220969 0.15817193337312621 0 0.42493541969541782 0.18133769568643429 0 0.44084161017220969 0.15817193337312621 0 0.43621511510126942 0.13506505737950211 0 0.42156197781781107 0.15538388813498111 0 0.43621511510126942 0.13506505737950211 0 0.42101336158258063 0.13954520082848701 0 0.42156197781781107 0.15538388813498111 0 0.43621511510126942 0.13506505737950211 0 0.42156197781781107 0.15538388813498111 0 0.44084161017220969 0.15817193337312621 0 0.43621511510126942 0.13506505737950211 0 0.42627704181567833 0.12937469430401449 0 0.44069548114402168 0.1227857945594112 0 0.43621511510126942 0.13506505737950211 0 0.42627704181567833 0.12937469430401449 0 0.42101336158258063 0.13954520082848701 0 0.42627704181567833 0.12937469430401449 0 0.4077230318570077 0.13091200147065901 0 0.42374103824343479 0.1182071422695618 0 0.42627704181567833 0.12937469430401449 0 0.42101336158258063 0.13954520082848701 0 0.4077230318570077 0.13091200147065901 0 0.40488689539465011 0.15422621495652561 0 0.42101336158258063 0.13954520082848701 0 0.42156197781781107 0.15538388813498111 0 0.40488689539465011 0.15422621495652561 0 0.42101336158258063 0.13954520082848701 0 0.4077230318570077 0.13091200147065901 0 0.39965183542691551 0.2483911979605406 0 0.39557770754367499 0.2390145324117304 0 0.40897142508859152 0.24321143725331429 0 0.4100966285239741 0.25413930845292282 0 0.39965183542691551 0.2483911979605406 0 0.40897142508859152 0.24321143725331429 0 0.39557770754367499 0.2390145324117304 0 0.40618655870921527 0.2331292149138649 0 0.40897142508859152 0.24321143725331429 0 0.39965183542691551 0.2483911979605406 0 0.39557770754367499 0.2390145324117304 0 0.39380286487079619 0.24613539982607599 0 0.39139925032212047 0.25129699245501858 0 0.39965183542691551 0.2483911979605406 0 0.39380286487079619 0.24613539982607599 0 0.39557770754367499 0.2390145324117304 0 0.39380286487079619 0.24613539982607599 0 0.38757937993906599 0.24538219527596611 0 0.39139925032212047 0.25129699245501858 0 0.39380286487079619 0.24613539982607599 0 0.38757937993906599 0.24538219527596611 0 0.39139925032212047 0.25129699245501858 0 0.38366519138630029 0.25066367921554511 0 0.38757937993906599 0.24538219527596611 0 0.38757937993906599 0.24538219527596611 0 0.38076365617184188 0.24535928683361929 0 0.38513972782380118 0.23953634101504709 0 0.38366519138630029 0.25066367921554511 0 0.38757937993906599 0.24538219527596611 0 0.38076365617184188 0.24535928683361929 0 0.37011917829529278 0.25163757421081712 0 0.38366519138630029 0.25066367921554511 0 0.38076365617184188 0.24535928683361929 0 0.37011917829529278 0.25163757421081712 0 0.38076365617184188 0.24535928683361929 0 0.37748376068463863 0.2399051906974751 0 0.37748376068463863 0.2399051906974751 0 0.38669467967037341 0.23268848493032929 0 0.37668450458748759 0.23241512326001951 0 0.38076365617184188 0.24535928683361929 0 0.37748376068463863 0.2399051906974751 0 0.38513972782380118 0.23953634101504709 0 0.37748376068463863 0.2399051906974751 0 0.38513972782380118 0.23953634101504709 0 0.38669467967037341 0.23268848493032929 0 0.39557770754367499 0.2390145324117304 0 0.38757937993906599 0.24538219527596611 0 0.38513972782380118 0.23953634101504709 0 0.39557770754367499 0.2390145324117304 0 0.38513972782380118 0.23953634101504709 0 0.38669467967037341 0.23268848493032929 0 0.37133869010193638 0.2250262086389043 0 0.37668450458748759 0.23241512326001951 0 0.38068036631953578 0.22628441324843129 0 0.38669467967037341 0.23268848493032929 0 0.37668450458748759 0.23241512326001951 0 0.38068036631953578 0.22628441324843129 0 0.37133869010193638 0.2250262086389043 0 0.37812429089710431 0.22119967149871009 0 0.37760256596743469 0.21634038040141701 0 0.37133869010193638 0.2250262086389043 0 0.37812429089710431 0.22119967149871009 0 0.38068036631953578 0.22628441324843129 0 0.37812429089710431 0.22119967149871009 0 0.38068036631953578 0.22628441324843129 0 0.38160870499310778 0.2210007528924734 0 0.37812429089710431 0.22119967149871009 0 0.38160870499310778 0.2210007528924734 0 0.37940211397248419 0.21694545911367111 0 0.38160870499310778 0.2210007528924734 0 0.38822804878330702 0.21957346770908109 0 0.37940211397248419 0.21694545911367111 0 0.38669467967037341 0.23268848493032929 0 0.38068036631953578 0.22628441324843129 0 0.38822804878330702 0.21957346770908109 0 0.38068036631953578 0.22628441324843129 0 0.38160870499310778 0.2210007528924734 0 0.38822804878330702 0.21957346770908109 0 0.38669467967037341 0.23268848493032929 0 0.38822804878330702 0.21957346770908109 0 0.39800287817701763 0.22699710592378719 0 0.38822804878330702 0.21957346770908109 0 0.39800287817701763 0.22699710592378719 0 0.4005851539837692 0.21435216711780289 0 0.39557770754367499 0.2390145324117304 0 0.38669467967037341 0.23268848493032929 0 0.39800287817701763 0.22699710592378719 0 0.39800287817701763 0.22699710592378719 0 0.40618655870921527 0.2331292149138649 0 0.41074512037176603 0.22322476845991479 0 0.39557770754367499 0.2390145324117304 0 0.39800287817701763 0.22699710592378719 0 0.40618655870921527 0.2331292149138649 0 0.39800287817701763 0.22699710592378719 0 0.4005851539837692 0.21435216711780289 0 0.41074512037176603 0.22322476845991479 0 0.38822804878330702 0.21957346770908109 0 0.4005851539837692 0.21435216711780289 0 0.39225570325089459 0.19602154964593901 0 0.4005851539837692 0.21435216711780289 0 0.39225570325089459 0.19602154964593901 0 0.4137651756988997 0.20735052152386249 0 0.38822804878330702 0.21957346770908109 0 0.37940211397248419 0.21694545911367111 0 0.39225570325089459 0.19602154964593901 0 0.37940211397248419 0.21694545911367111 0 0.37760256596743469 0.21634038040141701 0 0.39225570325089459 0.19602154964593901 0 0.37760256596743469 0.21634038040141701 0 0.39225570325089459 0.19602154964593901 0 0.37812429089710431 0.22119967149871009 0 0.37940211397248419 0.21694545911367111 0 0.37760256596743469 0.21634038040141701 0 0.37940211397248419 0.21694545911367111 0 0.37760256596743469 0.21634038040141701 0 0.37072231173173847 0.19290053099416751 0 0.37760256596743469 0.21634038040141701 0 0.39225570325089459 0.19602154964593901 0 0.37072231173173847 0.19290053099416751 0 0.38537481846649418 0.17967143466162561 0 0.39225570325089459 0.19602154964593901 0 0.40690884053435289 0.17570271889045999 0 0.39225570325089459 0.19602154964593901 0 0.41502437241638512 0.1924723059160271 0 0.39225570325089459 0.19602154964593901 0 0.41502437241638512 0.1924723059160271 0 0.4137651756988997 0.20735052152386249 0 0.42493541969541782 0.18133769568643429 0 0.4372567229023599 0.20194904383343981 0 0.44893541768709511 0.1812908034594761 0 0.41502437241638512 0.1924723059160271 0 0.4372567229023599 0.20194904383343981 0 0.4137651756988997 0.20735052152386249 0 0.42493541969541782 0.18133769568643429 0 0.41502437241638512 0.1924723059160271 0 0.4372567229023599 0.20194904383343981 0 0.4372567229023599 0.20194904383343981 0 0.4137651756988997 0.20735052152386249 0 0.42904266622472359 0.22130014402368969 0 0.4137651756988997 0.20735052152386249 0 0.41074512037176603 0.22322476845991479 0 0.42904266622472359 0.22130014402368969 0 0.4005851539837692 0.21435216711780289 0 0.4137651756988997 0.20735052152386249 0 0.41074512037176603 0.22322476845991479 0 0.41074512037176603 0.22322476845991479 0 0.41851056145202692 0.23389625936400099 0 0.42904266622472359 0.22130014402368969 0 0.40618655870921527 0.2331292149138649 0 0.41074512037176603 0.22322476845991479 0 0.41851056145202692 0.23389625936400099 0 0.41851056145202692 0.23389625936400099 0 0.42904266622472359 0.22130014402368969 0 0.43752244361671061 0.24216136226966281 0 0.41851056145202692 0.23389625936400099 0 0.41991785031408768 0.24738075242205379 0 0.43752244361671061 0.24216136226966281 0 0.41851056145202692 0.23389625936400099 0 0.41991785031408768 0.24738075242205379 0 0.40897142508859152 0.24321143725331429 0 0.40618655870921527 0.2331292149138649 0 0.41851056145202692 0.23389625936400099 0 0.40897142508859152 0.24321143725331429 0 0.4100966285239741 0.25413930845292282 0 0.41991785031408768 0.24738075242205379 0 0.40897142508859152 0.24321143725331429 0 0.46725173377110663 0.24760942947930911 0 0.45225422833673329 0.2247792366563745 0 0.48592415648076481 0.2393923229360943 0 0.46725173377110663 0.24760942947930911 0 0.45225422833673329 0.2247792366563745 0 0.46725173377110663 0.24760942947930911 0 0.43752244361671061 0.24216136226966281 0 0.45225422833673329 0.2247792366563745 0 0.42904266622472359 0.22130014402368969 0 0.43752244361671061 0.24216136226966281 0 0.45225422833673329 0.2247792366563745 0 0.45225422833673329 0.2247792366563745 0 0.45741467323166429 0.20091651239233579 0 0.47774491961839188 0.21152484933388499 0 0.4372567229023599 0.20194904383343981 0 0.45225422833673329 0.2247792366563745 0 0.4372567229023599 0.20194904383343981 0 0.42904266622472359 0.22130014402368969 0 0.45225422833673329 0.2247792366563745 0 0.4372567229023599 0.20194904383343981 0 0.45225422833673329 0.2247792366563745 0 0.45741467323166429 0.20091651239233579 0 0.4372567229023599 0.20194904383343981 0 0.45741467323166429 0.20091651239233579 0 0.44893541768709511 0.1812908034594761 0 0.45741467323166429 0.20091651239233579 0 0.44893541768709511 0.1812908034594761 0 0.47088207761374129 0.18503862867850371 0 0.45741467323166429 0.20091651239233579 0 0.47774491961839188 0.21152484933388499 0 0.47088207761374129 0.18503862867850371 0 0.5 0.1950926891778525 0 0.47774491961839188 0.21152484933388499 0 0.47088207761374129 0.18503862867850371 0 0.5 0.1950926891778525 0 0.47774491961839188 0.21152484933388499 0 0.5 0.22462577835001371 0 0.45225422833673329 0.2247792366563745 0 0.47774491961839188 0.21152484933388499 0 0.48592415648076481 0.2393923229360943 0 0.47774491961839188 0.21152484933388499 0 0.5 0.22462577835001371 0 0.48592415648076481 0.2393923229360943 0 0.5 0.25415886752217498 0 0.5 0.22462577835001371 0 0.48592415648076481 0.2393923229360943 0 0.45674780064900172 0.13500617105981799 0 0.4622876204597296 0.16102707898088139 0 0.47925316302526783 0.14146439617168319 0 0.45674780064900172 0.13500617105981799 0 0.44084161017220969 0.15817193337312621 0 0.4622876204597296 0.16102707898088139 0 0.43621511510126942 0.13506505737950211 0 0.45674780064900172 0.13500617105981799 0 0.44069548114402168 0.1227857945594112 0 0.45674780064900172 0.13500617105981799 0 0.44084161017220969 0.15817193337312621 0 0.43621511510126942 0.13506505737950211 0 0.45674780064900172 0.13500617105981799 0 0.44084161017220969 0.15817193337312621 0 0.44084161017220969 0.15817193337312621 0 0.44893541768709511 0.1812908034594761 0 0.4622876204597296 0.16102707898088139 0 0.42493541969541782 0.18133769568643429 0 0.44084161017220969 0.15817193337312621 0 0.44893541768709511 0.1812908034594761 0 0.44893541768709511 0.1812908034594761 0 0.4622876204597296 0.16102707898088139 0 0.47088207761374129 0.18503862867850371 0 0.4622876204597296 0.16102707898088139 0 0.48176485360100318 0.16941243147377069 0 0.47088207761374129 0.18503862867850371 0 0.4622876204597296 0.16102707898088139 0 0.48176485360100318 0.16941243147377069 0 0.47925316302526783 0.14146439617168319 0 0.5 0.1950926891778525 0 0.48176485360100318 0.16941243147377069 0 0.47088207761374129 0.18503862867850371 0 0.5 0.1950926891778525 0 0.48176485360100318 0.16941243147377069 0 0.5 0.16555960000569131 0 0.48176485360100318 0.16941243147377069 0 0.5 0.16555960000569131 0 0.47925316302526783 0.14146439617168319 0 0.5 0.16555960000569131 0 0.47925316302526783 0.14146439617168319 0 0.5 0.13602651083353001 0 0.45674780064900172 0.13500617105981799 0 0.47925316302526783 0.14146439617168319 0 0.47265399112579359 0.1118404087465098 0 0.47925316302526783 0.14146439617168319 0 0.5 0.13602651083353001 0 0.48869155954907267 0.1212599662474494 0 0.48869155954907267 0.1212599662474494 0 0.5 0.1064934216613688 0 0.47265399112579359 0.1118404087465098 0 0.5 0.13602651083353001 0 0.48869155954907267 0.1212599662474494 0 0.5 0.1064934216613688 0 0.5 0.1064934216613688 0 0.47265399112579359 0.1118404087465098 0 0.48856018160258557 0.088674646433201748 0 0.47265399112579359 0.1118404087465098 0 0.48856018160258557 0.088674646433201748 0 0.47159539696428421 0.082652476714937431 0 0.47265399112579359 0.1118404087465098 0 0.48856018160258557 0.088674646433201748 0 0.47925316302526783 0.14146439617168319 0 0.48869155954907267 0.1212599662474494 0 0.47265399112579359 0.1118404087465098 0 0.49999999999999922 0.076960332489207556 0 0.47530712007373938 0.0640660257211281 0 0.49999999999999922 0.076960332489207556 0 0.47530712007373938 0.0640660257211281 0 0.5 0.047897297708203827 0 0.49999999999999922 0.076960332489207556 0 0.48856018160258557 0.088674646433201748 0 0.47530712007373938 0.0640660257211281 0 0.5 0.1064934216613688 0 0.49999999999999922 0.076960332489207556 0 0.48856018160258557 0.088674646433201748 0 0.48856018160258557 0.088674646433201748 0 0.47159539696428421 0.082652476714937431 0 0.47530712007373938 0.0640660257211281 0 0.47159539696428421 0.082652476714937431 0 0.47530712007373938 0.0640660257211281 0 0.45816888630356561 0.071383133335291671 0 0.47159539696428421 0.082652476714937431 0 0.45816888630356561 0.071383133335291671 0 0.45696129685870052 0.091858126159251666 0 0.45816888630356561 0.071383133335291671 0 0.45696129685870052 0.091858126159251666 0 0.44520147722013459 0.078829523304941029 0 0.45696129685870052 0.091858126159251666 0 0.43994151444248558 0.091494706230295958 0 0.44520147722013459 0.078829523304941029 0 0.43994151444248558 0.091494706230295958 0 0.44520147722013459 0.078829523304941029 0 0.43213214466611188 0.083775140574294582 0 0.45816888630356561 0.071383133335291671 0 0.44520147722013459 0.078829523304941029 0 0.4447061753419268 0.064619421163674515 0 0.44520147722013459 0.078829523304941029 0 0.4447061753419268 0.064619421163674515 0 0.43201353641023749 0.072064553649063209 0 0.45674780064900172 0.13500617105981799 0 0.47265399112579359 0.1118404087465098 0 0.45674780064900172 0.13500617105981799 0 0.47265399112579359 0.1118404087465098 0 0.45348194746571702 0.11330462694787941 0 0.47265399112579359 0.1118404087465098 0 0.45696129685870052 0.091858126159251666 0 0.45348194746571702 0.11330462694787941 0 0.47265399112579359 0.1118404087465098 0 0.47159539696428421 0.082652476714937431 0 0.45696129685870052 0.091858126159251666 0 0.45696129685870052 0.091858126159251666 0 0.44035116755106751 0.10503263421440651 0 0.45696129685870052 0.091858126159251666 0 0.43994151444248558 0.091494706230295958 0 0.44035116755106751 0.10503263421440651 0 0.45696129685870052 0.091858126159251666 0 0.45348194746571702 0.11330462694787941 0 0.44035116755106751 0.10503263421440651 0 0.45348194746571702 0.11330462694787941 0 0.44035116755106751 0.10503263421440651 0 0.44069548114402168 0.1227857945594112 0 0.45674780064900172 0.13500617105981799 0 0.45348194746571702 0.11330462694787941 0 0.44069548114402168 0.1227857945594112 0 0.44069548114402168 0.1227857945594112 0 0.42374103824343479 0.1182071422695618 0 0.44035116755106751 0.10503263421440651 0 0.44069548114402168 0.1227857945594112 0 0.42374103824343479 0.1182071422695618 0 0.42627704181567833 0.12937469430401449 0 0.44069548114402168 0.1227857945594112 0 0.42374103824343479 0.1182071422695618 0 0.44035116755106751 0.10503263421440651 0 0.42374103824343479 0.1182071422695618 0 0.4077230318570077 0.13091200147065901 0 0.42374103824343479 0.1182071422695618 0 0.4077230318570077 0.13091200147065901 0 0.42374103824343479 0.1182071422695618 0 0.40180812343148908 0.11228402281257879 0 0.42374103824343479 0.1182071422695618 0 0.40180812343148908 0.11228402281257879 0 0.42374103824343479 0.1182071422695618 0 0.41161661993366921 0.1024792529421404 0 0.40180812343148908 0.11228402281257879 0 0.41161661993366921 0.1024792529421404 0 0.42506148591641391 0.097978106898586007 0 0.40922523543306122 0.085753986881672309 0 0.41161661993366921 0.1024792529421404 0 0.40922523543306122 0.085753986881672309 0 0.39824721664394702 0.098173005848303241 0 0.42374103824343479 0.1182071422695618 0 0.41161661993366921 0.1024792529421404 0 0.42506148591641391 0.097978106898586007 0 0.44035116755106751 0.10503263421440651 0 0.42374103824343479 0.1182071422695618 0 0.42506148591641391 0.097978106898586007 0 0.43994151444248558 0.091494706230295958 0 0.44035116755106751 0.10503263421440651 0 0.42506148591641391 0.097978106898586007 0 0.42506148591641391 0.097978106898586007 0 0.43213214466611188 0.083775140574294582 0 0.40922523543306122 0.085753986881672309 0 0.43994151444248558 0.091494706230295958 0 0.42506148591641391 0.097978106898586007 0 0.43213214466611188 0.083775140574294582 0 0.44520147722013459 0.078829523304941029 0 0.43213214466611188 0.083775140574294582 0 0.43201353641023749 0.072064553649063209 0 0.4447061753419268 0.064619421163674515 0 0.43201353641023749 0.072064553649063209 0 0.41851513976369942 0.059688695105806128 0 0.43213214466611188 0.083775140574294582 0 0.43201353641023749 0.072064553649063209 0 0.41951274505931468 0.073409988096599849 0 0.43201353641023749 0.072064553649063209 0 0.41951274505931468 0.073409988096599849 0 0.41851513976369942 0.059688695105806128 0 0.41951274505931468 0.073409988096599849 0 0.40922523543306122 0.085753986881672309 0 0.40366066418438901 0.066566565816272794 0 0.41951274505931468 0.073409988096599849 0 0.40366066418438901 0.066566565816272794 0 0.41851513976369942 0.059688695105806128 0 0.43213214466611188 0.083775140574294582 0 0.41951274505931468 0.073409988096599849 0 0.40922523543306122 0.085753986881672309 0 0.40922523543306122 0.085753986881672309 0 0.39361907487991321 0.089175282782625931 0 0.39824721664394702 0.098173005848303241 0 0.40922523543306122 0.085753986881672309 0 0.3982471216557037 0.079779794989838934 0 0.39361907487991321 0.089175282782625931 0 0.3982471216557037 0.079779794989838934 0 0.39361907487991321 0.089175282782625931 0 0.38540428081838612 0.080428524749167049 0 0.39507571455225138 0.066294611148600385 0 0.38775602011782251 0.071704247917462383 0 0.39232410418547198 0.054757969047936311 0 0.40922523543306122 0.085753986881672309 0 0.3982471216557037 0.079779794989838934 0 0.40366066418438901 0.066566565816272794 0 0.3982471216557037 0.079779794989838934 0 0.40366066418438901 0.066566565816272794 0 0.39624998614984258 0.071378621010296323 0 0.3982471216557037 0.079779794989838934 0 0.39624998614984258 0.071378621010296323 0 0.38775602011782251 0.071704247917462383 0 0.39624998614984258 0.071378621010296323 0 0.39507571455225138 0.066294611148600385 0 0.38775602011782251 0.071704247917462383 0 0.40366066418438901 0.066566565816272794 0 0.39507571455225138 0.066294611148600385 0 0.39232410418547198 0.054757969047936311 0 0.40366066418438901 0.066566565816272794 0 0.39624998614984258 0.071378621010296323 0 0.39507571455225138 0.066294611148600385 0 0.3741290530260471 0.066491756604030422 0 0.38775602011782251 0.071704247917462383 0 0.39232410418547198 0.054757969047936311 0 0.38775602011782251 0.071704247917462383 0 0.39232410418547198 0.054757969047936311 0 0.3982471216557037 0.079779794989838934 0 0.38775602011782251 0.071704247917462383 0 0.38540428081838612 0.080428524749167049 0 0.38775602011782251 0.071704247917462383 0 0.38540428081838612 0.080428524749167049 0 0.37145101605117792 0.079757884964720541 0 0.3741290530260471 0.066491756604030422 0 0.38540428081838612 0.080428524749167049 0 0.3741290530260471 0.066491756604030422 0 0.38775602011782251 0.071704247917462383 0 0.38540428081838612 0.080428524749167049 0 0.37294726897623032 0.090994200858692725 0 0.38540428081838612 0.080428524749167049 0 0.37987520861954338 0.10636090335559539 0 0.38540428081838612 0.080428524749167049 0 0.37987520861954338 0.10636090335559539 0 0.39361907487991321 0.089175282782625931 0 0.38540428081838612 0.080428524749167049 0 0.37987520861954338 0.10636090335559539 0 0.37294726897623032 0.090994200858692725 0 0.37145101605117792 0.079757884964720541 0 0.38540428081838612 0.080428524749167049 0 0.39361907487991321 0.089175282782625931 0 0.37987520861954338 0.10636090335559539 0 0.39824721664394702 0.098173005848303241 0 0.37987520861954338 0.10636090335559539 0 0.38611727570058701 0.1180807244137619 0 0.40180812343148908 0.11228402281257879 0 0.36921265499125933 0.1110503829388633 0 0.37987520861954338 0.10636090335559539 0 0.37824108730571487 0.1140252367328918 0 0.37987520861954338 0.10636090335559539 0 0.37824108730571487 0.1140252367328918 0 0.38611727570058701 0.1180807244137619 0 0.37987520861954338 0.10636090335559539 0 0.37824108730571487 0.1140252367328918 0 0.38097448849440718 0.12618490537828991 0 0.37824108730571487 0.1140252367328918 0 0.38611727570058701 0.1180807244137619 0 0.37120910800260049 0.12031008916013471 0 0.38097448849440718 0.12618490537828991 0 0.37824108730571487 0.1140252367328918 0 0.38097448849440718 0.12618490537828991 0 0.39319634884953109 0.1263148887895835 0 0.38611727570058701 0.1180807244137619 0 0.39319634884953109 0.1263148887895835 0 0.4077230318570077 0.13091200147065901 0 0.40180812343148908 0.11228402281257879 0 0.39319634884953109 0.1263148887895835 0 0.38611727570058701 0.1180807244137619 0 0.40180812343148908 0.11228402281257879 0 0.37987520861954338 0.10636090335559539 0 0.40180812343148908 0.11228402281257879 0 0.39824721664394702 0.098173005848303241 0 0.41161661993366921 0.1024792529421404 0 0.40180812343148908 0.11228402281257879 0 0.39824721664394702 0.098173005848303241 0 0.37987520861954338 0.10636090335559539 0 0.40180812343148908 0.11228402281257879 0 0.39755011304777782 0.023462308983565241 0 0.39833894047196178 0.019762561415915859 0 0.39755011304777782 0.023462308983565241 0 0.38814356989570398 0.031357706369502691 0 0.39424173303250371 0.038979227563152002 0 0.39755011304777782 0.023462308983565241 0 0.39970170672024391 0.024585843740786099 0 0.39424173303250371 0.038979227563152002 0 0.39755011304777782 0.023462308983565241 0 0.39424173303250371 0.038979227563152002 0 0.39755011304777782 0.023462308983565241 0 0.39970170672024391 0.024585843740786099 0 0.39970170672024391 0.024585843740786099 0 0.40510079573264662 0.02602471332742717 0 0.40041170922407548 0.021682151868943119 0 0.40510079573264662 0.02602471332742717 0 0.40041170922407548 0.021682151868943119 0 0.39833894047196178 0.019762561415915859 0 0.40041170922407548 0.021682151868943119 0 0.39969904590866728 0.013383413547906439 0 0.40510079573264662 0.02602471332742717 0 0.40041170922407548 0.021682151868943119 0 0.40644153379183201 0.01855294201558997 0 0.39833894047196178 0.019762561415915859 0 0.40041170922407548 0.021682151868943119 0 0.39970170672024391 0.024585843740786099 0 0.40041170922407548 0.021682151868943119 0 0.39755011304777782 0.023462308983565241 0 0.39970170672024391 0.024585843740786099 0 0.40041170922407548 0.021682151868943119 0 0.39755011304777782 0.023462308983565241 0 0.39833894047196178 0.019762561415915859 0 0.40041170922407548 0.021682151868943119 0 0.39833894047196178 0.019762561415915859 0 0.39969904590866728 0.013383413547906439 0 0.39833894047196178 0.019762561415915859 0 0.39381413030831619 0.0045237730216941092 0 0.38112383196394201 0.0038196551432573039 0 0.40041170922407548 0.021682151868943119 0 0.39969904590866728 0.013383413547906439 0 0.40442364275137582 0.0052745776550867512 0 0.40041170922407548 0.021682151868943119 0 0.40442364275137582 0.0052745776550867512 0 0.40041170922407548 0.021682151868943119 0 0.40442364275137582 0.0052745776550867512 0 0.40644153379183201 0.01855294201558997 0 0.40442364275137582 0.0052745776550867512 0 0.39381413030831619 0.0045237730216941092 0 0.40013229690593199 -0.0038961027493012502 0 0.39969904590866728 0.013383413547906439 0 0.40442364275137582 0.0052745776550867512 0 0.39381413030831619 0.0045237730216941092 0 0.39833894047196178 0.019762561415915859 0 0.39969904590866728 0.013383413547906439 0 0.39381413030831619 0.0045237730216941092 0 0.37275790797876851 0.010516135893525231 0 0.39833894047196178 0.019762561415915859 0 0.38112383196394201 0.0038196551432573039 0 0.39833894047196178 0.019762561415915859 0 0.38112383196394201 0.0038196551432573039 0 0.39381413030831619 0.0045237730216941092 0 0.38112383196394201 0.0038196551432573039 0 0.39301275335799279 -0.0069641241433856336 0 0.37275790797876851 0.010516135893525231 0 0.39755011304777782 0.023462308983565241 0 0.38068389602866542 0.024404222700930921 0 0.37275790797876851 0.010516135893525231 0 0.39755011304777782 0.023462308983565241 0 0.39833894047196178 0.019762561415915859 0 0.39755011304777782 0.023462308983565241 0 0.38068389602866542 0.024404222700930921 0 0.38814356989570398 0.031357706369502691 0 0.37275790797876851 0.010516135893525231 0 0.39755011304777782 0.023462308983565241 0 0.37446090596142928 0.031199830640749129 0 0.38068389602866542 0.024404222700930921 0 0.37932829785323607 0.035065727517223692 0 0.38068389602866542 0.024404222700930921 0 0.37932829785323607 0.035065727517223692 0 0.38814356989570398 0.031357706369502691 0 0.37229933367479562 0.026226562060131901 0 0.37446090596142928 0.031199830640749129 0 0.38068389602866542 0.024404222700930921 0 0.37127347453404391 0.036298138459317661 0 0.37446090596142928 0.031199830640749129 0 0.37932829785323607 0.035065727517223692 0 0.37932829785323607 0.035065727517223692 0 0.37943535368593889 0.043650675240257689 0 0.38594352322520031 0.038478141799389583 0 0.37943535368593889 0.043650675240257689 0 0.38594352322520031 0.038478141799389583 0 0.39232410418547198 0.054757969047936311 0 0.37379025911705338 0.041685833419247732 0 0.37932829785323607 0.035065727517223692 0 0.37943535368593889 0.043650675240257689 0 0.37223077046365582 0.050975196737324521 0 0.37379025911705338 0.041685833419247732 0 0.37943535368593889 0.043650675240257689 0 0.37932829785323607 0.035065727517223692 0 0.38814356989570398 0.031357706369502691 0 0.38594352322520031 0.038478141799389583 0 0.38814356989570398 0.031357706369502691 0 0.38594352322520031 0.038478141799389583 0 0.39424173303250371 0.038979227563152002 0 0.3741290530260471 0.066491756604030422 0 0.37223077046365582 0.050975196737324521 0 0.39232410418547198 0.054757969047936311 0 0.37223077046365582 0.050975196737324521 0 0.39232410418547198 0.054757969047936311 0 0.37223077046365582 0.050975196737324521 0 0.37943535368593889 0.043650675240257689 0 0.39232410418547198 0.054757969047936311 0 0.40366066418438901 0.066566565816272794 0 0.39232410418547198 0.054757969047936311 0 0.41851513976369942 0.059688695105806128 0 0.39232410418547198 0.054757969047936311 0 0.40165141534958471 0.049020361134144992 0 0.41851513976369942 0.059688695105806128 0 0.39232410418547198 0.054757969047936311 0 0.41851513976369942 0.059688695105806128 0 0.39232410418547198 0.054757969047936311 0 0.40165141534958471 0.049020361134144992 0 0.39601290545285928 0.039671906394361543 0 0.39232410418547198 0.054757969047936311 0 0.39601290545285928 0.039671906394361543 0 0.39232410418547198 0.054757969047936311 0 0.39424173303250371 0.038979227563152002 0 0.39970170672024391 0.024585843740786099 0 0.39601290545285928 0.039671906394361543 0 0.40668852835278918 0.043489250587010433 0 0.39232410418547198 0.054757969047936311 0 0.39424173303250371 0.038979227563152002 0 0.39601290545285928 0.039671906394361543 0 0.38594352322520031 0.038478141799389583 0 0.39232410418547198 0.054757969047936311 0 0.39424173303250371 0.038979227563152002 0 0.39970170672024391 0.024585843740786099 0 0.39424173303250371 0.038979227563152002 0 0.39601290545285928 0.039671906394361543 0 0.39970170672024391 0.024585843740786099 0 0.39601290545285928 0.039671906394361543 0 0.40165141534958471 0.049020361134144992 0 0.39601290545285928 0.039671906394361543 0 0.40668852835278918 0.043489250587010433 0 0.39970170672024391 0.024585843740786099 0 0.41783479281242608 0.043052795894702248 0 0.42592136022121779 0.038277412184972992 0 0.39970170672024391 0.024585843740786099 0 0.40668852835278918 0.043489250587010433 0 0.41783479281242608 0.043052795894702248 0 0.39970170672024391 0.024585843740786099 0 0.42592136022121779 0.038277412184972992 0 0.40668852835278918 0.043489250587010433 0 0.41783479281242608 0.043052795894702248 0 0.41851513976369942 0.059688695105806128 0 0.41783479281242608 0.043052795894702248 0 0.41851513976369942 0.059688695105806128 0 0.42496472639930949 0.050362151587096227 0 0.40165141534958471 0.049020361134144992 0 0.40668852835278918 0.043489250587010433 0 0.41851513976369942 0.059688695105806128 0 0.4447061753419268 0.064619421163674515 0 0.41851513976369942 0.059688695105806128 0 0.4447061753419268 0.064619421163674515 0 0.41851513976369942 0.059688695105806128 0 0.43364014273349571 0.054720692580052958 0 0.41851513976369942 0.059688695105806128 0 0.42496472639930949 0.050362151587096227 0 0.43364014273349571 0.054720692580052958 0 0.42496472639930949 0.050362151587096227 0 0.42450900176579431 0.045202329218470783 0 0.43078956405375562 0.046593839732651549 0 0.42496472639930949 0.050362151587096227 0 0.43364014273349571 0.054720692580052958 0 0.43078956405375562 0.046593839732651549 0 0.42592136022121779 0.038277412184972992 0 0.43078956405375562 0.046593839732651549 0 0.45061424014747969 0.05117171895304836 0 0.42592136022121779 0.038277412184972992 0 0.42842828120575338 0.030374863051121938 0 0.41725745339879933 0.02709062859710154 0 0.42592136022121779 0.038277412184972992 0 0.42508791305523452 0.039828733872272357 0 0.41783479281242608 0.043052795894702248 0 0.42508791305523452 0.039828733872272357 0 0.42450900176579431 0.045202329218470783 0 0.42592136022121779 0.038277412184972992 0 0.42508791305523452 0.039828733872272357 0 0.43078956405375562 0.046593839732651549 0 0.41783479281242608 0.043052795894702248 0 0.42592136022121779 0.038277412184972992 0 0.42508791305523452 0.039828733872272357 0 0.41783479281242608 0.043052795894702248 0 0.42496472639930949 0.050362151587096227 0 0.42450900176579431 0.045202329218470783 0 0.42508791305523452 0.039828733872272357 0 0.42450900176579431 0.045202329218470783 0 0.43078956405375562 0.046593839732651549 0 0.42842828120575338 0.030374863051121938 0 0.42873432139574669 0.0072927283310082478 0 0.438077227136839 0.015651310922902568 0 0.42842828120575338 0.030374863051121938 0 0.41843192874221458 0.0096209332461761627 0 0.42873432139574669 0.0072927283310082478 0 0.42592136022121779 0.038277412184972992 0 0.42842828120575338 0.030374863051121938 0 0.438077227136839 0.015651310922902568 0 0.42592136022121779 0.038277412184972992 0 0.438077227136839 0.015651310922902568 0 0.44101293106454681 0.0324070428763963 0 0.42842828120575338 0.030374863051121938 0 0.41843192874221458 0.0096209332461761627 0 0.42592136022121779 0.038277412184972992 0 0.438077227136839 0.015651310922902568 0 0.40510079573264662 0.02602471332742717 0 0.42592136022121779 0.038277412184972992 0 0.41725745339879933 0.02709062859710154 0 0.42842828120575338 0.030374863051121938 0 0.41725745339879933 0.02709062859710154 0 0.41728363027629489 0.02082752788395267 0 0.42842828120575338 0.030374863051121938 0 0.41728363027629489 0.02082752788395267 0 0.41843192874221458 0.0096209332461761627 0 0.39970170672024391 0.024585843740786099 0 0.40510079573264662 0.02602471332742717 0 0.42592136022121779 0.038277412184972992 0 0.41725745339879933 0.02709062859710154 0 0.41728363027629489 0.02082752788395267 0 0.41115216943559868 0.02132860451251313 0 0.41728363027629489 0.02082752788395267 0 0.41115216943559868 0.02132860451251313 0 0.41114831859910878 0.01572261001285058 0 0.41115216943559868 0.02132860451251313 0 0.41114831859910878 0.01572261001285058 0 0.40644153379183201 0.01855294201558997 0 0.40510079573264662 0.02602471332742717 0 0.41115216943559868 0.02132860451251313 0 0.40644153379183201 0.01855294201558997 0 0.40510079573264662 0.02602471332742717 0 0.41725745339879933 0.02709062859710154 0 0.41115216943559868 0.02132860451251313 0 0.40442364275137582 0.0052745776550867512 0 0.41843192874221458 0.0096209332461761627 0 0.40843557627867583 -0.011132996558769681 0 0.40442364275137582 0.0052745776550867512 0 0.41114831859910878 0.01572261001285058 0 0.41843192874221458 0.0096209332461761627 0 0.40442364275137582 0.0052745776550867512 0 0.41114831859910878 0.01572261001285058 0 0.40644153379183201 0.01855294201558997 0 0.41728363027629489 0.02082752788395267 0 0.41114831859910878 0.01572261001285058 0 0.41843192874221458 0.0096209332461761627 0 0.41843192874221458 0.0096209332461761627 0 0.42873432139574669 0.0072927283310082478 0 0.42034696321544462 -0.002664540476162049 0 0.42873432139574669 0.0072927283310082478 0 0.4378746588432762 0.0019998969658650899 0 0.438077227136839 0.015651310922902568 0 0.42873432139574669 0.0072927283310082478 0 0.4378746588432762 0.0019998969658650899 0 0.4289882169991629 -0.0081485236485014483 0 0.438077227136839 0.015651310922902568 0 0.4534138206589291 0.003345072188543977 0 0.45023309405246009 -0.0069747903391679383 0 0.438077227136839 0.015651310922902568 0 0.45023309405246009 -0.0069747903391679383 0 0.438077227136839 0.015651310922902568 0 0.4534138206589291 0.003345072188543977 0 0.45542706284237178 0.01263288024089026 0 0.4378746588432762 0.0019998969658650899 0 0.438077227136839 0.015651310922902568 0 0.45023309405246009 -0.0069747903391679383 0 0.438077227136839 0.015651310922902568 0 0.45413508311041823 0.028010925558367591 0 0.44101293106454681 0.0324070428763963 0 0.438077227136839 0.015651310922902568 0 0.45413508311041823 0.028010925558367591 0 0.45542706284237178 0.01263288024089026 0 0.45413508311041823 0.028010925558367591 0 0.45542706284237178 0.01263288024089026 0 0.46901539890952482 0.017694416747899521 0 0.45413508311041823 0.028010925558367591 0 0.4735987550353537 0.040685181180132243 0 0.46901539890952482 0.017694416747899521 0 0.4659207520727664 0.001217963095865273 0 0.45542706284237178 0.01263288024089026 0 0.46901539890952482 0.017694416747899521 0 0.4659207520727664 0.001217963095865273 0 0.4534138206589291 0.003345072188543977 0 0.45812671722679882 -0.0042857599608656502 0 0.4659207520727664 0.001217963095865273 0 0.4534138206589291 0.003345072188543977 0 0.45542706284237178 0.01263288024089026 0 0.4447061753419268 0.064619421163674515 0 0.43364014273349571 0.054720692580052958 0 0.45061424014747969 0.05117171895304836 0 0.45816888630356561 0.071383133335291671 0 0.4447061753419268 0.064619421163674515 0 0.45061424014747969 0.05117171895304836 0 0.43364014273349571 0.054720692580052958 0 0.43078956405375562 0.046593839732651549 0 0.45061424014747969 0.05117171895304836 0 0.45413508311041823 0.028010925558367591 0 0.45061424014747969 0.05117171895304836 0 0.44101293106454681 0.0324070428763963 0 0.42592136022121779 0.038277412184972992 0 0.45061424014747969 0.05117171895304836 0 0.44101293106454681 0.0324070428763963 0 0.42592136022121779 0.038277412184972992 0 0.45061424014747969 0.05117171895304836 0 0.45413508311041823 0.028010925558367591 0 0.45061424014747969 0.05117171895304836 0 0.4735987550353537 0.040685181180132243 0 0.47530712007373938 0.0640660257211281 0 0.45061424014747969 0.05117171895304836 0 0.4735987550353537 0.040685181180132243 0 0.47530712007373938 0.0640660257211281 0 0.45816888630356561 0.071383133335291671 0 0.45061424014747969 0.05117171895304836 0 0.47530712007373938 0.0640660257211281 0 0.45061424014747969 0.05117171895304836 0 0.47530712007373938 0.0640660257211281 0 0.4735987550353537 0.040685181180132243 0 0.5 0.047897297708203827 0 0.4735987550353537 0.040685181180132243 0 0.5 0.047897297708203827 0 0.5 0.018834262927200252 0 0.4659207520727664 0.001217963095865273 0 0.4833225593963083 0.0048366793324105392 0 0.46901539890952482 0.017694416747899521 0 0.4833225593963083 0.0048366793324105392 0 0.46901539890952482 0.017694416747899521 0 0.5 0.018834262927200252 0 0.4735987550353537 0.040685181180132243 0 0.46901539890952482 0.017694416747899521 0 0.5 0.018834262927200252 0 0.4833225593963083 0.0048366793324105392 0 0.5 0.018834262927200252 0 0.5 -0.010228771853803159 0 0.5 -0.010228771853803159 0 0.47853637437667979 -0.0092590064631227955 0 0.48134315051108612 -0.026613585727486969 0 0.4833225593963083 0.0048366793324105392 0 0.5 -0.010228771853803159 0 0.47853637437667979 -0.0092590064631227955 0 0.4659207520727664 0.001217963095865273 0 0.4833225593963083 0.0048366793324105392 0 0.47853637437667979 -0.0092590064631227955 0 0.4659207520727664 0.001217963095865273 0 0.47853637437667979 -0.0092590064631227955 0 0.46293920212303941 -0.01473128478870391 0 0.48134315051108612 -0.026613585727486969 0 0.46293920212303941 -0.01473128478870391 0 0.46238896096808119 -0.0296008916012384 0 0.47853637437667979 -0.0092590064631227955 0 0.48134315051108612 -0.026613585727486969 0 0.46293920212303941 -0.01473128478870391 0 0.5 -0.010228771853803159 0 0.48134315051108612 -0.026613585727486969 0 0.5 -0.03929180663480647 0 0.48134315051108612 -0.026613585727486969 0 0.5 -0.03929180663480647 0 0.47454482788370228 -0.052226992863308792 0 0.5 -0.03929180663480647 0 0.47454482788370228 -0.052226992863308792 0 0.5 -0.068354841415809831 0 0.48134315051108612 -0.026613585727486969 0 0.47454482788370228 -0.052226992863308792 0 0.46238896096808119 -0.0296008916012384 0 0.45652464332602238 -0.048413555844038281 0 0.44810283997756428 -0.031499145945123 0 0.46238896096808119 -0.0296008916012384 0 0.47454482788370228 -0.052226992863308792 0 0.45652464332602238 -0.048413555844038281 0 0.46238896096808119 -0.0296008916012384 0 0.47454482788370228 -0.052226992863308792 0 0.46238896096808119 -0.0296008916012384 0 0.47454482788370228 -0.052226992863308792 0 0.45652464332602238 -0.048413555844038281 0 0.46956930578928041 -0.069558504936913956 0 0.45652464332602238 -0.048413555844038281 0 0.44085987913227509 -0.052316537407257779 0 0.45116667184596698 -0.069733818092773264 0 0.45652464332602238 -0.048413555844038281 0 0.44085987913227509 -0.052316537407257779 0 0.44810283997756428 -0.031499145945123 0 0.44085987913227509 -0.052316537407257779 0 0.44810283997756428 -0.031499145945123 0 0.43179936217373049 -0.028380308165338559 0 0.44810283997756428 -0.031499145945123 0 0.45115212972526292 -0.01080373157857765 0 0.43179936217373049 -0.028380308165338559 0 0.44034656523557381 -0.01162279785631142 0 0.45115212972526292 -0.01080373157857765 0 0.43179936217373049 -0.028380308165338559 0 0.45115212972526292 -0.01080373157857765 0 0.43179936217373049 -0.028380308165338559 0 0.44034656523557381 -0.01162279785631142 0 0.44033927495731978 -0.0056285445939013466 0 0.45023309405246009 -0.0069747903391679383 0 0.4378746588432762 0.0019998969658650899 0 0.44033927495731978 -0.0056285445939013466 0 0.45023309405246009 -0.0069747903391679383 0 0.44034656523557381 -0.01162279785631142 0 0.45023309405246009 -0.0069747903391679383 0 0.45115212972526292 -0.01080373157857765 0 0.4659207520727664 0.001217963095865273 0 0.45812671722679882 -0.0042857599608656502 0 0.46293920212303941 -0.01473128478870391 0 0.45023309405246009 -0.0069747903391679383 0 0.45812671722679882 -0.0042857599608656502 0 0.46293920212303941 -0.01473128478870391 0 0.4534138206589291 0.003345072188543977 0 0.45023309405246009 -0.0069747903391679383 0 0.45812671722679882 -0.0042857599608656502 0 0.44810283997756428 -0.031499145945123 0 0.45115212972526292 -0.01080373157857765 0 0.46238896096808119 -0.0296008916012384 0 0.45023309405246009 -0.0069747903391679383 0 0.46238896096808119 -0.0296008916012384 0 0.45023309405246009 -0.0069747903391679383 0 0.46293920212303941 -0.01473128478870391 0 0.46238896096808119 -0.0296008916012384 0 0.45023309405246009 -0.0069747903391679383 0 0.45115212972526292 -0.01080373157857765 0 0.46238896096808119 -0.0296008916012384 0 0.48287166513082408 -0.1152012235004482 0 0.46878590001808501 -0.1089224495551733 0 0.4672296206109488 -0.12713301205304001 0 0.48287166513082408 -0.1152012235004482 0 0.5 -0.097417876196813191 0 0.5 -0.12648091097781661 0 0.48287166513082408 -0.1152012235004482 0 0.5 -0.097417876196813191 0 0.47972500117609179 -0.092645497983557187 0 0.48287166513082408 -0.1152012235004482 0 0.46878590001808501 -0.1089224495551733 0 0.47972500117609179 -0.092645497983557187 0 0.46878590001808501 -0.1089224495551733 0 0.47972500117609179 -0.092645497983557187 0 0.46163345805781508 -0.085751109144482057 0 0.47972500117609179 -0.092645497983557187 0 0.48670069479932337 -0.074853094125379216 0 0.46956930578928041 -0.069558504936913956 0 0.47972500117609179 -0.092645497983557187 0 0.46956930578928041 -0.069558504936913956 0 0.46163345805781508 -0.085751109144482057 0 0.5 -0.097417876196813191 0 0.47972500117609179 -0.092645497983557187 0 0.48670069479932337 -0.074853094125379216 0 0.5 -0.097417876196813191 0 0.5 -0.068354841415809831 0 0.48670069479932337 -0.074853094125379216 0 0.47454482788370228 -0.052226992863308792 0 0.5 -0.068354841415809831 0 0.48670069479932337 -0.074853094125379216 0 0.47454482788370228 -0.052226992863308792 0 0.48670069479932337 -0.074853094125379216 0 0.47454482788370228 -0.052226992863308792 0 0.48670069479932337 -0.074853094125379216 0 0.46956930578928041 -0.069558504936913956 0 0.44085987913227509 -0.052316537407257779 0 0.45116667184596698 -0.069733818092773264 0 0.43568204645943448 -0.084491274314075868 0 0.45652464332602238 -0.048413555844038281 0 0.46956930578928041 -0.069558504936913956 0 0.45116667184596698 -0.069733818092773264 0 0.46956930578928041 -0.069558504936913956 0 0.45116667184596698 -0.069733818092773264 0 0.46163345805781508 -0.085751109144482057 0 0.45116667184596698 -0.069733818092773264 0 0.46163345805781508 -0.085751109144482057 0 0.43568204645943448 -0.084491274314075868 0 0.46163345805781508 -0.085751109144482057 0 0.45474300830245151 -0.1019493184894741 0 0.43568204645943448 -0.084491274314075868 0 0.46878590001808501 -0.1089224495551733 0 0.46163345805781508 -0.085751109144482057 0 0.45474300830245151 -0.1019493184894741 0 0.44057019976706191 -0.11383984056868091 0 0.43568204645943448 -0.084491274314075868 0 0.45474300830245151 -0.1019493184894741 0 0.44057019976706191 -0.11383984056868091 0 0.43568204645943448 -0.084491274314075868 0 0.45474300830245151 -0.1019493184894741 0 0.44057019976706191 -0.11383984056868091 0 0.45267084610351382 -0.1216238107203409 0 0.46878590001808501 -0.1089224495551733 0 0.45267084610351382 -0.1216238107203409 0 0.4672296206109488 -0.12713301205304001 0 0.46878590001808501 -0.1089224495551733 0 0.45474300830245151 -0.1019493184894741 0 0.45267084610351382 -0.1216238107203409 0 0.40919418099907767 -0.1118119956686487 0 0.4146927475757558 -0.1240816007311262 0 0.40261322636911301 -0.12319800757665809 0 0.40919418099907767 -0.1118119956686487 0 0.4146927475757558 -0.1240816007311262 0 0.42398553826527929 -0.10864166177241789 0 0.4146927475757558 -0.1240816007311262 0 0.42563933781448932 -0.1238972430644575 0 0.42398553826527929 -0.10864166177241789 0 0.44057019976706191 -0.11383984056868091 0 0.42563933781448932 -0.1238972430644575 0 0.42985566358638339 -0.13586031256228451 0 0.44057019976706191 -0.11383984056868091 0 0.42563933781448932 -0.1238972430644575 0 0.42398553826527929 -0.10864166177241789 0 0.42398553826527929 -0.10864166177241789 0 0.41813471697585691 -0.093728016287518118 0 0.43568204645943448 -0.084491274314075868 0 0.44057019976706191 -0.11383984056868091 0 0.42398553826527929 -0.10864166177241789 0 0.43568204645943448 -0.084491274314075868 0 0.40919418099907767 -0.1118119956686487 0 0.41813471697585691 -0.093728016287518118 0 0.39587863219299879 -0.1033300326142752 0 0.40919418099907767 -0.1118119956686487 0 0.42398553826527929 -0.10864166177241789 0 0.41813471697585691 -0.093728016287518118 0 0.44085987913227509 -0.052316537407257779 0 0.43568204645943448 -0.084491274314075868 0 0.42385729785881099 -0.057685267882326433 0 0.41813471697585691 -0.093728016287518118 0 0.40890606782066119 -0.081423371898608293 0 0.40034628459709171 -0.086695301624749144 0 0.41813471697585691 -0.093728016287518118 0 0.40890606782066119 -0.081423371898608293 0 0.41632615746010809 -0.074864450899531837 0 0.41813471697585691 -0.093728016287518118 0 0.43568204645943448 -0.084491274314075868 0 0.41632615746010809 -0.074864450899531837 0 0.43568204645943448 -0.084491274314075868 0 0.41632615746010809 -0.074864450899531837 0 0.42385729785881099 -0.057685267882326433 0 0.41632615746010809 -0.074864450899531837 0 0.42385729785881099 -0.057685267882326433 0 0.40758663568507669 -0.05979159452420562 0 0.40890606782066119 -0.081423371898608293 0 0.41632615746010809 -0.074864450899531837 0 0.40526144800522179 -0.071021808490668359 0 0.41632615746010809 -0.074864450899531837 0 0.40526144800522179 -0.071021808490668359 0 0.40758663568507669 -0.05979159452420562 0 0.40133555080435113 -0.064162482682774538 0 0.39371796485857402 -0.064553775206941999 0 0.40758663568507669 -0.05979159452420562 0 0.40133555080435113 -0.064162482682774538 0 0.40526144800522179 -0.071021808490668359 0 0.40758663568507669 -0.05979159452420562 0 0.40133555080435113 -0.064162482682774538 0 0.40526144800522179 -0.071021808490668359 0 0.39778643991016871 -0.069413555335449156 0 0.40133555080435113 -0.064162482682774538 0 0.39778643991016871 -0.069413555335449156 0 0.39722233183287958 -0.065553898149813508 0 0.40526144800522179 -0.071021808490668359 0 0.39912117065582492 -0.07734401243001704 0 0.39778643991016871 -0.069413555335449156 0 0.40890606782066119 -0.081423371898608293 0 0.40526144800522179 -0.071021808490668359 0 0.39912117065582492 -0.07734401243001704 0 0.39187154671054059 -0.074098780074509929 0 0.3951495708280407 -0.068405002191678638 0 0.39778643991016871 -0.069413555335449156 0 0.39912117065582492 -0.07734401243001704 0 0.39187154671054059 -0.074098780074509929 0 0.3905552368912657 -0.081411257156117411 0 0.39912117065582492 -0.07734401243001704 0 0.39187154671054059 -0.074098780074509929 0 0.39778643991016871 -0.069413555335449156 0 0.39187154671054059 -0.074098780074509929 0 0.3951495708280407 -0.068405002191678638 0 0.39371796485857402 -0.064553775206941999 0 0.3951495708280407 -0.068405002191678638 0 0.39778643991016871 -0.069413555335449156 0 0.39722233183287958 -0.065553898149813508 0 0.40133555080435113 -0.064162482682774538 0 0.39722233183287958 -0.065553898149813508 0 0.39371796485857402 -0.064553775206941999 0 0.3951495708280407 -0.068405002191678638 0 0.39722233183287958 -0.065553898149813508 0 0.39371796485857402 -0.064553775206941999 0 0.39371796485857402 -0.064553775206941999 0 0.37374105951913261 -0.081110037925620215 0 0.39371796485857402 -0.064553775206941999 0 0.3751130057070009 -0.085732435475734503 0 0.37374105951913261 -0.081110037925620215 0 0.39187154671054059 -0.074098780074509929 0 0.39371796485857402 -0.064553775206941999 0 0.3751130057070009 -0.085732435475734503 0 0.38207097684961472 -0.066842248694626655 0 0.37721822141984568 -0.064298563505272896 0 0.37374105951913261 -0.081110037925620215 0 0.39371796485857402 -0.064553775206941999 0 0.3751130057070009 -0.085732435475734503 0 0.39371796485857402 -0.064553775206941999 0 0.38207097684961472 -0.066842248694626655 0 0.38423079938881488 -0.058426932008753103 0 0.39371796485857402 -0.064553775206941999 0 0.38207097684961472 -0.066842248694626655 0 0.37374105951913261 -0.081110037925620215 0 0.38207097684961472 -0.066842248694626655 0 0.37721822141984568 -0.064298563505272896 0 0.38423079938881488 -0.058426932008753103 0 0.39187154671054059 -0.074098780074509929 0 0.3905552368912657 -0.081411257156117411 0 0.3751130057070009 -0.085732435475734503 0 0.3751130057070009 -0.085732435475734503 0 0.38843392378503488 -0.092059661637603624 0 0.38027645953681688 -0.1031292813171419 0 0.3905552368912657 -0.081411257156117411 0 0.3751130057070009 -0.085732435475734503 0 0.38843392378503488 -0.092059661637603624 0 0.3905552368912657 -0.081411257156117411 0 0.38843392378503488 -0.092059661637603624 0 0.40034628459709171 -0.086695301624749144 0 0.39912117065582492 -0.07734401243001704 0 0.3905552368912657 -0.081411257156117411 0 0.40034628459709171 -0.086695301624749144 0 0.40890606782066119 -0.081423371898608293 0 0.39912117065582492 -0.07734401243001704 0 0.40034628459709171 -0.086695301624749144 0 0.38843392378503488 -0.092059661637603624 0 0.40034628459709171 -0.086695301624749144 0 0.39587863219299879 -0.1033300326142752 0 0.41813471697585691 -0.093728016287518118 0 0.40034628459709171 -0.086695301624749144 0 0.39587863219299879 -0.1033300326142752 0 0.3751130057070009 -0.085732435475734503 0 0.38027645953681688 -0.1031292813171419 0 0.39587863219299879 -0.1033300326142752 0 0.38027645953681688 -0.1031292813171419 0 0.38543991336663258 -0.12052612715854941 0 0.38843392378503488 -0.092059661637603624 0 0.39587863219299879 -0.1033300326142752 0 0.38027645953681688 -0.1031292813171419 0 0.38027645953681688 -0.1031292813171419 0 0.38543991336663258 -0.12052612715854941 0 0.3682462871600341 -0.11777968654349071 0 0.38543991336663258 -0.12052612715854941 0 0.3682462871600341 -0.11777968654349071 0 0.37641656811912783 -0.130582952218537 0 0.38027645953681688 -0.1031292813171419 0 0.38543991336663258 -0.12052612715854941 0 0.38543991336663258 -0.12052612715854941 0 0.39838084890283088 -0.11446124417926359 0 0.40261322636911301 -0.12319800757665809 0 0.39587863219299879 -0.1033300326142752 0 0.38543991336663258 -0.12052612715854941 0 0.39838084890283088 -0.11446124417926359 0 0.40919418099907767 -0.1118119956686487 0 0.39587863219299879 -0.1033300326142752 0 0.39838084890283088 -0.11446124417926359 0 0.40919418099907767 -0.1118119956686487 0 0.39838084890283088 -0.11446124417926359 0 0.40261322636911301 -0.12319800757665809 0 0.41542363023566542 -0.029910290882464479 0 0.41063027721311718 -0.023615605383072339 0 0.3991134159738316 -0.030487202135540091 0 0.41063027721311718 -0.023615605383072339 0 0.409325379867992 -0.014772019570520691 0 0.3991134159738316 -0.030487202135540091 0 0.41865868277497997 -0.01929290894376413 0 0.41542363023566542 -0.029910290882464479 0 0.41063027721311718 -0.023615605383072339 0 0.41865868277497997 -0.01929290894376413 0 0.41063027721311718 -0.023615605383072339 0 0.409325379867992 -0.014772019570520691 0 0.409325379867992 -0.014772019570520691 0 0.40843557627867583 -0.011132996558769681 0 0.41714477266142319 -0.01095484375072352 0 0.40442364275137582 0.0052745776550867512 0 0.40843557627867583 -0.011132996558769681 0 0.41843192874221458 0.0096209332461761627 0 0.40843557627867583 -0.011132996558769681 0 0.41843192874221458 0.0096209332461761627 0 0.40843557627867583 -0.011132996558769681 0 0.42034696321544462 -0.002664540476162049 0 0.409325379867992 -0.014772019570520691 0 0.40843557627867583 -0.011132996558769681 0 0.40843557627867583 -0.011132996558769681 0 0.42034696321544462 -0.002664540476162049 0 0.41714477266142319 -0.01095484375072352 0 0.41865868277497997 -0.01929290894376413 0 0.409325379867992 -0.014772019570520691 0 0.41714477266142319 -0.01095484375072352 0 0.41865868277497997 -0.01929290894376413 0 0.41714477266142319 -0.01095484375072352 0 0.4289882169991629 -0.0081485236485014483 0 0.42034696321544462 -0.002664540476162049 0 0.41714477266142319 -0.01095484375072352 0 0.4289882169991629 -0.0081485236485014483 0 0.42873432139574669 0.0072927283310082478 0 0.42034696321544462 -0.002664540476162049 0 0.4289882169991629 -0.0081485236485014483 0 0.4378746588432762 0.0019998969658650899 0 0.44033927495731978 -0.0056285445939013466 0 0.4289882169991629 -0.0081485236485014483 0 0.44034656523557381 -0.01162279785631142 0 0.44033927495731978 -0.0056285445939013466 0 0.4289882169991629 -0.0081485236485014483 0 0.41865868277497997 -0.01929290894376413 0 0.41542363023566542 -0.029910290882464479 0 0.43179936217373049 -0.028380308165338559 0 0.44034656523557381 -0.01162279785631142 0 0.4289882169991629 -0.0081485236485014483 0 0.43179936217373049 -0.028380308165338559 0 0.41865868277497997 -0.01929290894376413 0 0.4289882169991629 -0.0081485236485014483 0 0.43179936217373049 -0.028380308165338559 0 0.43179936217373049 -0.028380308165338559 0 0.41244659462219813 -0.045956884752099442 0 0.43179936217373049 -0.028380308165338559 0 0.42385729785881099 -0.057685267882326433 0 0.41244659462219813 -0.045956884752099442 0 0.44085987913227509 -0.052316537407257779 0 0.43179936217373049 -0.028380308165338559 0 0.42385729785881099 -0.057685267882326433 0 0.42385729785881099 -0.057685267882326433 0 0.40758663568507669 -0.05979159452420562 0 0.41244659462219813 -0.045956884752099442 0 0.41542363023566542 -0.029910290882464479 0 0.43179936217373049 -0.028380308165338559 0 0.41244659462219813 -0.045956884752099442 0 0.41542363023566542 -0.029910290882464479 0 0.41244659462219813 -0.045956884752099442 0 0.3991134159738316 -0.030487202135540091 0 0.38979125566898748 -0.049841407712310513 0 0.3991134159738316 -0.030487202135540091 0 0.41244659462219813 -0.045956884752099442 0 0.38979125566898748 -0.049841407712310513 0 0.3991134159738316 -0.030487202135540091 0 0.39371796485857402 -0.064553775206941999 0 0.41244659462219813 -0.045956884752099442 0 0.39371796485857402 -0.064553775206941999 0 0.41244659462219813 -0.045956884752099442 0 0.38979125566898748 -0.049841407712310513 0 0.39371796485857402 -0.064553775206941999 0 0.40758663568507669 -0.05979159452420562 0 0.41244659462219813 -0.045956884752099442 0 0.39371796485857402 -0.064553775206941999 0 0.38423079938881488 -0.058426932008753103 0 0.38979125566898748 -0.049841407712310513 0 0.38423079938881488 -0.058426932008753103 0 0.38979125566898748 -0.049841407712310513 0 0.37724231368770639 -0.04870612718891737 0 0.37721822141984568 -0.064298563505272896 0 0.38423079938881488 -0.058426932008753103 0 0.37636022130516772 -0.057246420856459063 0 0.38423079938881488 -0.058426932008753103 0 0.37724231368770639 -0.04870612718891737 0 0.37636022130516772 -0.057246420856459063 0 0.38979125566898748 -0.049841407712310513 0 0.37724231368770639 -0.04870612718891737 0 0.3802475533575394 -0.033745099670165778 0 0.38979125566898748 -0.049841407712310513 0 0.3802475533575394 -0.033745099670165778 0 0.3991134159738316 -0.030487202135540091 0 0.37724231368770639 -0.04870612718891737 0 0.3802475533575394 -0.033745099670165778 0 0.37109009775961738 -0.040213838624253803 0 0.3802475533575394 -0.033745099670165778 0 0.38348208419736851 -0.017412673190290471 0 0.37145302909906158 -0.02706582201912763 0 0.3802475533575394 -0.033745099670165778 0 0.38348208419736851 -0.017412673190290471 0 0.3991134159738316 -0.030487202135540091 0 0.40843557627867583 -0.011132996558769681 0 0.3991134159738316 -0.030487202135540091 0 0.39781309913390028 -0.017938728668410179 0 0.38348208419736851 -0.017412673190290471 0 0.3991134159738316 -0.030487202135540091 0 0.39781309913390028 -0.017938728668410179 0 0.409325379867992 -0.014772019570520691 0 0.40843557627867583 -0.011132996558769681 0 0.3991134159738316 -0.030487202135540091 0 0.40843557627867583 -0.011132996558769681 0 0.3991134159738316 -0.030487202135540091 0 0.40442364275137582 0.0052745776550867512 0 0.40843557627867583 -0.011132996558769681 0 0.40013229690593199 -0.0038961027493012502 0 0.40843557627867583 -0.011132996558769681 0 0.39781309913390028 -0.017938728668410179 0 0.40040040713219011 -0.010570133674618979 0 0.40843557627867583 -0.011132996558769681 0 0.40013229690593199 -0.0038961027493012502 0 0.40040040713219011 -0.010570133674618979 0 0.38348208419736851 -0.017412673190290471 0 0.39781309913390028 -0.017938728668410179 0 0.39301275335799279 -0.0069641241433856336 0 0.39781309913390028 -0.017938728668410179 0 0.40040040713219011 -0.010570133674618979 0 0.39301275335799279 -0.0069641241433856336 0 0.39381413030831619 0.0045237730216941092 0 0.40013229690593199 -0.0038961027493012502 0 0.39301275335799279 -0.0069641241433856336 0 0.40013229690593199 -0.0038961027493012502 0 0.40040040713219011 -0.010570133674618979 0 0.39301275335799279 -0.0069641241433856336 0 0.38112383196394201 0.0038196551432573039 0 0.38348208419736851 -0.017412673190290471 0 0.39301275335799279 -0.0069641241433856336 0 0.38112383196394201 0.0038196551432573039 0 0.38348208419736851 -0.017412673190290471 0 0.36390872345592179 -0.012123251129401109 0 0.38112383196394201 0.0038196551432573039 0 0.36390872345592179 -0.012123251129401109 0 0.37275790797876851 0.010516135893525231 0 0.36390872345592179 -0.012123251129401109 0 0.3479657029097607 -0.0024300371965174389 0 0.38348208419736851 -0.017412673190290471 0 0.36390872345592179 -0.012123251129401109 0 0.37145302909906158 -0.02706582201912763 0 0.36390872345592179 -0.012123251129401109 0 0.37145302909906158 -0.02706582201912763 0 0.35975804192947552 -0.033998083520165367 0 0.36390872345592179 -0.012123251129401109 0 0.34910359076991421 -0.015741647425449541 0 0.34669361494790157 -0.028066157402059571 0 0.36390872345592179 -0.012123251129401109 0 0.34669361494790157 -0.028066157402059571 0 0.35975804192947552 -0.033998083520165367 0 0.36390872345592179 -0.012123251129401109 0 0.34669361494790157 -0.028066157402059571 0 0.34910359076991421 -0.015741647425449541 0 0.34669361494790157 -0.028066157402059571 0 0.33872210467482128 -0.023219550435617641 0 0.34910359076991421 -0.015741647425449541 0 0.3479657029097607 -0.0024300371965174389 0 0.33872210467482128 -0.023219550435617641 0 0.36390872345592179 -0.012123251129401109 0 0.34910359076991421 -0.015741647425449541 0 0.3479657029097607 -0.0024300371965174389 0 0.33658577833022779 0.0080623827189060058 0 0.31890639314761021 0.001858299874506916 0 0.33198951290049422 -0.010772599731941741 0 0.3479657029097607 -0.0024300371965174389 0 0.33198951290049422 -0.010772599731941741 0 0.33872210467482128 -0.023219550435617641 0 0.3479657029097607 -0.0024300371965174389 0 0.33198951290049422 -0.010772599731941741 0 0.3479657029097607 -0.0024300371965174389 0 0.33872210467482128 -0.023219550435617641 0 0.33658577833022779 0.0080623827189060058 0 0.3479657029097607 -0.0024300371965174389 0 0.33198951290049422 -0.010772599731941741 0 0.33198951290049422 -0.010772599731941741 0 0.33872210467482128 -0.023219550435617641 0 0.32636293096431318 -0.030174054207075258 0 0.3160133228912293 -0.019115162267369219 0 0.31362732957183881 -0.03641254398311386 0 0.3160133228912293 -0.019115162267369219 0 0.31362732957183881 -0.03641254398311386 0 0.3102392233643283 -0.02213032335151802 0 0.32636293096431318 -0.030174054207075258 0 0.3160133228912293 -0.019115162267369219 0 0.31362732957183881 -0.03641254398311386 0 0.33198951290049422 -0.010772599731941741 0 0.32636293096431318 -0.030174054207075258 0 0.3160133228912293 -0.019115162267369219 0 0.3160133228912293 -0.019115162267369219 0 0.3102392233643283 -0.02213032335151802 0 0.31890639314761021 0.001858299874506916 0 0.3160133228912293 -0.019115162267369219 0 0.33198951290049422 -0.010772599731941741 0 0.3160133228912293 -0.019115162267369219 0 0.31890639314761021 0.001858299874506916 0 0.3160133228912293 -0.019115162267369219 0 0.3055889252128855 -0.0025274596471978501 0 0.31890639314761021 0.001858299874506916 0 0.33198951290049422 -0.010772599731941741 0 0.3160133228912293 -0.019115162267369219 0 0.31795997445641849 -0.054676372319646532 0 0.31362732957183881 -0.03641254398311386 0 0.31010452438234709 -0.061951302024687849 0 0.31795997445641849 -0.054676372319646532 0 0.32947850643988053 -0.044009063674717068 0 0.32539420119948231 -0.053194958140226671 0 0.31795997445641849 -0.054676372319646532 0 0.32947850643988053 -0.044009063674717068 0 0.32539420119948231 -0.053194958140226671 0 0.32947850643988053 -0.044009063674717068 0 0.32539420119948231 -0.053194958140226671 0 0.32414697735197279 -0.059329753512177473 0 0.32951667796395351 -0.05785179176588328 0 0.32414697735197279 -0.059329753512177473 0 0.32760304242171889 -0.062927006484053666 0 0.32160246957868038 -0.063421848174058132 0 0.32414697735197279 -0.059329753512177473 0 0.32951667796395351 -0.05785179176588328 0 0.32760304242171889 -0.062927006484053666 0 0.32414697735197279 -0.059329753512177473 0 0.32023177540405767 -0.058597080635606313 0 0.32160246957868038 -0.063421848174058132 0 0.32539420119948231 -0.053194958140226671 0 0.32414697735197279 -0.059329753512177473 0 0.32023177540405767 -0.058597080635606313 0 0.32539420119948231 -0.053194958140226671 0 0.31795997445641849 -0.054676372319646532 0 0.32023177540405767 -0.058597080635606313 0 0.31795997445641849 -0.054676372319646532 0 0.32023177540405767 -0.058597080635606313 0 0.31664509321580719 -0.061325281442993797 0 0.31795997445641849 -0.054676372319646532 0 0.31664509321580719 -0.061325281442993797 0 0.31010452438234709 -0.061951302024687849 0 0.31795997445641849 -0.054676372319646532 0 0.31010452438234709 -0.061951302024687849 0 0.32023177540405767 -0.058597080635606313 0 0.31664509321580719 -0.061325281442993797 0 0.32160246957868038 -0.063421848174058132 0 0.32636293096431318 -0.030174054207075258 0 0.31362732957183881 -0.03641254398311386 0 0.32947850643988053 -0.044009063674717068 0 0.31795997445641849 -0.054676372319646532 0 0.31362732957183881 -0.03641254398311386 0 0.32947850643988053 -0.044009063674717068 0 0.31795997445641849 -0.054676372319646532 0 0.31362732957183881 -0.03641254398311386 0 0.32947850643988053 -0.044009063674717068 0 0.33969074610691652 -0.042356468804712541 0 0.33615197661194779 -0.052345343618500538 0 0.34669361494790157 -0.028066157402059571 0 0.32947850643988053 -0.044009063674717068 0 0.33969074610691652 -0.042356468804712541 0 0.34669361494790157 -0.028066157402059571 0 0.32947850643988053 -0.044009063674717068 0 0.33872210467482128 -0.023219550435617641 0 0.32947850643988053 -0.044009063674717068 0 0.34669361494790157 -0.028066157402059571 0 0.33872210467482128 -0.023219550435617641 0 0.32947850643988053 -0.044009063674717068 0 0.33872210467482128 -0.023219550435617641 0 0.32636293096431318 -0.030174054207075258 0 0.32947850643988053 -0.044009063674717068 0 0.33969074610691652 -0.042356468804712541 0 0.33615197661194779 -0.052345343618500538 0 0.34643888642793491 -0.045005310523572033 0 0.33615197661194779 -0.052345343618500538 0 0.34551813299141632 -0.05309655881717272 0 0.34643888642793491 -0.045005310523572033 0 0.32539420119948231 -0.053194958140226671 0 0.33615197661194779 -0.052345343618500538 0 0.32951667796395351 -0.05785179176588328 0 0.32539420119948231 -0.053194958140226671 0 0.32947850643988053 -0.044009063674717068 0 0.33615197661194779 -0.052345343618500538 0 0.33615197661194779 -0.052345343618500538 0 0.32951667796395351 -0.05785179176588328 0 0.33428719223464559 -0.061461897074458052 0 0.32951667796395351 -0.05785179176588328 0 0.33428719223464559 -0.061461897074458052 0 0.32760304242171889 -0.062927006484053666 0 0.33615197661194779 -0.052345343618500538 0 0.34271188420596949 -0.061018646473247701 0 0.34551813299141632 -0.05309655881717272 0 0.33615197661194779 -0.052345343618500538 0 0.33428719223464559 -0.061461897074458052 0 0.34271188420596949 -0.061018646473247701 0 0.34271188420596949 -0.061018646473247701 0 0.34551813299141632 -0.05309655881717272 0 0.35525321957175687 -0.063379322838877233 0 0.34551813299141632 -0.05309655881717272 0 0.35384272317769372 -0.052267274638003319 0 0.35525321957175687 -0.063379322838877233 0 0.34551813299141632 -0.05309655881717272 0 0.35384272317769372 -0.052267274638003319 0 0.34643888642793491 -0.045005310523572033 0 0.35384272317769372 -0.052267274638003319 0 0.34643888642793491 -0.045005310523572033 0 0.35469656344146189 -0.04337817736133863 0 0.35384272317769372 -0.052267274638003319 0 0.35469656344146189 -0.04337817736133863 0 0.36674955072430382 -0.057554060722892861 0 0.35384272317769372 -0.052267274638003319 0 0.36674955072430382 -0.057554060722892861 0 0.35525321957175687 -0.063379322838877233 0 0.34669361494790157 -0.028066157402059571 0 0.34643888642793491 -0.045005310523572033 0 0.35469656344146189 -0.04337817736133863 0 0.34669361494790157 -0.028066157402059571 0 0.33969074610691652 -0.042356468804712541 0 0.34643888642793491 -0.045005310523572033 0 0.34669361494790157 -0.028066157402059571 0 0.35469656344146189 -0.04337817736133863 0 0.35975804192947552 -0.033998083520165367 0 0.35469656344146189 -0.04337817736133863 0 0.35975804192947552 -0.033998083520165367 0 0.36674955072430382 -0.057554060722892861 0 0.35975804192947552 -0.033998083520165367 0 0.36674955072430382 -0.057554060722892861 0 0.35975804192947552 -0.033998083520165367 0 0.37109009775961738 -0.040213838624253803 0 0.36674955072430382 -0.057554060722892861 0 0.37145302909906158 -0.02706582201912763 0 0.35975804192947552 -0.033998083520165367 0 0.37109009775961738 -0.040213838624253803 0 0.3802475533575394 -0.033745099670165778 0 0.37145302909906158 -0.02706582201912763 0 0.37109009775961738 -0.040213838624253803 0 0.37724231368770639 -0.04870612718891737 0 0.37109009775961738 -0.040213838624253803 0 0.36674955072430382 -0.057554060722892861 0 0.37724231368770639 -0.04870612718891737 0 0.37636022130516772 -0.057246420856459063 0 0.36674955072430382 -0.057554060722892861 0 0.37721822141984568 -0.064298563505272896 0 0.37636022130516772 -0.057246420856459063 0 0.36674955072430382 -0.057554060722892861 0 0.37721822141984568 -0.064298563505272896 0 0.36674955072430382 -0.057554060722892861 0 0.37374105951913261 -0.081110037925620215 0 0.36674955072430382 -0.057554060722892861 0 0.3668054812428645 -0.071495133823090848 0 0.37374105951913261 -0.081110037925620215 0 0.36674955072430382 -0.057554060722892861 0 0.37374105951913261 -0.081110037925620215 0 0.36674955072430382 -0.057554060722892861 0 0.3668054812428645 -0.071495133823090848 0 0.35525321957175687 -0.063379322838877233 0 0.3751130057070009 -0.085732435475734503 0 0.36304356594871251 -0.099471490863759782 0 0.35758944839013668 -0.095779259227042821 0 0.3668054812428645 -0.071495133823090848 0 0.35758944839013668 -0.095779259227042821 0 0.3751130057070009 -0.085732435475734503 0 0.37374105951913261 -0.081110037925620215 0 0.35758944839013668 -0.095779259227042821 0 0.3668054812428645 -0.071495133823090848 0 0.37374105951913261 -0.081110037925620215 0 0.35758944839013668 -0.095779259227042821 0 0.37374105951913261 -0.081110037925620215 0 0.35758944839013668 -0.095779259227042821 0 0.3751130057070009 -0.085732435475734503 0 0.37374105951913261 -0.081110037925620215 0 0.3751130057070009 -0.085732435475734503 0 0.36304356594871251 -0.099471490863759782 0 0.3668054812428645 -0.071495133823090848 0 0.35310458746355672 -0.083785075654806807 0 0.35758944839013668 -0.095779259227042821 0 0.35310458746355672 -0.083785075654806807 0 0.35758944839013668 -0.095779259227042821 0 0.34453518798717642 -0.095362804736782228 0 0.35310458746355672 -0.083785075654806807 0 0.34453518798717642 -0.095362804736782228 0 0.34274751159657019 -0.085806357538208811 0 0.35310458746355672 -0.083785075654806807 0 0.34750342683550528 -0.076934796392801374 0 0.34274751159657019 -0.085806357538208811 0 0.34750342683550528 -0.076934796392801374 0 0.34757755623431102 -0.068273253414111459 0 0.35523871581211192 -0.072549724563525167 0 0.34750342683550528 -0.076934796392801374 0 0.34757755623431102 -0.068273253414111459 0 0.34108678975915702 -0.072502068425317978 0 0.34271188420596949 -0.061018646473247701 0 0.34757755623431102 -0.068273253414111459 0 0.35525321957175687 -0.063379322838877233 0 0.3668054812428645 -0.071495133823090848 0 0.35525321957175687 -0.063379322838877233 0 0.35523871581211192 -0.072549724563525167 0 0.34757755623431102 -0.068273253414111459 0 0.35525321957175687 -0.063379322838877233 0 0.35523871581211192 -0.072549724563525167 0 0.35310458746355672 -0.083785075654806807 0 0.34750342683550528 -0.076934796392801374 0 0.35523871581211192 -0.072549724563525167 0 0.3668054812428645 -0.071495133823090848 0 0.35310458746355672 -0.083785075654806807 0 0.35523871581211192 -0.072549724563525167 0 0.3682462871600341 -0.11777968654349071 0 0.36304356594871251 -0.099471490863759782 0 0.35097412619042478 -0.1132105462517858 0 0.3682462871600341 -0.11777968654349071 0 0.35558431583869687 -0.12533256933512829 0 0.3641226395341462 -0.1315275243055109 0 0.3751130057070009 -0.085732435475734503 0 0.38027645953681688 -0.1031292813171419 0 0.36304356594871251 -0.099471490863759782 0 0.38027645953681688 -0.1031292813171419 0 0.3682462871600341 -0.11777968654349071 0 0.36304356594871251 -0.099471490863759782 0 0.36304356594871251 -0.099471490863759782 0 0.35758944839013668 -0.095779259227042821 0 0.35097412619042478 -0.1132105462517858 0 0.35758944839013668 -0.095779259227042821 0 0.35097412619042478 -0.1132105462517858 0 0.35758944839013668 -0.095779259227042821 0 0.34605693620843458 -0.1062533210406658 0 0.35097412619042478 -0.1132105462517858 0 0.35758944839013668 -0.095779259227042821 0 0.34605693620843458 -0.1062533210406658 0 0.35758944839013668 -0.095779259227042821 0 0.34453518798717642 -0.095362804736782228 0 0.34605693620843458 -0.1062533210406658 0 0.36304356594871251 -0.099471490863759782 0 0.35097412619042478 -0.1132105462517858 0 0.35097412619042478 -0.1132105462517858 0 0.34363338976240387 -0.13255329023111839 0 0.35558431583869687 -0.12533256933512829 0 0.3682462871600341 -0.11777968654349071 0 0.35097412619042478 -0.1132105462517858 0 0.35558431583869687 -0.12533256933512829 0 0.35097412619042478 -0.1132105462517858 0 0.34363338976240387 -0.13255329023111839 0 0.35097412619042478 -0.1132105462517858 0 0.3410040121887763 -0.1245598674495334 0 0.34363338976240387 -0.13255329023111839 0 0.34605693620843458 -0.1062533210406658 0 0.35097412619042478 -0.1132105462517858 0 0.34313987465359219 -0.1151877793990683 0 0.35097412619042478 -0.1132105462517858 0 0.3410040121887763 -0.1245598674495334 0 0.34313987465359219 -0.1151877793990683 0 0.35097412619042478 -0.1132105462517858 0 0.3410040121887763 -0.1245598674495334 0 0.3410040121887763 -0.1245598674495334 0 0.34313987465359219 -0.1151877793990683 0 0.3345244240267321 -0.11672738285428851 0 0.3410040121887763 -0.1245598674495334 0 0.3345244240267321 -0.11672738285428851 0 0.34605693620843458 -0.1062533210406658 0 0.34313987465359219 -0.1151877793990683 0 0.3345244240267321 -0.11672738285428851 0 0.34605693620843458 -0.1062533210406658 0 0.3345244240267321 -0.11672738285428851 0 0.3345244240267321 -0.11672738285428851 0 0.33282894387665868 -0.1047951398596281 0 0.32148459133704332 -0.1007258965294955 0 0.34453518798717642 -0.095362804736782228 0 0.34605693620843458 -0.1062533210406658 0 0.33282894387665868 -0.1047951398596281 0 0.34605693620843458 -0.1062533210406658 0 0.3345244240267321 -0.11672738285428851 0 0.33282894387665868 -0.1047951398596281 0 0.34453518798717642 -0.095362804736782228 0 0.33282894387665868 -0.1047951398596281 0 0.3342611115987229 -0.092828437246176593 0 0.33282894387665868 -0.1047951398596281 0 0.3284362693673013 -0.099193486717697177 0 0.3342611115987229 -0.092828437246176593 0 0.3284362693673013 -0.099193486717697177 0 0.32952735405035222 -0.094025440126564733 0 0.3342611115987229 -0.092828437246176593 0 0.32148459133704332 -0.1007258965294955 0 0.3071184245910098 -0.083599186581727047 0 0.31173189284044511 -0.1020207151795537 0 0.3345244240267321 -0.11672738285428851 0 0.32148459133704332 -0.1007258965294955 0 0.3284362693673013 -0.099193486717697177 0 0.32952735405035222 -0.094025440126564733 0 0.32575894221782492 -0.093391625468209574 0 0.3284362693673013 -0.099193486717697177 0 0.32148459133704332 -0.1007258965294955 0 0.32575894221782492 -0.093391625468209574 0 0.32148459133704332 -0.1007258965294955 0 0.32073477799769962 -0.1142940979797626 0 0.31202951444555321 -0.11129331199032561 0 0.32148459133704332 -0.1007258965294955 0 0.31202951444555321 -0.11129331199032561 0 0.31173189284044511 -0.1020207151795537 0 0.33282894387665868 -0.1047951398596281 0 0.3284362693673013 -0.099193486717697177 0 0.32148459133704332 -0.1007258965294955 0 0.3345244240267321 -0.11672738285428851 0 0.32073477799769962 -0.1142940979797626 0 0.31754961397010362 -0.1279297110207635 0 0.3345244240267321 -0.11672738285428851 0 0.32148459133704332 -0.1007258965294955 0 0.32073477799769962 -0.1142940979797626 0 0.32073477799769962 -0.1142940979797626 0 0.31399309307936762 -0.1195896428898832 0 0.31202951444555321 -0.11129331199032561 0 0.32073477799769962 -0.1142940979797626 0 0.31399309307936762 -0.1195896428898832 0 0.31754961397010362 -0.1279297110207635 0 0.31399309307936762 -0.1195896428898832 0 0.31044142209949521 -0.1245786018676444 0 0.31754961397010362 -0.1279297110207635 0 0.33374811168501561 -0.077820988224732865 0 0.33260772107545927 -0.069453139482011955 0 0.34108678975915702 -0.072502068425317978 0 0.33374811168501561 -0.077820988224732865 0 0.3284773894656825 -0.073864106319736125 0 0.33260772107545927 -0.069453139482011955 0 0.33374811168501561 -0.077820988224732865 0 0.3284773894656825 -0.073864106319736125 0 0.3263407590045263 -0.079683750156796948 0 0.3284773894656825 -0.073864106319736125 0 0.33260772107545927 -0.069453139482011955 0 0.32497814538517161 -0.067994537549679046 0 0.33260772107545927 -0.069453139482011955 0 0.32760304242171889 -0.062927006484053666 0 0.32497814538517161 -0.067994537549679046 0 0.33428719223464559 -0.061461897074458052 0 0.33260772107545927 -0.069453139482011955 0 0.32760304242171889 -0.062927006484053666 0 0.33428719223464559 -0.061461897074458052 0 0.33260772107545927 -0.069453139482011955 0 0.33973441475292199 -0.066332004086914115 0 0.33428719223464559 -0.061461897074458052 0 0.34271188420596949 -0.061018646473247701 0 0.33973441475292199 -0.066332004086914115 0 0.33260772107545927 -0.069453139482011955 0 0.33973441475292199 -0.066332004086914115 0 0.34108678975915702 -0.072502068425317978 0 0.34757755623431102 -0.068273253414111459 0 0.33973441475292199 -0.066332004086914115 0 0.34108678975915702 -0.072502068425317978 0 0.34271188420596949 -0.061018646473247701 0 0.34757755623431102 -0.068273253414111459 0 0.33973441475292199 -0.066332004086914115 0 0.33374811168501561 -0.077820988224732865 0 0.34108678975915702 -0.072502068425317978 0 0.34041119844539502 -0.078944519374725755 0 0.34750342683550528 -0.076934796392801374 0 0.34108678975915702 -0.072502068425317978 0 0.34041119844539502 -0.078944519374725755 0 0.34750342683550528 -0.076934796392801374 0 0.34041119844539502 -0.078944519374725755 0 0.34274751159657019 -0.085806357538208811 0 0.34041119844539502 -0.078944519374725755 0 0.34274751159657019 -0.085806357538208811 0 0.33611043367640547 -0.084463627957539145 0 0.33374811168501561 -0.077820988224732865 0 0.34041119844539502 -0.078944519374725755 0 0.33611043367640547 -0.084463627957539145 0 0.34274751159657019 -0.085806357538208811 0 0.33611043367640547 -0.084463627957539145 0 0.3342611115987229 -0.092828437246176593 0 0.34453518798717642 -0.095362804736782228 0 0.34274751159657019 -0.085806357538208811 0 0.3342611115987229 -0.092828437246176593 0 0.33611043367640547 -0.084463627957539145 0 0.3342611115987229 -0.092828437246176593 0 0.32951460071574479 -0.086938275682689178 0 0.32952735405035222 -0.094025440126564733 0 0.32951460071574479 -0.086938275682689178 0 0.32575894221782492 -0.093391625468209574 0 0.32952735405035222 -0.094025440126564733 0 0.3342611115987229 -0.092828437246176593 0 0.32951460071574479 -0.086938275682689178 0 0.33374811168501561 -0.077820988224732865 0 0.32951460071574479 -0.086938275682689178 0 0.3263407590045263 -0.079683750156796948 0 0.33374811168501561 -0.077820988224732865 0 0.33611043367640547 -0.084463627957539145 0 0.32951460071574479 -0.086938275682689178 0 0.32148459133704332 -0.1007258965294955 0 0.30781168081527122 -0.078573389803361426 0 0.32148459133704332 -0.1007258965294955 0 0.31704797089045789 -0.083063996679801189 0 0.30781168081527122 -0.078573389803361426 0 0.32148459133704332 -0.1007258965294955 0 0.3071184245910098 -0.083599186581727047 0 0.32148459133704332 -0.1007258965294955 0 0.32186690557672731 -0.086303178833660732 0 0.31704797089045789 -0.083063996679801189 0 0.32951460071574479 -0.086938275682689178 0 0.3263407590045263 -0.079683750156796948 0 0.32186690557672731 -0.086303178833660732 0 0.3263407590045263 -0.079683750156796948 0 0.32103881280011592 -0.079800451173821785 0 0.32186690557672731 -0.086303178833660732 0 0.32148459133704332 -0.1007258965294955 0 0.32575894221782492 -0.093391625468209574 0 0.32186690557672731 -0.086303178833660732 0 0.32951460071574479 -0.086938275682689178 0 0.32575894221782492 -0.093391625468209574 0 0.32186690557672731 -0.086303178833660732 0 0.31704797089045789 -0.083063996679801189 0 0.31384939829304948 -0.077204854957470703 0 0.30781168081527122 -0.078573389803361426 0 0.32103881280011592 -0.079800451173821785 0 0.31704797089045789 -0.083063996679801189 0 0.31781237445498789 -0.075474696094991578 0 0.32103881280011592 -0.079800451173821785 0 0.32186690557672731 -0.086303178833660732 0 0.31704797089045789 -0.083063996679801189 0 0.31704797089045789 -0.083063996679801189 0 0.31384939829304948 -0.077204854957470703 0 0.31781237445498789 -0.075474696094991578 0 0.31384939829304948 -0.077204854957470703 0 0.31423936752838683 -0.072070942314389944 0 0.31781237445498789 -0.075474696094991578 0 0.31423936752838683 -0.072070942314389944 0 0.31781237445498789 -0.075474696094991578 0 0.31828781240304099 -0.068043978177319164 0 0.31781237445498789 -0.075474696094991578 0 0.32338567929664191 -0.07341910240352098 0 0.31828781240304099 -0.068043978177319164 0 0.3263407590045263 -0.079683750156796948 0 0.32103881280011592 -0.079800451173821785 0 0.32338567929664191 -0.07341910240352098 0 0.32103881280011592 -0.079800451173821785 0 0.31781237445498789 -0.075474696094991578 0 0.32338567929664191 -0.07341910240352098 0 0.3284773894656825 -0.073864106319736125 0 0.32338567929664191 -0.07341910240352098 0 0.32497814538517161 -0.067994537549679046 0 0.3284773894656825 -0.073864106319736125 0 0.3263407590045263 -0.079683750156796948 0 0.32338567929664191 -0.07341910240352098 0 0.32760304242171889 -0.062927006484053666 0 0.32497814538517161 -0.067994537549679046 0 0.32160246957868038 -0.063421848174058132 0 0.32497814538517161 -0.067994537549679046 0 0.32160246957868038 -0.063421848174058132 0 0.31828781240304099 -0.068043978177319164 0 0.32338567929664191 -0.07341910240352098 0 0.32497814538517161 -0.067994537549679046 0 0.31828781240304099 -0.068043978177319164 0 0.31664509321580719 -0.061325281442993797 0 0.32160246957868038 -0.063421848174058132 0 0.31828781240304099 -0.068043978177319164 0 0.31423936752838683 -0.072070942314389944 0 0.31828781240304099 -0.068043978177319164 0 0.31010452438234709 -0.061951302024687849 0 0.31664509321580719 -0.061325281442993797 0 0.31828781240304099 -0.068043978177319164 0 0.31010452438234709 -0.061951302024687849 0 0.30211760281797961 -0.069347987433229313 0 0.31010452438234709 -0.061951302024687849 0 0.30781168081527122 -0.078573389803361426 0 0.31010452438234709 -0.061951302024687849 0 0.31423936752838683 -0.072070942314389944 0 0.30781168081527122 -0.078573389803361426 0 0.31010452438234709 -0.061951302024687849 0 0.30211760281797961 -0.069347987433229313 0 0.30781168081527122 -0.078573389803361426 0 0.31010452438234709 -0.061951302024687849 0 0.30211760281797961 -0.069347987433229313 0 0.2982737394913979 -0.072907787983545372 0 0.30781168081527122 -0.078573389803361426 0 0.30211760281797961 -0.069347987433229313 0 0.2982737394913979 -0.072907787983545372 0 0.30211760281797961 -0.069347987433229313 0 0.30781168081527122 -0.078573389803361426 0 0.31384939829304948 -0.077204854957470703 0 0.31423936752838683 -0.072070942314389944 0 0.30781168081527122 -0.078573389803361426 0 0.32148459133704332 -0.1007258965294955 0 0.3071184245910098 -0.083599186581727047 0 0.30781168081527122 -0.078573389803361426 0 0.3071184245910098 -0.083599186581727047 0 0.30781168081527122 -0.078573389803361426 0 0.2982737394913979 -0.072907787983545372 0 0.3071184245910098 -0.083599186581727047 0 0.29822426183938489 -0.082049265500422797 0 0.3071184245910098 -0.083599186581727047 0 0.29896747746778918 -0.091125791476050072 0 0.29822426183938489 -0.082049265500422797 0 0.2982737394913979 -0.072907787983545372 0 0.3071184245910098 -0.083599186581727047 0 0.30781168081527122 -0.078573389803361426 0 0.2982737394913979 -0.072907787983545372 0 0.3071184245910098 -0.083599186581727047 0 0.2982737394913979 -0.072907787983545372 0 0.29822426183938489 -0.082049265500422797 0 0.28916680791020832 -0.081341714296745443 0 0.28916680791020832 -0.081341714296745443 0 0.2968283419156697 -0.1021420824960174 0 0.29896747746778918 -0.091125791476050072 0 0.29822426183938489 -0.082049265500422797 0 0.28916680791020832 -0.081341714296745443 0 0.28916680791020832 -0.081341714296745443 0 0.28539186046252601 -0.096983456386646932 0 0.27058640480806062 -0.098549019439654065 0 0.28916680791020832 -0.081341714296745443 0 0.28539186046252601 -0.096983456386646932 0 0.2968283419156697 -0.1021420824960174 0 0.29896747746778918 -0.091125791476050072 0 0.28916680791020832 -0.081341714296745443 0 0.2968283419156697 -0.1021420824960174 0 0.28916680791020832 -0.081341714296745443 0 0.28271234711725041 -0.063818440116200539 0 0.2982737394913979 -0.072907787983545372 0 0.28916680791020832 -0.081341714296745443 0 0.28271234711725041 -0.063818440116200539 0 0.2982737394913979 -0.072907787983545372 0 0.2872658129078467 -0.059601476959599678 0 0.2982737394913979 -0.072907787983545372 0 0.28271234711725041 -0.063818440116200539 0 0.2872658129078467 -0.059601476959599678 0 0.30211760281797961 -0.069347987433229313 0 0.2982737394913979 -0.072907787983545372 0 0.2872658129078467 -0.059601476959599678 0 0.2982737394913979 -0.072907787983545372 0 0.28916680791020832 -0.081341714296745443 0 0.3038929273969655 -0.10698259496557271 0 0.30066743020291892 -0.13036600334941789 0 0.3038929273969655 -0.10698259496557271 0 0.29587436057613992 -0.11826133188006011 0 0.30066743020291892 -0.13036600334941789 0 0.30863444644798049 -0.1188915605582658 0 0.3038929273969655 -0.10698259496557271 0 0.30066743020291892 -0.13036600334941789 0 0.31044142209949521 -0.1245786018676444 0 0.30863444644798049 -0.1188915605582658 0 0.30066743020291892 -0.13036600334941789 0 0.31399309307936762 -0.1195896428898832 0 0.31044142209949521 -0.1245786018676444 0 0.30863444644798049 -0.1188915605582658 0 0.30863444644798049 -0.1188915605582658 0 0.31202951444555321 -0.11129331199032561 0 0.3038929273969655 -0.10698259496557271 0 0.31399309307936762 -0.1195896428898832 0 0.30863444644798049 -0.1188915605582658 0 0.31202951444555321 -0.11129331199032561 0 0.3038929273969655 -0.10698259496557271 0 0.29356276621672078 -0.11019805380327879 0 0.29587436057613992 -0.11826133188006011 0 0.3071184245910098 -0.083599186581727047 0 0.3038929273969655 -0.10698259496557271 0 0.31173189284044511 -0.1020207151795537 0 0.3071184245910098 -0.083599186581727047 0 0.29896747746778918 -0.091125791476050072 0 0.3038929273969655 -0.10698259496557271 0 0.29896747746778918 -0.091125791476050072 0 0.3038929273969655 -0.10698259496557271 0 0.2968283419156697 -0.1021420824960174 0 0.3071184245910098 -0.083599186581727047 0 0.3038929273969655 -0.10698259496557271 0 0.3038929273969655 -0.10698259496557271 0 0.2968283419156697 -0.1021420824960174 0 0.29356276621672078 -0.11019805380327879 0 0.31202951444555321 -0.11129331199032561 0 0.3038929273969655 -0.10698259496557271 0 0.31173189284044511 -0.1020207151795537 0 0.28539186046252601 -0.096983456386646932 0 0.2849858872161658 -0.10590100931417069 0 0.2968283419156697 -0.1021420824960174 0 0.2849858872161658 -0.10590100931417069 0 0.2968283419156697 -0.1021420824960174 0 0.29356276621672078 -0.11019805380327879 0 0.29356276621672078 -0.11019805380327879 0 0.28625216690275029 -0.11795374188743001 0 0.29587436057613992 -0.11826133188006011 0 0.2849858872161658 -0.10590100931417069 0 0.29356276621672078 -0.11019805380327879 0 0.28625216690275029 -0.11795374188743001 0 0.2849858872161658 -0.10590100931417069 0 0.28625216690275029 -0.11795374188743001 0 0.27482379339963892 -0.11292958514423281 0 0.28625216690275029 -0.11795374188743001 0 0.29587436057613992 -0.11826133188006011 0 0.29193279350914009 -0.12601283141723671 0 0.29587436057613992 -0.11826133188006011 0 0.29193279350914009 -0.12601283141723671 0 0.30066743020291892 -0.13036600334941789 0 0.28625216690275029 -0.11795374188743001 0 0.27482379339963892 -0.11292958514423281 0 0.26963143202327772 -0.12556072490087261 0 0.28625216690275029 -0.11795374188743001 0 0.26963143202327772 -0.12556072490087261 0 0.2808334023674669 -0.13099183576560669 0 0.27482379339963892 -0.11292958514423281 0 0.27058640480806062 -0.098549019439654065 0 0.25200600170591198 -0.1157563245825616 0 0.2849858872161658 -0.10590100931417069 0 0.27482379339963892 -0.11292958514423281 0 0.27058640480806062 -0.098549019439654065 0 0.28539186046252601 -0.096983456386646932 0 0.2849858872161658 -0.10590100931417069 0 0.27058640480806062 -0.098549019439654065 0 0.27058640480806062 -0.098549019439654065 0 0.25705980902034259 -0.087081582156659412 0 0.2449733129926695 -0.1008425048982888 0 0.27058640480806062 -0.098549019439654065 0 0.25200600170591198 -0.1157563245825616 0 0.27058640480806062 -0.098549019439654065 0 0.25200600170591198 -0.1157563245825616 0 0.2449733129926695 -0.1008425048982888 0 0.27482379339963892 -0.11292958514423281 0 0.25200600170591198 -0.1157563245825616 0 0.26963143202327772 -0.12556072490087261 0 0.25200600170591198 -0.1157563245825616 0 0.25278991145217811 -0.13329751277266699 0 0.26963143202327772 -0.12556072490087261 0 0.28271234711725041 -0.063818440116200539 0 0.27054740538872801 -0.076798806954199772 0 0.26516374245557478 -0.058220782443371033 0 0.28916680791020832 -0.081341714296745443 0 0.28271234711725041 -0.063818440116200539 0 0.27054740538872801 -0.076798806954199772 0 0.27058640480806062 -0.098549019439654065 0 0.27054740538872801 -0.076798806954199772 0 0.25705980902034259 -0.087081582156659412 0 0.28916680791020832 -0.081341714296745443 0 0.27058640480806062 -0.098549019439654065 0 0.28916680791020832 -0.081341714296745443 0 0.27058640480806062 -0.098549019439654065 0 0.27054740538872801 -0.076798806954199772 0 0.27054740538872801 -0.076798806954199772 0 0.25705980902034259 -0.087081582156659412 0 0.25658434339092911 -0.072244835605310226 0 0.25705980902034259 -0.087081582156659412 0 0.25658434339092911 -0.072244835605310226 0 0.24260757852132581 -0.086972743885844209 0 0.27054740538872801 -0.076798806954199772 0 0.25658434339092911 -0.072244835605310226 0 0.26516374245557478 -0.058220782443371033 0 0.26516374245557478 -0.058220782443371033 0 0.25709784077608921 -0.044424429572376301 0 0.24402431198102109 -0.056541483586260599 0 0.25658434339092911 -0.072244835605310226 0 0.26516374245557478 -0.058220782443371033 0 0.24402431198102109 -0.056541483586260599 0 0.26516374245557478 -0.058220782443371033 0 0.27625788632429438 -0.046295165935654997 0 0.25709784077608921 -0.044424429572376301 0 0.28271234711725041 -0.063818440116200539 0 0.26516374245557478 -0.058220782443371033 0 0.27625788632429438 -0.046295165935654997 0 0.28271234711725041 -0.063818440116200539 0 0.27625788632429438 -0.046295165935654997 0 0.27625788632429438 -0.046295165935654997 0 0.25885049403245908 -0.025253221824478068 0 0.26765102840933103 -0.02292832927573854 0 0.27625788632429438 -0.046295165935654997 0 0.27340198126890569 -0.022823657554957289 0 0.28775979204344271 -0.0460858224940933 0 0.27625788632429438 -0.046295165935654997 0 0.26765102840933103 -0.02292832927573854 0 0.27340198126890569 -0.022823657554957289 0 0.28775979204344271 -0.0460858224940933 0 0.27625788632429438 -0.046295165935654997 0 0.25885049403245908 -0.025253221824478068 0 0.27625788632429438 -0.046295165935654997 0 0.25709784077608921 -0.044424429572376301 0 0.25885049403245908 -0.025253221824478068 0 0.25709784077608921 -0.044424429572376301 0 0.25885049403245908 -0.025253221824478068 0 0.24756494005480839 -0.033887202490842053 0 0.2590441704943689 0.00043850738417854302 0 0.25885049403245908 -0.025253221824478068 0 0.26765102840933103 -0.02292832927573854 0 0.2590441704943689 0.00043850738417854302 0 0.25885049403245908 -0.025253221824478068 0 0.2414431017406225 -0.0042112777133020444 0 0.25885049403245908 -0.025253221824478068 0 0.2414431017406225 -0.0042112777133020444 0 0.2590441704943689 0.00043850738417854302 0 0.26765102840933103 -0.02292832927573854 0 0.2590441704943689 0.00043850738417854302 0 0.27629462104729002 -0.0034176145621518761 0 0.27340198126890569 -0.022823657554957289 0 0.27629462104729002 -0.0034176145621518761 0 0.27340198126890569 -0.022823657554957289 0 0.29207606948005321 -0.014230679590984121 0 0.2590441704943689 0.00043850738417854302 0 0.27340198126890569 -0.022823657554957289 0 0.2590441704943689 0.00043850738417854302 0 0.27340198126890569 -0.022823657554957289 0 0.26765102840933103 -0.02292832927573854 0 0.27625788632429438 -0.046295165935654997 0 0.27340198126890569 -0.022823657554957289 0 0.26765102840933103 -0.02292832927573854 0 0.27340198126890569 -0.022823657554957289 0 0.29207606948005321 -0.014230679590984121 0 0.2976592497081248 -0.035794483151211823 0 0.29084464891779471 0.0018398696142846471 0 0.29207606948005321 -0.014230679590984121 0 0.3055889252128855 -0.0025274596471978501 0 0.29084464891779471 0.0018398696142846471 0 0.27629462104729002 -0.0034176145621518761 0 0.29207606948005321 -0.014230679590984121 0 0.3160133228912293 -0.019115162267369219 0 0.3055889252128855 -0.0025274596471978501 0 0.3102392233643283 -0.02213032335151802 0 0.30173247435384881 -0.01379532432178404 0 0.3055889252128855 -0.0025274596471978501 0 0.3102392233643283 -0.02213032335151802 0 0.3055889252128855 -0.0025274596471978501 0 0.3102392233643283 -0.02213032335151802 0 0.29207606948005321 -0.014230679590984121 0 0.30173247435384881 -0.01379532432178404 0 0.3055889252128855 -0.0025274596471978501 0 0.29207606948005321 -0.014230679590984121 0 0.30371076297781718 -0.025539402049440451 0 0.2976592497081248 -0.035794483151211823 0 0.29207606948005321 -0.014230679590984121 0 0.30173247435384881 -0.01379532432178404 0 0.30371076297781718 -0.025539402049440451 0 0.30173247435384881 -0.01379532432178404 0 0.30371076297781718 -0.025539402049440451 0 0.3102392233643283 -0.02213032335151802 0 0.31362732957183881 -0.03641254398311386 0 0.30371076297781718 -0.025539402049440451 0 0.3102392233643283 -0.02213032335151802 0 0.31362732957183881 -0.03641254398311386 0 0.3102392233643283 -0.02213032335151802 0 0.30371076297781718 -0.025539402049440451 0 0.3102392233643283 -0.02213032335151802 0 0.31362732957183881 -0.03641254398311386 0 0.2976592497081248 -0.035794483151211823 0 0.31010452438234709 -0.061951302024687849 0 0.31362732957183881 -0.03641254398311386 0 0.30371076297781718 -0.025539402049440451 0 0.2976592497081248 -0.035794483151211823 0 0.30211760281797961 -0.069347987433229313 0 0.31010452438234709 -0.061951302024687849 0 0.28775979204344271 -0.0460858224940933 0 0.31362732957183881 -0.03641254398311386 0 0.31010452438234709 -0.061951302024687849 0 0.2976592497081248 -0.035794483151211823 0 0.31010452438234709 -0.061951302024687849 0 0.28775979204344271 -0.0460858224940933 0 0.30211760281797961 -0.069347987433229313 0 0.2872658129078467 -0.059601476959599678 0 0.28775979204344271 -0.0460858224940933 0 0.28271234711725041 -0.063818440116200539 0 0.27625788632429438 -0.046295165935654997 0 0.2872658129078467 -0.059601476959599678 0 0.30211760281797961 -0.069347987433229313 0 0.28775979204344271 -0.0460858224940933 0 0.27625788632429438 -0.046295165935654997 0 0.2872658129078467 -0.059601476959599678 0 0.28775979204344271 -0.0460858224940933 0 0.27625788632429438 -0.046295165935654997 0 0.2872658129078467 -0.059601476959599678 0 0.27340198126890569 -0.022823657554957289 0 0.2976592497081248 -0.035794483151211823 0 0.28775979204344271 -0.0460858224940933 0 0.28753700469514981 -0.20888104885778569 0 0.28874428002438213 -0.23002957229539919 0 0.27666512208957428 -0.2159603505864956 0 0.28753700469514981 -0.20888104885778569 0 0.30115189312437768 -0.20542392195541981 0 0.30162527265974959 -0.2199605956093191 0 0.28753700469514981 -0.20888104885778569 0 0.29090126811138117 -0.19320094542561569 0 0.30115189312437768 -0.20542392195541981 0 0.28753700469514981 -0.20888104885778569 0 0.29090126811138117 -0.19320094542561569 0 0.2796694358559853 -0.19747734752194751 0 0.29090126811138117 -0.19320094542561569 0 0.2796694358559853 -0.19747734752194751 0 0.27347354059828599 -0.1872209155322157 0 0.29090126811138117 -0.19320094542561569 0 0.31167239857112827 -0.19538490422099439 0 0.30115189312437768 -0.20542392195541981 0 0.29090126811138117 -0.19320094542561569 0 0.31167239857112827 -0.19538490422099439 0 0.30008171010592388 -0.17871629827991131 0 0.30162527265974959 -0.2199605956093191 0 0.31402352158447971 -0.20969211566338419 0 0.31664627664963307 -0.2262547151038807 0 0.31167239857112827 -0.19538490422099439 0 0.30115189312437768 -0.20542392195541981 0 0.31402352158447971 -0.20969211566338419 0 0.30115189312437768 -0.20542392195541981 0 0.30162527265974959 -0.2199605956093191 0 0.31402352158447971 -0.20969211566338419 0 0.30162527265974959 -0.2199605956093191 0 0.30514863394351938 -0.24456781846687009 0 0.31664627664963307 -0.2262547151038807 0 0.30162527265974959 -0.2199605956093191 0 0.30514863394351938 -0.24456781846687009 0 0.28874428002438213 -0.23002957229539919 0 0.30514863394351938 -0.24456781846687009 0 0.28874428002438213 -0.23002957229539919 0 0.28548812118910322 -0.25011189102716791 0 0.28874428002438213 -0.23002957229539919 0 0.27494659203405081 -0.2356563962769265 0 0.28548812118910322 -0.25011189102716791 0 0.28753700469514981 -0.20888104885778569 0 0.30162527265974959 -0.2199605956093191 0 0.28874428002438213 -0.23002957229539919 0 0.28874428002438213 -0.23002957229539919 0 0.27494659203405081 -0.2356563962769265 0 0.27666512208957428 -0.2159603505864956 0 0.26736199165531138 -0.22500281200353359 0 0.27494659203405081 -0.2356563962769265 0 0.25624977092838908 -0.23386384710061689 0 0.26736199165531138 -0.22500281200353359 0 0.27494659203405081 -0.2356563962769265 0 0.27666512208957428 -0.2159603505864956 0 0.26906730455718952 -0.2492068095314573 0 0.27494659203405081 -0.2356563962769265 0 0.28548812118910322 -0.25011189102716791 0 0.26906730455718952 -0.2492068095314573 0 0.27494659203405081 -0.2356563962769265 0 0.25624977092838908 -0.23386384710061689 0 0.26906730455718952 -0.2492068095314573 0 0.25624977092838908 -0.23386384710061689 0 0.244902637259619 -0.24701353735893281 0 0.25624977092838908 -0.23386384710061689 0 0.25493849033600441 -0.21264751632202741 0 0.24176165893330009 -0.22542132399948081 0 0.26736199165531138 -0.22500281200353359 0 0.25624977092838908 -0.23386384710061689 0 0.25493849033600441 -0.21264751632202741 0 0.26736199165531138 -0.22500281200353359 0 0.25493849033600441 -0.21264751632202741 0 0.26736199165531138 -0.22500281200353359 0 0.25493849033600441 -0.21264751632202741 0 0.2705180632169551 -0.20453546496028091 0 0.25493849033600441 -0.21264751632202741 0 0.25655752973903129 -0.1985958496651534 0 0.2425149890166973 -0.20029222064052121 0 0.25493849033600441 -0.21264751632202741 0 0.2705180632169551 -0.20453546496028091 0 0.25655752973903129 -0.1985958496651534 0 0.28753700469514981 -0.20888104885778569 0 0.27666512208957428 -0.2159603505864956 0 0.2705180632169551 -0.20453546496028091 0 0.26736199165531138 -0.22500281200353359 0 0.27666512208957428 -0.2159603505864956 0 0.2705180632169551 -0.20453546496028091 0 0.28753700469514981 -0.20888104885778569 0 0.2705180632169551 -0.20453546496028091 0 0.2796694358559853 -0.19747734752194751 0 0.2705180632169551 -0.20453546496028091 0 0.2796694358559853 -0.19747734752194751 0 0.27347354059828599 -0.1872209155322157 0 0.2705180632169551 -0.20453546496028091 0 0.25655752973903129 -0.1985958496651534 0 0.27347354059828599 -0.1872209155322157 0 0.25959376107067561 -0.18478093295439479 0 0.2425149890166973 -0.20029222064052121 0 0.25655752973903129 -0.1985958496651534 0 0.25959376107067561 -0.18478093295439479 0 0.27347354059828599 -0.1872209155322157 0 0.25655752973903129 -0.1985958496651534 0 0.25959376107067561 -0.18478093295439479 0 0.2425149890166973 -0.20029222064052121 0 0.25959376107067561 -0.18478093295439479 0 0.25831068201549062 -0.1627575897226953 0 0.24353110613393539 -0.1822633084125912 0 0.25959376107067561 -0.18478093295439479 0 0.25831068201549062 -0.1627575897226953 0 0.27667253312465301 -0.16926964526826749 0 0.25831068201549062 -0.1627575897226953 0 0.27667253312465301 -0.16926964526826749 0 0.27108331631171972 -0.14243534925273621 0 0.25959376107067561 -0.18478093295439479 0 0.27667253312465301 -0.16926964526826749 0 0.25959376107067561 -0.18478093295439479 0 0.27667253312465301 -0.16926964526826749 0 0.27347354059828599 -0.1872209155322157 0 0.25278991145217811 -0.13329751277266699 0 0.27108331631171972 -0.14243534925273621 0 0.25278991145217811 -0.13329751277266699 0 0.27108331631171972 -0.14243534925273621 0 0.26963143202327772 -0.12556072490087261 0 0.27108331631171972 -0.14243534925273621 0 0.24251452423871919 -0.15135382529707669 0 0.25831068201549062 -0.1627575897226953 0 0.27108331631171972 -0.14243534925273621 0 0.24251452423871919 -0.15135382529707669 0 0.25278991145217811 -0.13329751277266699 0 0.27108331631171972 -0.14243534925273621 0 0.24251452423871919 -0.15135382529707669 0 0.27667253312465301 -0.16926964526826749 0 0.27108331631171972 -0.14243534925273621 0 0.29375130517863202 -0.15375835758214171 0 0.27108331631171972 -0.14243534925273621 0 0.26963143202327772 -0.12556072490087261 0 0.2808334023674669 -0.13099183576560669 0 0.27108331631171972 -0.14243534925273621 0 0.29431646514091181 -0.1351825301367505 0 0.27108331631171972 -0.14243534925273621 0 0.2808334023674669 -0.13099183576560669 0 0.29431646514091181 -0.1351825301367505 0 0.29193279350914009 -0.12601283141723671 0 0.29431646514091181 -0.1351825301367505 0 0.30066743020291892 -0.13036600334941789 0 0.28625216690275029 -0.11795374188743001 0 0.2808334023674669 -0.13099183576560669 0 0.29193279350914009 -0.12601283141723671 0 0.2808334023674669 -0.13099183576560669 0 0.29193279350914009 -0.12601283141723671 0 0.29431646514091181 -0.1351825301367505 0 0.27108331631171972 -0.14243534925273621 0 0.29431646514091181 -0.1351825301367505 0 0.29375130517863202 -0.15375835758214171 0 0.27108331631171972 -0.14243534925273621 0 0.29375130517863202 -0.15375835758214171 0 0.29375130517863202 -0.15375835758214171 0 0.30876543182339938 -0.16125814426615731 0 0.31413786460268173 -0.13524287021821471 0 0.29431646514091181 -0.1351825301367505 0 0.29375130517863202 -0.15375835758214171 0 0.31413786460268173 -0.13524287021821471 0 0.29375130517863202 -0.15375835758214171 0 0.31413786460268173 -0.13524287021821471 0 0.29431646514091181 -0.1351825301367505 0 0.30066743020291892 -0.13036600334941789 0 0.31754961397010362 -0.1279297110207635 0 0.29431646514091181 -0.1351825301367505 0 0.31754961397010362 -0.1279297110207635 0 0.31044142209949521 -0.1245786018676444 0 0.30066743020291892 -0.13036600334941789 0 0.31754961397010362 -0.1279297110207635 0 0.29431646514091181 -0.1351825301367505 0 0.31413786460268173 -0.13524287021821471 0 0.31754961397010362 -0.1279297110207635 0 0.29090126811138117 -0.19320094542561569 0 0.27347354059828599 -0.1872209155322157 0 0.30008171010592388 -0.17871629827991131 0 0.27667253312465301 -0.16926964526826749 0 0.27347354059828599 -0.1872209155322157 0 0.30008171010592388 -0.17871629827991131 0 0.27347354059828599 -0.1872209155322157 0 0.30008171010592388 -0.17871629827991131 0 0.27667253312465301 -0.16926964526826749 0 0.29375130517863202 -0.15375835758214171 0 0.27667253312465301 -0.16926964526826749 0 0.2957280090683419 -0.16653878217837981 0 0.30008171010592388 -0.17871629827991131 0 0.27667253312465301 -0.16926964526826749 0 0.29375130517863202 -0.15375835758214171 0 0.2957280090683419 -0.16653878217837981 0 0.2957280090683419 -0.16653878217837981 0 0.30876543182339938 -0.16125814426615731 0 0.30760456831370347 -0.16942219964084901 0 0.2957280090683419 -0.16653878217837981 0 0.30760456831370347 -0.16942219964084901 0 0.30008171010592388 -0.17871629827991131 0 0.29375130517863202 -0.15375835758214171 0 0.30876543182339938 -0.16125814426615731 0 0.29375130517863202 -0.15375835758214171 0 0.2957280090683419 -0.16653878217837981 0 0.30876543182339938 -0.16125814426615731 0 0.30760456831370347 -0.16942219964084901 0 0.30008171010592388 -0.17871629827991131 0 0.32668987961356227 -0.17021168102760839 0 0.30008171010592388 -0.17871629827991131 0 0.3261165595094267 -0.1859414085799467 0 0.32668987961356227 -0.17021168102760839 0 0.31167239857112827 -0.19538490422099439 0 0.30008171010592388 -0.17871629827991131 0 0.3261165595094267 -0.1859414085799467 0 0.30008171010592388 -0.17871629827991131 0 0.32668987961356227 -0.17021168102760839 0 0.30876543182339938 -0.16125814426615731 0 0.32668987961356227 -0.17021168102760839 0 0.3241581716943569 -0.1565687163405152 0 0.30876543182339938 -0.16125814426615731 0 0.30760456831370347 -0.16942219964084901 0 0.32668987961356227 -0.17021168102760839 0 0.30876543182339938 -0.16125814426615731 0 0.32668987961356227 -0.17021168102760839 0 0.32668987961356227 -0.17021168102760839 0 0.3241581716943569 -0.1565687163405152 0 0.33629265333438257 -0.151896034210451 0 0.32668987961356227 -0.17021168102760839 0 0.33629265333438257 -0.151896034210451 0 0.34646363951277032 -0.16389150708503419 0 0.32668987961356227 -0.17021168102760839 0 0.34646363951277032 -0.16389150708503419 0 0.32668987961356227 -0.17021168102760839 0 0.34942825717680209 -0.1815698495911035 0 0.34646363951277032 -0.16389150708503419 0 0.3261165595094267 -0.1859414085799467 0 0.34942825717680209 -0.1815698495911035 0 0.34066693844087642 -0.19432240470856571 0 0.3261165595094267 -0.1859414085799467 0 0.32668987961356227 -0.17021168102760839 0 0.34942825717680209 -0.1815698495911035 0 0.32668987961356227 -0.17021168102760839 0 0.34942825717680209 -0.1815698495911035 0 0.3345244240267321 -0.11672738285428851 0 0.31413786460268173 -0.13524287021821471 0 0.31754961397010362 -0.1279297110207635 0 0.3345244240267321 -0.11672738285428851 0 0.31413786460268173 -0.13524287021821471 0 0.3345244240267321 -0.11672738285428851 0 0.31413786460268173 -0.13524287021821471 0 0.3248847220060842 -0.14290900585784211 0 0.30876543182339938 -0.16125814426615731 0 0.3241581716943569 -0.1565687163405152 0 0.3248847220060842 -0.14290900585784211 0 0.30876543182339938 -0.16125814426615731 0 0.31413786460268173 -0.13524287021821471 0 0.3248847220060842 -0.14290900585784211 0 0.30876543182339938 -0.16125814426615731 0 0.3248847220060842 -0.14290900585784211 0 0.33629265333438257 -0.151896034210451 0 0.34363338976240387 -0.13255329023111839 0 0.34841877687506922 -0.14340559547881471 0 0.3248847220060842 -0.14290900585784211 0 0.33629265333438257 -0.151896034210451 0 0.34363338976240387 -0.13255329023111839 0 0.33629265333438257 -0.151896034210451 0 0.34363338976240387 -0.13255329023111839 0 0.3241581716943569 -0.1565687163405152 0 0.3248847220060842 -0.14290900585784211 0 0.33629265333438257 -0.151896034210451 0 0.3410040121887763 -0.1245598674495334 0 0.3248847220060842 -0.14290900585784211 0 0.34363338976240387 -0.13255329023111839 0 0.3410040121887763 -0.1245598674495334 0 0.3345244240267321 -0.11672738285428851 0 0.3248847220060842 -0.14290900585784211 0 0.3410040121887763 -0.1245598674495334 0 0.3248847220060842 -0.14290900585784211 0 0.35558431583869687 -0.12533256933512829 0 0.35376881304609942 -0.1352567551360746 0 0.3641226395341462 -0.1315275243055109 0 0.34363338976240387 -0.13255329023111839 0 0.35558431583869687 -0.12533256933512829 0 0.35376881304609942 -0.1352567551360746 0 0.34363338976240387 -0.13255329023111839 0 0.35376881304609942 -0.1352567551360746 0 0.34841877687506922 -0.14340559547881471 0 0.35376881304609942 -0.1352567551360746 0 0.35874943496540962 -0.14416218108624521 0 0.3641226395341462 -0.1315275243055109 0 0.35376881304609942 -0.1352567551360746 0 0.35874943496540962 -0.14416218108624521 0 0.34841877687506922 -0.14340559547881471 0 0.35874943496540962 -0.14416218108624521 0 0.34841877687506922 -0.14340559547881471 0 0.35123238081992209 -0.15218533020060129 0 0.33629265333438257 -0.151896034210451 0 0.35123238081992209 -0.15218533020060129 0 0.34646363951277032 -0.16389150708503419 0 0.33629265333438257 -0.151896034210451 0 0.34841877687506922 -0.14340559547881471 0 0.35123238081992209 -0.15218533020060129 0 0.35874943496540962 -0.14416218108624521 0 0.35123238081992209 -0.15218533020060129 0 0.36623739941197869 -0.15757133314246141 0 0.35874943496540962 -0.14416218108624521 0 0.37490228491754929 -0.14453843652576481 0 0.36623739941197869 -0.15757133314246141 0 0.37490228491754929 -0.14453843652576481 0 0.36623739941197869 -0.15757133314246141 0 0.38062273711075362 -0.1593688556411467 0 0.35874943496540962 -0.14416218108624521 0 0.37490228491754929 -0.14453843652576481 0 0.3641226395341462 -0.1315275243055109 0 0.37490228491754929 -0.14453843652576481 0 0.3641226395341462 -0.1315275243055109 0 0.37641656811912783 -0.130582952218537 0 0.3682462871600341 -0.11777968654349071 0 0.3641226395341462 -0.1315275243055109 0 0.37641656811912783 -0.130582952218537 0 0.34942825717680209 -0.1815698495911035 0 0.34646363951277032 -0.16389150708503419 0 0.36642509758033948 -0.17449914826736729 0 0.34646363951277032 -0.16389150708503419 0 0.36623739941197869 -0.15757133314246141 0 0.35123238081992209 -0.15218533020060129 0 0.34646363951277032 -0.16389150708503419 0 0.36623739941197869 -0.15757133314246141 0 0.36623739941197869 -0.15757133314246141 0 0.36642509758033948 -0.17449914826736729 0 0.38062273711075362 -0.1593688556411467 0 0.34646363951277032 -0.16389150708503419 0 0.36623739941197869 -0.15757133314246141 0 0.36642509758033948 -0.17449914826736729 0 0.34942825717680209 -0.1815698495911035 0 0.36642509758033948 -0.17449914826736729 0 0.37216663474004219 -0.1929280181545982 0 0.36642509758033948 -0.17449914826736729 0 0.37216663474004219 -0.1929280181545982 0 0.38398081190536448 -0.1742305997698283 0 0.34942825717680209 -0.1815698495911035 0 0.37216663474004219 -0.1929280181545982 0 0.37216663474004219 -0.1929280181545982 0 0.36012198350725849 -0.2001702037274953 0 0.35292206108996083 -0.19416277857631811 0 0.37216663474004219 -0.1929280181545982 0 0.36419138110005123 -0.20554985816470281 0 0.37984575071263282 -0.1967638544359144 0 0.37216663474004219 -0.1929280181545982 0 0.36419138110005123 -0.20554985816470281 0 0.37216663474004219 -0.1929280181545982 0 0.36012198350725849 -0.2001702037274953 0 0.36419138110005123 -0.20554985816470281 0 0.37481756569799551 -0.2090854662388455 0 0.36355688388415991 -0.21006439884386929 0 0.37984575071263282 -0.1967638544359144 0 0.36419138110005123 -0.20554985816470281 0 0.36355688388415991 -0.21006439884386929 0 0.37984575071263282 -0.1967638544359144 0 0.36355688388415991 -0.21006439884386929 0 0.37984575071263282 -0.1967638544359144 0 0.36947940201062562 -0.2166422684190287 0 0.37481756569799551 -0.2090854662388455 0 0.38032551856176111 -0.2165799437156633 0 0.36947940201062562 -0.2166422684190287 0 0.37481756569799551 -0.2090854662388455 0 0.36355688388415991 -0.21006439884386929 0 0.35968645543864192 -0.20661198107426559 0 0.36355688388415991 -0.21006439884386929 0 0.35538725242535602 -0.21173589870448259 0 0.36012198350725849 -0.2001702037274953 0 0.36419138110005123 -0.20554985816470281 0 0.35968645543864192 -0.20661198107426559 0 0.36419138110005123 -0.20554985816470281 0 0.35968645543864192 -0.20661198107426559 0 0.36355688388415991 -0.21006439884386929 0 0.36947940201062562 -0.2166422684190287 0 0.36355688388415991 -0.21006439884386929 0 0.36336183693334828 -0.21906603099688771 0 0.36355688388415991 -0.21006439884386929 0 0.34991843683022472 -0.2212007641052825 0 0.36355688388415991 -0.21006439884386929 0 0.35538725242535602 -0.21173589870448259 0 0.34991843683022472 -0.2212007641052825 0 0.36355688388415991 -0.21006439884386929 0 0.34991843683022472 -0.2212007641052825 0 0.36336183693334828 -0.21906603099688771 0 0.35538725242535602 -0.21173589870448259 0 0.35517477627638377 -0.20553954593077811 0 0.35045417824184011 -0.2123801679210206 0 0.35968645543864192 -0.20661198107426559 0 0.35538725242535602 -0.21173589870448259 0 0.35517477627638377 -0.20553954593077811 0 0.36012198350725849 -0.2001702037274953 0 0.35968645543864192 -0.20661198107426559 0 0.35517477627638377 -0.20553954593077811 0 0.34667347016691019 -0.20526934510222461 0 0.35045417824184011 -0.2123801679210206 0 0.34297529770162499 -0.21452232366001739 0 0.35517477627638377 -0.20553954593077811 0 0.34667347016691019 -0.20526934510222461 0 0.35045417824184011 -0.2123801679210206 0 0.35538725242535602 -0.21173589870448259 0 0.35045417824184011 -0.2123801679210206 0 0.34726801705568627 -0.22336494325182371 0 0.35045417824184011 -0.2123801679210206 0 0.34297529770162499 -0.21452232366001739 0 0.34726801705568627 -0.22336494325182371 0 0.34942825717680209 -0.1815698495911035 0 0.37216663474004219 -0.1929280181545982 0 0.35292206108996083 -0.19416277857631811 0 0.36012198350725849 -0.2001702037274953 0 0.35517477627638377 -0.20553954593077811 0 0.35292206108996083 -0.19416277857631811 0 0.35517477627638377 -0.20553954593077811 0 0.34667347016691019 -0.20526934510222461 0 0.35292206108996083 -0.19416277857631811 0 0.34667347016691019 -0.20526934510222461 0 0.35292206108996083 -0.19416277857631811 0 0.34066693844087642 -0.19432240470856571 0 0.34942825717680209 -0.1815698495911035 0 0.35292206108996083 -0.19416277857631811 0 0.34066693844087642 -0.19432240470856571 0 0.3261165595094267 -0.1859414085799467 0 0.34066693844087642 -0.19432240470856571 0 0.32816017314826812 -0.19544331365149609 0 0.32816017314826812 -0.19544331365149609 0 0.33586822507081482 -0.20590015774455561 0 0.32371328773746799 -0.20447346866173069 0 0.34066693844087642 -0.19432240470856571 0 0.32816017314826812 -0.19544331365149609 0 0.33586822507081482 -0.20590015774455561 0 0.34667347016691019 -0.20526934510222461 0 0.34066693844087642 -0.19432240470856571 0 0.33586822507081482 -0.20590015774455561 0 0.34667347016691019 -0.20526934510222461 0 0.34297529770162499 -0.21452232366001739 0 0.33586822507081482 -0.20590015774455561 0 0.34297529770162499 -0.21452232366001739 0 0.32884212031264959 -0.21594685202822339 0 0.33586822507081482 -0.20590015774455561 0 0.34297529770162499 -0.21452232366001739 0 0.32884212031264959 -0.21594685202822339 0 0.33548848916963347 -0.22322462042528229 0 0.32884212031264959 -0.21594685202822339 0 0.33586822507081482 -0.20590015774455561 0 0.32371328773746799 -0.20447346866173069 0 0.32884212031264959 -0.21594685202822339 0 0.32371328773746799 -0.20447346866173069 0 0.31402352158447971 -0.20969211566338419 0 0.32884212031264959 -0.21594685202822339 0 0.31402352158447971 -0.20969211566338419 0 0.31664627664963307 -0.2262547151038807 0 0.31167239857112827 -0.19538490422099439 0 0.32371328773746799 -0.20447346866173069 0 0.31402352158447971 -0.20969211566338419 0 0.31167239857112827 -0.19538490422099439 0 0.32816017314826812 -0.19544331365149609 0 0.32371328773746799 -0.20447346866173069 0 0.31167239857112827 -0.19538490422099439 0 0.3261165595094267 -0.1859414085799467 0 0.32816017314826812 -0.19544331365149609 0 0.30514863394351938 -0.24456781846687009 0 0.33097915022721291 -0.23666548765977799 0 0.3300300067937203 -0.25415524149856972 0 0.30514863394351938 -0.24456781846687009 0 0.31664627664963307 -0.2262547151038807 0 0.33097915022721291 -0.23666548765977799 0 0.30514863394351938 -0.24456781846687009 0 0.3300300067937203 -0.25415524149856972 0 0.32884212031264959 -0.21594685202822339 0 0.31664627664963307 -0.2262547151038807 0 0.32737786055099311 -0.22562349552656941 0 0.31664627664963307 -0.2262547151038807 0 0.32737786055099311 -0.22562349552656941 0 0.33097915022721291 -0.23666548765977799 0 0.32737786055099311 -0.22562349552656941 0 0.33548848916963347 -0.22322462042528229 0 0.33097915022721291 -0.23666548765977799 0 0.34320422899693859 -0.2333218272234111 0 0.33097915022721291 -0.23666548765977799 0 0.34726801705568627 -0.22336494325182371 0 0.33097915022721291 -0.23666548765977799 0 0.34726801705568627 -0.22336494325182371 0 0.33548848916963347 -0.22322462042528229 0 0.33097915022721291 -0.23666548765977799 0 0.34726801705568627 -0.22336494325182371 0 0.32884212031264959 -0.21594685202822339 0 0.32737786055099311 -0.22562349552656941 0 0.33548848916963347 -0.22322462042528229 0 0.34297529770162499 -0.21452232366001739 0 0.33548848916963347 -0.22322462042528229 0 0.34726801705568627 -0.22336494325182371 0 0.34183115797129199 -0.23944340779920531 0 0.33097915022721291 -0.23666548765977799 0 0.3300300067937203 -0.25415524149856972 0 0.34320422899693859 -0.2333218272234111 0 0.34183115797129199 -0.23944340779920531 0 0.33097915022721291 -0.23666548765977799 0 0.34183115797129199 -0.23944340779920531 0 0.34617581742362552 -0.24933337889286039 0 0.3300300067937203 -0.25415524149856972 0 0.34617581742362552 -0.24933337889286039 0 0.35273859073356328 -0.23381347018283741 0 0.37003019641856699 -0.2500724246218291 0 0.34183115797129199 -0.23944340779920531 0 0.34617581742362552 -0.24933337889286039 0 0.35273859073356328 -0.23381347018283741 0 0.34320422899693859 -0.2333218272234111 0 0.34183115797129199 -0.23944340779920531 0 0.35273859073356328 -0.23381347018283741 0 0.34991843683022472 -0.2212007641052825 0 0.35273859073356328 -0.23381347018283741 0 0.37021366886372448 -0.22801506152879539 0 0.34991843683022472 -0.2212007641052825 0 0.34726801705568627 -0.22336494325182371 0 0.35273859073356328 -0.23381347018283741 0 0.35538725242535602 -0.21173589870448259 0 0.34991843683022472 -0.2212007641052825 0 0.34726801705568627 -0.22336494325182371 0 0.34991843683022472 -0.2212007641052825 0 0.34726801705568627 -0.22336494325182371 0 0.34320422899693859 -0.2333218272234111 0 0.34726801705568627 -0.22336494325182371 0 0.35273859073356328 -0.23381347018283741 0 0.34991843683022472 -0.2212007641052825 0 0.36336183693334828 -0.21906603099688771 0 0.37021366886372448 -0.22801506152879539 0 0.34991843683022472 -0.2212007641052825 0 0.37021366886372448 -0.22801506152879539 0 0.36947940201062562 -0.2166422684190287 0 0.37021366886372448 -0.22801506152879539 0 0.38032551856176111 -0.2165799437156633 0 0.36947940201062562 -0.2166422684190287 0 0.36336183693334828 -0.21906603099688771 0 0.37021366886372448 -0.22801506152879539 0 0.37021366886372448 -0.22801506152879539 0 0.38058108544201302 -0.2428646488347132 0 0.37003019641856699 -0.2500724246218291 0 0.35273859073356328 -0.23381347018283741 0 0.37003019641856699 -0.2500724246218291 0 0.35273859073356328 -0.23381347018283741 0 0.37021366886372448 -0.22801506152879539 0 0.37003019641856699 -0.2500724246218291 0 0.38058108544201302 -0.2428646488347132 0 0.38539108654939991 -0.2547026039085134 0 0.37003019641856699 -0.2500724246218291 0 0.39022994475256589 -0.2344877278617338 0 0.38539108654939991 -0.2547026039085134 0 0.39022994475256589 -0.2344877278617338 0 0.39603488220105482 -0.23636487141212789 0 0.38539108654939991 -0.2547026039085134 0 0.38058108544201302 -0.2428646488347132 0 0.39022994475256589 -0.2344877278617338 0 0.38539108654939991 -0.2547026039085134 0 0.37021366886372448 -0.22801506152879539 0 0.38058108544201302 -0.2428646488347132 0 0.39022994475256589 -0.2344877278617338 0 0.39603488220105482 -0.23636487141212789 0 0.41360804336464979 -0.2420475073459335 0 0.39603488220105482 -0.23636487141212789 0 0.4032953191886941 -0.23155951663517371 0 0.41360804336464979 -0.2420475073459335 0 0.39603488220105482 -0.23636487141212789 0 0.40641832676510292 -0.24873540157288401 0 0.40032414499481489 -0.25947760245597012 0 0.39603488220105482 -0.23636487141212789 0 0.40032414499481489 -0.25947760245597012 0 0.39603488220105482 -0.23636487141212789 0 0.40641832676510292 -0.24873540157288401 0 0.41360804336464979 -0.2420475073459335 0 0.39022994475256589 -0.2344877278617338 0 0.39603488220105482 -0.23636487141212789 0 0.39528884120428881 -0.23234482280820079 0 0.39022994475256589 -0.2344877278617338 0 0.39603488220105482 -0.23636487141212789 0 0.4032953191886941 -0.23155951663517371 0 0.39718652323310899 -0.20542583644236559 0 0.41520122393746201 -0.22819093409811669 0 0.39022994475256589 -0.2344877278617338 0 0.39718652323310899 -0.20542583644236559 0 0.39022994475256589 -0.2344877278617338 0 0.39528884120428881 -0.23234482280820079 0 0.39718652323310899 -0.20542583644236559 0 0.4032953191886941 -0.23155951663517371 0 0.39528884120428881 -0.23234482280820079 0 0.39718652323310899 -0.20542583644236559 0 0.39603488220105482 -0.23636487141212789 0 0.4032953191886941 -0.23155951663517371 0 0.39528884120428881 -0.23234482280820079 0 0.39603488220105482 -0.23636487141212789 0 0.39528884120428881 -0.23234482280820079 0 0.37021366886372448 -0.22801506152879539 0 0.39022994475256589 -0.2344877278617338 0 0.37021366886372448 -0.22801506152879539 0 0.39022994475256589 -0.2344877278617338 0 0.38032551856176111 -0.2165799437156633 0 0.39022994475256589 -0.2344877278617338 0 0.38032551856176111 -0.2165799437156633 0 0.39718652323310899 -0.20542583644236559 0 0.38032551856176111 -0.2165799437156633 0 0.38198413364252032 -0.20618651344732691 0 0.39718652323310899 -0.20542583644236559 0 0.37481756569799551 -0.2090854662388455 0 0.38032551856176111 -0.2165799437156633 0 0.38198413364252032 -0.20618651344732691 0 0.37481756569799551 -0.2090854662388455 0 0.38198413364252032 -0.20618651344732691 0 0.37984575071263282 -0.1967638544359144 0 0.37984575071263282 -0.1967638544359144 0 0.39718652323310899 -0.20542583644236559 0 0.39191110439300758 -0.18691198603319839 0 0.38198413364252032 -0.20618651344732691 0 0.37984575071263282 -0.1967638544359144 0 0.39718652323310899 -0.20542583644236559 0 0.37984575071263282 -0.1967638544359144 0 0.39718652323310899 -0.20542583644236559 0 0.37216663474004219 -0.1929280181545982 0 0.37984575071263282 -0.1967638544359144 0 0.39191110439300758 -0.18691198603319839 0 0.37216663474004219 -0.1929280181545982 0 0.37984575071263282 -0.1967638544359144 0 0.37984575071263282 -0.1967638544359144 0 0.39191110439300758 -0.18691198603319839 0 0.39718652323310899 -0.20542583644236559 0 0.39191110439300758 -0.18691198603319839 0 0.40397645807338012 -0.1770601176304798 0 0.39718652323310899 -0.20542583644236559 0 0.41154322754322231 -0.19386690064339429 0 0.40397645807338012 -0.1770601176304798 0 0.39718652323310899 -0.20542583644236559 0 0.40397645807338012 -0.1770601176304798 0 0.39718652323310899 -0.20542583644236559 0 0.42177305004511167 -0.2177071839195534 0 0.41520122393746201 -0.22819093409811669 0 0.39718652323310899 -0.20542583644236559 0 0.42177305004511167 -0.2177071839195534 0 0.39718652323310899 -0.20542583644236559 0 0.42177305004511167 -0.2177071839195534 0 0.41154322754322231 -0.19386690064339429 0 0.42177305004511167 -0.2177071839195534 0 0.41154322754322231 -0.19386690064339429 0 0.42526747678922772 -0.1994764396122061 0 0.41154322754322231 -0.19386690064339429 0 0.42526747678922772 -0.1994764396122061 0 0.42719744250676989 -0.18513317042696631 0 0.42526747678922772 -0.1994764396122061 0 0.43695961172345432 -0.2025477690164387 0 0.43772875029522101 -0.19025534714383019 0 0.42526747678922772 -0.1994764396122061 0 0.42719744250676989 -0.18513317042696631 0 0.43772875029522101 -0.19025534714383019 0 0.42177305004511167 -0.2177071839195534 0 0.43695961172345432 -0.2025477690164387 0 0.44678582809383288 -0.20956377484982269 0 0.42177305004511167 -0.2177071839195534 0 0.42526747678922772 -0.1994764396122061 0 0.43695961172345432 -0.2025477690164387 0 0.42177305004511167 -0.2177071839195534 0 0.44635957685711541 -0.22998853139673919 0 0.42177305004511167 -0.2177071839195534 0 0.42249420601098431 -0.22989554226325121 0 0.43295679575361468 -0.23410766825536711 0 0.42177305004511167 -0.2177071839195534 0 0.43295679575361468 -0.23410766825536711 0 0.44635957685711541 -0.22998853139673919 0 0.43118120452824482 -0.2477301432797393 0 0.41360804336464979 -0.2420475073459335 0 0.43679618942680321 -0.24759324892476209 0 0.42004575430774871 -0.2395763827799679 0 0.43679618942680321 -0.24759324892476209 0 0.43118120452824482 -0.2477301432797393 0 0.42004575430774871 -0.2395763827799679 0 0.43295679575361468 -0.23410766825536711 0 0.43679618942680321 -0.24759324892476209 0 0.42004575430774871 -0.2395763827799679 0 0.42249420601098431 -0.22989554226325121 0 0.43295679575361468 -0.23410766825536711 0 0.42004575430774871 -0.2395763827799679 0 0.4032953191886941 -0.23155951663517371 0 0.42004575430774871 -0.2395763827799679 0 0.41360804336464979 -0.2420475073459335 0 0.43118120452824482 -0.2477301432797393 0 0.41360804336464979 -0.2420475073459335 0 0.41570623649989219 -0.25705162507750451 0 0.4032953191886941 -0.23155951663517371 0 0.42004575430774871 -0.2395763827799679 0 0.43118120452824482 -0.2477301432797393 0 0.42004575430774871 -0.2395763827799679 0 0.41360804336464979 -0.2420475073459335 0 0.40641832676510292 -0.24873540157288401 0 0.41360804336464979 -0.2420475073459335 0 0.41570623649989219 -0.25705162507750451 0 0.4032953191886941 -0.23155951663517371 0 0.42004575430774871 -0.2395763827799679 0 0.41520122393746201 -0.22819093409811669 0 0.42177305004511167 -0.2177071839195534 0 0.42249420601098431 -0.22989554226325121 0 0.41520122393746201 -0.22819093409811669 0 0.42249420601098431 -0.22989554226325121 0 0.42004575430774871 -0.2395763827799679 0 0.41520122393746201 -0.22819093409811669 0 0.38543991336663258 -0.12052612715854941 0 0.39816909710943021 -0.13176441239447709 0 0.38937171561727701 -0.138542986559369 0 0.39816909710943021 -0.13176441239447709 0 0.38937171561727701 -0.138542986559369 0 0.40760916623600202 -0.13683576300028391 0 0.38543991336663258 -0.12052612715854941 0 0.40261322636911301 -0.12319800757665809 0 0.39816909710943021 -0.13176441239447709 0 0.40261322636911301 -0.12319800757665809 0 0.39816909710943021 -0.13176441239447709 0 0.40722333098747748 -0.12960671180097669 0 0.39816909710943021 -0.13176441239447709 0 0.40760916623600202 -0.13683576300028391 0 0.40722333098747748 -0.12960671180097669 0 0.38543991336663258 -0.12052612715854941 0 0.37641656811912783 -0.130582952218537 0 0.38937171561727701 -0.138542986559369 0 0.37490228491754929 -0.14453843652576481 0 0.37641656811912783 -0.130582952218537 0 0.38937171561727701 -0.138542986559369 0 0.38937171561727701 -0.138542986559369 0 0.38517293167906569 -0.14949586502783421 0 0.39579498907068322 -0.15553318138505609 0 0.37490228491754929 -0.14453843652576481 0 0.38937171561727701 -0.138542986559369 0 0.38517293167906569 -0.14949586502783421 0 0.37490228491754929 -0.14453843652576481 0 0.38517293167906569 -0.14949586502783421 0 0.38062273711075362 -0.1593688556411467 0 0.38517293167906569 -0.14949586502783421 0 0.39579498907068322 -0.15553318138505609 0 0.38062273711075362 -0.1593688556411467 0 0.39579498907068322 -0.15553318138505609 0 0.40621858136835431 -0.14750483150212701 0 0.40760916623600202 -0.13683576300028391 0 0.39579498907068322 -0.15553318138505609 0 0.40760916623600202 -0.13683576300028391 0 0.38937171561727701 -0.138542986559369 0 0.39579498907068322 -0.15553318138505609 0 0.40760916623600202 -0.13683576300028391 0 0.39579498907068322 -0.15553318138505609 0 0.40621858136835431 -0.14750483150212701 0 0.40848220941336971 -0.158236833084549 0 0.39579498907068322 -0.15553318138505609 0 0.39631822093888169 -0.1697497959870245 0 0.38398081190536448 -0.1742305997698283 0 0.39631822093888169 -0.1697497959870245 0 0.40397645807338012 -0.1770601176304798 0 0.40848220941336971 -0.158236833084549 0 0.40397645807338012 -0.1770601176304798 0 0.40848220941336971 -0.158236833084549 0 0.39579498907068322 -0.15553318138505609 0 0.39631822093888169 -0.1697497959870245 0 0.40848220941336971 -0.158236833084549 0 0.36642509758033948 -0.17449914826736729 0 0.38062273711075362 -0.1593688556411467 0 0.38398081190536448 -0.1742305997698283 0 0.39579498907068322 -0.15553318138505609 0 0.38062273711075362 -0.1593688556411467 0 0.38398081190536448 -0.1742305997698283 0 0.39579498907068322 -0.15553318138505609 0 0.38398081190536448 -0.1742305997698283 0 0.37216663474004219 -0.1929280181545982 0 0.38398081190536448 -0.1742305997698283 0 0.39191110439300758 -0.18691198603319839 0 0.37216663474004219 -0.1929280181545982 0 0.38398081190536448 -0.1742305997698283 0 0.39191110439300758 -0.18691198603319839 0 0.40397645807338012 -0.1770601176304798 0 0.39631822093888169 -0.1697497959870245 0 0.38398081190536448 -0.1742305997698283 0 0.39191110439300758 -0.18691198603319839 0 0.39631822093888169 -0.1697497959870245 0 0.39191110439300758 -0.18691198603319839 0 0.40397645807338012 -0.1770601176304798 0 0.41154322754322231 -0.19386690064339429 0 0.40397645807338012 -0.1770601176304798 0 0.41929677709317892 -0.17787440888987011 0 0.41154322754322231 -0.19386690064339429 0 0.41929677709317892 -0.17787440888987011 0 0.42719744250676989 -0.18513317042696631 0 0.42719744250676989 -0.18513317042696631 0 0.43775556721903452 -0.1767757590257189 0 0.43772875029522101 -0.19025534714383019 0 0.42719744250676989 -0.18513317042696631 0 0.4290493517684848 -0.17318759352162361 0 0.43775556721903452 -0.1767757590257189 0 0.41929677709317892 -0.17787440888987011 0 0.42719744250676989 -0.18513317042696631 0 0.4290493517684848 -0.17318759352162361 0 0.41929677709317892 -0.17787440888987011 0 0.4290493517684848 -0.17318759352162361 0 0.42471740557403542 -0.16012426222688389 0 0.4290493517684848 -0.17318759352162361 0 0.43722358182991122 -0.16357619001592039 0 0.43775556721903452 -0.1767757590257189 0 0.4290493517684848 -0.17318759352162361 0 0.43722358182991122 -0.16357619001592039 0 0.42471740557403542 -0.16012426222688389 0 0.40397645807338012 -0.1770601176304798 0 0.42471740557403542 -0.16012426222688389 0 0.40397645807338012 -0.1770601176304798 0 0.41929677709317892 -0.17787440888987011 0 0.42471740557403542 -0.16012426222688389 0 0.40397645807338012 -0.1770601176304798 0 0.42471740557403542 -0.16012426222688389 0 0.40848220941336971 -0.158236833084549 0 0.40848220941336971 -0.158236833084549 0 0.41298796075336258 -0.13941354853861901 0 0.42471740557403542 -0.16012426222688389 0 0.40848220941336971 -0.158236833084549 0 0.41881349482742058 -0.1487218490595828 0 0.40848220941336971 -0.158236833084549 0 0.41881349482742058 -0.1487218490595828 0 0.41298796075336258 -0.13941354853861901 0 0.40621858136835431 -0.14750483150212701 0 0.40848220941336971 -0.158236833084549 0 0.41298796075336258 -0.13941354853861901 0 0.40621858136835431 -0.14750483150212701 0 0.41298796075336258 -0.13941354853861901 0 0.40760916623600202 -0.13683576300028391 0 0.41881349482742058 -0.1487218490595828 0 0.42080533763662059 -0.14039211257860101 0 0.41298796075336258 -0.13941354853861901 0 0.42707456075971512 -0.14544248886926131 0 0.42985566358638339 -0.13586031256228451 0 0.44545835307468901 -0.1431884068232859 0 0.42471740557403542 -0.16012426222688389 0 0.44545835307468901 -0.1431884068232859 0 0.42471740557403542 -0.16012426222688389 0 0.42707456075971512 -0.14544248886926131 0 0.44545835307468901 -0.1431884068232859 0 0.43722358182991122 -0.16357619001592039 0 0.42471740557403542 -0.16012426222688389 0 0.44545835307468901 -0.1431884068232859 0 0.42471740557403542 -0.16012426222688389 0 0.41881349482742058 -0.1487218490595828 0 0.42707456075971512 -0.14544248886926131 0 0.41881349482742058 -0.1487218490595828 0 0.42707456075971512 -0.14544248886926131 0 0.42080533763662059 -0.14039211257860101 0 0.42707456075971512 -0.14544248886926131 0 0.42985566358638339 -0.13586031256228451 0 0.42080533763662059 -0.14039211257860101 0 0.42985566358638339 -0.13586031256228451 0 0.42025806686331579 -0.133264129748529 0 0.42080533763662059 -0.14039211257860101 0 0.42563933781448932 -0.1238972430644575 0 0.42985566358638339 -0.13586031256228451 0 0.42025806686331579 -0.133264129748529 0 0.4146927475757558 -0.1240816007311262 0 0.42025806686331579 -0.133264129748529 0 0.41303241764708648 -0.13215377530233799 0 0.4146927475757558 -0.1240816007311262 0 0.42563933781448932 -0.1238972430644575 0 0.42025806686331579 -0.133264129748529 0 0.42025806686331579 -0.133264129748529 0 0.42080533763662059 -0.14039211257860101 0 0.41298796075336258 -0.13941354853861901 0 0.42025806686331579 -0.133264129748529 0 0.41298796075336258 -0.13941354853861901 0 0.41303241764708648 -0.13215377530233799 0 0.41298796075336258 -0.13941354853861901 0 0.40760916623600202 -0.13683576300028391 0 0.41303241764708648 -0.13215377530233799 0 0.40760916623600202 -0.13683576300028391 0 0.40722333098747748 -0.12960671180097669 0 0.41303241764708648 -0.13215377530233799 0 0.4146927475757558 -0.1240816007311262 0 0.40722333098747748 -0.12960671180097669 0 0.41303241764708648 -0.13215377530233799 0 0.4146927475757558 -0.1240816007311262 0 0.40261322636911301 -0.12319800757665809 0 0.40722333098747748 -0.12960671180097669 0 0.4672296206109488 -0.12713301205304001 0 0.45437071668679108 -0.13591108733563481 0 0.4672996880201587 -0.1432487468547359 0 0.45267084610351382 -0.1216238107203409 0 0.4672296206109488 -0.12713301205304001 0 0.45437071668679108 -0.13591108733563481 0 0.44057019976706191 -0.11383984056868091 0 0.44545835307468901 -0.1431884068232859 0 0.44057019976706191 -0.11383984056868091 0 0.45267084610351382 -0.1216238107203409 0 0.44545835307468901 -0.1431884068232859 0 0.45267084610351382 -0.1216238107203409 0 0.45437071668679108 -0.13591108733563481 0 0.44545835307468901 -0.1431884068232859 0 0.44057019976706191 -0.11383984056868091 0 0.42985566358638339 -0.13586031256228451 0 0.44545835307468901 -0.1431884068232859 0 0.45437071668679108 -0.13591108733563481 0 0.44545835307468901 -0.1431884068232859 0 0.45437071668679108 -0.13591108733563481 0 0.44545835307468901 -0.1431884068232859 0 0.45866992357066649 -0.1524033908816986 0 0.44545835307468901 -0.1431884068232859 0 0.44897220399000121 -0.1642856351438291 0 0.44545835307468901 -0.1431884068232859 0 0.45866992357066649 -0.1524033908816986 0 0.44897220399000121 -0.1642856351438291 0 0.4672996880201587 -0.1432487468547359 0 0.45866992357066649 -0.1524033908816986 0 0.47473871025256698 -0.16218864976701719 0 0.45437071668679108 -0.13591108733563481 0 0.4672996880201587 -0.1432487468547359 0 0.45866992357066649 -0.1524033908816986 0 0.45866992357066649 -0.1524033908816986 0 0.46142988638465082 -0.16922025771887789 0 0.47473871025256698 -0.16218864976701719 0 0.45866992357066649 -0.1524033908816986 0 0.46142988638465082 -0.16922025771887789 0 0.44897220399000121 -0.1642856351438291 0 0.46142988638465082 -0.16922025771887789 0 0.44897220399000121 -0.1642856351438291 0 0.45112594811899231 -0.1772167562210932 0 0.43722358182991122 -0.16357619001592039 0 0.44545835307468901 -0.1431884068232859 0 0.44897220399000121 -0.1642856351438291 0 0.43722358182991122 -0.16357619001592039 0 0.44897220399000121 -0.1642856351438291 0 0.43775556721903452 -0.1767757590257189 0 0.44897220399000121 -0.1642856351438291 0 0.45112594811899231 -0.1772167562210932 0 0.44897220399000121 -0.1642856351438291 0 0.45112594811899231 -0.1772167562210932 0 0.44470995620395559 -0.1832804846819435 0 0.44897220399000121 -0.1642856351438291 0 0.43775556721903452 -0.1767757590257189 0 0.44470995620395559 -0.1832804846819435 0 0.43775556721903452 -0.1767757590257189 0 0.44470995620395559 -0.1832804846819435 0 0.43772875029522101 -0.19025534714383019 0 0.45112594811899231 -0.1772167562210932 0 0.45248605490531307 -0.1853828634643723 0 0.45112594811899231 -0.1772167562210932 0 0.44470995620395559 -0.1832804846819435 0 0.45248605490531307 -0.1853828634643723 0 0.45112594811899231 -0.1772167562210932 0 0.47145797631670872 -0.19209997655861891 0 0.45112594811899231 -0.1772167562210932 0 0.45248605490531307 -0.1853828634643723 0 0.47145797631670872 -0.19209997655861891 0 0.46142988638465082 -0.16922025771887789 0 0.45112594811899231 -0.1772167562210932 0 0.47145797631670872 -0.19209997655861891 0 0.46142988638465082 -0.16922025771887789 0 0.47473871025256698 -0.16218864976701719 0 0.47145797631670872 -0.19209997655861891 0 0.47473871025256698 -0.16218864976701719 0 0.47145797631670872 -0.19209997655861891 0 0.48393556774351781 -0.1785576790432116 0 0.47473871025256698 -0.16218864976701719 0 0.47145797631670872 -0.19209997655861891 0 0.48393556774351781 -0.1785576790432116 0 0.5 -0.1846069805398233 0 0.5 -0.15554394575881991 0 0.48393556774351781 -0.1785576790432116 0 0.47473871025256698 -0.16218864976701719 0 0.5 -0.15554394575881991 0 0.4672996880201587 -0.1432487468547359 0 0.47473871025256698 -0.16218864976701719 0 0.4814894689798197 -0.13860759423628891 0 0.47473871025256698 -0.16218864976701719 0 0.5 -0.15554394575881991 0 0.4814894689798197 -0.13860759423628891 0 0.48287166513082408 -0.1152012235004482 0 0.5 -0.12648091097781661 0 0.4814894689798197 -0.13860759423628891 0 0.5 -0.15554394575881991 0 0.5 -0.12648091097781661 0 0.4814894689798197 -0.13860759423628891 0 0.4672296206109488 -0.12713301205304001 0 0.4672996880201587 -0.1432487468547359 0 0.4814894689798197 -0.13860759423628891 0 0.48287166513082408 -0.1152012235004482 0 0.4672296206109488 -0.12713301205304001 0 0.4814894689798197 -0.13860759423628891 0 0.46645008562764828 -0.23775825237900741 0 0.46895403097217597 -0.21492911446881291 0 0.46001264546510179 -0.22482863455928701 0 0.46645008562764828 -0.23775825237900741 0 0.46895403097217597 -0.21492911446881291 0 0.46001264546510179 -0.22482863455928701 0 0.45600683352492882 -0.23480748416078651 0 0.45077451697454679 -0.22186130929712661 0 0.46001264546510179 -0.22482863455928701 0 0.46645008562764828 -0.23775825237900741 0 0.45600683352492882 -0.23480748416078651 0 0.46001264546510179 -0.22482863455928701 0 0.45077451697454679 -0.22186130929712661 0 0.45787776022620907 -0.21478701249070151 0 0.46645008562764828 -0.23775825237900741 0 0.46394614028312348 -0.2605873902892023 0 0.46645008562764828 -0.23775825237900741 0 0.45781517377926711 -0.24836304585104971 0 0.46394614028312348 -0.2605873902892023 0 0.45781517377926711 -0.24836304585104971 0 0.45600683352492882 -0.23480748416078651 0 0.44874426076052287 -0.24094620944367401 0 0.46645008562764828 -0.23775825237900741 0 0.45781517377926711 -0.24836304585104971 0 0.45600683352492882 -0.23480748416078651 0 0.45600683352492882 -0.23480748416078651 0 0.44874426076052287 -0.24094620944367401 0 0.44635957685711541 -0.22998853139673919 0 0.43295679575361468 -0.23410766825536711 0 0.43679618942680321 -0.24759324892476209 0 0.44635957685711541 -0.22998853139673919 0 0.43679618942680321 -0.24759324892476209 0 0.45781517377926711 -0.24836304585104971 0 0.44874426076052287 -0.24094620944367401 0 0.43679618942680321 -0.24759324892476209 0 0.44874426076052287 -0.24094620944367401 0 0.44635957685711541 -0.22998853139673919 0 0.43679618942680321 -0.24759324892476209 0 0.44635957685711541 -0.22998853139673919 0 0.42177305004511167 -0.2177071839195534 0 0.44635957685711541 -0.22998853139673919 0 0.45077451697454679 -0.22186130929712661 0 0.45600683352492882 -0.23480748416078651 0 0.44635957685711541 -0.22998853139673919 0 0.45600683352492882 -0.23480748416078651 0 0.44635957685711541 -0.22998853139673919 0 0.45077451697454679 -0.22186130929712661 0 0.44635957685711541 -0.22998853139673919 0 0.45077451697454679 -0.22186130929712661 0 0.42177305004511167 -0.2177071839195534 0 0.45077451697454679 -0.22186130929712661 0 0.44678582809383288 -0.20956377484982269 0 0.45077451697454679 -0.22186130929712661 0 0.44678582809383288 -0.20956377484982269 0 0.45787776022620907 -0.21478701249070151 0 0.44470995620395559 -0.1832804846819435 0 0.43772875029522101 -0.19025534714383019 0 0.44796991125414037 -0.195330386101603 0 0.43695961172345432 -0.2025477690164387 0 0.44678582809383288 -0.20956377484982269 0 0.44796991125414037 -0.195330386101603 0 0.43695961172345432 -0.2025477690164387 0 0.43772875029522101 -0.19025534714383019 0 0.44796991125414037 -0.195330386101603 0 0.44678582809383288 -0.20956377484982269 0 0.44796991125414037 -0.195330386101603 0 0.45909861195150459 -0.2033756768423555 0 0.45248605490531307 -0.1853828634643723 0 0.44796991125414037 -0.195330386101603 0 0.45775313860691541 -0.1940472257417373 0 0.44470995620395559 -0.1832804846819435 0 0.45248605490531307 -0.1853828634643723 0 0.44796991125414037 -0.195330386101603 0 0.45248605490531307 -0.1853828634643723 0 0.45775313860691541 -0.1940472257417373 0 0.47145797631670872 -0.19209997655861891 0 0.44796991125414037 -0.195330386101603 0 0.45775313860691541 -0.1940472257417373 0 0.45909861195150459 -0.2033756768423555 0 0.45775313860691541 -0.1940472257417373 0 0.45909861195150459 -0.2033756768423555 0 0.47145797631670872 -0.19209997655861891 0 0.45909861195150459 -0.2033756768423555 0 0.46895403097217597 -0.21492911446881291 0 0.47145797631670872 -0.19209997655861891 0 0.44678582809383288 -0.20956377484982269 0 0.45787776022620907 -0.21478701249070151 0 0.45909861195150459 -0.2033756768423555 0 0.46001264546510179 -0.22482863455928701 0 0.45787776022620907 -0.21478701249070151 0 0.46895403097217597 -0.21492911446881291 0 0.45787776022620907 -0.21478701249070151 0 0.45909861195150459 -0.2033756768423555 0 0.46895403097217597 -0.21492911446881291 0 0.46895403097217597 -0.21492911446881291 0 0.47145797631670872 -0.19209997655861891 0 0.48572898815835808 -0.20288499593971859 0 0.46895403097217597 -0.21492911446881291 0 0.48572898815835808 -0.20288499593971859 0 0.4849101602892199 -0.2249797406094243 0 0.46895403097217597 -0.21492911446881291 0 0.47145797631670872 -0.19209997655861891 0 0.48393556774351781 -0.1785576790432116 0 0.47145797631670872 -0.19209997655861891 0 0.48572898815835808 -0.20288499593971859 0 0.47145797631670872 -0.19209997655861891 0 0.48572898815835808 -0.20288499593971859 0 0.48393556774351781 -0.1785576790432116 0 0.5 -0.1846069805398233 0 0.48572898815835808 -0.20288499593971859 0 0.5 -0.1846069805398233 0 0.48572898815835808 -0.20288499593971859 0 0.50000000000000111 -0.21367001532082661 0 0.48572898815835808 -0.20288499593971859 0 0.50000000000000111 -0.21367001532082661 0 0.4849101602892199 -0.2249797406094243 0 0.48572898815835808 -0.20288499593971859 0 0.50000000000000111 -0.21367001532082661 0 0.50000000000000111 -0.21367001532082661 0 0.4849101602892199 -0.2249797406094243 0 0.5 -0.23628946589802199 0 0.46645008562764828 -0.23775825237900741 0 0.46895403097217597 -0.21492911446881291 0 0.4849101602892199 -0.2249797406094243 0 0.46645008562764828 -0.23775825237900741 0 0.48272093426928342 -0.24813221861378351 0 0.46394614028312348 -0.2605873902892023 0 0.46645008562764828 -0.23775825237900741 0 0.4849101602892199 -0.2249797406094243 0 0.48272093426928342 -0.24813221861378351 0 0.4849101602892199 -0.2249797406094243 0 0.48272093426928342 -0.24813221861378351 0 0.5 -0.23628946589802199 0 0.48272093426928342 -0.24813221861378351 0 0.5 -0.23628946589802199 0 0.50000000000000022 -0.2589089164752173 0 0.48272093426928342 -0.24813221861378351 0 0.50000000000000022 -0.2589089164752173 0 0.48058745231784539 -0.26855202942292627 0 0.50000000000000022 -0.2589089164752173 0 0.48058745231784539 -0.26855202942292627 0 0.49999999999999761 -0.2778429997882374 0 0.48058745231784539 -0.26855202942292627 0 0.50000000000000022 -0.2589089164752173 0 0.49999999999999761 -0.2778429997882374 0 0.48058745231784539 -0.26855202942292627 0 0.49999999999999761 -0.2778429997882374 0 0.48058745231784539 -0.26855202942292627 0 0.47977467299032489 -0.29016222188021412 0 0.48058745231784539 -0.26855202942292627 0 0.46394614028312348 -0.2605873902892023 0 0.46206328984098971 -0.27775384022853972 0 0.48058745231784539 -0.26855202942292627 0 0.46206328984098971 -0.27775384022853972 0 0.48058745231784539 -0.26855202942292627 0 0.46206328984098971 -0.27775384022853972 0 0.47977467299032489 -0.29016222188021412 0 0.48058745231784539 -0.26855202942292627 0 0.46394614028312348 -0.2605873902892023 0 0.48272093426928342 -0.24813221861378351 0 0.48058745231784539 -0.26855202942292627 0 0.46394614028312348 -0.2605873902892023 0 0.46394614028312348 -0.2605873902892023 0 0.46206328984098971 -0.27775384022853972 0 0.46394614028312348 -0.2605873902892023 0 0.46206328984098971 -0.27775384022853972 0 0.4528106196054138 -0.27279241147162098 0 0.46394614028312348 -0.2605873902892023 0 0.4528106196054138 -0.27279241147162098 0 0.44447739608392861 -0.26481776755135122 0 0.46206328984098971 -0.27775384022853972 0 0.4528106196054138 -0.27279241147162098 0 0.45117408118149688 -0.28316301530097032 0 0.46206328984098971 -0.27775384022853972 0 0.45117408118149688 -0.28316301530097032 0 0.4528106196054138 -0.27279241147162098 0 0.4408282305489446 -0.2759873203715964 0 0.44447739608392861 -0.26481776755135122 0 0.4528106196054138 -0.27279241147162098 0 0.4408282305489446 -0.2759873203715964 0 0.45117408118149688 -0.28316301530097032 0 0.43679618942680321 -0.24759324892476209 0 0.45781517377926711 -0.24836304585104971 0 0.46394614028312348 -0.2605873902892023 0 0.43679618942680321 -0.24759324892476209 0 0.46394614028312348 -0.2605873902892023 0 0.43679618942680321 -0.24759324892476209 0 0.46394614028312348 -0.2605873902892023 0 0.44447739608392861 -0.26481776755135122 0 0.44428797279254939 -0.29818172915933822 0 0.45919279217171471 -0.3039249335017592 0 0.44438532143169562 -0.31759240001378403 0 0.44428797279254939 -0.29818172915933822 0 0.44438532143169562 -0.31759240001378403 0 0.42837018122455173 -0.31550401271643119 0 0.44428797279254939 -0.29818172915933822 0 0.45919279217171471 -0.3039249335017592 0 0.44428797279254939 -0.29818172915933822 0 0.44924891484071722 -0.29305635416775211 0 0.45919279217171471 -0.3039249335017592 0 0.44428797279254939 -0.29818172915933822 0 0.44134587876620668 -0.28803846030417712 0 0.42982823369146889 -0.29261002551883852 0 0.44428797279254939 -0.29818172915933822 0 0.44134587876620668 -0.28803846030417712 0 0.44924891484071722 -0.29305635416775211 0 0.4408282305489446 -0.2759873203715964 0 0.44134587876620668 -0.28803846030417712 0 0.45117408118149688 -0.28316301530097032 0 0.44134587876620668 -0.28803846030417712 0 0.45117408118149688 -0.28316301530097032 0 0.44924891484071722 -0.29305635416775211 0 0.46206328984098971 -0.27775384022853972 0 0.45919279217171471 -0.3039249335017592 0 0.46206328984098971 -0.27775384022853972 0 0.45919279217171471 -0.3039249335017592 0 0.47977467299032489 -0.29016222188021412 0 0.46206328984098971 -0.27775384022853972 0 0.45117408118149688 -0.28316301530097032 0 0.45919279217171471 -0.3039249335017592 0 0.45117408118149688 -0.28316301530097032 0 0.44924891484071722 -0.29305635416775211 0 0.45919279217171471 -0.3039249335017592 0 0.45919279217171471 -0.3039249335017592 0 0.47959639608585303 -0.31178695877159618 0 0.47977467299032489 -0.29016222188021412 0 0.45919279217171471 -0.3039249335017592 0 0.47959639608585303 -0.31178695877159618 0 0.49999999999999761 -0.2778429997882374 0 0.47977467299032489 -0.29016222188021412 0 0.5 -0.29874599191482742 0 0.47959639608585303 -0.31178695877159618 0 0.47977467299032489 -0.29016222188021412 0 0.5 -0.29874599191482742 0 0.47959639608585303 -0.31178695877159618 0 0.5 -0.29874599191482742 0 0.4999999999999975 -0.31964898404141739 0 0.47959639608585303 -0.31178695877159618 0 0.4999999999999975 -0.31964898404141739 0 0.48241956375434869 -0.33345046010183682 0 0.47959639608585303 -0.31178695877159618 0 0.4999999999999975 -0.31964898404141739 0 0.4999999999999975 -0.31964898404141739 0 0.48241956375434869 -0.33345046010183682 0 0.5 -0.34619104602219197 0 0.48241956375434869 -0.33345046010183682 0 0.47656073121243048 -0.35605010824893801 0 0.45594069147346011 -0.33357520342504038 0 0.47959639608585303 -0.31178695877159618 0 0.48241956375434869 -0.33345046010183682 0 0.45594069147346011 -0.33357520342504038 0 0.5 -0.37273310800296672 0 0.5 -0.34619104602219197 0 0.47656073121243048 -0.35605010824893801 0 0.48241956375434869 -0.33345046010183682 0 0.5 -0.34619104602219197 0 0.47656073121243048 -0.35605010824893801 0 0.5 -0.37273310800296672 0 0.47656073121243048 -0.35605010824893801 0 0.47068081142060902 -0.3761919778998995 0 0.47656073121243048 -0.35605010824893801 0 0.45268859077520129 -0.36322547334832123 0 0.47068081142060902 -0.3761919778998995 0 0.47656073121243048 -0.35605010824893801 0 0.45268859077520129 -0.36322547334832123 0 0.45594069147346011 -0.33357520342504038 0 0.45268859077520129 -0.36322547334832123 0 0.45594069147346011 -0.33357520342504038 0 0.45268859077520129 -0.36322547334832123 0 0.45594069147346011 -0.33357520342504038 0 0.43333517078260447 -0.33825488497581468 0 0.45268859077520129 -0.36322547334832123 0 0.4249570430374896 -0.36052883071842179 0 0.43695034529143922 -0.37661299463484388 0 0.45919279217171471 -0.3039249335017592 0 0.47959639608585303 -0.31178695877159618 0 0.45594069147346011 -0.33357520342504038 0 0.45919279217171471 -0.3039249335017592 0 0.45594069147346011 -0.33357520342504038 0 0.44438532143169562 -0.31759240001378403 0 0.45919279217171471 -0.3039249335017592 0 0.45594069147346011 -0.33357520342504038 0 0.45594069147346011 -0.33357520342504038 0 0.44438532143169562 -0.31759240001378403 0 0.43333517078260447 -0.33825488497581468 0 0.44438532143169562 -0.31759240001378403 0 0.42837018122455173 -0.31550401271643119 0 0.43333517078260447 -0.33825488497581468 0 0.42837018122455173 -0.31550401271643119 0 0.43333517078260447 -0.33825488497581468 0 0.41245238965655368 -0.33282629627352389 0 0.43333517078260447 -0.33825488497581468 0 0.41245238965655368 -0.33282629627352389 0 0.41231254148121887 -0.34867251672167809 0 0.41245238965655368 -0.33282629627352389 0 0.41094351480358032 -0.31670017193857419 0 0.40475582120082859 -0.32481853511539988 0 0.42837018122455173 -0.31550401271643119 0 0.41245238965655368 -0.33282629627352389 0 0.41094351480358032 -0.31670017193857419 0 0.42837018122455173 -0.31550401271643119 0 0.41094351480358032 -0.31670017193857419 0 0.41586428757738619 -0.30749211775629232 0 0.42837018122455173 -0.31550401271643119 0 0.41245238965655368 -0.33282629627352389 0 0.4249570430374896 -0.36052883071842179 0 0.43695034529143922 -0.37661299463484388 0 0.41857816804821307 -0.37652195374300751 0 0.45268859077520129 -0.36322547334832123 0 0.43333517078260447 -0.33825488497581468 0 0.4249570430374896 -0.36052883071842179 0 0.43333517078260447 -0.33825488497581468 0 0.4249570430374896 -0.36052883071842179 0 0.41231254148121887 -0.34867251672167809 0 0.41245238965655368 -0.33282629627352389 0 0.41231254148121887 -0.34867251672167809 0 0.39653459808855568 -0.35014857983061659 0 0.4249570430374896 -0.36052883071842179 0 0.41231254148121887 -0.34867251672167809 0 0.40048135584477551 -0.36836962315576571 0 0.4249570430374896 -0.36052883071842179 0 0.40048135584477551 -0.36836962315576571 0 0.41857816804821307 -0.37652195374300751 0 0.40048135584477551 -0.36836962315576571 0 0.39653459808855568 -0.35014857983061659 0 0.38061680652055768 -0.36747086338770929 0 0.41231254148121887 -0.34867251672167809 0 0.40048135584477551 -0.36836962315576571 0 0.39653459808855568 -0.35014857983061659 0 0.39653459808855568 -0.35014857983061659 0 0.37812036006775562 -0.34960855124578433 0 0.38061680652055768 -0.36747086338770929 0 0.37812036006775562 -0.34960855124578433 0 0.38061680652055768 -0.36747086338770929 0 0.36996133145160598 -0.36023730264341591 0 0.39653459808855568 -0.35014857983061659 0 0.37812036006775562 -0.34960855124578433 0 0.3846320073652616 -0.33393398201475949 0 0.39653459808855568 -0.35014857983061659 0 0.38061680652055768 -0.36747086338770929 0 0.38106560599041772 -0.38422257693441092 0 0.36996133145160598 -0.36023730264341591 0 0.40048135584477551 -0.36836962315576571 0 0.38061680652055768 -0.36747086338770929 0 0.38106560599041772 -0.38422257693441092 0 0.38061680652055768 -0.36747086338770929 0 0.38106560599041772 -0.38422257693441092 0 0.36996133145160598 -0.36023730264341591 0 0.39803894104391813 -0.31893935038899668 0 0.39758843929926241 -0.33080832186050479 0 0.38629836044967591 -0.31888515766723929 0 0.39803894104391813 -0.31893935038899668 0 0.38629836044967591 -0.31888515766723929 0 0.39249946461770191 -0.30584457858454528 0 0.41094351480358032 -0.31670017193857419 0 0.39803894104391813 -0.31893935038899668 0 0.40475582120082859 -0.32481853511539988 0 0.39803894104391813 -0.31893935038899668 0 0.40475582120082859 -0.32481853511539988 0 0.39758843929926241 -0.33080832186050479 0 0.41245238965655368 -0.33282629627352389 0 0.39653459808855568 -0.35014857983061659 0 0.39758843929926241 -0.33080832186050479 0 0.41245238965655368 -0.33282629627352389 0 0.39653459808855568 -0.35014857983061659 0 0.41245238965655368 -0.33282629627352389 0 0.40475582120082859 -0.32481853511539988 0 0.39758843929926241 -0.33080832186050479 0 0.39653459808855568 -0.35014857983061659 0 0.39758843929926241 -0.33080832186050479 0 0.3846320073652616 -0.33393398201475949 0 0.3846320073652616 -0.33393398201475949 0 0.38629836044967591 -0.31888515766723929 0 0.37169264343505448 -0.31797846638666422 0 0.39758843929926241 -0.33080832186050479 0 0.3846320073652616 -0.33393398201475949 0 0.38629836044967591 -0.31888515766723929 0 0.38629836044967591 -0.31888515766723929 0 0.38113190373938632 -0.3079846697156905 0 0.37169264343505448 -0.31797846638666422 0 0.38113190373938632 -0.3079846697156905 0 0.38539655399126399 -0.29570151141434958 0 0.37022958826419472 -0.30164140426498659 0 0.38113190373938632 -0.3079846697156905 0 0.39249946461770191 -0.30584457858454528 0 0.38539655399126399 -0.29570151141434958 0 0.38629836044967591 -0.31888515766723929 0 0.38113190373938632 -0.3079846697156905 0 0.39249946461770191 -0.30584457858454528 0 0.39803894104391813 -0.31893935038899668 0 0.40796729515116609 -0.3006627856413997 0 0.39803894104391813 -0.31893935038899668 0 0.39249946461770191 -0.30584457858454528 0 0.40796729515116609 -0.3006627856413997 0 0.41094351480358032 -0.31670017193857419 0 0.39803894104391813 -0.31893935038899668 0 0.40796729515116609 -0.3006627856413997 0 0.39249946461770191 -0.30584457858454528 0 0.39625761551711591 -0.29364761246784499 0 0.38539655399126399 -0.29570151141434958 0 0.39249946461770191 -0.30584457858454528 0 0.39625761551711591 -0.29364761246784499 0 0.40796729515116609 -0.3006627856413997 0 0.40516080559531231 -0.2831050408186071 0 0.39625761551711591 -0.29364761246784499 0 0.40796729515116609 -0.3006627856413997 0 0.40516080559531231 -0.2831050408186071 0 0.39625761551711591 -0.29364761246784499 0 0.38860395480651699 -0.28631023985389592 0 0.38539655399126399 -0.29570151141434958 0 0.37689872668576002 -0.28595447723164757 0 0.37022958826419472 -0.30164140426498659 0 0.38860395480651699 -0.28631023985389592 0 0.38539655399126399 -0.29570151141434958 0 0.37689872668576002 -0.28595447723164757 0 0.39625761551711591 -0.29364761246784499 0 0.38860395480651699 -0.28631023985389592 0 0.38539655399126399 -0.29570151141434958 0 0.38860395480651699 -0.28631023985389592 0 0.37689872668576002 -0.28595447723164757 0 0.37979275249412198 -0.2733300875619688 0 0.38732180210357081 -0.26633137906082088 0 0.38539108654939991 -0.2547026039085134 0 0.37003019641856699 -0.2500724246218291 0 0.38732180210357081 -0.26633137906082088 0 0.37003019641856699 -0.2500724246218291 0 0.37979275249412198 -0.2733300875619688 0 0.38732180210357081 -0.26633137906082088 0 0.37003019641856699 -0.2500724246218291 0 0.39603488220105482 -0.23636487141212789 0 0.38539108654939991 -0.2547026039085134 0 0.40032414499481489 -0.25947760245597012 0 0.38732180210357081 -0.26633137906082088 0 0.38539108654939991 -0.2547026039085134 0 0.40032414499481489 -0.25947760245597012 0 0.40516080559531231 -0.2831050408186071 0 0.40032414499481489 -0.25947760245597012 0 0.41120923857959701 -0.27276311818863108 0 0.40516080559531231 -0.2831050408186071 0 0.37979275249412198 -0.2733300875619688 0 0.40516080559531231 -0.2831050408186071 0 0.37979275249412198 -0.2733300875619688 0 0.38732180210357081 -0.26633137906082088 0 0.40516080559531231 -0.2831050408186071 0 0.38732180210357081 -0.26633137906082088 0 0.40516080559531231 -0.2831050408186071 0 0.40032414499481489 -0.25947760245597012 0 0.40516080559531231 -0.2831050408186071 0 0.38860395480651699 -0.28631023985389592 0 0.37979275249412198 -0.2733300875619688 0 0.40516080559531231 -0.2831050408186071 0 0.38732180210357081 -0.26633137906082088 0 0.40032414499481489 -0.25947760245597012 0 0.41120923857959701 -0.27276311818863108 0 0.41570623649989219 -0.25705162507750451 0 0.4260823420085989 -0.26731578540155332 0 0.4260823420085989 -0.26731578540155332 0 0.41536849459038772 -0.28703832187834077 0 0.41120923857959701 -0.27276311818863108 0 0.4260823420085989 -0.26731578540155332 0 0.41536849459038772 -0.28703832187834077 0 0.40516080559531231 -0.2831050408186071 0 0.41120923857959701 -0.27276311818863108 0 0.41536849459038772 -0.28703832187834077 0 0.40032414499481489 -0.25947760245597012 0 0.41120923857959701 -0.27276311818863108 0 0.41570623649989219 -0.25705162507750451 0 0.40641832676510292 -0.24873540157288401 0 0.40032414499481489 -0.25947760245597012 0 0.41570623649989219 -0.25705162507750451 0 0.43118120452824482 -0.2477301432797393 0 0.41570623649989219 -0.25705162507750451 0 0.4260823420085989 -0.26731578540155332 0 0.43679618942680321 -0.24759324892476209 0 0.43118120452824482 -0.2477301432797393 0 0.4260823420085989 -0.26731578540155332 0 0.43679618942680321 -0.24759324892476209 0 0.4260823420085989 -0.26731578540155332 0 0.43679618942680321 -0.24759324892476209 0 0.44447739608392861 -0.26481776755135122 0 0.4260823420085989 -0.26731578540155332 0 0.4260823420085989 -0.26731578540155332 0 0.43023018727166468 -0.28151183969633098 0 0.41536849459038772 -0.28703832187834077 0 0.4408282305489446 -0.2759873203715964 0 0.44447739608392861 -0.26481776755135122 0 0.4260823420085989 -0.26731578540155332 0 0.4408282305489446 -0.2759873203715964 0 0.4260823420085989 -0.26731578540155332 0 0.43023018727166468 -0.28151183969633098 0 0.44134587876620668 -0.28803846030417712 0 0.43023018727166468 -0.28151183969633098 0 0.42982823369146889 -0.29261002551883852 0 0.4408282305489446 -0.2759873203715964 0 0.44134587876620668 -0.28803846030417712 0 0.43023018727166468 -0.28151183969633098 0 0.44428797279254939 -0.29818172915933822 0 0.42982823369146889 -0.29261002551883852 0 0.42275684350851611 -0.29965024685378999 0 0.43023018727166468 -0.28151183969633098 0 0.42982823369146889 -0.29261002551883852 0 0.41536849459038772 -0.28703832187834077 0 0.42982823369146889 -0.29261002551883852 0 0.42275684350851611 -0.29965024685378999 0 0.41536849459038772 -0.28703832187834077 0 0.42982823369146889 -0.29261002551883852 0 0.41536849459038772 -0.28703832187834077 0 0.44428797279254939 -0.29818172915933822 0 0.42982823369146889 -0.29261002551883852 0 0.42837018122455173 -0.31550401271643119 0 0.42275684350851611 -0.29965024685378999 0 0.41586428757738619 -0.30749211775629232 0 0.44428797279254939 -0.29818172915933822 0 0.42837018122455173 -0.31550401271643119 0 0.44428797279254939 -0.29818172915933822 0 0.42837018122455173 -0.31550401271643119 0 0.42275684350851611 -0.29965024685378999 0 0.41094351480358032 -0.31670017193857419 0 0.41586428757738619 -0.30749211775629232 0 0.40796729515116609 -0.3006627856413997 0 0.41094351480358032 -0.31670017193857419 0 0.40796729515116609 -0.3006627856413997 0 0.42275684350851611 -0.29965024685378999 0 0.41498001131062712 -0.29964826128286631 0 0.41586428757738619 -0.30749211775629232 0 0.41498001131062712 -0.29964826128286631 0 0.41586428757738619 -0.30749211775629232 0 0.40796729515116609 -0.3006627856413997 0 0.41498001131062712 -0.29964826128286631 0 0.40796729515116609 -0.3006627856413997 0 0.41333161900543952 -0.29078789487998302 0 0.40796729515116609 -0.3006627856413997 0 0.41333161900543952 -0.29078789487998302 0 0.40516080559531231 -0.2831050408186071 0 0.40796729515116609 -0.3006627856413997 0 0.41333161900543952 -0.29078789487998302 0 0.40516080559531231 -0.2831050408186071 0 0.40796729515116609 -0.3006627856413997 0 0.40516080559531231 -0.2831050408186071 0 0.41333161900543952 -0.29078789487998302 0 0.40516080559531231 -0.2831050408186071 0 0.41536849459038772 -0.28703832187834077 0 0.40516080559531231 -0.2831050408186071 0 0.41333161900543952 -0.29078789487998302 0 0.41536849459038772 -0.28703832187834077 0 0.41333161900543952 -0.29078789487998302 0 0.41536849459038772 -0.28703832187834077 0 0.42275684350851611 -0.29965024685378999 0 0.41333161900543952 -0.29078789487998302 0 0.41536849459038772 -0.28703832187834077 0 0.42275684350851611 -0.29965024685378999 0 0.41333161900543952 -0.29078789487998302 0 0.42275684350851611 -0.29965024685378999 0 0.41498001131062712 -0.29964826128286631 0 0.41333161900543952 -0.29078789487998302 0 0.43768688810001571 -0.50000000000001832 0 0.45747917240037173 -0.48877670098199621 0 0.47561812582953561 -0.49262726072535512 0 0.43934021897120989 -0.48492614123862832 0 0.43955453885908552 -0.48297212962735142 0 0.45747917240037173 -0.48877670098199621 0 0.43768688810001571 -0.50000000000001832 0 0.43934021897120989 -0.48492614123862832 0 0.45747917240037173 -0.48877670098199621 0 0.43934021897120989 -0.48492614123862832 0 0.45747917240037173 -0.48877670098199621 0 0.43768688810001571 -0.50000000000001832 0 0.43934021897120989 -0.48492614123862832 0 0.43955453885908552 -0.48297212962735142 0 0.44203388952089301 -0.46036722800287538 0 0.43955453885908552 -0.48297212962735142 0 0.45970302590605677 -0.4799065219429467 0 0.43955453885908552 -0.48297212962735142 0 0.45970302590605677 -0.4799065219429467 0 0.45747917240037173 -0.48877670098199621 0 0.43934021897120989 -0.48492614123862832 0 0.43955453885908552 -0.48297212962735142 0 0.43955453885908552 -0.48297212962735142 0 0.45970302590605677 -0.4799065219429467 0 0.44203388952089301 -0.46036722800287538 0 0.43934021897120989 -0.48492614123862832 0 0.43955453885908552 -0.48297212962735142 0 0.43406789767116671 -0.48380692627227861 0 0.45970302590605677 -0.4799065219429467 0 0.47985151295302858 -0.47684091425854558 0 0.46646010079386102 -0.45998016774735612 0 0.45970302590605677 -0.4799065219429467 0 0.45747917240037173 -0.48877670098199621 0 0.47561812582953561 -0.49262726072535512 0 0.45747917240037173 -0.48877670098199621 0 0.47561812582953561 -0.49262726072535512 0 0.43768688810001571 -0.50000000000001832 0 0.47561812582953561 -0.49262726072535512 0 0.5 -0.5 0 0.47561812582953561 -0.49262726072535512 0 0.5 -0.5 0 0.47985151295302858 -0.47684091425854558 0 0.5 -0.5 0 0.50000000000000044 -0.47377530657414452 0 0.47985151295302858 -0.47684091425854558 0 0.50000000000000044 -0.47377530657414452 0 0.47985151295302858 -0.47684091425854558 0 0.4839221597250955 -0.45954319412610961 0 0.50000000000000044 -0.47377530657414452 0 0.47985151295302858 -0.47684091425854558 0 0.45970302590605677 -0.4799065219429467 0 0.47561812582953561 -0.49262726072535512 0 0.47985151295302858 -0.47684091425854558 0 0.45970302590605677 -0.4799065219429467 0 0.47985151295302858 -0.47684091425854558 0 0.47985151295302858 -0.47684091425854558 0 0.4839221597250955 -0.45954319412610961 0 0.46646010079386102 -0.45998016774735612 0 0.50000000000000044 -0.47377530657414452 0 0.4839221597250955 -0.45954319412610961 0 0.5 -0.44894192771067681 0 0.4839221597250955 -0.45954319412610961 0 0.5 -0.44894192771067681 0 0.47329918487858802 -0.43817765433982447 0 0.4839221597250955 -0.45954319412610961 0 0.47329918487858802 -0.43817765433982447 0 0.46646010079386102 -0.45998016774735612 0 0.47329918487858802 -0.43817765433982447 0 0.45880185008363028 -0.44520324192674859 0 0.46646010079386102 -0.45998016774735612 0 0.45880185008363028 -0.44520324192674859 0 0.46646010079386102 -0.45998016774735612 0 0.44203388952089301 -0.46036722800287538 0 0.45970302590605677 -0.4799065219429467 0 0.46646010079386102 -0.45998016774735612 0 0.44203388952089301 -0.46036722800287538 0 0.45880185008363028 -0.44520324192674859 0 0.44203388952089301 -0.46036722800287538 0 0.44451324018269961 -0.43776232637839951 0 0.44203388952089301 -0.46036722800287538 0 0.44451324018269961 -0.43776232637839951 0 0.44203388952089301 -0.46036722800287538 0 0.44451324018269961 -0.43776232637839951 0 0.43078670538288749 -0.45050759777436489 0 0.44451324018269961 -0.43776232637839951 0 0.44699259084450538 -0.41515742475392348 0 0.43301657678679922 -0.42748596291207153 0 0.44451324018269961 -0.43776232637839951 0 0.44699259084450538 -0.41515742475392348 0 0.45880185008363028 -0.44520324192674859 0 0.44451324018269961 -0.43776232637839951 0 0.45493716739372808 -0.42746722261661402 0 0.44451324018269961 -0.43776232637839951 0 0.44699259084450538 -0.41515742475392348 0 0.45493716739372808 -0.42746722261661402 0 0.44699259084450538 -0.41515742475392348 0 0.45876690351278893 -0.41332577498120188 0 0.44943649007694259 -0.39287574327160207 0 0.44699259084450538 -0.41515742475392348 0 0.45876690351278893 -0.41332577498120188 0 0.45876690351278893 -0.41332577498120188 0 0.46753519096743501 -0.42328967265161399 0 0.45493716739372808 -0.42746722261661402 0 0.44699259084450538 -0.41515742475392348 0 0.45876690351278893 -0.41332577498120188 0 0.45493716739372808 -0.42746722261661402 0 0.45876690351278893 -0.41332577498120188 0 0.46753519096743501 -0.42328967265161399 0 0.47073520823009629 -0.40839259797482241 0 0.47329918487858802 -0.43817765433982447 0 0.45880185008363028 -0.44520324192674859 0 0.45493716739372808 -0.42746722261661402 0 0.47329918487858802 -0.43817765433982447 0 0.46753519096743501 -0.42328967265161399 0 0.45493716739372808 -0.42746722261661402 0 0.47329918487858802 -0.43817765433982447 0 0.46753519096743501 -0.42328967265161399 0 0.48104797151909828 -0.41488651673748012 0 0.47329918487858802 -0.43817765433982447 0 0.5 -0.42410854884720922 0 0.48104797151909828 -0.41488651673748012 0 0.5 -0.44894192771067681 0 0.47329918487858802 -0.43817765433982447 0 0.5 -0.42410854884720922 0 0.5 -0.42410854884720922 0 0.48104797151909828 -0.41488651673748012 0 0.49999999999999811 -0.39927516998374141 0 0.48104797151909828 -0.41488651673748012 0 0.47073520823009629 -0.40839259797482241 0 0.4747182450384706 -0.39607545662766941 0 0.46753519096743501 -0.42328967265161399 0 0.48104797151909828 -0.41488651673748012 0 0.47073520823009629 -0.40839259797482241 0 0.48104797151909828 -0.41488651673748012 0 0.4747182450384706 -0.39607545662766941 0 0.49999999999999811 -0.39927516998374141 0 0.4747182450384706 -0.39607545662766941 0 0.49999999999999811 -0.39927516998374141 0 0.5 -0.37273310800296672 0 0.4747182450384706 -0.39607545662766941 0 0.49999999999999811 -0.39927516998374141 0 0.5 -0.37273310800296672 0 0.4747182450384706 -0.39607545662766941 0 0.47068081142060902 -0.3761919778998995 0 0.45268859077520129 -0.36322547334832123 0 0.47068081142060902 -0.3761919778998995 0 0.44943649007694259 -0.39287574327160207 0 0.4747182450384706 -0.39607545662766941 0 0.47068081142060902 -0.3761919778998995 0 0.44943649007694259 -0.39287574327160207 0 0.47073520823009629 -0.40839259797482241 0 0.4747182450384706 -0.39607545662766941 0 0.44943649007694259 -0.39287574327160207 0 0.4747182450384706 -0.39607545662766941 0 0.44943649007694259 -0.39287574327160207 0 0.45876690351278893 -0.41332577498120188 0 0.47073520823009629 -0.40839259797482241 0 0.44943649007694259 -0.39287574327160207 0 0.44699259084450538 -0.41515742475392348 0 0.44943649007694259 -0.39287574327160207 0 0.44943649007694259 -0.39287574327160207 0 0.42664619538143472 -0.38999135449253453 0 0.44699259084450538 -0.41515742475392348 0 0.44943649007694259 -0.39287574327160207 0 0.4363778791759152 -0.40354889289231971 0 0.45268859077520129 -0.36322547334832123 0 0.44943649007694259 -0.39287574327160207 0 0.45268859077520129 -0.36322547334832123 0 0.44943649007694259 -0.39287574327160207 0 0.43695034529143922 -0.37661299463484388 0 0.44943649007694259 -0.39287574327160207 0 0.43695034529143922 -0.37661299463484388 0 0.42664619538143472 -0.38999135449253453 0 0.43695034529143922 -0.37661299463484388 0 0.42664619538143472 -0.38999135449253453 0 0.41857816804821307 -0.37652195374300751 0 0.44943649007694259 -0.39287574327160207 0 0.42664619538143472 -0.38999135449253453 0 0.4363778791759152 -0.40354889289231971 0 0.42664619538143472 -0.38999135449253453 0 0.4363778791759152 -0.40354889289231971 0 0.42352599779545308 -0.40414336447760202 0 0.42664619538143472 -0.38999135449253453 0 0.42352599779545308 -0.40414336447760202 0 0.41084869118872852 -0.40086874580614451 0 0.42664619538143472 -0.38999135449253453 0 0.41084869118872852 -0.40086874580614451 0 0.40385590068592642 -0.38710696571347181 0 0.42352599779545308 -0.40414336447760202 0 0.41084869118872852 -0.40086874580614451 0 0.41301795353467041 -0.41143203431144731 0 0.42664619538143472 -0.38999135449253453 0 0.40385590068592642 -0.38710696571347181 0 0.42664619538143472 -0.38999135449253453 0 0.41857816804821307 -0.37652195374300751 0 0.40385590068592642 -0.38710696571347181 0 0.40048135584477551 -0.36836962315576571 0 0.41857816804821307 -0.37652195374300751 0 0.40385590068592642 -0.38710696571347181 0 0.40385590068592642 -0.38710696571347181 0 0.38106560599041772 -0.38422257693441092 0 0.40048135584477551 -0.36836962315576571 0 0.40385590068592642 -0.38710696571347181 0 0.38106560599041772 -0.38422257693441092 0 0.40385590068592642 -0.38710696571347181 0 0.38106560599041772 -0.38422257693441092 0 0.38448045442888168 -0.39159866225836087 0 0.38106560599041772 -0.38422257693441092 0 0.38448045442888168 -0.39159866225836087 0 0.37108342766752378 -0.39439822615218351 0 0.38106560599041772 -0.38422257693441092 0 0.38448045442888168 -0.39159866225836087 0 0.38010648487524001 -0.40314098309893459 0 0.38448045442888168 -0.39159866225836087 0 0.37108342766752378 -0.39439822615218351 0 0.38448045442888168 -0.39159866225836087 0 0.38763299424233599 -0.40007453517240438 0 0.39605094324742091 -0.39776648230283418 0 0.38010648487524001 -0.40314098309893459 0 0.38448045442888168 -0.39159866225836087 0 0.38763299424233599 -0.40007453517240438 0 0.38010648487524001 -0.40314098309893459 0 0.38763299424233599 -0.40007453517240438 0 0.38989409441780148 -0.40779201302948792 0 0.38763299424233599 -0.40007453517240438 0 0.39605094324742091 -0.39776648230283418 0 0.38989409441780148 -0.40779201302948792 0 0.39605094324742091 -0.39776648230283418 0 0.40068789360382018 -0.40973444424960348 0 0.38989409441780148 -0.40779201302948792 0 0.40385590068592642 -0.38710696571347181 0 0.38448045442888168 -0.39159866225836087 0 0.39605094324742091 -0.39776648230283418 0 0.41084869118872852 -0.40086874580614451 0 0.40385590068592642 -0.38710696571347181 0 0.39605094324742091 -0.39776648230283418 0 0.41084869118872852 -0.40086874580614451 0 0.39605094324742091 -0.39776648230283418 0 0.40068789360382018 -0.40973444424960348 0 0.40409119825128381 -0.42183130272936359 0 0.3914913008075066 -0.41568942665858771 0 0.38264050195467292 -0.42516824171708378 0 0.40068789360382018 -0.40973444424960348 0 0.40409119825128381 -0.42183130272936359 0 0.3914913008075066 -0.41568942665858771 0 0.40068789360382018 -0.40973444424960348 0 0.40409119825128381 -0.42183130272936359 0 0.41301795353467041 -0.41143203431144731 0 0.40068789360382018 -0.40973444424960348 0 0.3914913008075066 -0.41568942665858771 0 0.38989409441780148 -0.40779201302948792 0 0.38010648487524001 -0.40314098309893459 0 0.38989409441780148 -0.40779201302948792 0 0.38014281580995468 -0.41392113156739951 0 0.3914913008075066 -0.41568942665858771 0 0.38989409441780148 -0.40779201302948792 0 0.38014281580995468 -0.41392113156739951 0 0.3914913008075066 -0.41568942665858771 0 0.38014281580995468 -0.41392113156739951 0 0.38264050195467292 -0.42516824171708378 0 0.38014281580995468 -0.41392113156739951 0 0.38264050195467292 -0.42516824171708378 0 0.36899886092632578 -0.42125476026975878 0 0.38010648487524001 -0.40314098309893459 0 0.38014281580995468 -0.41392113156739951 0 0.36827903938138218 -0.40763365368296212 0 0.38264050195467292 -0.42516824171708378 0 0.38882643757395668 -0.43986967981473818 0 0.36849287917728218 -0.43642128723654411 0 0.38264050195467292 -0.42516824171708378 0 0.3961232273929759 -0.42793657393994561 0 0.38882643757395668 -0.43986967981473818 0 0.3961232273929759 -0.42793657393994561 0 0.41198983814982992 -0.42325450023742539 0 0.38882643757395668 -0.43986967981473818 0 0.40409119825128381 -0.42183130272936359 0 0.38264050195467292 -0.42516824171708378 0 0.3961232273929759 -0.42793657393994561 0 0.41198983814982992 -0.42325450023742539 0 0.40624528035264279 -0.4386207144859996 0 0.38882643757395668 -0.43986967981473818 0 0.41198983814982992 -0.42325450023742539 0 0.38882643757395668 -0.43986967981473818 0 0.40409119825128381 -0.42183130272936359 0 0.38264050195467292 -0.42516824171708378 0 0.40409119825128381 -0.42183130272936359 0 0.3961232273929759 -0.42793657393994561 0 0.41198983814982992 -0.42325450023742539 0 0.41616001083109888 -0.4350769978428301 0 0.41198983814982992 -0.42325450023742539 0 0.40624528035264279 -0.4386207144859996 0 0.41616001083109888 -0.4350769978428301 0 0.42195171586396418 -0.42799755904337961 0 0.42608344249493108 -0.43801814064301131 0 0.41616001083109888 -0.4350769978428301 0 0.41198983814982992 -0.42325450023742539 0 0.42195171586396418 -0.42799755904337961 0 0.41198983814982992 -0.42325450023742539 0 0.42554189454789448 -0.41849436374164339 0 0.42195171586396418 -0.42799755904337961 0 0.40409119825128381 -0.42183130272936359 0 0.42554189454789448 -0.41849436374164339 0 0.40409119825128381 -0.42183130272936359 0 0.41198983814982992 -0.42325450023742539 0 0.42554189454789448 -0.41849436374164339 0 0.40409119825128381 -0.42183130272936359 0 0.41301795353467041 -0.41143203431144731 0 0.42554189454789448 -0.41849436374164339 0 0.41084869118872852 -0.40086874580614451 0 0.40068789360382018 -0.40973444424960348 0 0.41301795353467041 -0.41143203431144731 0 0.42352599779545308 -0.40414336447760202 0 0.41301795353467041 -0.41143203431144731 0 0.42554189454789448 -0.41849436374164339 0 0.44699259084450538 -0.41515742475392348 0 0.4363778791759152 -0.40354889289231971 0 0.42554189454789448 -0.41849436374164339 0 0.44699259084450538 -0.41515742475392348 0 0.42554189454789448 -0.41849436374164339 0 0.43301657678679922 -0.42748596291207153 0 0.44699259084450538 -0.41515742475392348 0 0.42554189454789448 -0.41849436374164339 0 0.4363778791759152 -0.40354889289231971 0 0.42352599779545308 -0.40414336447760202 0 0.42554189454789448 -0.41849436374164339 0 0.44451324018269961 -0.43776232637839951 0 0.43301657678679922 -0.42748596291207153 0 0.42608344249493108 -0.43801814064301131 0 0.43301657678679922 -0.42748596291207153 0 0.42195171586396418 -0.42799755904337961 0 0.42608344249493108 -0.43801814064301131 0 0.42554189454789448 -0.41849436374164339 0 0.43301657678679922 -0.42748596291207153 0 0.42195171586396418 -0.42799755904337961 0 0.44451324018269961 -0.43776232637839951 0 0.42608344249493108 -0.43801814064301131 0 0.43078670538288749 -0.45050759777436489 0 0.42608344249493108 -0.43801814064301131 0 0.43078670538288749 -0.45050759777436489 0 0.4157048876206022 -0.44889264944036428 0 0.44203388952089301 -0.46036722800287538 0 0.43078670538288749 -0.45050759777436489 0 0.42559806709531162 -0.4674976444071739 0 0.43078670538288749 -0.45050759777436489 0 0.42559806709531162 -0.4674976444071739 0 0.4157048876206022 -0.44889264944036428 0 0.42559806709531162 -0.4674976444071739 0 0.40956049129192312 -0.46188806495695173 0 0.4157048876206022 -0.44889264944036428 0 0.40956049129192312 -0.46188806495695173 0 0.4157048876206022 -0.44889264944036428 0 0.40270859695606909 -0.44989966090183359 0 0.4157048876206022 -0.44889264944036428 0 0.40624528035264279 -0.4386207144859996 0 0.40270859695606909 -0.44989966090183359 0 0.41616001083109888 -0.4350769978428301 0 0.42608344249493108 -0.43801814064301131 0 0.4157048876206022 -0.44889264944036428 0 0.41616001083109888 -0.4350769978428301 0 0.4157048876206022 -0.44889264944036428 0 0.40624528035264279 -0.4386207144859996 0 0.40624528035264279 -0.4386207144859996 0 0.40270859695606909 -0.44989966090183359 0 0.38882643757395668 -0.43986967981473818 0 0.40270859695606909 -0.44989966090183359 0 0.38882643757395668 -0.43986967981473818 0 0.39320588794122058 -0.46022719581111421 0 0.38882643757395668 -0.43986967981473818 0 0.36566303699808372 -0.45648485939205069 0 0.38882643757395668 -0.43986967981473818 0 0.39320588794122058 -0.46022719581111421 0 0.36566303699808372 -0.45648485939205069 0 0.39320588794122058 -0.46022719581111421 0 0.38278472882531539 -0.47292047098471979 0 0.36566303699808372 -0.45648485939205069 0 0.40956049129192312 -0.46188806495695173 0 0.39320588794122058 -0.46022719581111421 0 0.40842631324824102 -0.47836369862849942 0 0.40956049129192312 -0.46188806495695173 0 0.40270859695606909 -0.44989966090183359 0 0.39320588794122058 -0.46022719581111421 0 0.38278472882531539 -0.47292047098471979 0 0.40842631324824102 -0.47836369862849942 0 0.39320588794122058 -0.46022719581111421 0 0.38278472882531539 -0.47292047098471979 0 0.40842631324824102 -0.47836369862849942 0 0.38278472882531539 -0.47292047098471979 0 0.38716093199487789 -0.5 0 0.40842631324824102 -0.47836369862849942 0 0.38278472882531539 -0.47292047098471979 0 0.37565693476665207 -0.48796573627190237 0 0.36754670737343459 -0.47930901342311227 0 0.38278472882531539 -0.47292047098471979 0 0.38716093199487789 -0.5 0 0.37565693476665207 -0.48796573627190237 0 0.38716093199487789 -0.5 0 0.41242391004744677 -0.5 0 0.40842631324824102 -0.47836369862849942 0 0.41242391004744677 -0.5 0 0.40842631324824102 -0.47836369862849942 0 0.42300950502815782 -0.490564223175743 0 0.42559806709531162 -0.4674976444071739 0 0.40956049129192312 -0.46188806495695173 0 0.40842631324824102 -0.47836369862849942 0 0.40842631324824102 -0.47836369862849942 0 0.43406789767116671 -0.48380692627227861 0 0.42300950502815782 -0.490564223175743 0 0.40842631324824102 -0.47836369862849942 0 0.43406789767116671 -0.48380692627227861 0 0.43955453885908552 -0.48297212962735142 0 0.42559806709531162 -0.4674976444071739 0 0.43406789767116671 -0.48380692627227861 0 0.42559806709531162 -0.4674976444071739 0 0.40842631324824102 -0.47836369862849942 0 0.43406789767116671 -0.48380692627227861 0 0.43955453885908552 -0.48297212962735142 0 0.44203388952089301 -0.46036722800287538 0 0.42559806709531162 -0.4674976444071739 0 0.43934021897120989 -0.48492614123862832 0 0.43406789767116671 -0.48380692627227861 0 0.43955453885908552 -0.48297212962735142 0 0.43406789767116671 -0.48380692627227861 0 0.43768688810001571 -0.50000000000001832 0 0.43934021897120989 -0.48492614123862832 0 0.43406789767116671 -0.48380692627227861 0 0.43768688810001571 -0.50000000000001832 0 0.43406789767116671 -0.48380692627227861 0 0.42300950502815782 -0.490564223175743 0 0.43768688810001571 -0.50000000000001832 0 0.41242391004744677 -0.5 0 0.42300950502815782 -0.490564223175743 0 0.32017058112319718 -0.50000000000000333 0 0.32366047723337382 -0.47574480305581912 0 0.32017058112319718 -0.50000000000000333 0 0.32366047723337382 -0.47574480305581912 0 0.32943434586487769 -0.48785439310013862 0 0.32017058112319718 -0.50000000000000333 0 0.32366047723337382 -0.47574480305581912 0 0.29856348212077288 -0.47522939218556198 0 0.32366047723337382 -0.47574480305581912 0 0.33622369317039558 -0.47559380581996341 0 0.32943434586487769 -0.48785439310013862 0 0.32366047723337382 -0.47574480305581912 0 0.33622369317039558 -0.47559380581996341 0 0.3310523832675395 -0.46349140819780482 0 0.33622369317039558 -0.47559380581996341 0 0.34249963642221071 -0.47310003896936342 0 0.34336908417922762 -0.48355883104507308 0 0.32017058112319718 -0.50000000000000333 0 0.33663497588974012 -0.50000000000000033 0 0.32943434586487769 -0.48785439310013862 0 0.33622369317039558 -0.47559380581996341 0 0.34336908417922762 -0.48355883104507308 0 0.33663497588974012 -0.50000000000000033 0 0.33622369317039558 -0.47559380581996341 0 0.33663497588974012 -0.50000000000000033 0 0.34336908417922762 -0.48355883104507308 0 0.33663497588974012 -0.50000000000000033 0 0.34706514130563421 -0.48929645388945242 0 0.33622369317039558 -0.47559380581996341 0 0.33663497588974012 -0.50000000000000033 0 0.32943434586487769 -0.48785439310013862 0 0.34706514130563421 -0.48929645388945242 0 0.36189795394230911 -0.5 0 0.35442197410815762 -0.47980385654658642 0 0.33663497588974012 -0.50000000000000033 0 0.34706514130563421 -0.48929645388945242 0 0.36189795394230911 -0.5 0 0.38716093199487789 -0.5 0 0.37565693476665207 -0.48796573627190237 0 0.36189795394230911 -0.5 0 0.37565693476665207 -0.48796573627190237 0 0.36189795394230911 -0.5 0 0.36754670737343459 -0.47930901342311227 0 0.36189795394230911 -0.5 0 0.36754670737343459 -0.47930901342311227 0 0.35442197410815762 -0.47980385654658642 0 0.36754670737343459 -0.47930901342311227 0 0.35442197410815762 -0.47980385654658642 0 0.36566303699808372 -0.45648485939205069 0 0.38278472882531539 -0.47292047098471979 0 0.36754670737343459 -0.47930901342311227 0 0.36566303699808372 -0.45648485939205069 0 0.34249963642221071 -0.47310003896936342 0 0.35442197410815762 -0.47980385654658642 0 0.36566303699808372 -0.45648485939205069 0 0.34336908417922762 -0.48355883104507308 0 0.34706514130563421 -0.48929645388945242 0 0.35442197410815762 -0.47980385654658642 0 0.34249963642221071 -0.47310003896936342 0 0.34336908417922762 -0.48355883104507308 0 0.35442197410815762 -0.47980385654658642 0 0.34249963642221071 -0.47310003896936342 0 0.36566303699808372 -0.45648485939205069 0 0.34249963642221071 -0.47310003896936342 0 0.34821599180910029 -0.45618899094542642 0 0.36566303699808372 -0.45648485939205069 0 0.38882643757395668 -0.43986967981473818 0 0.36566303699808372 -0.45648485939205069 0 0.36849287917728218 -0.43642128723654411 0 0.36566303699808372 -0.45648485939205069 0 0.35188553300586223 -0.44519600476940752 0 0.36849287917728218 -0.43642128723654411 0 0.34821599180910029 -0.45618899094542642 0 0.36566303699808372 -0.45648485939205069 0 0.35188553300586223 -0.44519600476940752 0 0.34821599180910029 -0.45618899094542642 0 0.35188553300586223 -0.44519600476940752 0 0.33581241045105098 -0.45118761163992649 0 0.35188553300586223 -0.44519600476940752 0 0.33785250562360353 -0.43907663504587258 0 0.3522294722835036 -0.43073312716839918 0 0.32715037334354979 -0.45148960611163469 0 0.33064026945372588 -0.42723440916745042 0 0.33785250562360353 -0.43907663504587258 0 0.32715037334354979 -0.45148960611163469 0 0.33064026945372588 -0.42723440916745042 0 0.35188553300586223 -0.44519600476940752 0 0.33785250562360353 -0.43907663504587258 0 0.33581241045105098 -0.45118761163992649 0 0.33785250562360353 -0.43907663504587258 0 0.33581241045105098 -0.45118761163992649 0 0.32715037334354979 -0.45148960611163469 0 0.34249963642221071 -0.47310003896936342 0 0.34821599180910029 -0.45618899094542642 0 0.33581241045105098 -0.45118761163992649 0 0.33622369317039558 -0.47559380581996341 0 0.33581241045105098 -0.45118761163992649 0 0.33622369317039558 -0.47559380581996341 0 0.33581241045105098 -0.45118761163992649 0 0.3310523832675395 -0.46349140819780482 0 0.33622369317039558 -0.47559380581996341 0 0.34249963642221071 -0.47310003896936342 0 0.33581241045105098 -0.45118761163992649 0 0.33581241045105098 -0.45118761163992649 0 0.3310523832675395 -0.46349140819780482 0 0.32715037334354979 -0.45148960611163469 0 0.32366047723337382 -0.47574480305581912 0 0.3310523832675395 -0.46349140819780482 0 0.32715037334354979 -0.45148960611163469 0 0.32366047723337382 -0.47574480305581912 0 0.32715037334354979 -0.45148960611163469 0 0.30592245240487193 -0.44627996086014582 0 0.32366047723337382 -0.47574480305581912 0 0.32715037334354979 -0.45148960611163469 0 0.32715037334354979 -0.45148960611163469 0 0.33064026945372588 -0.42723440916745042 0 0.30592245240487193 -0.44627996086014582 0 0.31281595039525062 -0.42035731438653412 0 0.33064026945372588 -0.42723440916745042 0 0.30592245240487193 -0.44627996086014582 0 0.31281595039525062 -0.42035731438653412 0 0.33064026945372588 -0.42723440916745042 0 0.33413016556390202 -0.40297921222326599 0 0.31281595039525062 -0.42035731438653412 0 0.33413016556390202 -0.40297921222326599 0 0.30707643852536209 -0.40213483414866708 0 0.33064026945372588 -0.42723440916745042 0 0.33413016556390202 -0.40297921222326599 0 0.33064026945372588 -0.42723440916745042 0 0.35125065918430209 -0.41469255789058762 0 0.33413016556390202 -0.40297921222326599 0 0.33785250562360353 -0.43907663504587258 0 0.33064026945372588 -0.42723440916745042 0 0.3522294722835036 -0.43073312716839918 0 0.35188553300586223 -0.44519600476940752 0 0.3522294722835036 -0.43073312716839918 0 0.36849287917728218 -0.43642128723654411 0 0.33064026945372588 -0.42723440916745042 0 0.3522294722835036 -0.43073312716839918 0 0.35125065918430209 -0.41469255789058762 0 0.3522294722835036 -0.43073312716839918 0 0.36899886092632578 -0.42125476026975878 0 0.35125065918430209 -0.41469255789058762 0 0.3522294722835036 -0.43073312716839918 0 0.36849287917728218 -0.43642128723654411 0 0.36899886092632578 -0.42125476026975878 0 0.38264050195467292 -0.42516824171708378 0 0.36849287917728218 -0.43642128723654411 0 0.36899886092632578 -0.42125476026975878 0 0.36827903938138218 -0.40763365368296212 0 0.36899886092632578 -0.42125476026975878 0 0.35125065918430209 -0.41469255789058762 0 0.38014281580995468 -0.41392113156739951 0 0.36827903938138218 -0.40763365368296212 0 0.36899886092632578 -0.42125476026975878 0 0.36827903938138218 -0.40763365368296212 0 0.35125065918430209 -0.41469255789058762 0 0.35322614749697362 -0.39832018483168907 0 0.35125065918430209 -0.41469255789058762 0 0.35322614749697362 -0.39832018483168907 0 0.33413016556390202 -0.40297921222326599 0 0.36827903938138218 -0.40763365368296212 0 0.35322614749697362 -0.39832018483168907 0 0.37108342766752378 -0.39439822615218351 0 0.35322614749697362 -0.39832018483168907 0 0.37108342766752378 -0.39439822615218351 0 0.35934283383224802 -0.38147329610674569 0 0.38010648487524001 -0.40314098309893459 0 0.36827903938138218 -0.40763365368296212 0 0.37108342766752378 -0.39439822615218351 0 0.38106560599041772 -0.38422257693441092 0 0.35934283383224802 -0.38147329610674569 0 0.36996133145160598 -0.36023730264341591 0 0.38106560599041772 -0.38422257693441092 0 0.37108342766752378 -0.39439822615218351 0 0.35934283383224802 -0.38147329610674569 0 0.38106560599041772 -0.38422257693441092 0 0.35934283383224802 -0.38147329610674569 0 0.35934283383224802 -0.38147329610674569 0 0.3376200616740781 -0.37872401527908162 0 0.35480725340554509 -0.36593265254953822 0 0.35934283383224802 -0.38147329610674569 0 0.3376200616740781 -0.37872401527908162 0 0.35322614749697362 -0.39832018483168907 0 0.35934283383224802 -0.38147329610674569 0 0.3376200616740781 -0.37872401527908162 0 0.3376200616740781 -0.37872401527908162 0 0.33413016556390202 -0.40297921222326599 0 0.32221411795302191 -0.38933608413335991 0 0.35322614749697362 -0.39832018483168907 0 0.3376200616740781 -0.37872401527908162 0 0.33413016556390202 -0.40297921222326599 0 0.3376200616740781 -0.37872401527908162 0 0.33413016556390202 -0.40297921222326599 0 0.33413016556390202 -0.40297921222326599 0 0.32221411795302191 -0.38933608413335991 0 0.30707643852536209 -0.40213483414866708 0 0.3376200616740781 -0.37872401527908162 0 0.30989565857798401 -0.37521515511448161 0 0.32221411795302191 -0.38933608413335991 0 0.30989565857798401 -0.37521515511448161 0 0.30707643852536209 -0.40213483414866708 0 0.3376200616740781 -0.37872401527908162 0 0.32221411795302191 -0.38933608413335991 0 0.30989565857798401 -0.37521515511448161 0 0.30707643852536209 -0.40213483414866708 0 0.29343154267432631 -0.38733841672504787 0 0.27458281811206903 -0.40029738268716247 0 0.30989565857798401 -0.37521515511448161 0 0.30707643852536209 -0.40213483414866708 0 0.29343154267432631 -0.38733841672504787 0 0.30989565857798401 -0.37521515511448161 0 0.29343154267432631 -0.38733841672504787 0 0.28217125548189032 -0.37170629494987961 0 0.29343154267432631 -0.38733841672504787 0 0.27458281811206903 -0.40029738268716247 0 0.28217125548189032 -0.37170629494987961 0 0.27458281811206903 -0.40029738268716247 0 0.28217125548189032 -0.37170629494987961 0 0.25997539670113562 -0.38830829666215161 0 0.28217125548189032 -0.37170629494987961 0 0.26151325727369429 -0.36909177420648021 0 0.25997539670113562 -0.38830829666215161 0 0.27458281811206903 -0.40029738268716247 0 0.28217125548189032 -0.37170629494987961 0 0.25997539670113562 -0.38830829666215161 0 0.26151325727369429 -0.36909177420648021 0 0.242977157099936 -0.38347311256694128 0 0.25997539670113562 -0.38830829666215161 0 0.27458281811206903 -0.40029738268716247 0 0.25249472278986829 -0.40879689321486429 0 0.25997539670113562 -0.38830829666215161 0 0.25249472278986829 -0.40879689321486429 0 0.2466675862979518 -0.39475002798422743 0 0.27458281811206903 -0.40029738268716247 0 0.26829286893889981 -0.4218138367617002 0 0.29246051284776931 -0.42132938982163087 0 0.27458281811206903 -0.40029738268716247 0 0.26829286893889981 -0.4218138367617002 0 0.25249472278986829 -0.40879689321486429 0 0.26829286893889981 -0.4218138367617002 0 0.25249472278986829 -0.40879689321486429 0 0.2498911115155649 -0.42427291429165542 0 0.26829286893889981 -0.4218138367617002 0 0.26033298464097382 -0.43709799622460371 0 0.2498911115155649 -0.42427291429165542 0 0.26829286893889981 -0.4218138367617002 0 0.29246051284776931 -0.42132938982163087 0 0.27999506372715349 -0.4390884443302846 0 0.26829286893889981 -0.4218138367617002 0 0.26033298464097382 -0.43709799622460371 0 0.27999506372715349 -0.4390884443302846 0 0.30707643852536209 -0.40213483414866708 0 0.27458281811206903 -0.40029738268716247 0 0.29246051284776931 -0.42132938982163087 0 0.29246051284776931 -0.42132938982163087 0 0.30592245240487193 -0.44627996086014582 0 0.27999506372715349 -0.4390884443302846 0 0.31281595039525062 -0.42035731438653412 0 0.30707643852536209 -0.40213483414866708 0 0.29246051284776931 -0.42132938982163087 0 0.31281595039525062 -0.42035731438653412 0 0.29246051284776931 -0.42132938982163087 0 0.30592245240487193 -0.44627996086014582 0 0.32366047723337382 -0.47574480305581912 0 0.30592245240487193 -0.44627996086014582 0 0.29856348212077288 -0.47522939218556198 0 0.30592245240487193 -0.44627996086014582 0 0.28157655886342181 -0.46085304941375438 0 0.29856348212077288 -0.47522939218556198 0 0.30592245240487193 -0.44627996086014582 0 0.28157655886342181 -0.46085304941375438 0 0.27999506372715349 -0.4390884443302846 0 0.28157655886342181 -0.46085304941375438 0 0.27999506372715349 -0.4390884443302846 0 0.26084462184677781 -0.45581420922246962 0 0.26033298464097382 -0.43709799622460371 0 0.27999506372715349 -0.4390884443302846 0 0.26084462184677781 -0.45581420922246962 0 0.26033298464097382 -0.43709799622460371 0 0.26084462184677781 -0.45581420922246962 0 0.23718543449872059 -0.44921090474647862 0 0.26084462184677781 -0.45581420922246962 0 0.26529414064879231 -0.47511612983795909 0 0.24016661744764731 -0.47460545237324159 0 0.28157655886342181 -0.46085304941375438 0 0.26084462184677781 -0.45581420922246962 0 0.26529414064879231 -0.47511612983795909 0 0.28157655886342181 -0.46085304941375438 0 0.26529414064879231 -0.47511612983795909 0 0.28189463480347232 -0.48521168725700708 0 0.26529414064879231 -0.47511612983795909 0 0.268822060638782 -0.5 0 0.24314780039657441 -0.50000000000000466 0 0.26529414064879231 -0.47511612983795909 0 0.268822060638782 -0.5 0 0.28189463480347232 -0.48521168725700708 0 0.28189463480347232 -0.48521168725700708 0 0.29449632088098959 -0.5 0 0.29856348212077288 -0.47522939218556198 0 0.268822060638782 -0.5 0 0.28189463480347232 -0.48521168725700708 0 0.29449632088098959 -0.5 0 0.28157655886342181 -0.46085304941375438 0 0.28189463480347232 -0.48521168725700708 0 0.29856348212077288 -0.47522939218556198 0 0.32017058112319718 -0.50000000000000333 0 0.29449632088098959 -0.5 0 0.29856348212077288 -0.47522939218556198 0 0.33802406790727269 -0.29089168919229352 0 0.32087493336369088 -0.29602993769359393 0 0.33105975041479713 -0.31632468016461252 0 0.33802406790727269 -0.29089168919229352 0 0.34775278237398821 -0.31226675406142351 0 0.33105975041479713 -0.31632468016461252 0 0.31360198415099833 -0.31161956802404828 0 0.32087493336369088 -0.29602993769359393 0 0.33105975041479713 -0.31632468016461252 0 0.31360198415099833 -0.31161956802404828 0 0.32087493336369088 -0.29602993769359393 0 0.30523963176401597 -0.29007884917129217 0 0.32087493336369088 -0.29602993769359393 0 0.31988696225710789 -0.27209734512864869 0 0.30523963176401597 -0.29007884917129217 0 0.33802406790727269 -0.29089168919229352 0 0.32087493336369088 -0.29602993769359393 0 0.31988696225710789 -0.27209734512864869 0 0.31988696225710789 -0.27209734512864869 0 0.30523963176401597 -0.29007884917129217 0 0.30514863394351938 -0.24456781846687009 0 0.31988696225710789 -0.27209734512864869 0 0.3300300067937203 -0.25415524149856972 0 0.31988696225710789 -0.27209734512864869 0 0.3300300067937203 -0.25415524149856972 0 0.33801658134464491 -0.2705083071694882 0 0.3300300067937203 -0.25415524149856972 0 0.35491137964392122 -0.26374266453026918 0 0.3300300067937203 -0.25415524149856972 0 0.33801658134464491 -0.2705083071694882 0 0.35491137964392122 -0.26374266453026918 0 0.34617581742362552 -0.24933337889286039 0 0.3300300067937203 -0.25415524149856972 0 0.35491137964392122 -0.26374266453026918 0 0.33802406790727269 -0.29089168919229352 0 0.31988696225710789 -0.27209734512864869 0 0.33801658134464491 -0.2705083071694882 0 0.33802406790727269 -0.29089168919229352 0 0.33801658134464491 -0.2705083071694882 0 0.3508299911661647 -0.27852531133740632 0 0.33801658134464491 -0.2705083071694882 0 0.3508299911661647 -0.27852531133740632 0 0.35491137964392122 -0.26374266453026918 0 0.3508299911661647 -0.27852531133740632 0 0.35491137964392122 -0.26374266453026918 0 0.36411491189500822 -0.27842818669807062 0 0.34617581742362552 -0.24933337889286039 0 0.35491137964392122 -0.26374266453026918 0 0.37003019641856699 -0.2500724246218291 0 0.37979275249412198 -0.2733300875619688 0 0.35491137964392122 -0.26374266453026918 0 0.37003019641856699 -0.2500724246218291 0 0.37979275249412198 -0.2733300875619688 0 0.35491137964392122 -0.26374266453026918 0 0.37979275249412198 -0.2733300875619688 0 0.35491137964392122 -0.26374266453026918 0 0.36411491189500822 -0.27842818669807062 0 0.37689872668576002 -0.28595447723164757 0 0.37979275249412198 -0.2733300875619688 0 0.36411491189500822 -0.27842818669807062 0 0.37689872668576002 -0.28595447723164757 0 0.36411491189500822 -0.27842818669807062 0 0.35814170948507268 -0.29058839282906102 0 0.37689872668576002 -0.28595447723164757 0 0.35814170948507268 -0.29058839282906102 0 0.37022958826419472 -0.30164140426498659 0 0.33802406790727269 -0.29089168919229352 0 0.3508299911661647 -0.27852531133740632 0 0.35814170948507268 -0.29058839282906102 0 0.3508299911661647 -0.27852531133740632 0 0.36411491189500822 -0.27842818669807062 0 0.35814170948507268 -0.29058839282906102 0 0.35814170948507268 -0.29058839282906102 0 0.34775278237398821 -0.31226675406142351 0 0.37022958826419472 -0.30164140426498659 0 0.33802406790727269 -0.29089168919229352 0 0.35814170948507268 -0.29058839282906102 0 0.34775278237398821 -0.31226675406142351 0 0.38113190373938632 -0.3079846697156905 0 0.37022958826419472 -0.30164140426498659 0 0.37169264343505448 -0.31797846638666422 0 0.34775278237398821 -0.31226675406142351 0 0.37022958826419472 -0.30164140426498659 0 0.37169264343505448 -0.31797846638666422 0 0.34775278237398821 -0.31226675406142351 0 0.37169264343505448 -0.31797846638666422 0 0.35885705691279712 -0.33625202835241969 0 0.3846320073652616 -0.33393398201475949 0 0.37169264343505448 -0.31797846638666422 0 0.35885705691279712 -0.33625202835241969 0 0.37812036006775562 -0.34960855124578433 0 0.3846320073652616 -0.33393398201475949 0 0.35885705691279712 -0.33625202835241969 0 0.34775278237398821 -0.31226675406142351 0 0.35885705691279712 -0.33625202835241969 0 0.33864795288900762 -0.33730268550903808 0 0.34775278237398821 -0.31226675406142351 0 0.35885705691279712 -0.33625202835241969 0 0.35934283383224802 -0.38147329610674569 0 0.36996133145160598 -0.36023730264341591 0 0.35480725340554509 -0.36593265254953822 0 0.35885705691279712 -0.33625202835241969 0 0.36996133145160598 -0.36023730264341591 0 0.35885705691279712 -0.33625202835241969 0 0.36996133145160598 -0.36023730264341591 0 0.35480725340554509 -0.36593265254953822 0 0.37812036006775562 -0.34960855124578433 0 0.35885705691279712 -0.33625202835241969 0 0.36996133145160598 -0.36023730264341591 0 0.35885705691279712 -0.33625202835241969 0 0.34056902391331279 -0.35822837367959831 0 0.33864795288900762 -0.33730268550903808 0 0.35885705691279712 -0.33625202835241969 0 0.35480725340554509 -0.36593265254953822 0 0.34056902391331279 -0.35822837367959831 0 0.3376200616740781 -0.37872401527908162 0 0.35480725340554509 -0.36593265254953822 0 0.34056902391331279 -0.35822837367959831 0 0.3376200616740781 -0.37872401527908162 0 0.34056902391331279 -0.35822837367959831 0 0.32657434091258181 -0.36655341470551428 0 0.3376200616740781 -0.37872401527908162 0 0.34056902391331279 -0.35822837367959831 0 0.34056902391331279 -0.35822837367959831 0 0.31821261948495222 -0.35404611474889491 0 0.32657434091258181 -0.36655341470551428 0 0.34056902391331279 -0.35822837367959831 0 0.31821261948495222 -0.35404611474889491 0 0.33864795288900762 -0.33730268550903808 0 0.30989565857798401 -0.37521515511448161 0 0.31821261948495222 -0.35404611474889491 0 0.32657434091258181 -0.36655341470551428 0 0.3376200616740781 -0.37872401527908162 0 0.30989565857798401 -0.37521515511448161 0 0.32657434091258181 -0.36655341470551428 0 0.34775278237398821 -0.31226675406142351 0 0.33105975041479713 -0.31632468016461252 0 0.33864795288900762 -0.33730268550903808 0 0.33105975041479713 -0.31632468016461252 0 0.33864795288900762 -0.33730268550903808 0 0.32221090119429557 -0.33149036323225273 0 0.31821261948495222 -0.35404611474889491 0 0.33864795288900762 -0.33730268550903808 0 0.32221090119429557 -0.33149036323225273 0 0.31821261948495222 -0.35404611474889491 0 0.32221090119429557 -0.33149036323225273 0 0.30548994957038927 -0.34014813506759201 0 0.31360198415099833 -0.31161956802404828 0 0.33105975041479713 -0.31632468016461252 0 0.32221090119429557 -0.33149036323225273 0 0.31360198415099833 -0.31161956802404828 0 0.32221090119429557 -0.33149036323225273 0 0.30925598707953422 -0.32570197239326237 0 0.31360198415099833 -0.31161956802404828 0 0.30925598707953422 -0.32570197239326237 0 0.29500632552181077 -0.32334737785780959 0 0.31360198415099833 -0.31161956802404828 0 0.29500632552181077 -0.32334737785780959 0 0.29059230127092428 -0.30806035321393582 0 0.32221090119429557 -0.33149036323225273 0 0.30925598707953422 -0.32570197239326237 0 0.30548994957038927 -0.34014813506759201 0 0.30925598707953422 -0.32570197239326237 0 0.30548994957038927 -0.34014813506759201 0 0.29500632552181077 -0.32334737785780959 0 0.29500632552181077 -0.32334737785780959 0 0.28858879050185038 -0.34752683640384457 0 0.30548994957038927 -0.34014813506759201 0 0.29500632552181077 -0.32334737785780959 0 0.28858879050185038 -0.34752683640384457 0 0.29500632552181077 -0.32334737785780959 0 0.28858879050185038 -0.34752683640384457 0 0.27594497077783242 -0.3260418572565793 0 0.27594497077783242 -0.3260418572565793 0 0.29059230127092428 -0.30806035321393582 0 0.29500632552181077 -0.32334737785780959 0 0.27594497077783242 -0.3260418572565793 0 0.29059230127092428 -0.30806035321393582 0 0.30989565857798401 -0.37521515511448161 0 0.31821261948495222 -0.35404611474889491 0 0.29916264593105901 -0.36021355986696202 0 0.30989565857798401 -0.37521515511448161 0 0.29916264593105901 -0.36021355986696202 0 0.28217125548189032 -0.37170629494987961 0 0.30548994957038927 -0.34014813506759201 0 0.29916264593105901 -0.36021355986696202 0 0.28858879050185038 -0.34752683640384457 0 0.31821261948495222 -0.35404611474889491 0 0.30548994957038927 -0.34014813506759201 0 0.29916264593105901 -0.36021355986696202 0 0.28858879050185038 -0.34752683640384457 0 0.28217125548189032 -0.37170629494987961 0 0.27360252903113241 -0.35649066937953661 0 0.30989565857798401 -0.37521515511448161 0 0.28217125548189032 -0.37170629494987961 0 0.28858879050185038 -0.34752683640384457 0 0.28217125548189032 -0.37170629494987961 0 0.29916264593105901 -0.36021355986696202 0 0.28858879050185038 -0.34752683640384457 0 0.28217125548189032 -0.37170629494987961 0 0.28217125548189032 -0.37170629494987961 0 0.26151325727369429 -0.36909177420648021 0 0.28217125548189032 -0.37170629494987961 0 0.27360252903113241 -0.35649066937953661 0 0.26151325727369429 -0.36909177420648021 0 0.28858879050185038 -0.34752683640384457 0 0.27360252903113241 -0.35649066937953661 0 0.26129764028474067 -0.34402336129922279 0 0.27360252903113241 -0.35649066937953661 0 0.25259557439951041 -0.35663334273684638 0 0.26129764028474067 -0.34402336129922279 0 0.25259557439951041 -0.35663334273684638 0 0.26129764028474067 -0.34402336129922279 0 0.24249789160431909 -0.33909575540799181 0 0.25259557439951041 -0.35663334273684638 0 0.26151325727369429 -0.36909177420648021 0 0.24085525906549851 -0.3664772534630798 0 0.26151325727369429 -0.36909177420648021 0 0.24085525906549851 -0.3664772534630798 0 0.27360252903113241 -0.35649066937953661 0 0.25259557439951041 -0.35663334273684638 0 0.26151325727369429 -0.36909177420648021 0 0.27594497077783242 -0.3260418572565793 0 0.25416138092119472 -0.32299047991381907 0 0.27048584765180461 -0.30488685270839189 0 0.27594497077783242 -0.3260418572565793 0 0.27048584765180461 -0.30488685270839189 0 0.29059230127092428 -0.30806035321393582 0 0.28858879050185038 -0.34752683640384457 0 0.26129764028474067 -0.34402336129922279 0 0.27594497077783242 -0.3260418572565793 0 0.26129764028474067 -0.34402336129922279 0 0.27594497077783242 -0.3260418572565793 0 0.26129764028474067 -0.34402336129922279 0 0.25416138092119472 -0.32299047991381907 0 0.24249789160431909 -0.33909575540799181 0 0.26129764028474067 -0.34402336129922279 0 0.27594497077783242 -0.3260418572565793 0 0.25416138092119472 -0.32299047991381907 0 0.25416138092119472 -0.32299047991381907 0 0.27048584765180461 -0.30488685270839189 0 0.24766806924927531 -0.30365162921938338 0 0.2519064863498926 -0.28633594457746048 0 0.27048584765180461 -0.30488685270839189 0 0.24766806924927531 -0.30365162921938338 0 0.2519064863498926 -0.28633594457746048 0 0.26884926644100088 -0.28517300719781352 0 0.27048584765180461 -0.30488685270839189 0 0.2519064863498926 -0.28633594457746048 0 0.27048584765180461 -0.30488685270839189 0 0.2519064863498926 -0.28633594457746048 0 0.26884926644100088 -0.28517300719781352 0 0.26080688284689629 -0.27503982774615909 0 0.26884926644100088 -0.28517300719781352 0 0.28409996260603521 -0.28950944513932492 0 0.27694715275037568 -0.27009296581773118 0 0.26884926644100088 -0.28517300719781352 0 0.27048584765180461 -0.30488685270839189 0 0.28409996260603521 -0.28950944513932492 0 0.27048584765180461 -0.30488685270839189 0 0.29059230127092428 -0.30806035321393582 0 0.28409996260603521 -0.28950944513932492 0 0.28409996260603521 -0.28950944513932492 0 0.30523963176401597 -0.29007884917129217 0 0.29749152971191811 -0.27018476627492077 0 0.29059230127092428 -0.30806035321393582 0 0.28409996260603521 -0.28950944513932492 0 0.30523963176401597 -0.29007884917129217 0 0.31360198415099833 -0.31161956802404828 0 0.29059230127092428 -0.30806035321393582 0 0.30523963176401597 -0.29007884917129217 0 0.29059230127092428 -0.30806035321393582 0 0.30523963176401597 -0.29007884917129217 0 0.30514863394351938 -0.24456781846687009 0 0.31988696225710789 -0.27209734512864869 0 0.29749152971191811 -0.27018476627492077 0 0.31988696225710789 -0.27209734512864869 0 0.30523963176401597 -0.29007884917129217 0 0.29749152971191811 -0.27018476627492077 0 0.28409996260603521 -0.28950944513932492 0 0.29749152971191811 -0.27018476627492077 0 0.27694715275037568 -0.27009296581773118 0 0.29749152971191811 -0.27018476627492077 0 0.28548812118910322 -0.25011189102716791 0 0.27694715275037568 -0.27009296581773118 0 0.30514863394351938 -0.24456781846687009 0 0.29749152971191811 -0.27018476627492077 0 0.28548812118910322 -0.25011189102716791 0 0.26906730455718952 -0.2492068095314573 0 0.27694715275037568 -0.27009296581773118 0 0.25998365488998981 -0.26125528953719379 0 0.26906730455718952 -0.2492068095314573 0 0.28548812118910322 -0.25011189102716791 0 0.27694715275037568 -0.27009296581773118 0 0.26884926644100088 -0.28517300719781352 0 0.27694715275037568 -0.27009296581773118 0 0.26080688284689629 -0.27503982774615909 0 0.27694715275037568 -0.27009296581773118 0 0.26080688284689629 -0.27503982774615909 0 0.25998365488998981 -0.26125528953719379 0 0.2519064863498926 -0.28633594457746048 0 0.26080688284689629 -0.27503982774615909 0 0.2480436155859379 -0.26860575071838477 0 0.26080688284689629 -0.27503982774615909 0 0.25998365488998981 -0.26125528953719379 0 0.2480436155859379 -0.26860575071838477 0 0.26906730455718952 -0.2492068095314573 0 0.25998365488998981 -0.26125528953719379 0 0.244902637259619 -0.24701353735893281 0 0.25998365488998981 -0.26125528953719379 0 0.2480436155859379 -0.26860575071838477 0 0.244902637259619 -0.24701353735893281 0 0.2480436155859379 -0.26860575071838477 0 0.2312711503550155 -0.25302814347859781 0 0.244902637259619 -0.24701353735893281 0 0.2480436155859379 -0.26860575071838477 0 0.244902637259619 -0.24701353735893281 0 0.2480436155859379 -0.26860575071838477 0 0.23332712504798059 -0.26778503644652912 0 0.2312711503550155 -0.25302814347859781 0 0.2519064863498926 -0.28633594457746048 0 0.23332712504798059 -0.26778503644652912 0 0.2519064863498926 -0.28633594457746048 0 0.2480436155859379 -0.26860575071838477 0 0.23332712504798059 -0.26778503644652912 0 0.2519064863498926 -0.28633594457746048 0 0.23332712504798059 -0.26778503644652912 0 0.23608761483154361 -0.28481958930462242 0 0.23332712504798059 -0.26778503644652912 0 0.2247687014240918 -0.28084996097928983 0 0.23608761483154361 -0.28481958930462242 0 0.23332712504798059 -0.26778503644652912 0 0.2247687014240918 -0.28084996097928983 0 0.2163720922710354 -0.26696765408256729 0 0.23332712504798059 -0.26778503644652912 0 0.2163720922710354 -0.26696765408256729 0 0.21474776374606869 -0.2492341283155978 0 0.23332712504798059 -0.26778503644652912 0 0.2312711503550155 -0.25302814347859781 0 0.21474776374606869 -0.2492341283155978 0 0.23332712504798059 -0.26778503644652912 0 0.21474776374606869 -0.2492341283155978 0 0.2163720922710354 -0.26696765408256729 0 0.2013355751545591 -0.26810717325120981 0 0.21474776374606869 -0.2492341283155978 0 0.2247687014240918 -0.28084996097928983 0 0.2163720922710354 -0.26696765408256729 0 0.20775391899392051 -0.28505615750453128 0 0.2163720922710354 -0.26696765408256729 0 0.2013355751545591 -0.26810717325120981 0 0.20775391899392051 -0.28505615750453128 0 0.2013355751545591 -0.26810717325120981 0 0.18704061167687469 -0.25416437777289619 0 0.18289036261592709 -0.28460468991165788 0 0.2013355751545591 -0.26810717325120981 0 0.20775391899392051 -0.28505615750453128 0 0.18289036261592709 -0.28460468991165788 0 0.2013355751545591 -0.26810717325120981 0 0.18704061167687469 -0.25416437777289619 0 0.21474776374606869 -0.2492341283155978 0 0.19147415314949651 -0.30219569813570152 0 0.20826045853150191 -0.30996565486234279 0 0.18874199130465019 -0.32196266367542709 0 0.19147415314949651 -0.30219569813570152 0 0.20775391899392051 -0.28505615750453128 0 0.20826045853150191 -0.30996565486234279 0 0.19147415314949651 -0.30219569813570152 0 0.20775391899392051 -0.28505615750453128 0 0.18289036261592709 -0.28460468991165788 0 0.20775391899392051 -0.28505615750453128 0 0.20826045853150191 -0.30996565486234279 0 0.23030275597597899 -0.29962136755819851 0 0.20826045853150191 -0.30996565486234279 0 0.23030275597597899 -0.29962136755819851 0 0.22693425760308711 -0.3210351559453577 0 0.23030275597597899 -0.29962136755819851 0 0.22693425760308711 -0.3210351559453577 0 0.2247687014240918 -0.28084996097928983 0 0.23030275597597899 -0.29962136755819851 0 0.23608761483154361 -0.28481958930462242 0 0.2247687014240918 -0.28084996097928983 0 0.20775391899392051 -0.28505615750453128 0 0.23030275597597899 -0.29962136755819851 0 0.23030275597597899 -0.29962136755819851 0 0.23608761483154361 -0.28481958930462242 0 0.24766806924927531 -0.30365162921938338 0 0.2519064863498926 -0.28633594457746048 0 0.23608761483154361 -0.28481958930462242 0 0.24766806924927531 -0.30365162921938338 0 0.23030275597597899 -0.29962136755819851 0 0.24766806924927531 -0.30365162921938338 0 0.22693425760308711 -0.3210351559453577 0 0.25416138092119472 -0.32299047991381907 0 0.24766806924927531 -0.30365162921938338 0 0.22693425760308711 -0.3210351559453577 0 0.25416138092119472 -0.32299047991381907 0 0.24249789160431909 -0.33909575540799181 0 0.22693425760308711 -0.3210351559453577 0 0.22356575923019509 -0.34244894433251688 0 0.22693425760308711 -0.3210351559453577 0 0.24249789160431909 -0.33909575540799181 0 0.22356575923019509 -0.34244894433251688 0 0.22693425760308711 -0.3210351559453577 0 0.22356575923019509 -0.34244894433251688 0 0.22693425760308711 -0.3210351559453577 0 0.20787251557413089 -0.33129756450285669 0 0.26151325727369429 -0.36909177420648021 0 0.24085525906549851 -0.3664772534630798 0 0.242977157099936 -0.38347311256694128 0 0.24085525906549851 -0.3664772534630798 0 0.22824188565194081 -0.37302726186618917 0 0.242977157099936 -0.38347311256694128 0 0.25259557439951041 -0.35663334273684638 0 0.24249789160431909 -0.33909575540799181 0 0.23571026631072681 -0.35244614510093508 0 0.25259557439951041 -0.35663334273684638 0 0.24085525906549851 -0.3664772534630798 0 0.23571026631072681 -0.35244614510093508 0 0.22356575923019509 -0.34244894433251688 0 0.23571026631072681 -0.35244614510093508 0 0.22019726085730321 -0.36386273271967617 0 0.22356575923019509 -0.34244894433251688 0 0.22019726085730321 -0.36386273271967617 0 0.24249789160431909 -0.33909575540799181 0 0.22356575923019509 -0.34244894433251688 0 0.23571026631072681 -0.35244614510093508 0 0.24085525906549851 -0.3664772534630798 0 0.22019726085730321 -0.36386273271967617 0 0.22824188565194081 -0.37302726186618917 0 0.24085525906549851 -0.3664772534630798 0 0.22019726085730321 -0.36386273271967617 0 0.24085525906549851 -0.3664772534630798 0 0.23571026631072681 -0.35244614510093508 0 0.22019726085730321 -0.36386273271967617 0 0.22019726085730321 -0.36386273271967617 0 0.22824188565194081 -0.37302726186618917 0 0.2181457983823786 -0.37690402841266352 0 0.22019726085730321 -0.36386273271967617 0 0.2181457983823786 -0.37690402841266352 0 0.22019726085730321 -0.36386273271967617 0 0.19327111036011649 -0.36045490112315581 0 0.22019726085730321 -0.36386273271967617 0 0.19327111036011649 -0.36045490112315581 0 0.2005566020344276 -0.38085736608212373 0 0.22019726085730321 -0.36386273271967617 0 0.2181457983823786 -0.37690402841266352 0 0.2005566020344276 -0.38085736608212373 0 0.22356575923019509 -0.34244894433251688 0 0.22019726085730321 -0.36386273271967617 0 0.20729844268195691 -0.34788835432948823 0 0.22019726085730321 -0.36386273271967617 0 0.20729844268195691 -0.34788835432948823 0 0.19327111036011649 -0.36045490112315581 0 0.20729844268195691 -0.34788835432948823 0 0.19327111036011649 -0.36045490112315581 0 0.18878485169458259 -0.342226275742887 0 0.19327111036011649 -0.36045490112315581 0 0.2005566020344276 -0.38085736608212373 0 0.17715231675324239 -0.37892370089000121 0 0.20826045853150191 -0.30996565486234279 0 0.22693425760308711 -0.3210351559453577 0 0.20787251557413089 -0.33129756450285669 0 0.22356575923019509 -0.34244894433251688 0 0.20729844268195691 -0.34788835432948823 0 0.20787251557413089 -0.33129756450285669 0 0.20787251557413089 -0.33129756450285669 0 0.18878485169458259 -0.342226275742887 0 0.18874199130465019 -0.32196266367542709 0 0.20729844268195691 -0.34788835432948823 0 0.20787251557413089 -0.33129756450285669 0 0.18878485169458259 -0.342226275742887 0 0.20826045853150191 -0.30996565486234279 0 0.20787251557413089 -0.33129756450285669 0 0.18874199130465019 -0.32196266367542709 0 0.18874199130465019 -0.32196266367542709 0 0.16918009038371129 -0.33470710129976239 0 0.16972403430148239 -0.30938932472454789 0 0.18878485169458259 -0.342226275742887 0 0.18874199130465019 -0.32196266367542709 0 0.16918009038371129 -0.33470710129976239 0 0.16918009038371129 -0.33470710129976239 0 0.1492563842541281 -0.3241067028836141 0 0.16972403430148239 -0.30938932472454789 0 0.19327111036011649 -0.36045490112315581 0 0.16634495986293019 -0.35704706952663218 0 0.17715231675324239 -0.37892370089000121 0 0.19327111036011649 -0.36045490112315581 0 0.16634495986293019 -0.35704706952663218 0 0.19327111036011649 -0.36045490112315581 0 0.18878485169458259 -0.342226275742887 0 0.16634495986293019 -0.35704706952663218 0 0.18878485169458259 -0.342226275742887 0 0.16918009038371129 -0.33470710129976239 0 0.16634495986293019 -0.35704706952663218 0 0.16918009038371129 -0.33470710129976239 0 0.16634495986293019 -0.35704706952663218 0 0.13941880936574369 -0.35363923793010871 0 0.16634495986293019 -0.35704706952663218 0 0.15723479727968431 -0.37417361225181528 0 0.17715231675324239 -0.37892370089000121 0 0.16634495986293019 -0.35704706952663218 0 0.15723479727968431 -0.37417361225181528 0 0.13941880936574369 -0.35363923793010871 0 0.15723479727968431 -0.37417361225181528 0 0.13941880936574369 -0.35363923793010871 0 0.14005223934993741 -0.38485503526948889 0 0.16634495986293019 -0.35704706952663218 0 0.13941880936574369 -0.35363923793010871 0 0.13941880936574369 -0.35363923793010871 0 0.1299924741055126 -0.33410355420520371 0 0.1124926588685573 -0.35023140633358552 0 0.13941880936574369 -0.35363923793010871 0 0.1124926588685573 -0.35023140633358552 0 0.13941880936574369 -0.35363923793010871 0 0.14005223934993741 -0.38485503526948889 0 0.1104608317160277 -0.37963054541847913 0 0.1492563842541281 -0.3241067028836141 0 0.14583424873745821 -0.30635013482094681 0 0.16972403430148239 -0.30938932472454789 0 0.1492563842541281 -0.3241067028836141 0 0.1303035201169937 -0.31492294617863859 0 0.14583424873745821 -0.30635013482094681 0 0.16918009038371129 -0.33470710129976239 0 0.13941880936574369 -0.35363923793010871 0 0.1492563842541281 -0.3241067028836141 0 0.13941880936574369 -0.35363923793010871 0 0.1492563842541281 -0.3241067028836141 0 0.1299924741055126 -0.33410355420520371 0 0.1492563842541281 -0.3241067028836141 0 0.1299924741055126 -0.33410355420520371 0 0.1303035201169937 -0.31492294617863859 0 0.1303035201169937 -0.31492294617863859 0 0.14583424873745821 -0.30635013482094681 0 0.13173068093224799 -0.29541041896478037 0 0.1303035201169937 -0.31492294617863859 0 0.13173068093224799 -0.29541041896478037 0 0.1158437239328596 -0.30174380354425412 0 0.14583424873745821 -0.30635013482094681 0 0.13173068093224799 -0.29541041896478037 0 0.15731052177408761 -0.29000755443821907 0 0.13173068093224799 -0.29541041896478037 0 0.14017770357682449 -0.27862095173063178 0 0.15731052177408761 -0.29000755443821907 0 0.13173068093224799 -0.29541041896478037 0 0.15731052177408761 -0.29000755443821907 0 0.13173068093224799 -0.29541041896478037 0 0.14017770357682449 -0.27862095173063178 0 0.1248559401496294 -0.27989681384712378 0 0.1317528145223168 -0.26779753191328559 0 0.14017770357682449 -0.27862095173063178 0 0.14252930134945299 -0.26294511427507061 0 0.1317528145223168 -0.26779753191328559 0 0.14017770357682449 -0.27862095173063178 0 0.1248559401496294 -0.27989681384712378 0 0.13315228571906421 -0.25575993808958492 0 0.1180488418166126 -0.26176484162401731 0 0.13170245449118731 -0.23903702905694529 0 0.1317528145223168 -0.26779753191328559 0 0.13315228571906421 -0.25575993808958492 0 0.1180488418166126 -0.26176484162401731 0 0.1317528145223168 -0.26779753191328559 0 0.13315228571906421 -0.25575993808958492 0 0.14252930134945299 -0.26294511427507061 0 0.13315228571906421 -0.25575993808958492 0 0.14252930134945299 -0.26294511427507061 0 0.14309639145875069 -0.2473272623433824 0 0.14252930134945299 -0.26294511427507061 0 0.1547367375858503 -0.25440718937350021 0 0.15243697537569001 -0.2706080404182124 0 0.14252930134945299 -0.26294511427507061 0 0.1547367375858503 -0.25440718937350021 0 0.14309639145875069 -0.2473272623433824 0 0.14017770357682449 -0.27862095173063178 0 0.15243697537569001 -0.2706080404182124 0 0.15731052177408761 -0.29000755443821907 0 0.14017770357682449 -0.27862095173063178 0 0.14252930134945299 -0.26294511427507061 0 0.15243697537569001 -0.2706080404182124 0 0.1674306125922343 -0.26705939227364017 0 0.18289036261592709 -0.28460468991165788 0 0.15731052177408761 -0.29000755443821907 0 0.15243697537569001 -0.2706080404182124 0 0.1674306125922343 -0.26705939227364017 0 0.15731052177408761 -0.29000755443821907 0 0.1547367375858503 -0.25440718937350021 0 0.15243697537569001 -0.2706080404182124 0 0.1674306125922343 -0.26705939227364017 0 0.1547367375858503 -0.25440718937350021 0 0.1674306125922343 -0.26705939227364017 0 0.1675933023879716 -0.24530094965467869 0 0.1674306125922343 -0.26705939227364017 0 0.18704061167687469 -0.25416437777289619 0 0.1675933023879716 -0.24530094965467869 0 0.1674306125922343 -0.26705939227364017 0 0.18704061167687469 -0.25416437777289619 0 0.18289036261592709 -0.28460468991165788 0 0.19147415314949651 -0.30219569813570152 0 0.18874199130465019 -0.32196266367542709 0 0.16972403430148239 -0.30938932472454789 0 0.19147415314949651 -0.30219569813570152 0 0.18289036261592709 -0.28460468991165788 0 0.16972403430148239 -0.30938932472454789 0 0.14583424873745821 -0.30635013482094681 0 0.16972403430148239 -0.30938932472454789 0 0.15731052177408761 -0.29000755443821907 0 0.18289036261592709 -0.28460468991165788 0 0.16972403430148239 -0.30938932472454789 0 0.15731052177408761 -0.29000755443821907 0 0.18289036261592709 -0.28460468991165788 0 0.15731052177408761 -0.29000755443821907 0 0.1996733766368099 -0.48285901415668608 0 0.17725859341853581 -0.46852333922343842 0 0.18674543349494521 -0.5 0 0.1996733766368099 -0.48285901415668608 0 0.21494661694575981 -0.5 0 0.18674543349494521 -0.5 0 0.1996733766368099 -0.48285901415668608 0 0.20174646237604141 -0.46489668532572859 0 0.17725859341853581 -0.46852333922343842 0 0.1996733766368099 -0.48285901415668608 0 0.21860014162362171 -0.47840781213781691 0 0.20174646237604141 -0.46489668532572859 0 0.1996733766368099 -0.48285901415668608 0 0.21860014162362171 -0.47840781213781691 0 0.21494661694575981 -0.5 0 0.21860014162362171 -0.47840781213781691 0 0.21494661694575981 -0.5 0 0.24314780039657441 -0.50000000000000466 0 0.24314780039657441 -0.50000000000000466 0 0.24016661744764731 -0.47460545237324159 0 0.26529414064879231 -0.47511612983795909 0 0.24314780039657441 -0.50000000000000466 0 0.24016661744764731 -0.47460545237324159 0 0.21860014162362171 -0.47840781213781691 0 0.24016661744764731 -0.47460545237324159 0 0.21909031898538681 -0.45831814770538648 0 0.21860014162362171 -0.47840781213781691 0 0.24314780039657441 -0.50000000000000466 0 0.24016661744764731 -0.47460545237324159 0 0.24016661744764731 -0.47460545237324159 0 0.21909031898538681 -0.45831814770538648 0 0.23718543449872059 -0.44921090474647862 0 0.26084462184677781 -0.45581420922246962 0 0.24016661744764731 -0.47460545237324159 0 0.23718543449872059 -0.44921090474647862 0 0.24016661744764731 -0.47460545237324159 0 0.23718543449872059 -0.44921090474647862 0 0.21909031898538681 -0.45831814770538648 0 0.23718543449872059 -0.44921090474647862 0 0.21793335432756061 -0.43859873392561283 0 0.21909031898538681 -0.45831814770538648 0 0.21793335432756061 -0.43859873392561283 0 0.19669728707932349 -0.44592127061010439 0 0.21860014162362171 -0.47840781213781691 0 0.21909031898538681 -0.45831814770538648 0 0.20174646237604141 -0.46489668532572859 0 0.21909031898538681 -0.45831814770538648 0 0.20174646237604141 -0.46489668532572859 0 0.19669728707932349 -0.44592127061010439 0 0.20174646237604141 -0.46489668532572859 0 0.19669728707932349 -0.44592127061010439 0 0.17725859341853581 -0.46852333922343842 0 0.20091316755018071 -0.42468564647130902 0 0.17677621322725201 -0.43547122552177292 0 0.19669728707932349 -0.44592127061010439 0 0.20091316755018071 -0.42468564647130902 0 0.17677621322725201 -0.43547122552177292 0 0.20091316755018071 -0.42468564647130902 0 0.2058757892010262 -0.39839917979502559 0 0.1846240232755649 -0.40509924989983398 0 0.20091316755018071 -0.42468564647130902 0 0.22505012187310949 -0.41390006742084512 0 0.20091316755018071 -0.42468564647130902 0 0.21636544102986149 -0.4048974957930731 0 0.2058757892010262 -0.39839917979502559 0 0.20091316755018071 -0.42468564647130902 0 0.22158995991636479 -0.42627770268024001 0 0.22505012187310949 -0.41390006742084512 0 0.20091316755018071 -0.42468564647130902 0 0.22505012187310949 -0.41390006742084512 0 0.21636544102986149 -0.4048974957930731 0 0.21793335432756061 -0.43859873392561283 0 0.19669728707932349 -0.44592127061010439 0 0.20091316755018071 -0.42468564647130902 0 0.21793335432756061 -0.43859873392561283 0 0.20091316755018071 -0.42468564647130902 0 0.22158995991636479 -0.42627770268024001 0 0.21793335432756061 -0.43859873392561283 0 0.22158995991636479 -0.42627770268024001 0 0.23420425154979399 -0.42381635711971549 0 0.23718543449872059 -0.44921090474647862 0 0.21793335432756061 -0.43859873392561283 0 0.23420425154979399 -0.42381635711971549 0 0.23718543449872059 -0.44921090474647862 0 0.23420425154979399 -0.42381635711971549 0 0.2498911115155649 -0.42427291429165542 0 0.23718543449872059 -0.44921090474647862 0 0.23420425154979399 -0.42381635711971549 0 0.26033298464097382 -0.43709799622460371 0 0.23718543449872059 -0.44921090474647862 0 0.2498911115155649 -0.42427291429165542 0 0.25249472278986829 -0.40879689321486429 0 0.23420425154979399 -0.42381635711971549 0 0.23122306860086739 -0.39842180949295242 0 0.25249472278986829 -0.40879689321486429 0 0.23420425154979399 -0.42381635711971549 0 0.2498911115155649 -0.42427291429165542 0 0.23420425154979399 -0.42381635711971549 0 0.23122306860086739 -0.39842180949295242 0 0.23420425154979399 -0.42381635711971549 0 0.22505012187310949 -0.41390006742084512 0 0.23122306860086739 -0.39842180949295242 0 0.22158995991636479 -0.42627770268024001 0 0.23420425154979399 -0.42381635711971549 0 0.22505012187310949 -0.41390006742084512 0 0.22505012187310949 -0.41390006742084512 0 0.23122306860086739 -0.39842180949295242 0 0.21636544102986149 -0.4048974957930731 0 0.23122306860086739 -0.39842180949295242 0 0.21876505792412379 -0.38908077578523309 0 0.21636544102986149 -0.4048974957930731 0 0.25249472278986829 -0.40879689321486429 0 0.23122306860086739 -0.39842180949295242 0 0.2466675862979518 -0.39475002798422743 0 0.23122306860086739 -0.39842180949295242 0 0.2466675862979518 -0.39475002798422743 0 0.242977157099936 -0.38347311256694128 0 0.25997539670113562 -0.38830829666215161 0 0.2466675862979518 -0.39475002798422743 0 0.242977157099936 -0.38347311256694128 0 0.22824188565194081 -0.37302726186618917 0 0.23122306860086739 -0.39842180949295242 0 0.21876505792412379 -0.38908077578523309 0 0.22824188565194081 -0.37302726186618917 0 0.23122306860086739 -0.39842180949295242 0 0.242977157099936 -0.38347311256694128 0 0.22824188565194081 -0.37302726186618917 0 0.21876505792412379 -0.38908077578523309 0 0.2181457983823786 -0.37690402841266352 0 0.22824188565194081 -0.37302726186618917 0 0.23122306860086739 -0.39842180949295242 0 0.2103574297923671 -0.38589007660870889 0 0.2058757892010262 -0.39839917979502559 0 0.2005566020344276 -0.38085736608212373 0 0.2181457983823786 -0.37690402841266352 0 0.2103574297923671 -0.38589007660870889 0 0.2005566020344276 -0.38085736608212373 0 0.21876505792412379 -0.38908077578523309 0 0.2181457983823786 -0.37690402841266352 0 0.2103574297923671 -0.38589007660870889 0 0.21876505792412379 -0.38908077578523309 0 0.21636544102986149 -0.4048974957930731 0 0.2058757892010262 -0.39839917979502559 0 0.21876505792412379 -0.38908077578523309 0 0.2103574297923671 -0.38589007660870889 0 0.2058757892010262 -0.39839917979502559 0 0.2058757892010262 -0.39839917979502559 0 0.2005566020344276 -0.38085736608212373 0 0.1846240232755649 -0.40509924989983398 0 0.2005566020344276 -0.38085736608212373 0 0.17715231675324239 -0.37892370089000121 0 0.1846240232755649 -0.40509924989983398 0 0.17715231675324239 -0.37892370089000121 0 0.1846240232755649 -0.40509924989983398 0 0.1608824077067309 -0.39591000645644608 0 0.15723479727968431 -0.37417361225181528 0 0.17715231675324239 -0.37892370089000121 0 0.1608824077067309 -0.39591000645644608 0 0.15723479727968431 -0.37417361225181528 0 0.1608824077067309 -0.39591000645644608 0 0.14005223934993741 -0.38485503526948889 0 0.14005223934993741 -0.38485503526948889 0 0.124934607580345 -0.39724281984795029 0 0.1104608317160277 -0.37963054541847913 0 0.14005223934993741 -0.38485503526948889 0 0.14079635469191051 -0.41545601420046041 0 0.124934607580345 -0.39724281984795029 0 0.1608824077067309 -0.39591000645644608 0 0.14005223934993741 -0.38485503526948889 0 0.14079635469191051 -0.41545601420046041 0 0.14079635469191051 -0.41545601420046041 0 0.1273528200304227 -0.43324274209740748 0 0.10842900456350429 -0.40902968450337313 0 0.1608824077067309 -0.39591000645644608 0 0.14079635469191051 -0.41545601420046041 0 0.1630397321473768 -0.41925176653666391 0 0.14079635469191051 -0.41545601420046041 0 0.1273528200304227 -0.43324274209740748 0 0.15263925890432339 -0.44625680457223671 0 0.14079635469191051 -0.41545601420046041 0 0.1630397321473768 -0.41925176653666391 0 0.15263925890432339 -0.44625680457223671 0 0.1630397321473768 -0.41925176653666391 0 0.17677621322725201 -0.43547122552177292 0 0.15263925890432339 -0.44625680457223671 0 0.1846240232755649 -0.40509924989983398 0 0.1608824077067309 -0.39591000645644608 0 0.1630397321473768 -0.41925176653666391 0 0.1846240232755649 -0.40509924989983398 0 0.1630397321473768 -0.41925176653666391 0 0.17677621322725201 -0.43547122552177292 0 0.20091316755018071 -0.42468564647130902 0 0.1846240232755649 -0.40509924989983398 0 0.17677621322725201 -0.43547122552177292 0 0.17677621322725201 -0.43547122552177292 0 0.17725859341853581 -0.46852333922343842 0 0.15263925890432339 -0.44625680457223671 0 0.19669728707932349 -0.44592127061010439 0 0.17677621322725201 -0.43547122552177292 0 0.17725859341853581 -0.46852333922343842 0 0.17725859341853581 -0.46852333922343842 0 0.15263925890432339 -0.44625680457223671 0 0.14656213161088441 -0.47341115510851622 0 0.17677621322725201 -0.43547122552177292 0 0.15263925890432339 -0.44625680457223671 0 0.1273528200304227 -0.43324274209740748 0 0.15263925890432339 -0.44625680457223671 0 0.12850230458139469 -0.45704238362270061 0 0.15263925890432339 -0.44625680457223671 0 0.12850230458139469 -0.45704238362270061 0 0.15263925890432339 -0.44625680457223671 0 0.12850230458139469 -0.45704238362270061 0 0.14656213161088441 -0.47341115510851622 0 0.14656213161088441 -0.47341115510851622 0 0.13034306659331599 -0.5 0 0.1230312197899578 -0.47719942062513571 0 0.12850230458139469 -0.45704238362270061 0 0.14656213161088441 -0.47341115510851622 0 0.1230312197899578 -0.47719942062513571 0 0.14656213161088441 -0.47341115510851622 0 0.13034306659331599 -0.5 0 0.15854425004413061 -0.5 0 0.17725859341853581 -0.46852333922343842 0 0.14656213161088441 -0.47341115510851622 0 0.15854425004413061 -0.5 0 0.17725859341853581 -0.46852333922343842 0 0.15854425004413061 -0.5 0 0.18674543349494521 -0.5 0 0.080366175316931521 -0.47855197511544451 0 0.067194926797312843 -0.45680268182630368 0 0.056367000375397047 -0.4892759875577245 0 0.078883863906288099 -0.5 0 0.056367000375397047 -0.4892759875577245 0 0.05562584467007492 -0.5 0 0.080366175316931521 -0.47855197511544451 0 0.078883863906288099 -0.5 0 0.056367000375397047 -0.4892759875577245 0 0.080366175316931521 -0.47855197511544451 0 0.056367000375397047 -0.4892759875577245 0 0.080366175316931521 -0.47855197511544451 0 0.10436535025846461 -0.46782796267316129 0 0.088734103388693863 -0.46506270965119112 0 0.080366175316931521 -0.47855197511544451 0 0.10436535025846461 -0.46782796267316129 0 0.080366175316931521 -0.47855197511544451 0 0.090512873524394674 -0.49111487203882109 0 0.078883863906288099 -0.5 0 0.080366175316931521 -0.47855197511544451 0 0.090512873524394674 -0.49111487203882109 0 0.1032536167004795 -0.48391398133658231 0 0.090512873524394674 -0.49111487203882109 0 0.078883863906288099 -0.5 0 0.10214188314250131 -0.50000000000000355 0 0.090512873524394674 -0.49111487203882109 0 0.10214188314250131 -0.50000000000000355 0 0.1032536167004795 -0.48391398133658231 0 0.10214188314250131 -0.50000000000000355 0 0.1032536167004795 -0.48391398133658231 0 0.13034306659331599 -0.5 0 0.1230312197899578 -0.47719942062513571 0 0.1032536167004795 -0.48391398133658231 0 0.13034306659331599 -0.5 0 0.10214188314250131 -0.50000000000000355 0 0.1032536167004795 -0.48391398133658231 0 0.1230312197899578 -0.47719942062513571 0 0.1032536167004795 -0.48391398133658231 0 0.10436535025846461 -0.46782796267316129 0 0.1032536167004795 -0.48391398133658231 0 0.10436535025846461 -0.46782796267316129 0 0.080366175316931521 -0.47855197511544451 0 0.1032536167004795 -0.48391398133658231 0 0.10436535025846461 -0.46782796267316129 0 0.10436535025846461 -0.46782796267316129 0 0.1063971774109809 -0.43842882358826701 0 0.10436535025846461 -0.46782796267316129 0 0.095704163902181172 -0.45080084583829388 0 0.088734103388693863 -0.46506270965119112 0 0.12850230458139469 -0.45704238362270061 0 0.1230312197899578 -0.47719942062513571 0 0.10436535025846461 -0.46782796267316129 0 0.12850230458139469 -0.45704238362270061 0 0.10436535025846461 -0.46782796267316129 0 0.12850230458139469 -0.45704238362270061 0 0.10436535025846461 -0.46782796267316129 0 0.1063971774109809 -0.43842882358826701 0 0.1273528200304227 -0.43324274209740748 0 0.12850230458139469 -0.45704238362270061 0 0.1063971774109809 -0.43842882358826701 0 0.1063971774109809 -0.43842882358826701 0 0.095704163902181172 -0.45080084583829388 0 0.088818441923303029 -0.43486830768849932 0 0.10436535025846461 -0.46782796267316129 0 0.1063971774109809 -0.43842882358826701 0 0.095704163902181172 -0.45080084583829388 0 0.095704163902181172 -0.45080084583829388 0 0.067194926797312843 -0.45680268182630368 0 0.075215945780367194 -0.44419744383647553 0 0.095704163902181172 -0.45080084583829388 0 0.075215945780367194 -0.44419744383647553 0 0.088818441923303029 -0.43486830768849932 0 0.080366175316931521 -0.47855197511544451 0 0.088734103388693863 -0.46506270965119112 0 0.067194926797312843 -0.45680268182630368 0 0.095704163902181172 -0.45080084583829388 0 0.088734103388693863 -0.46506270965119112 0 0.067194926797312843 -0.45680268182630368 0 0.095704163902181172 -0.45080084583829388 0 0.067194926797312843 -0.45680268182630368 0 0.075215945780367194 -0.44419744383647553 0 0.067955642600389818 -0.43365404824220699 0 0.088818441923303029 -0.43486830768849932 0 0.075215945780367194 -0.44419744383647553 0 0.067955642600389818 -0.43365404824220699 0 0.054456803847605539 -0.44585627052545851 0 0.067194926797312843 -0.45680268182630368 0 0.075215945780367194 -0.44419744383647553 0 0.054456803847605539 -0.44585627052545851 0 0.067955642600389818 -0.43365404824220699 0 0.081649780618368625 -0.41561441631262791 0 0.061641413029039617 -0.42057327598065269 0 0.081649780618368625 -0.41561441631262791 0 0.060428398582670559 -0.40609899900419399 0 0.081649780618368625 -0.41561441631262791 0 0.081552359290304313 -0.40197272493681052 0 0.060428398582670559 -0.40609899900419399 0 0.081649780618368625 -0.41561441631262791 0 0.060428398582670559 -0.40609899900419399 0 0.061641413029039617 -0.42057327598065269 0 0.081649780618368625 -0.41561441631262791 0 0.10287116265406671 -0.42512983362106171 0 0.094697223511424872 -0.41093049450674729 0 0.081649780618368625 -0.41561441631262791 0 0.10287116265406671 -0.42512983362106171 0 0.081649780618368625 -0.41561441631262791 0 0.094697223511424872 -0.41093049450674729 0 0.081552359290304313 -0.40197272493681052 0 0.067955642600389818 -0.43365404824220699 0 0.081649780618368625 -0.41561441631262791 0 0.088818441923303029 -0.43486830768849932 0 0.081649780618368625 -0.41561441631262791 0 0.088818441923303029 -0.43486830768849932 0 0.10287116265406671 -0.42512983362106171 0 0.1063971774109809 -0.43842882358826701 0 0.10842900456350429 -0.40902968450337313 0 0.14079635469191051 -0.41545601420046041 0 0.10842900456350429 -0.40902968450337313 0 0.124934607580345 -0.39724281984795029 0 0.1063971774109809 -0.43842882358826701 0 0.10287116265406671 -0.42512983362106171 0 0.10842900456350429 -0.40902968450337313 0 0.1063971774109809 -0.43842882358826701 0 0.088818441923303029 -0.43486830768849932 0 0.10287116265406671 -0.42512983362106171 0 0.1273528200304227 -0.43324274209740748 0 0.1063971774109809 -0.43842882358826701 0 0.10842900456350429 -0.40902968450337313 0 0.10287116265406671 -0.42512983362106171 0 0.10842900456350429 -0.40902968450337313 0 0.094697223511424872 -0.41093049450674729 0 0.10842900456350429 -0.40902968450337313 0 0.1104608317160277 -0.37963054541847913 0 0.093345012163169649 -0.3971338857204984 0 0.10842900456350429 -0.40902968450337313 0 0.094697223511424872 -0.41093049450674729 0 0.093345012163169649 -0.3971338857204984 0 0.10842900456350429 -0.40902968450337313 0 0.124934607580345 -0.39724281984795029 0 0.1104608317160277 -0.37963054541847913 0 0.10842900456350429 -0.40902968450337313 0 0.1104608317160277 -0.37963054541847913 0 0.1104608317160277 -0.37963054541847913 0 0.09160731648008405 -0.38100674673715379 0 0.093345012163169649 -0.3971338857204984 0 0.1104608317160277 -0.37963054541847913 0 0.09160731648008405 -0.38100674673715379 0 0.095796721256996967 -0.36973006432325167 0 0.09160731648008405 -0.38100674673715379 0 0.084254589942203237 -0.39042567985056181 0 0.093345012163169649 -0.3971338857204984 0 0.09160731648008405 -0.38100674673715379 0 0.079288508960407664 -0.38111535076935282 0 0.086112103320483677 -0.37195001787659998 0 0.09160731648008405 -0.38100674673715379 0 0.079288508960407664 -0.38111535076935282 0 0.084254589942203237 -0.39042567985056181 0 0.079288508960407664 -0.38111535076935282 0 0.084254589942203237 -0.39042567985056181 0 0.07493915092398902 -0.39163287422623388 0 0.084254589942203237 -0.39042567985056181 0 0.093345012163169649 -0.3971338857204984 0 0.081552359290304313 -0.40197272493681052 0 0.094697223511424872 -0.41093049450674729 0 0.093345012163169649 -0.3971338857204984 0 0.081552359290304313 -0.40197272493681052 0 0.084254589942203237 -0.39042567985056181 0 0.081552359290304313 -0.40197272493681052 0 0.07493915092398902 -0.39163287422623388 0 0.081552359290304313 -0.40197272493681052 0 0.07493915092398902 -0.39163287422623388 0 0.060428398582670559 -0.40609899900419399 0 0.07493915092398902 -0.39163287422623388 0 0.063063541283728555 -0.39213733633708209 0 0.060428398582670559 -0.40609899900419399 0 0.07493915092398902 -0.39163287422623388 0 0.063063541283728555 -0.39213733633708209 0 0.069252960160587268 -0.38416134848408812 0 0.055954607205214009 -0.38392458003150359 0 0.067314733152159328 -0.374050436936605 0 0.072702197863454804 -0.37126557836724527 0 0.069252960160587268 -0.38416134848408812 0 0.055954607205214009 -0.38392458003150359 0 0.072702197863454804 -0.37126557836724527 0 0.055954607205214009 -0.38392458003150359 0 0.072702197863454804 -0.37126557836724527 0 0.063063541283728555 -0.39213733633708209 0 0.069252960160587268 -0.38416134848408812 0 0.055954607205214009 -0.38392458003150359 0 0.079288508960407664 -0.38111535076935282 0 0.069252960160587268 -0.38416134848408812 0 0.072702197863454804 -0.37126557836724527 0 0.079288508960407664 -0.38111535076935282 0 0.07493915092398902 -0.39163287422623388 0 0.069252960160587268 -0.38416134848408812 0 0.055954607205214009 -0.38392458003150359 0 0.039207016546972312 -0.39658358169576091 0 0.063063541283728555 -0.39213733633708209 0 0.055954607205214009 -0.38392458003150359 0 0.054742589546181941 -0.39486887993939102 0 0.063063541283728555 -0.39213733633708209 0 0.054742589546181941 -0.39486887993939102 0 0.060428398582670559 -0.40609899900419399 0 0.060428398582670559 -0.40609899900419399 0 0.039207016546972312 -0.39658358169576091 0 0.055954607205214009 -0.38392458003150359 0 0.054742589546181941 -0.39486887993939102 0 0.039207016546972312 -0.39658358169576091 0 0.054742589546181941 -0.39486887993939102 0 0.060428398582670559 -0.40609899900419399 0 0.039207016546972312 -0.39658358169576091 0 0.039207016546972312 -0.39658358169576091 0 0.040486631305561821 -0.40325785954584142 0 0.022361639647487809 -0.40931649704801992 0 0.060428398582670559 -0.40609899900419399 0 0.039207016546972312 -0.39658358169576091 0 0.040486631305561821 -0.40325785954584142 0 0.039207016546972312 -0.39658358169576091 0 0.03878733358577055 -0.38682960179693338 0 0.029879708372577411 -0.39240132676559408 0 0.039207016546972312 -0.39658358169576091 0 0.025451969753846618 -0.39794065642794357 0 0.029879708372577411 -0.39240132676559408 0 0.039207016546972312 -0.39658358169576091 0 0.029879708372577411 -0.39240132676559408 0 0.03878733358577055 -0.38682960179693338 0 0.02936911529734702 -0.38304529463940468 0 0.029879708372577411 -0.39240132676559408 0 0.055954607205214009 -0.38392458003150359 0 0.039207016546972312 -0.39658358169576091 0 0.03878733358577055 -0.38682960179693338 0 0.055954607205214009 -0.38392458003150359 0 0.039526220506741983 -0.37819322585240339 0 0.04437751246093314 -0.36615312635106312 0 0.055954607205214009 -0.38392458003150359 0 0.03878733358577055 -0.38682960179693338 0 0.039526220506741983 -0.37819322585240339 0 0.039526220506741983 -0.37819322585240339 0 0.02936911529734702 -0.38304529463940468 0 0.030618574486003351 -0.37258274117392792 0 0.03878733358577055 -0.38682960179693338 0 0.039526220506741983 -0.37819322585240339 0 0.02936911529734702 -0.38304529463940468 0 0.02936911529734702 -0.38304529463940468 0 0.01788221455160429 -0.3785836934152042 0 0.030618574486003351 -0.37258274117392792 0 0.02936911529734702 -0.38304529463940468 0 0.02113951966936883 -0.38787283312652943 0 0.029879708372577411 -0.39240132676559408 0 0.02936911529734702 -0.38304529463940468 0 0.02113951966936883 -0.38787283312652943 0 0.01788221455160429 -0.3785836934152042 0 0.02113951966936883 -0.38787283312652943 0 0.01788221455160429 -0.3785836934152042 0 0.012884388884344129 -0.38719381785202001 0 0.02113951966936883 -0.38787283312652943 0 0.012884388884344129 -0.38719381785202001 0 0.017141309740791349 -0.3962793486404188 0 0.01788221455160429 -0.3785836934152042 0 0.0034525236969518698 -0.38184759442032512 0 0.0044250660384099003 -0.36745488184495573 0 0.01788221455160429 -0.3785836934152042 0 0.012884388884344129 -0.38719381785202001 0 0.0034525236969518698 -0.38184759442032512 0 -0.0067425754456081639 -0.39069410610154642 0 0.0034525236969518698 -0.38184759442032512 0 0.0048063767630042971 -0.39138561965762242 0 0.012884388884344129 -0.38719381785202001 0 0.0034525236969518698 -0.38184759442032512 0 0.0048063767630042971 -0.39138561965762242 0 0.00086455765575302746 -0.4009210970433339 0 0.012335125110621421 -0.40257498038692152 0 0.0068611306111954068 -0.40725587629075982 0 0.00086455765575302746 -0.4009210970433339 0 0.0048063767630042971 -0.39138561965762242 0 0.012335125110621421 -0.40257498038692152 0 0.012884388884344129 -0.38719381785202001 0 0.0048063767630042971 -0.39138561965762242 0 0.017141309740791349 -0.3962793486404188 0 0.0048063767630042971 -0.39138561965762242 0 0.012335125110621421 -0.40257498038692152 0 0.017141309740791349 -0.3962793486404188 0 0.012335125110621421 -0.40257498038692152 0 0.018544719027288641 -0.40626949651398031 0 0.014222560137577941 -0.40901716807466137 0 0.019485320770079209 -0.40191345574055198 0 0.017141309740791349 -0.3962793486404188 0 0.025451969753846618 -0.39794065642794357 0 0.012335125110621421 -0.40257498038692152 0 0.019485320770079209 -0.40191345574055198 0 0.018544719027288641 -0.40626949651398031 0 0.039207016546972312 -0.39658358169576091 0 0.022361639647487809 -0.40931649704801992 0 0.039207016546972312 -0.39658358169576091 0 0.024982485801996589 -0.4026495632386311 0 0.022361639647487809 -0.40931649704801992 0 0.012335125110621421 -0.40257498038692152 0 0.019485320770079209 -0.40191345574055198 0 0.017141309740791349 -0.3962793486404188 0 0.019485320770079209 -0.40191345574055198 0 0.025451969753846618 -0.39794065642794357 0 0.024982485801996589 -0.4026495632386311 0 0.024982485801996589 -0.4026495632386311 0 0.022361639647487809 -0.40931649704801992 0 0.018544719027288641 -0.40626949651398031 0 0.019485320770079209 -0.40191345574055198 0 0.024982485801996589 -0.4026495632386311 0 0.018544719027288641 -0.40626949651398031 0 0.017141309740791349 -0.3962793486404188 0 0.023403126884146051 -0.39362354124012139 0 0.025451969753846618 -0.39794065642794357 0 0.02113951966936883 -0.38787283312652943 0 0.017141309740791349 -0.3962793486404188 0 0.023403126884146051 -0.39362354124012139 0 0.02113951966936883 -0.38787283312652943 0 0.023403126884146051 -0.39362354124012139 0 0.029879708372577411 -0.39240132676559408 0 0.023403126884146051 -0.39362354124012139 0 0.025451969753846618 -0.39794065642794357 0 0.029879708372577411 -0.39240132676559408 0 0.039207016546972312 -0.39658358169576091 0 0.025451969753846618 -0.39794065642794357 0 0.024982485801996589 -0.4026495632386311 0 0.022361639647487809 -0.40931649704801992 0 0.023001447026782161 -0.41265363597305971 0 0.0055162627480025237 -0.42204941240027782 0 0.023001447026782161 -0.41265363597305971 0 0.0055162627480025237 -0.42204941240027782 0 0.018564028975897099 -0.42192855649161032 0 0.040486631305561821 -0.40325785954584142 0 0.022361639647487809 -0.40931649704801992 0 0.023001447026782161 -0.41265363597305971 0 0.026538093659971021 -0.41633345046158587 0 0.023001447026782161 -0.41265363597305971 0 0.031425651894614617 -0.4143846260311238 0 0.026538093659971021 -0.41633345046158587 0 0.0276973921333033 -0.4219641834201695 0 0.031425651894614617 -0.4143846260311238 0 0.026538093659971021 -0.41633345046158587 0 0.0239607327646905 -0.41796474034814468 0 0.023001447026782161 -0.41265363597305971 0 0.026538093659971021 -0.41633345046158587 0 0.0239607327646905 -0.41796474034814468 0 0.0276973921333033 -0.4219641834201695 0 0.0239607327646905 -0.41796474034814468 0 0.018564028975897099 -0.42192855649161032 0 0.0276973921333033 -0.4219641834201695 0 0.0239607327646905 -0.41796474034814468 0 0.023001447026782161 -0.41265363597305971 0 0.018564028975897099 -0.42192855649161032 0 0.022361639647487809 -0.40931649704801992 0 0.018544719027288641 -0.40626949651398031 0 0.014222560137577941 -0.40901716807466137 0 0.022361639647487809 -0.40931649704801992 0 0.0088040001206800469 -0.41364191634462227 0 0.0055162627480025237 -0.42204941240027782 0 0.022361639647487809 -0.40931649704801992 0 0.0055162627480025237 -0.42204941240027782 0 0.022361639647487809 -0.40931649704801992 0 0.014222560137577941 -0.40901716807466137 0 0.0088040001206800469 -0.41364191634462227 0 0.023001447026782161 -0.41265363597305971 0 0.0055162627480025237 -0.42204941240027782 0 0.014222560137577941 -0.40901716807466137 0 0.0088040001206800469 -0.41364191634462227 0 0.0068611306111954068 -0.40725587629075982 0 0.012335125110621421 -0.40257498038692152 0 0.014222560137577941 -0.40901716807466137 0 0.0068611306111954068 -0.40725587629075982 0 -0.0012591713889099571 -0.4124205754594602 0 0.0088040001206800469 -0.41364191634462227 0 0.0055162627480025237 -0.42204941240027782 0 -0.0012591713889099571 -0.4124205754594602 0 0.0088040001206800469 -0.41364191634462227 0 0.0068611306111954068 -0.40725587629075982 0 -0.0012591713889099571 -0.4124205754594602 0 0.00086455765575302746 -0.4009210970433339 0 0.0068611306111954068 -0.40725587629075982 0 0.0012858825624279221 -0.43243677009768711 0 0.010819710092075319 -0.43202295663322349 0 0.002520803108117585 -0.44016184106386741 0 0.0012858825624279221 -0.43243677009768711 0 0.0055162627480025237 -0.42204941240027782 0 0.010819710092075319 -0.43202295663322349 0 0.0055162627480025237 -0.42204941240027782 0 0.010819710092075319 -0.43202295663322349 0 0.018564028975897099 -0.42192855649161032 0 0.010819710092075319 -0.43202295663322349 0 0.022563050867919519 -0.43249163704565508 0 0.01446823229008725 -0.44306952270024391 0 0.010819710092075319 -0.43202295663322349 0 0.022563050867919519 -0.43249163704565508 0 0.018564028975897099 -0.42192855649161032 0 0.022563050867919519 -0.43249163704565508 0 0.018564028975897099 -0.42192855649161032 0 0.0276973921333033 -0.4219641834201695 0 0.022563050867919519 -0.43249163704565508 0 0.0276973921333033 -0.4219641834201695 0 0.033010587829802832 -0.43245764027088729 0 0.022563050867919519 -0.43249163704565508 0 0.033010587829802832 -0.43245764027088729 0 0.032377080941721363 -0.44447458325822131 0 0.045311537273397609 -0.43320434817523001 0 0.037414297635260253 -0.42111688901251287 0 0.049279459129732049 -0.41294712401326128 0 0.033010587829802832 -0.43245764027088729 0 0.045311537273397609 -0.43320434817523001 0 0.032377080941721363 -0.44447458325822131 0 0.033010587829802832 -0.43245764027088729 0 0.045311537273397609 -0.43320434817523001 0 0.037414297635260253 -0.42111688901251287 0 0.0276973921333033 -0.4219641834201695 0 0.033010587829802832 -0.43245764027088729 0 0.037414297635260253 -0.42111688901251287 0 0.040486631305561821 -0.40325785954584142 0 0.023001447026782161 -0.41265363597305971 0 0.040486631305561821 -0.40325785954584142 0 0.023001447026782161 -0.41265363597305971 0 0.031425651894614617 -0.4143846260311238 0 0.0276973921333033 -0.4219641834201695 0 0.037414297635260253 -0.42111688901251287 0 0.031425651894614617 -0.4143846260311238 0 0.037414297635260253 -0.42111688901251287 0 0.031425651894614617 -0.4143846260311238 0 0.039651509991292189 -0.4129266246506848 0 0.040486631305561821 -0.40325785954584142 0 0.031425651894614617 -0.4143846260311238 0 0.039651509991292189 -0.4129266246506848 0 0.040486631305561821 -0.40325785954584142 0 0.039651509991292189 -0.4129266246506848 0 0.049279459129732049 -0.41294712401326128 0 0.037414297635260253 -0.42111688901251287 0 0.039651509991292189 -0.4129266246506848 0 0.049279459129732049 -0.41294712401326128 0 0.060428398582670559 -0.40609899900419399 0 0.040486631305561821 -0.40325785954584142 0 0.049279459129732049 -0.41294712401326128 0 0.060428398582670559 -0.40609899900419399 0 0.049279459129732049 -0.41294712401326128 0 0.061641413029039617 -0.42057327598065269 0 0.067955642600389818 -0.43365404824220699 0 0.045311537273397609 -0.43320434817523001 0 0.061641413029039617 -0.42057327598065269 0 0.045311537273397609 -0.43320434817523001 0 0.049279459129732049 -0.41294712401326128 0 0.061641413029039617 -0.42057327598065269 0 0.067955642600389818 -0.43365404824220699 0 0.045311537273397609 -0.43320434817523001 0 0.054456803847605539 -0.44585627052545851 0 0.067194926797312843 -0.45680268182630368 0 0.054456803847605539 -0.44585627052545851 0 0.038685689692444493 -0.46280451781431348 0 0.067194926797312843 -0.45680268182630368 0 0.038685689692444493 -0.46280451781431348 0 0.045311537273397609 -0.43320434817523001 0 0.054456803847605539 -0.44585627052545851 0 0.032377080941721363 -0.44447458325822131 0 0.054456803847605539 -0.44585627052545851 0 0.038685689692444493 -0.46280451781431348 0 0.032377080941721363 -0.44447458325822131 0 0.032377080941721363 -0.44447458325822131 0 0.01446823229008725 -0.44306952270024391 0 0.019703051098088301 -0.45469897292711858 0 0.022563050867919519 -0.43249163704565508 0 0.032377080941721363 -0.44447458325822131 0 0.01446823229008725 -0.44306952270024391 0 0.01446823229008725 -0.44306952270024391 0 0.0028077999786123601 -0.45433988706049089 0 0.019703051098088301 -0.45469897292711858 0 0.010819710092075319 -0.43202295663322349 0 0.01446823229008725 -0.44306952270024391 0 0.002520803108117585 -0.44016184106386741 0 0.01446823229008725 -0.44306952270024391 0 0.002520803108117585 -0.44016184106386741 0 0.0028077999786123601 -0.45433988706049089 0 0.0028077999786123601 -0.45433988706049089 0 0.019703051098088301 -0.45469897292711858 0 0.010176452587576049 -0.46880635380232327 0 -0.0049027206756070661 -0.46690035482721132 0 0.0028077999786123601 -0.45433988706049089 0 0.010176452587576049 -0.46880635380232327 0 0.038685689692444493 -0.46280451781431348 0 0.019703051098088301 -0.45469897292711858 0 0.010176452587576049 -0.46880635380232327 0 0.038685689692444493 -0.46280451781431348 0 0.010176452587576049 -0.46880635380232327 0 0.038685689692444493 -0.46280451781431348 0 0.032377080941721363 -0.44447458325822131 0 0.019703051098088301 -0.45469897292711858 0 0.038685689692444493 -0.46280451781431348 0 0.019014763528379029 -0.48350173680915121 0 0.010176452587576049 -0.46880635380232327 0 -0.007051701975383606 -0.48324500904034501 0 0.019014763528379029 -0.48350173680915121 0 0.010176452587576049 -0.46880635380232327 0 -0.007051701975383606 -0.48324500904034501 0 0.019014763528379029 -0.48350173680915121 0 -0.007051701975383606 -0.48324500904034501 0 0.019014763528379029 -0.48350173680915121 0 0.0055866102820615327 -0.5 0 0.019014763528379029 -0.48350173680915121 0 0.0055866102820615327 -0.5 0 0.032367825433861727 -0.50000000000000244 0 0.019014763528379029 -0.48350173680915121 0 0.032367825433861727 -0.50000000000000244 0 0.036996472941626161 -0.48330154643874879 0 0.032367825433861727 -0.50000000000000244 0 0.036996472941626161 -0.48330154643874879 0 0.056367000375397047 -0.4892759875577245 0 0.067194926797312843 -0.45680268182630368 0 0.038685689692444493 -0.46280451781431348 0 0.056367000375397047 -0.4892759875577245 0 0.032367825433861727 -0.50000000000000244 0 0.056367000375397047 -0.4892759875577245 0 0.038685689692444493 -0.46280451781431348 0 0.036996472941626161 -0.48330154643874879 0 0.056367000375397047 -0.4892759875577245 0 0.038685689692444493 -0.46280451781431348 0 0.019014763528379029 -0.48350173680915121 0 0.036996472941626161 -0.48330154643874879 0 0.032367825433861727 -0.50000000000000244 0 0.056367000375397047 -0.4892759875577245 0 0.05562584467007492 -0.5 0 0.080570999248568184 -0.30621614801790148 0 0.09864015372558535 -0.29409814443034599 0 0.093984722403939236 -0.28580533770932759 0 0.081649093877174589 -0.29351497739516402 0 0.080570999248568184 -0.30621614801790148 0 0.093984722403939236 -0.28580533770932759 0 0.080570999248568184 -0.30621614801790148 0 0.093984722403939236 -0.28580533770932759 0 0.081649093877174589 -0.29351497739516402 0 0.083192185865635204 -0.28562494563964153 0 0.076347619185195559 -0.29018226793529112 0 0.083192185865635204 -0.28562494563964153 0 0.077598168426374681 -0.279989891851189 0 0.086381325435491915 -0.27863225330723568 0 0.083192185865635204 -0.28562494563964153 0 0.076347619185195559 -0.29018226793529112 0 0.077598168426374681 -0.279989891851189 0 0.083192185865635204 -0.28562494563964153 0 0.086381325435491915 -0.27863225330723568 0 0.093984722403939236 -0.28580533770932759 0 0.081649093877174589 -0.29351497739516402 0 0.083192185865635204 -0.28562494563964153 0 0.093984722403939236 -0.28580533770932759 0 0.080570999248568184 -0.30621614801790148 0 0.096648804462405785 -0.30806087215826372 0 0.094638868529067069 -0.31338940557181871 0 0.080570999248568184 -0.30621614801790148 0 0.10615084009040821 -0.30081328349134162 0 0.080570999248568184 -0.30621614801790148 0 0.094638868529067069 -0.31338940557181871 0 0.086182600290006822 -0.31335745066633441 0 0.080570999248568184 -0.30621614801790148 0 0.081183663902277242 -0.3116515673905379 0 0.086182600290006822 -0.31335745066633441 0 0.080570999248568184 -0.30621614801790148 0 0.077401004018741143 -0.31103972835913668 0 0.080570999248568184 -0.30621614801790148 0 0.081183663902277242 -0.3116515673905379 0 0.077401004018741143 -0.31103972835913668 0 0.071118554128641612 -0.29895536135264789 0 0.059677869095980163 -0.29526461985052149 0 0.057531653427060077 -0.31108242005703829 0 0.080570999248568184 -0.30621614801790148 0 0.071352954493816276 -0.31148664734884268 0 0.057531653427060077 -0.31108242005703829 0 0.081649093877174589 -0.29351497739516402 0 0.080570999248568184 -0.30621614801790148 0 0.071118554128641612 -0.29895536135264789 0 0.080570999248568184 -0.30621614801790148 0 0.071118554128641612 -0.29895536135264789 0 0.057531653427060077 -0.31108242005703829 0 0.080570999248568184 -0.30621614801790148 0 0.057531653427060077 -0.31108242005703829 0 0.080570999248568184 -0.30621614801790148 0 0.077401004018741143 -0.31103972835913668 0 0.071352954493816276 -0.31148664734884268 0 0.071352954493816276 -0.31148664734884268 0 0.064035601913116427 -0.31375159176388279 0 0.057531653427060077 -0.31108242005703829 0 0.071118554128641612 -0.29895536135264789 0 0.066345876766798068 -0.28669905070128532 0 0.059677869095980163 -0.29526461985052149 0 0.071118554128641612 -0.29895536135264789 0 0.076347619185195559 -0.29018226793529112 0 0.066345876766798068 -0.28669905070128532 0 0.081649093877174589 -0.29351497739516402 0 0.071118554128641612 -0.29895536135264789 0 0.076347619185195559 -0.29018226793529112 0 0.076347619185195559 -0.29018226793529112 0 0.066345876766798068 -0.28669905070128532 0 0.077598168426374681 -0.279989891851189 0 0.066345876766798068 -0.28669905070128532 0 0.065812203452532955 -0.26920257458768082 0 0.077598168426374681 -0.279989891851189 0 0.065812203452532955 -0.26920257458768082 0 0.077598168426374681 -0.279989891851189 0 0.080873794350273975 -0.26960105549671071 0 0.065812203452532955 -0.26920257458768082 0 0.075357668747776663 -0.26118634055519152 0 0.080873794350273975 -0.26960105549671071 0 0.065812203452532955 -0.26920257458768082 0 0.069621436062782094 -0.25632746082006241 0 0.060568488386116323 -0.2527377194114907 0 0.069621436062782094 -0.25632746082006241 0 0.060568488386116323 -0.2527377194114907 0 0.072462681669391737 -0.24426177291940049 0 0.065812203452532955 -0.26920257458768082 0 0.069621436062782094 -0.25632746082006241 0 0.075357668747776663 -0.26118634055519152 0 0.069621436062782094 -0.25632746082006241 0 0.075357668747776663 -0.26118634055519152 0 0.078299639262990939 -0.25282750711809521 0 0.069621436062782094 -0.25632746082006241 0 0.078299639262990939 -0.25282750711809521 0 0.072462681669391737 -0.24426177291940049 0 0.078299639262990939 -0.25282750711809521 0 0.0853266445778951 -0.26155032280562901 0 0.089624746812020706 -0.25279476402730222 0 0.078299639262990939 -0.25282750711809521 0 0.089624746812020706 -0.25279476402730222 0 0.083468506435680864 -0.2451852086778922 0 0.075357668747776663 -0.26118634055519152 0 0.0853266445778951 -0.26155032280562901 0 0.080873794350273975 -0.26960105549671071 0 0.075357668747776663 -0.26118634055519152 0 0.078299639262990939 -0.25282750711809521 0 0.0853266445778951 -0.26155032280562901 0 0.0853266445778951 -0.26155032280562901 0 0.092027533994532701 -0.27042887494395729 0 0.09745571744551576 -0.26091081930926469 0 0.0853266445778951 -0.26155032280562901 0 0.089624746812020706 -0.25279476402730222 0 0.09745571744551576 -0.26091081930926469 0 0.077598168426374681 -0.279989891851189 0 0.080873794350273975 -0.26960105549671071 0 0.086381325435491915 -0.27863225330723568 0 0.080873794350273975 -0.26960105549671071 0 0.092027533994532701 -0.27042887494395729 0 0.086381325435491915 -0.27863225330723568 0 0.0853266445778951 -0.26155032280562901 0 0.080873794350273975 -0.26960105549671071 0 0.092027533994532701 -0.27042887494395729 0 0.092027533994532701 -0.27042887494395729 0 0.086381325435491915 -0.27863225330723568 0 0.093984722403939236 -0.28580533770932759 0 0.10739844555931211 -0.26539452740075498 0 0.093984722403939236 -0.28580533770932759 0 0.092027533994532701 -0.27042887494395729 0 0.10739844555931211 -0.26539452740075498 0 0.093984722403939236 -0.28580533770932759 0 0.10739844555931211 -0.26539452740075498 0 0.104395229142038 -0.28449265419108921 0 0.093984722403939236 -0.28580533770932759 0 0.097497114306209609 -0.25224325822444549 0 0.09745571744551576 -0.26091081930926469 0 0.1064824157530737 -0.25121458220748633 0 0.089624746812020706 -0.25279476402730222 0 0.097497114306209609 -0.25224325822444549 0 0.09745571744551576 -0.26091081930926469 0 0.092027533994532701 -0.27042887494395729 0 0.09745571744551576 -0.26091081930926469 0 0.10739844555931211 -0.26539452740075498 0 0.09745571744551576 -0.26091081930926469 0 0.10739844555931211 -0.26539452740075498 0 0.1064824157530737 -0.25121458220748633 0 0.1180488418166126 -0.26176484162401731 0 0.13170245449118731 -0.23903702905694529 0 0.10739844555931211 -0.26539452740075498 0 0.1180488418166126 -0.26176484162401731 0 0.120812168714685 -0.24498371709218231 0 0.10739844555931211 -0.26539452740075498 0 0.1064824157530737 -0.25121458220748633 0 0.120812168714685 -0.24498371709218231 0 0.10739844555931211 -0.26539452740075498 0 0.120812168714685 -0.24498371709218231 0 0.1180488418166126 -0.26176484162401731 0 0.104395229142038 -0.28449265419108921 0 0.1180488418166126 -0.26176484162401731 0 0.1248559401496294 -0.27989681384712378 0 0.1143489880033795 -0.2820511513220238 0 0.1180488418166126 -0.26176484162401731 0 0.1143489880033795 -0.2820511513220238 0 0.104395229142038 -0.28449265419108921 0 0.1317528145223168 -0.26779753191328559 0 0.1180488418166126 -0.26176484162401731 0 0.1248559401496294 -0.27989681384712378 0 0.10739844555931211 -0.26539452740075498 0 0.1180488418166126 -0.26176484162401731 0 0.104395229142038 -0.28449265419108921 0 0.13173068093224799 -0.29541041896478037 0 0.1248559401496294 -0.27989681384712378 0 0.1163459511656446 -0.29093814820581881 0 0.13173068093224799 -0.29541041896478037 0 0.1163459511656446 -0.29093814820581881 0 0.10615084009040821 -0.30081328349134162 0 0.1248559401496294 -0.27989681384712378 0 0.1163459511656446 -0.29093814820581881 0 0.1143489880033795 -0.2820511513220238 0 0.1163459511656446 -0.29093814820581881 0 0.1079762324254112 -0.29047867632812391 0 0.10615084009040821 -0.30081328349134162 0 0.1163459511656446 -0.29093814820581881 0 0.1143489880033795 -0.2820511513220238 0 0.1079762324254112 -0.29047867632812391 0 0.1143489880033795 -0.2820511513220238 0 0.104395229142038 -0.28449265419108921 0 0.1079762324254112 -0.29047867632812391 0 0.1079762324254112 -0.29047867632812391 0 0.09864015372558535 -0.29409814443034599 0 0.10615084009040821 -0.30081328349134162 0 0.104395229142038 -0.28449265419108921 0 0.1079762324254112 -0.29047867632812391 0 0.09864015372558535 -0.29409814443034599 0 0.104395229142038 -0.28449265419108921 0 0.09864015372558535 -0.29409814443034599 0 0.093984722403939236 -0.28580533770932759 0 0.080570999248568184 -0.30621614801790148 0 0.096648804462405785 -0.30806087215826372 0 0.10615084009040821 -0.30081328349134162 0 0.080570999248568184 -0.30621614801790148 0 0.09864015372558535 -0.29409814443034599 0 0.10615084009040821 -0.30081328349134162 0 0.096648804462405785 -0.30806087215826372 0 0.1052345099815796 -0.31182465155199268 0 0.094638868529067069 -0.31338940557181871 0 0.10615084009040821 -0.30081328349134162 0 0.1052345099815796 -0.31182465155199268 0 0.1158437239328596 -0.30174380354425412 0 0.096648804462405785 -0.30806087215826372 0 0.10615084009040821 -0.30081328349134162 0 0.1052345099815796 -0.31182465155199268 0 0.13173068093224799 -0.29541041896478037 0 0.10615084009040821 -0.30081328349134162 0 0.1158437239328596 -0.30174380354425412 0 0.13173068093224799 -0.29541041896478037 0 0.10615084009040821 -0.30081328349134162 0 0.1299924741055126 -0.33410355420520371 0 0.1303035201169937 -0.31492294617863859 0 0.1141681914007054 -0.32598760493891971 0 0.1303035201169937 -0.31492294617863859 0 0.1158437239328596 -0.30174380354425412 0 0.1141681914007054 -0.32598760493891971 0 0.1158437239328596 -0.30174380354425412 0 0.1141681914007054 -0.32598760493891971 0 0.1052345099815796 -0.31182465155199268 0 0.1158437239328596 -0.30174380354425412 0 0.1141681914007054 -0.32598760493891971 0 0.1299924741055126 -0.33410355420520371 0 0.1141681914007054 -0.32598760493891971 0 0.1124926588685573 -0.35023140633358552 0 0.1141681914007054 -0.32598760493891971 0 0.1124926588685573 -0.35023140633358552 0 0.1141681914007054 -0.32598760493891971 0 0.100299289275231 -0.33533925166271072 0 0.1124926588685573 -0.35023140633358552 0 0.100299289275231 -0.33533925166271072 0 0.099718456210305478 -0.32232284131481381 0 0.091086758489248937 -0.32778054619490582 0 0.099718456210305478 -0.32232284131481381 0 0.091298692895008138 -0.31976513406103341 0 0.091086758489248937 -0.32778054619490582 0 0.099718456210305478 -0.32232284131481381 0 0.094638868529067069 -0.31338940557181871 0 0.091298692895008138 -0.31976513406103341 0 0.1052345099815796 -0.31182465155199268 0 0.099718456210305478 -0.32232284131481381 0 0.094638868529067069 -0.31338940557181871 0 0.1052345099815796 -0.31182465155199268 0 0.1141681914007054 -0.32598760493891971 0 0.099718456210305478 -0.32232284131481381 0 0.1141681914007054 -0.32598760493891971 0 0.100299289275231 -0.33533925166271072 0 0.099718456210305478 -0.32232284131481381 0 0.13941880936574369 -0.35363923793010871 0 0.1104608317160277 -0.37963054541847913 0 0.1124926588685573 -0.35023140633358552 0 0.1104608317160277 -0.37963054541847913 0 0.1124926588685573 -0.35023140633358552 0 0.1124926588685573 -0.35023140633358552 0 0.092654979055660308 -0.34772070685297529 0 0.1124926588685573 -0.35023140633358552 0 0.1013535662466938 -0.35745643488103901 0 0.092654979055660308 -0.34772070685297529 0 0.100299289275231 -0.33533925166271072 0 0.1124926588685573 -0.35023140633358552 0 0.092654979055660308 -0.34772070685297529 0 0.1013535662466938 -0.35745643488103901 0 0.089449788521695578 -0.3586065767029869 0 0.092654979055660308 -0.34772070685297529 0 0.1104608317160277 -0.37963054541847913 0 0.1124926588685573 -0.35023140633358552 0 0.1013535662466938 -0.35745643488103901 0 0.1104608317160277 -0.37963054541847913 0 0.1013535662466938 -0.35745643488103901 0 0.095796721256996967 -0.36973006432325167 0 0.1013535662466938 -0.35745643488103901 0 0.095796721256996967 -0.36973006432325167 0 0.089449788521695578 -0.3586065767029869 0 0.089449788521695578 -0.3586065767029869 0 0.072702197863454804 -0.37126557836724527 0 0.086112103320483677 -0.37195001787659998 0 0.089449788521695578 -0.3586065767029869 0 0.072702197863454804 -0.37126557836724527 0 0.089449788521695578 -0.3586065767029869 0 0.07548261507049428 -0.35728122427260922 0 0.072702197863454804 -0.37126557836724527 0 0.079288508960407664 -0.38111535076935282 0 0.086112103320483677 -0.37195001787659998 0 0.072702197863454804 -0.37126557836724527 0 0.09160731648008405 -0.38100674673715379 0 0.095796721256996967 -0.36973006432325167 0 0.086112103320483677 -0.37195001787659998 0 0.095796721256996967 -0.36973006432325167 0 0.086112103320483677 -0.37195001787659998 0 0.089449788521695578 -0.3586065767029869 0 0.092654979055660308 -0.34772070685297529 0 0.072817299242763256 -0.34521000737236551 0 0.092654979055660308 -0.34772070685297529 0 0.072817299242763256 -0.34521000737236551 0 0.07548261507049428 -0.35728122427260922 0 0.089449788521695578 -0.3586065767029869 0 0.092654979055660308 -0.34772070685297529 0 0.07548261507049428 -0.35728122427260922 0 0.07548261507049428 -0.35728122427260922 0 0.063749811574031964 -0.36479174453176832 0 0.058871999323118263 -0.35520835673131879 0 0.072817299242763256 -0.34521000737236551 0 0.07548261507049428 -0.35728122427260922 0 0.058871999323118263 -0.35520835673131879 0 0.07548261507049428 -0.35728122427260922 0 0.063749811574031964 -0.36479174453176832 0 0.072702197863454804 -0.37126557836724527 0 0.063749811574031964 -0.36479174453176832 0 0.067314733152159328 -0.374050436936605 0 0.072702197863454804 -0.37126557836724527 0 0.0845221623443419 -0.32168879883195478 0 0.091086758489248937 -0.32778054619490582 0 0.080827429160432673 -0.33060627322613417 0 0.0845221623443419 -0.32168879883195478 0 0.080827429160432673 -0.33060627322613417 0 0.077157441179561984 -0.32263044632454208 0 0.0845221623443419 -0.32168879883195478 0 0.080580052051792819 -0.31599294251877902 0 0.077157441179561984 -0.32263044632454208 0 0.0845221623443419 -0.32168879883195478 0 0.080580052051792819 -0.31599294251877902 0 0.086182600290006822 -0.31335745066633441 0 0.081183663902277242 -0.3116515673905379 0 0.077401004018741143 -0.31103972835913668 0 0.080580052051792819 -0.31599294251877902 0 0.081183663902277242 -0.3116515673905379 0 0.080580052051792819 -0.31599294251877902 0 0.086182600290006822 -0.31335745066633441 0 0.0845221623443419 -0.32168879883195478 0 0.091298692895008138 -0.31976513406103341 0 0.086182600290006822 -0.31335745066633441 0 0.094638868529067069 -0.31338940557181871 0 0.091298692895008138 -0.31976513406103341 0 0.086182600290006822 -0.31335745066633441 0 0.0845221623443419 -0.32168879883195478 0 0.091298692895008138 -0.31976513406103341 0 0.091086758489248937 -0.32778054619490582 0 0.100299289275231 -0.33533925166271072 0 0.091086758489248937 -0.32778054619490582 0 0.088046006601933513 -0.33743200386716699 0 0.091086758489248937 -0.32778054619490582 0 0.088046006601933513 -0.33743200386716699 0 0.080827429160432673 -0.33060627322613417 0 0.092654979055660308 -0.34772070685297529 0 0.072817299242763256 -0.34521000737236551 0 0.088046006601933513 -0.33743200386716699 0 0.100299289275231 -0.33533925166271072 0 0.092654979055660308 -0.34772070685297529 0 0.088046006601933513 -0.33743200386716699 0 0.072817299242763256 -0.34521000737236551 0 0.088046006601933513 -0.33743200386716699 0 0.080827429160432673 -0.33060627322613417 0 0.072817299242763256 -0.34521000737236551 0 0.080827429160432673 -0.33060627322613417 0 0.06971814959951024 -0.32835759202715908 0 0.072817299242763256 -0.34521000737236551 0 0.063287537275906691 -0.33617332120412069 0 0.06971814959951024 -0.32835759202715908 0 0.072817299242763256 -0.34521000737236551 0 0.063287537275906691 -0.33617332120412069 0 0.052401712915557758 -0.34362580058238729 0 0.063287537275906691 -0.33617332120412069 0 0.06971814959951024 -0.32835759202715908 0 0.058212987345795553 -0.32749988483457082 0 0.06971814959951024 -0.32835759202715908 0 0.066505224398023394 -0.32210764509928841 0 0.058212987345795553 -0.32749988483457082 0 0.06971814959951024 -0.32835759202715908 0 0.066505224398023394 -0.32210764509928841 0 0.071526257245298916 -0.32122409084291148 0 0.080827429160432673 -0.33060627322613417 0 0.06971814959951024 -0.32835759202715908 0 0.077157441179561984 -0.32263044632454208 0 0.06971814959951024 -0.32835759202715908 0 0.071526257245298916 -0.32122409084291148 0 0.077157441179561984 -0.32263044632454208 0 0.077401004018741143 -0.31103972835913668 0 0.080580052051792819 -0.31599294251877902 0 0.07480530572211383 -0.31634075895290159 0 0.077401004018741143 -0.31103972835913668 0 0.071352954493816276 -0.31148664734884268 0 0.07480530572211383 -0.31634075895290159 0 0.080580052051792819 -0.31599294251877902 0 0.077157441179561984 -0.32263044632454208 0 0.07480530572211383 -0.31634075895290159 0 0.071526257245298916 -0.32122409084291148 0 0.077157441179561984 -0.32263044632454208 0 0.07480530572211383 -0.31634075895290159 0 0.071526257245298916 -0.32122409084291148 0 0.07480530572211383 -0.31634075895290159 0 0.069101710080519824 -0.3165566639008397 0 0.071352954493816276 -0.31148664734884268 0 0.07480530572211383 -0.31634075895290159 0 0.069101710080519824 -0.3165566639008397 0 0.071352954493816276 -0.31148664734884268 0 0.069101710080519824 -0.3165566639008397 0 0.064035601913116427 -0.31375159176388279 0 0.066505224398023394 -0.32210764509928841 0 0.069101710080519824 -0.3165566639008397 0 0.063609507319537295 -0.31651503004742843 0 0.066505224398023394 -0.32210764509928841 0 0.071526257245298916 -0.32122409084291148 0 0.069101710080519824 -0.3165566639008397 0 0.066505224398023394 -0.32210764509928841 0 0.063609507319537295 -0.31651503004742843 0 0.061006960222228741 -0.32032137801944172 0 0.069101710080519824 -0.3165566639008397 0 0.063609507319537295 -0.31651503004742843 0 0.064035601913116427 -0.31375159176388279 0 0.063609507319537295 -0.31651503004742843 0 0.064035601913116427 -0.31375159176388279 0 0.058582184244648637 -0.31311719746526512 0 0.064035601913116427 -0.31375159176388279 0 0.058582184244648637 -0.31311719746526512 0 0.057531653427060077 -0.31108242005703829 0 0.063609507319537295 -0.31651503004742843 0 0.058582184244648637 -0.31311719746526512 0 0.059572776442410671 -0.31693118135617521 0 0.059572776442410671 -0.31693118135617521 0 0.056231872026809182 -0.31940047702149332 0 0.061006960222228741 -0.32032137801944172 0 0.063609507319537295 -0.31651503004742843 0 0.059572776442410671 -0.31693118135617521 0 0.061006960222228741 -0.32032137801944172 0 0.056231872026809182 -0.31940047702149332 0 0.056473663899319203 -0.31572133416348841 0 0.051736122795728749 -0.3153631588479946 0 0.059572776442410671 -0.31693118135617521 0 0.056231872026809182 -0.31940047702149332 0 0.056473663899319203 -0.31572133416348841 0 0.056245363986998698 -0.31379465612651369 0 0.051736122795728749 -0.3153631588479946 0 0.057531653427060077 -0.31108242005703829 0 0.056473663899319203 -0.31572133416348841 0 0.056245363986998698 -0.31379465612651369 0 0.051736122795728749 -0.3153631588479946 0 0.058582184244648637 -0.31311719746526512 0 0.056473663899319203 -0.31572133416348841 0 0.056245363986998698 -0.31379465612651369 0 0.058582184244648637 -0.31311719746526512 0 0.056245363986998698 -0.31379465612651369 0 0.057531653427060077 -0.31108242005703829 0 0.058582184244648637 -0.31311719746526512 0 0.059572776442410671 -0.31693118135617521 0 0.056473663899319203 -0.31572133416348841 0 0.056231872026809182 -0.31940047702149332 0 0.051736122795728749 -0.3153631588479946 0 0.051235458119248407 -0.32198849231887439 0 0.051736122795728749 -0.3153631588479946 0 0.051235458119248407 -0.32198849231887439 0 0.044694808437107811 -0.31924353548722728 0 0.051235458119248407 -0.32198849231887439 0 0.058212987345795553 -0.32749988483457082 0 0.045301499990800742 -0.32843540540308602 0 0.051235458119248407 -0.32198849231887439 0 0.045301499990800742 -0.32843540540308602 0 0.044694808437107811 -0.31924353548722728 0 0.056231872026809182 -0.31940047702149332 0 0.058212987345795553 -0.32749988483457082 0 0.061006960222228741 -0.32032137801944172 0 0.056231872026809182 -0.31940047702149332 0 0.051235458119248407 -0.32198849231887439 0 0.058212987345795553 -0.32749988483457082 0 0.066505224398023394 -0.32210764509928841 0 0.058212987345795553 -0.32749988483457082 0 0.061006960222228741 -0.32032137801944172 0 0.058212987345795553 -0.32749988483457082 0 0.052401712915557758 -0.34362580058238729 0 0.045301499990800742 -0.32843540540308602 0 0.063287537275906691 -0.33617332120412069 0 0.058212987345795553 -0.32749988483457082 0 0.052401712915557758 -0.34362580058238729 0 0.052401712915557758 -0.34362580058238729 0 0.045301499990800742 -0.32843540540308602 0 0.035140684398721533 -0.33952055430081279 0 0.045301499990800742 -0.32843540540308602 0 0.035140684398721533 -0.33952055430081279 0 0.034431792658146172 -0.32833847444948328 0 0.031110393156509639 -0.31666300559490212 0 0.057531653427060077 -0.31108242005703829 0 0.051736122795728749 -0.3153631588479946 0 0.044694808437107811 -0.31924353548722728 0 0.031110393156509639 -0.31666300559490212 0 0.051736122795728749 -0.3153631588479946 0 0.031110393156509639 -0.31666300559490212 0 0.057531653427060077 -0.31108242005703829 0 0.034431792658146172 -0.32833847444948328 0 0.037241658359082809 -0.32244495863716283 0 0.031467574066528843 -0.32417093572057992 0 0.045301499990800742 -0.32843540540308602 0 0.034431792658146172 -0.32833847444948328 0 0.037241658359082809 -0.32244495863716283 0 0.037241658359082809 -0.32244495863716283 0 0.031467574066528843 -0.32417093572057992 0 0.031110393156509639 -0.31666300559490212 0 0.037241658359082809 -0.32244495863716283 0 0.044694808437107811 -0.31924353548722728 0 0.031110393156509639 -0.31666300559490212 0 0.045301499990800742 -0.32843540540308602 0 0.037241658359082809 -0.32244495863716283 0 0.044694808437107811 -0.31924353548722728 0 0.067314733152159328 -0.374050436936605 0 0.04437751246093314 -0.36615312635106312 0 0.063749811574031964 -0.36479174453176832 0 0.067314733152159328 -0.374050436936605 0 0.04437751246093314 -0.36615312635106312 0 0.055954607205214009 -0.38392458003150359 0 0.067314733152159328 -0.374050436936605 0 0.04437751246093314 -0.36615312635106312 0 0.063749811574031964 -0.36479174453176832 0 0.058871999323118263 -0.35520835673131879 0 0.04437751246093314 -0.36615312635106312 0 0.052401712915557758 -0.34362580058238729 0 0.058871999323118263 -0.35520835673131879 0 0.041212185131710252 -0.35233287428017063 0 0.058871999323118263 -0.35520835673131879 0 0.041212185131710252 -0.35233287428017063 0 0.04437751246093314 -0.36615312635106312 0 0.072817299242763256 -0.34521000737236551 0 0.052401712915557758 -0.34362580058238729 0 0.058871999323118263 -0.35520835673131879 0 0.041212185131710252 -0.35233287428017063 0 0.04437751246093314 -0.36615312635106312 0 0.021440291769706871 -0.35825581576552112 0 0.035140684398721533 -0.33952055430081279 0 0.041212185131710252 -0.35233287428017063 0 0.021440291769706871 -0.35825581576552112 0 0.052401712915557758 -0.34362580058238729 0 0.035140684398721533 -0.33952055430081279 0 0.041212185131710252 -0.35233287428017063 0 0.04437751246093314 -0.36615312635106312 0 0.030618574486003351 -0.37258274117392792 0 0.021440291769706871 -0.35825581576552112 0 0.04437751246093314 -0.36615312635106312 0 0.021440291769706871 -0.35825581576552112 0 0.039526220506741983 -0.37819322585240339 0 0.04437751246093314 -0.36615312635106312 0 0.030618574486003351 -0.37258274117392792 0 0.01788221455160429 -0.3785836934152042 0 0.030618574486003351 -0.37258274117392792 0 0.021440291769706871 -0.35825581576552112 0 0.035140684398721533 -0.33952055430081279 0 0.021440291769706871 -0.35825581576552112 0 0.016714953837674539 -0.34290000007637872 0 -0.0014969289215187439 -0.35035850517997769 0 0.021440291769706871 -0.35825581576552112 0 0.0044250660384099003 -0.36745488184495573 0 -0.0014969289215187439 -0.35035850517997769 0 0.021440291769706871 -0.35825581576552112 0 -0.0014969289215187439 -0.35035850517997769 0 0.021440291769706871 -0.35825581576552112 0 0.016714953837674539 -0.34290000007637872 0 0.01788221455160429 -0.3785836934152042 0 0.021440291769706871 -0.35825581576552112 0 0.0044250660384099003 -0.36745488184495573 0 0.031110393156509639 -0.31666300559490212 0 0.004689132885959027 -0.3222435911327648 0 0.02643795538885493 -0.30967933480258442 0 0.031110393156509639 -0.31666300559490212 0 0.023086452092376759 -0.32923730420077107 0 0.004689132885959027 -0.3222435911327648 0 0.031110393156509639 -0.31666300559490212 0 0.004689132885959027 -0.3222435911327648 0 0.034431792658146172 -0.32833847444948328 0 0.031467574066528843 -0.32417093572057992 0 0.023086452092376759 -0.32923730420077107 0 0.031467574066528843 -0.32417093572057992 0 0.031110393156509639 -0.31666300559490212 0 0.023086452092376759 -0.32923730420077107 0 0.035140684398721533 -0.33952055430081279 0 0.016714953837674539 -0.34290000007637872 0 0.023086452092376759 -0.32923730420077107 0 0.035140684398721533 -0.33952055430081279 0 0.034431792658146172 -0.32833847444948328 0 0.023086452092376759 -0.32923730420077107 0 0.016714953837674539 -0.34290000007637872 0 0.023086452092376759 -0.32923730420077107 0 0.0080526913044355747 -0.33064536918972948 0 -0.0014969289215187439 -0.35035850517997769 0 0.016714953837674539 -0.34290000007637872 0 0.0080526913044355747 -0.33064536918972948 0 -0.0014969289215187439 -0.35035850517997769 0 0.0080526913044355747 -0.33064536918972948 0 -0.002908285929325368 -0.33749859650698749 0 -0.0014969289215187439 -0.35035850517997769 0 0.0080526913044355747 -0.33064536918972948 0 -0.00050422992947994551 -0.32905922693348189 0 -0.002908285929325368 -0.33749859650698749 0 0.0080526913044355747 -0.33064536918972948 0 0.004689132885959027 -0.3222435911327648 0 0.010493140548922541 -0.30812986664254571 0 0.02643795538885493 -0.30967933480258442 0 -0.0041781846208717921 -0.32265759814764838 0 -0.00050422992947994551 -0.32905922693348189 0 0.004689132885959027 -0.3222435911327648 0 0.023086452092376759 -0.32923730420077107 0 0.0080526913044355747 -0.33064536918972948 0 0.004689132885959027 -0.3222435911327648 0 -0.00050422992947994551 -0.32905922693348189 0 0.0080526913044355747 -0.33064536918972948 0 0.004689132885959027 -0.3222435911327648 0 0.004689132885959027 -0.3222435911327648 0 -5.9311289176037681e-06 -0.31236656648630162 0 0.010493140548922541 -0.30812986664254571 0 -0.0041781846208717921 -0.32265759814764838 0 0.004689132885959027 -0.3222435911327648 0 -5.9311289176037681e-06 -0.31236656648630162 0 -5.9311289176037681e-06 -0.31236656648630162 0 0.0035997542519150211 -0.30175886436002369 0 0.010493140548922541 -0.30812986664254571 0 0.0035997542519150211 -0.30175886436002369 0 0.010493140548922541 -0.30812986664254571 0 0.014263239955481819 -0.29339443842822582 0 0.014263239955481819 -0.29339443842822582 0 0.0020885245221143561 -0.27710954205386301 0 -0.0001997628994672238 -0.29157893335398249 0 0.014263239955481819 -0.29339443842822582 0 0.0020885245221143561 -0.27710954205386301 0 0.014263239955481819 -0.29339443842822582 0 0.014746859474991519 -0.2803394764533772 0 0.0020885245221143561 -0.27710954205386301 0 -0.0001997628994672238 -0.29157893335398249 0 0.0035997542519150211 -0.30175886436002369 0 0.014263239955481819 -0.29339443842822582 0 0.029960231214617411 -0.29435264969373032 0 0.026863088211150479 -0.27678197125058879 0 0.014746859474991519 -0.2803394764533772 0 0.014263239955481819 -0.29339443842822582 0 0.029960231214617411 -0.29435264969373032 0 0.014746859474991519 -0.2803394764533772 0 0.014263239955481819 -0.29339443842822582 0 0.029960231214617411 -0.29435264969373032 0 0.02643795538885493 -0.30967933480258442 0 0.010493140548922541 -0.30812986664254571 0 0.014263239955481819 -0.29339443842822582 0 0.02643795538885493 -0.30967933480258442 0 0.014263239955481819 -0.29339443842822582 0 0.02643795538885493 -0.30967933480258442 0 0.029960231214617411 -0.29435264969373032 0 0.02643795538885493 -0.30967933480258442 0 0.03670643767470614 -0.30723606137433462 0 0.03670643767470614 -0.30723606137433462 0 0.04176814017636786 -0.30095493228123432 0 0.057531653427060077 -0.31108242005703829 0 0.031110393156509639 -0.31666300559490212 0 0.02643795538885493 -0.30967933480258442 0 0.03670643767470614 -0.30723606137433462 0 0.031110393156509639 -0.31666300559490212 0 0.03670643767470614 -0.30723606137433462 0 0.057531653427060077 -0.31108242005703829 0 0.029960231214617411 -0.29435264969373032 0 0.03670643767470614 -0.30723606137433462 0 0.04176814017636786 -0.30095493228123432 0 0.029960231214617411 -0.29435264969373032 0 0.043715392061420937 -0.28432164729111492 0 0.026863088211150479 -0.27678197125058879 0 0.029960231214617411 -0.29435264969373032 0 0.04176814017636786 -0.30095493228123432 0 0.043715392061420937 -0.28432164729111492 0 0.066345876766798068 -0.28669905070128532 0 0.043715392061420937 -0.28432164729111492 0 0.059677869095980163 -0.29526461985052149 0 0.043715392061420937 -0.28432164729111492 0 0.057531653427060077 -0.31108242005703829 0 0.04176814017636786 -0.30095493228123432 0 0.043715392061420937 -0.28432164729111492 0 0.057531653427060077 -0.31108242005703829 0 0.043715392061420937 -0.28432164729111492 0 0.059677869095980163 -0.29526461985052149 0 0.057531653427060077 -0.31108242005703829 0 0.058582184244648637 -0.31311719746526512 0 0.057531653427060077 -0.31108242005703829 0 0.065812203452532955 -0.26920257458768082 0 0.052199857356539418 -0.26329167196642961 0 0.060568488386116323 -0.2527377194114907 0 0.052199857356539418 -0.26329167196642961 0 0.049293726973205318 -0.25288842300565118 0 0.042428783594613113 -0.26179987275223948 0 0.052199857356539418 -0.26329167196642961 0 0.049293726973205318 -0.25288842300565118 0 0.060568488386116323 -0.2527377194114907 0 0.066345876766798068 -0.28669905070128532 0 0.065812203452532955 -0.26920257458768082 0 0.043715392061420937 -0.28432164729111492 0 0.065812203452532955 -0.26920257458768082 0 0.043715392061420937 -0.28432164729111492 0 0.052199857356539418 -0.26329167196642961 0 0.043715392061420937 -0.28432164729111492 0 0.052199857356539418 -0.26329167196642961 0 0.042428783594613113 -0.26179987275223948 0 0.043715392061420937 -0.28432164729111492 0 0.02989913069577696 -0.25756087452519377 0 0.026863088211150479 -0.27678197125058879 0 0.043715392061420937 -0.28432164729111492 0 0.042428783594613113 -0.26179987275223948 0 0.02989913069577696 -0.25756087452519377 0 0.043715392061420937 -0.28432164729111492 0 0.02989913069577696 -0.25756087452519377 0 0.049293726973205318 -0.25288842300565118 0 0.042428783594613113 -0.26179987275223948 0 0.02989913069577696 -0.25756087452519377 0 0.049293726973205318 -0.25288842300565118 0 0.02989913069577696 -0.25756087452519377 0 0.053000096911828498 -0.24132271325216531 0 0.02891132837237682 -0.2556475961921777 0 0.02989913069577696 -0.25756087452519377 0 0.039832357336821403 -0.24726812971209869 0 0.02891132837237682 -0.2556475961921777 0 0.02989913069577696 -0.25756087452519377 0 0.019138254561674409 -0.25668496026698362 0 0.0244675821803477 -0.25188902666823121 0 0.02891132837237682 -0.2556475961921777 0 0.019138254561674409 -0.25668496026698362 0 0.02891132837237682 -0.2556475961921777 0 0.02989913069577696 -0.25756087452519377 0 0.02989913069577696 -0.25756087452519377 0 0.019138254561674409 -0.25668496026698362 0 0.01599382760894558 -0.26733520828952823 0 0.02989913069577696 -0.25756087452519377 0 0.01599382760894558 -0.26733520828952823 0 0.0244675821803477 -0.25188902666823121 0 0.019138254561674409 -0.25668496026698362 0 0.017383234256593539 -0.24783247757761501 0 0.02989913069577696 -0.25756087452519377 0 0.026863088211150479 -0.27678197125058879 0 0.01599382760894558 -0.26733520828952823 0 0.026863088211150479 -0.27678197125058879 0 0.01599382760894558 -0.26733520828952823 0 0.014746859474991519 -0.2803394764533772 0 0.01599382760894558 -0.26733520828952823 0 0.014746859474991519 -0.2803394764533772 0 0.0020885245221143561 -0.27710954205386301 0 0.01599382760894558 -0.26733520828952823 0 0.0020885245221143561 -0.27710954205386301 0 0.0075659834877222429 -0.26417842238823502 0 0.01599382760894558 -0.26733520828952823 0 0.0020885245221143561 -0.27710954205386301 0 -0.0065008459662223399 -0.26562040219766958 0 0.0020885245221143561 -0.27710954205386301 0 0.0075659834877222429 -0.26417842238823502 0 -0.0065008459662223399 -0.26562040219766958 0 0.0094232111161485013 -0.25549752627769329 0 0.0095294292409746698 -0.2431713689579636 0 -0.0065008459662223399 -0.26562040219766958 0 0.0094232111161485013 -0.25549752627769329 0 0.0075659834877222429 -0.26417842238823502 0 -0.0065008459662223399 -0.26562040219766958 0 0.0095294292409746698 -0.2431713689579636 0 0.019138254561674409 -0.25668496026698362 0 0.0094232111161485013 -0.25549752627769329 0 0.017383234256593539 -0.24783247757761501 0 0.019138254561674409 -0.25668496026698362 0 0.0094232111161485013 -0.25549752627769329 0 0.0075659834877222429 -0.26417842238823502 0 0.019138254561674409 -0.25668496026698362 0 0.01599382760894558 -0.26733520828952823 0 0.0075659834877222429 -0.26417842238823502 0 0.0095294292409746698 -0.2431713689579636 0 0.0051275031140051606 -0.23472751853248211 0 0.0098954089936462934 -0.22648478614824921 0 0.0095294292409746698 -0.2431713689579636 0 0.017383234256593539 -0.24783247757761501 0 0.01890065496586249 -0.23625788220400759 0 0.0094232111161485013 -0.25549752627769329 0 0.0095294292409746698 -0.2431713689579636 0 0.017383234256593539 -0.24783247757761501 0 -0.0037240369044004179 -0.23806801751691031 0 0.0095294292409746698 -0.2431713689579636 0 0.0051275031140051606 -0.23472751853248211 0 0.0095294292409746698 -0.2431713689579636 0 0.0098954089936462934 -0.22648478614824921 0 0.025559704448173522 -0.22072233571825889 0 -0.003667722801450707 -0.216757636362539 0 0.0051275031140051606 -0.23472751853248211 0 0.0098954089936462934 -0.22648478614824921 0 0.0095294292409746698 -0.2431713689579636 0 0.025559704448173522 -0.22072233571825889 0 0.0098954089936462934 -0.22648478614824921 0 0.025559704448173522 -0.22072233571825889 0 0.020428433537833701 -0.21342004208727669 0 0.0095294292409746698 -0.2431713689579636 0 0.025559704448173522 -0.22072233571825889 0 0.01890065496586249 -0.23625788220400759 0 0.025559704448173522 -0.22072233571825889 0 0.029653161388527541 -0.2334544688511605 0 0.034891182057259378 -0.22633959582287011 0 0.025559704448173522 -0.22072233571825889 0 0.029653161388527541 -0.2334544688511605 0 0.01890065496586249 -0.23625788220400759 0 0.02891132837237682 -0.2556475961921777 0 0.01890065496586249 -0.23625788220400759 0 0.0244675821803477 -0.25188902666823121 0 0.017383234256593539 -0.24783247757761501 0 0.01890065496586249 -0.23625788220400759 0 0.029653161388527541 -0.2334544688511605 0 0.027752355645157531 -0.24158413914067889 0 0.033544277853863248 -0.24097660931536971 0 0.02891132837237682 -0.2556475961921777 0 0.027752355645157531 -0.24158413914067889 0 0.01890065496586249 -0.23625788220400759 0 0.029653161388527541 -0.2334544688511605 0 0.027752355645157531 -0.24158413914067889 0 0.01890065496586249 -0.23625788220400759 0 0.0244675821803477 -0.25188902666823121 0 0.02891132837237682 -0.2556475961921777 0 0.01890065496586249 -0.23625788220400759 0 0.02891132837237682 -0.2556475961921777 0 0.027752355645157531 -0.24158413914067889 0 0.033544277853863248 -0.24097660931536971 0 0.0086200852296540835 -0.19332317736482679 0 0.015968202297996632 -0.19609645737815151 0 0.01574208798430873 -0.17974058548895511 0 -0.0033902693685317338 -0.1900224435201405 0 0.0086200852296540835 -0.19332317736482679 0 0.0036942380870163098 -0.1869767201477103 0 0.0086200852296540835 -0.19332317736482679 0 0.0070763963435472891 -0.18227050705023601 0 0.0036942380870163098 -0.1869767201477103 0 0.011222033046330749 -0.2008737129081003 0 0.019342412887830861 -0.2040444818635683 0 0.015968202297996632 -0.19609645737815151 0 0.0086200852296540835 -0.19332317736482679 0 0.011222033046330749 -0.2008737129081003 0 0.015968202297996632 -0.19609645737815151 0 -0.003667722801450707 -0.216757636362539 0 0.0086200852296540835 -0.19332317736482679 0 0.011222033046330749 -0.2008737129081003 0 -0.003667722801450707 -0.216757636362539 0 0.011222033046330749 -0.2008737129081003 0 0.011942819343721741 -0.2121625204482071 0 -0.003667722801450707 -0.216757636362539 0 0.0086200852296540835 -0.19332317736482679 0 0.011222033046330749 -0.2008737129081003 0 0.011942819343721741 -0.2121625204482071 0 0.019342412887830861 -0.2040444818635683 0 -0.003667722801450707 -0.216757636362539 0 0.0098954089936462934 -0.22648478614824921 0 0.011942819343721741 -0.2121625204482071 0 0.0098954089936462934 -0.22648478614824921 0 0.011942819343721741 -0.2121625204482071 0 0.020428433537833701 -0.21342004208727669 0 0.025559704448173522 -0.22072233571825889 0 0.029099536896774279 -0.20859895915160559 0 0.036609047361243353 -0.2170205128934197 0 0.025559704448173522 -0.22072233571825889 0 0.020428433537833701 -0.21342004208727669 0 0.029099536896774279 -0.20859895915160559 0 0.011942819343721741 -0.2121625204482071 0 0.020428433537833701 -0.21342004208727669 0 0.019342412887830861 -0.2040444818635683 0 0.020428433537833701 -0.21342004208727669 0 0.029099536896774279 -0.20859895915160559 0 0.019342412887830861 -0.2040444818635683 0 0.015968202297996632 -0.19609645737815151 0 0.022420812440540821 -0.1941697723202806 0 0.01574208798430873 -0.17974058548895511 0 0.019342412887830861 -0.2040444818635683 0 0.015968202297996632 -0.19609645737815151 0 0.022420812440540821 -0.1941697723202806 0 0.029099536896774279 -0.20859895915160559 0 0.022420812440540821 -0.1941697723202806 0 0.029099536896774279 -0.20859895915160559 0 0.022420812440540821 -0.1941697723202806 0 0.033093740906408313 -0.19670259896609121 0 0.029099536896774279 -0.20859895915160559 0 0.019342412887830861 -0.2040444818635683 0 0.022420812440540821 -0.1941697723202806 0 0.022420812440540821 -0.1941697723202806 0 0.033093740906408313 -0.19670259896609121 0 0.026983028279272781 -0.18246037584073141 0 0.045715712522978798 -0.19450466285923909 0 0.033093740906408313 -0.19670259896609121 0 0.038002977254008162 -0.1836055185767505 0 0.033093740906408313 -0.19670259896609121 0 0.038002977254008162 -0.1836055185767505 0 0.026983028279272781 -0.18246037584073141 0 0.045715712522978798 -0.19450466285923909 0 0.040960554137125141 -0.20583401079196309 0 0.053125656368071331 -0.2047152048750579 0 0.045715712522978798 -0.19450466285923909 0 0.033093740906408313 -0.19670259896609121 0 0.040960554137125141 -0.20583401079196309 0 0.029099536896774279 -0.20859895915160559 0 0.040960554137125141 -0.20583401079196309 0 0.036609047361243353 -0.2170205128934197 0 0.029099536896774279 -0.20859895915160559 0 0.033093740906408313 -0.19670259896609121 0 0.040960554137125141 -0.20583401079196309 0 0.036609047361243353 -0.2170205128934197 0 0.048119630767274803 -0.2134621260063653 0 0.045243599087473232 -0.2228102327087475 0 0.040960554137125141 -0.20583401079196309 0 0.036609047361243353 -0.2170205128934197 0 0.048119630767274803 -0.2134621260063653 0 0.053125656368071331 -0.2047152048750579 0 0.061774383995948777 -0.19601713953995309 0 0.066126418362230099 -0.21343507356553831 0 0.048119630767274803 -0.2134621260063653 0 0.053125656368071331 -0.2047152048750579 0 0.066126418362230099 -0.21343507356553831 0 0.048119630767274803 -0.2134621260063653 0 0.045243599087473232 -0.2228102327087475 0 0.066126418362230099 -0.21343507356553831 0 0.040960554137125141 -0.20583401079196309 0 0.048119630767274803 -0.2134621260063653 0 0.053125656368071331 -0.2047152048750579 0 0.045715712522978798 -0.19450466285923909 0 0.061774383995948777 -0.19601713953995309 0 0.051814825535029647 -0.1801379603172733 0 0.045715712522978798 -0.19450466285923909 0 0.053125656368071331 -0.2047152048750579 0 0.061774383995948777 -0.19601713953995309 0 0.02891132837237682 -0.2556475961921777 0 0.039832357336821403 -0.24726812971209869 0 0.047518873367303309 -0.23454133487885789 0 0.02989913069577696 -0.25756087452519377 0 0.053000096911828498 -0.24132271325216531 0 0.02891132837237682 -0.2556475961921777 0 0.047518873367303309 -0.23454133487885789 0 0.02989913069577696 -0.25756087452519377 0 0.039832357336821403 -0.24726812971209869 0 0.053000096911828498 -0.24132271325216531 0 0.02891132837237682 -0.2556475961921777 0 0.033544277853863248 -0.24097660931536971 0 0.047518873367303309 -0.23454133487885789 0 0.039832357336821403 -0.24726812971209869 0 0.047518873367303309 -0.23454133487885789 0 0.053000096911828498 -0.24132271325216531 0 0.033544277853863248 -0.24097660931536971 0 0.038196442609528453 -0.2320627530854337 0 0.047518873367303309 -0.23454133487885789 0 0.029653161388527541 -0.2334544688511605 0 0.033544277853863248 -0.24097660931536971 0 0.038196442609528453 -0.2320627530854337 0 0.029653161388527541 -0.2334544688511605 0 0.038196442609528453 -0.2320627530854337 0 0.034891182057259378 -0.22633959582287011 0 0.025559704448173522 -0.22072233571825889 0 0.036609047361243353 -0.2170205128934197 0 0.034891182057259378 -0.22633959582287011 0 0.036609047361243353 -0.2170205128934197 0 0.034891182057259378 -0.22633959582287011 0 0.045243599087473232 -0.2228102327087475 0 0.038196442609528453 -0.2320627530854337 0 0.045243599087473232 -0.2228102327087475 0 0.047518873367303309 -0.23454133487885789 0 0.038196442609528453 -0.2320627530854337 0 0.034891182057259378 -0.22633959582287011 0 0.045243599087473232 -0.2228102327087475 0 0.045243599087473232 -0.2228102327087475 0 0.047518873367303309 -0.23454133487885789 0 0.066126418362230099 -0.21343507356553831 0 0.060916808486772708 -0.22866931732647369 0 0.047518873367303309 -0.23454133487885789 0 0.066126418362230099 -0.21343507356553831 0 0.047518873367303309 -0.23454133487885789 0 0.066126418362230099 -0.21343507356553831 0 0.060916808486772708 -0.22866931732647369 0 0.047518873367303309 -0.23454133487885789 0 0.053000096911828498 -0.24132271325216531 0 0.049293726973205318 -0.25288842300565118 0 0.060568488386116323 -0.2527377194114907 0 0.053000096911828498 -0.24132271325216531 0 0.060568488386116323 -0.2527377194114907 0 0.053000096911828498 -0.24132271325216531 0 0.065533082523804173 -0.24085168939054841 0 0.053000096911828498 -0.24132271325216531 0 0.065533082523804173 -0.24085168939054841 0 0.076101063127880147 -0.22508455197913699 0 0.060568488386116323 -0.2527377194114907 0 0.065533082523804173 -0.24085168939054841 0 0.072462681669391737 -0.24426177291940049 0 0.065533082523804173 -0.24085168939054841 0 0.072462681669391737 -0.24426177291940049 0 0.076101063127880147 -0.22508455197913699 0 0.072462681669391737 -0.24426177291940049 0 0.080358854669133645 -0.23551035027146619 0 0.076101063127880147 -0.22508455197913699 0 0.078299639262990939 -0.25282750711809521 0 0.072462681669391737 -0.24426177291940049 0 0.083468506435680864 -0.2451852086778922 0 0.072462681669391737 -0.24426177291940049 0 0.083468506435680864 -0.2451852086778922 0 0.080358854669133645 -0.23551035027146619 0 0.083468506435680864 -0.2451852086778922 0 0.080358854669133645 -0.23551035027146619 0 0.090774749338205937 -0.2370805656386312 0 0.083468506435680864 -0.2451852086778922 0 0.090774749338205937 -0.2370805656386312 0 0.096425577214228342 -0.24405286735372919 0 0.089624746812020706 -0.25279476402730222 0 0.083468506435680864 -0.2451852086778922 0 0.096425577214228342 -0.24405286735372919 0 0.092627040971308736 -0.2269134676744882 0 0.076101063127880147 -0.22508455197913699 0 0.099202029343931894 -0.2088463907061085 0 0.080358854669133645 -0.23551035027146619 0 0.092627040971308736 -0.2269134676744882 0 0.076101063127880147 -0.22508455197913699 0 0.080358854669133645 -0.23551035027146619 0 0.090774749338205937 -0.2370805656386312 0 0.092627040971308736 -0.2269134676744882 0 0.053000096911828498 -0.24132271325216531 0 0.076101063127880147 -0.22508455197913699 0 0.060916808486772708 -0.22866931732647369 0 0.053000096911828498 -0.24132271325216531 0 0.076101063127880147 -0.22508455197913699 0 0.060916808486772708 -0.22866931732647369 0 0.076101063127880147 -0.22508455197913699 0 0.066126418362230099 -0.21343507356553831 0 0.066126418362230099 -0.21343507356553831 0 0.084733963357156883 -0.19232881225221879 0 0.082444639015608195 -0.20955794620700249 0 0.076101063127880147 -0.22508455197913699 0 0.066126418362230099 -0.21343507356553831 0 0.082444639015608195 -0.20955794620700249 0 0.061774383995948777 -0.19601713953995309 0 0.066126418362230099 -0.21343507356553831 0 0.084733963357156883 -0.19232881225221879 0 0.066126418362230099 -0.21343507356553831 0 0.084733963357156883 -0.19232881225221879 0 0.061774383995948777 -0.19601713953995309 0 0.084733963357156883 -0.19232881225221879 0 0.066729837038700515 -0.18239086507659891 0 0.084733963357156883 -0.19232881225221879 0 0.082444639015608195 -0.20955794620700249 0 0.096929667403918091 -0.19547585150003241 0 0.076101063127880147 -0.22508455197913699 0 0.099202029343931894 -0.2088463907061085 0 0.076101063127880147 -0.22508455197913699 0 0.082444639015608195 -0.20955794620700249 0 0.099202029343931894 -0.2088463907061085 0 0.082444639015608195 -0.20955794620700249 0 0.099202029343931894 -0.2088463907061085 0 0.096929667403918091 -0.19547585150003241 0 0.099202029343931894 -0.2088463907061085 0 0.11209731819761121 -0.21367618721485929 0 0.1093426272031969 -0.2265984344267791 0 0.099202029343931894 -0.2088463907061085 0 0.096929667403918091 -0.19547585150003241 0 0.11104250891305779 -0.19359595038108021 0 0.11104250891305779 -0.19359595038108021 0 0.1223029955599837 -0.19260822943308009 0 0.114565907713978 -0.1776146995300282 0 0.099202029343931894 -0.2088463907061085 0 0.1223029955599837 -0.19260822943308009 0 0.11761291118805151 -0.2051247165275841 0 0.099202029343931894 -0.2088463907061085 0 0.1223029955599837 -0.19260822943308009 0 0.099202029343931894 -0.2088463907061085 0 0.11104250891305779 -0.19359595038108021 0 0.1223029955599837 -0.19260822943308009 0 0.1223029955599837 -0.19260822943308009 0 0.11761291118805151 -0.2051247165275841 0 0.12918043214548919 -0.2007896671818783 0 0.099202029343931894 -0.2088463907061085 0 0.11209731819761121 -0.21367618721485929 0 0.11761291118805151 -0.2051247165275841 0 0.11761291118805151 -0.2051247165275841 0 0.12528178069324161 -0.20970310810199441 0 0.12918043214548919 -0.2007896671818783 0 0.11209731819761121 -0.21367618721485929 0 0.11761291118805151 -0.2051247165275841 0 0.12528178069324161 -0.20970310810199441 0 0.11209731819761121 -0.21367618721485929 0 0.12400225421129139 -0.22059755592636501 0 0.12528178069324161 -0.20970310810199441 0 0.1197239758713827 -0.23119541144502409 0 0.120812168714685 -0.24498371709218231 0 0.1342258918700579 -0.2245729067836095 0 0.12400225421129139 -0.22059755592636501 0 0.1197239758713827 -0.23119541144502409 0 0.1093426272031969 -0.2265984344267791 0 0.11209731819761121 -0.21367618721485929 0 0.12400225421129139 -0.22059755592636501 0 0.1093426272031969 -0.2265984344267791 0 0.1197239758713827 -0.23119541144502409 0 0.1102369373576824 -0.23922444299618481 0 0.1093426272031969 -0.2265984344267791 0 0.1180488418166126 -0.26176484162401731 0 0.120812168714685 -0.24498371709218231 0 0.13170245449118731 -0.23903702905694529 0 0.1064824157530737 -0.25121458220748633 0 0.120812168714685 -0.24498371709218231 0 0.1102369373576824 -0.23922444299618481 0 0.1197239758713827 -0.23119541144502409 0 0.120812168714685 -0.24498371709218231 0 0.1102369373576824 -0.23922444299618481 0 0.1102369373576824 -0.23922444299618481 0 0.096425577214228342 -0.24405286735372919 0 0.1009937674006781 -0.23374093421558029 0 0.1064824157530737 -0.25121458220748633 0 0.1102369373576824 -0.23922444299618481 0 0.096425577214228342 -0.24405286735372919 0 0.089624746812020706 -0.25279476402730222 0 0.097497114306209609 -0.25224325822444549 0 0.096425577214228342 -0.24405286735372919 0 0.097497114306209609 -0.25224325822444549 0 0.1064824157530737 -0.25121458220748633 0 0.096425577214228342 -0.24405286735372919 0 0.090774749338205937 -0.2370805656386312 0 0.096425577214228342 -0.24405286735372919 0 0.1009937674006781 -0.23374093421558029 0 0.092627040971308736 -0.2269134676744882 0 0.1009937674006781 -0.23374093421558029 0 0.1093426272031969 -0.2265984344267791 0 0.092627040971308736 -0.2269134676744882 0 0.099202029343931894 -0.2088463907061085 0 0.1093426272031969 -0.2265984344267791 0 0.090774749338205937 -0.2370805656386312 0 0.092627040971308736 -0.2269134676744882 0 0.1009937674006781 -0.23374093421558029 0 0.1102369373576824 -0.23922444299618481 0 0.1009937674006781 -0.23374093421558029 0 0.1093426272031969 -0.2265984344267791 0 0.100639820266508 -0.14297373326586471 0 0.1206275776693459 -0.15145666616197501 0 0.1059454781060206 -0.16040118516761531 0 0.100639820266508 -0.14297373326586471 0 0.1059454781060206 -0.16040118516761531 0 0.079655157872537741 -0.1515509534913051 0 0.100639820266508 -0.14297373326586471 0 0.1001200439732048 -0.12853275121963489 0 0.1178339040518066 -0.133871799411696 0 0.100639820266508 -0.14297373326586471 0 0.1001200439732048 -0.12853275121963489 0 0.084073337525069208 -0.13193661890216199 0 0.1001200439732048 -0.12853275121963489 0 0.1178339040518066 -0.133871799411696 0 0.1162931216096478 -0.1195317737783153 0 0.1178339040518066 -0.133871799411696 0 0.1162931216096478 -0.1195317737783153 0 0.13232617362294369 -0.12634332872489029 0 0.100639820266508 -0.14297373326586471 0 0.1178339040518066 -0.133871799411696 0 0.1206275776693459 -0.15145666616197501 0 0.12199740266402589 -0.1660433713446601 0 0.114565907713978 -0.1776146995300282 0 0.1059454781060206 -0.16040118516761531 0 0.1206275776693459 -0.15145666616197501 0 0.12199740266402589 -0.1660433713446601 0 0.1059454781060206 -0.16040118516761531 0 0.1223029955599837 -0.19260822943308009 0 0.114565907713978 -0.1776146995300282 0 0.1285043636466611 -0.17524681598437639 0 0.12199740266402589 -0.1660433713446601 0 0.114565907713978 -0.1776146995300282 0 0.1285043636466611 -0.17524681598437639 0 0.096929667403918091 -0.19547585150003241 0 0.11104250891305779 -0.19359595038108021 0 0.095348833392797816 -0.1725734519361927 0 0.11104250891305779 -0.19359595038108021 0 0.095348833392797816 -0.1725734519361927 0 0.11104250891305779 -0.19359595038108021 0 0.114565907713978 -0.1776146995300282 0 0.095348833392797816 -0.1725734519361927 0 0.114565907713978 -0.1776146995300282 0 0.095348833392797816 -0.1725734519361927 0 0.1059454781060206 -0.16040118516761531 0 0.095348833392797816 -0.1725734519361927 0 0.1059454781060206 -0.16040118516761531 0 0.079655157872537741 -0.1515509534913051 0 0.095348833392797816 -0.1725734519361927 0 0.076768378377704227 -0.1729324238757794 0 0.079655157872537741 -0.1515509534913051 0 0.095348833392797816 -0.1725734519361927 0 0.079655157872537741 -0.1515509534913051 0 0.084733963357156883 -0.19232881225221879 0 0.096929667403918091 -0.19547585150003241 0 0.095348833392797816 -0.1725734519361927 0 0.084733963357156883 -0.19232881225221879 0 0.095348833392797816 -0.1725734519361927 0 0.076768378377704227 -0.1729324238757794 0 0.084733963357156883 -0.19232881225221879 0 0.066729837038700515 -0.18239086507659891 0 0.076768378377704227 -0.1729324238757794 0 0.066729837038700515 -0.18239086507659891 0 0.076768378377704227 -0.1729324238757794 0 0.063881534017330238 -0.16423228993937869 0 0.076768378377704227 -0.1729324238757794 0 0.063881534017330238 -0.16423228993937869 0 0.079655157872537741 -0.1515509534913051 0 0.079655157872537741 -0.1515509534913051 0 0.063961482352277776 -0.13052845504641769 0 0.063792544741435003 -0.14887939078174281 0 0.079655157872537741 -0.1515509534913051 0 0.063961482352277776 -0.13052845504641769 0 0.063881534017330238 -0.16423228993937869 0 0.063792544741435003 -0.14887939078174281 0 0.079655157872537741 -0.1515509534913051 0 0.100639820266508 -0.14297373326586471 0 0.079655157872537741 -0.1515509534913051 0 0.084073337525069208 -0.13193661890216199 0 0.1001200439732048 -0.12853275121963489 0 0.084073337525069208 -0.13193661890216199 0 0.087057893820621068 -0.1189604455595262 0 0.084073337525069208 -0.13193661890216199 0 0.063961482352277776 -0.13052845504641769 0 0.073241631392407261 -0.1185238344207674 0 0.079655157872537741 -0.1515509534913051 0 0.084073337525069208 -0.13193661890216199 0 0.063961482352277776 -0.13052845504641769 0 0.053854830651633871 -0.14298699769611739 0 0.042052466826868973 -0.14738340868847291 0 0.046036379814288549 -0.13086197271507141 0 0.063961482352277776 -0.13052845504641769 0 0.046036379814288549 -0.13086197271507141 0 0.058703704924762033 -0.1178032105749884 0 0.063961482352277776 -0.13052845504641769 0 0.053854830651633871 -0.14298699769611739 0 0.046036379814288549 -0.13086197271507141 0 0.063792544741435003 -0.14887939078174281 0 0.063961482352277776 -0.13052845504641769 0 0.053854830651633871 -0.14298699769611739 0 0.063792544741435003 -0.14887939078174281 0 0.053195735974414411 -0.15422229223451381 0 0.053854830651633871 -0.14298699769611739 0 0.063881534017330238 -0.16423228993937869 0 0.063792544741435003 -0.14887939078174281 0 0.053195735974414411 -0.15422229223451381 0 0.053195735974414411 -0.15422229223451381 0 0.053854830651633871 -0.14298699769611739 0 0.042052466826868973 -0.14738340868847291 0 0.042052466826868973 -0.14738340868847291 0 0.03123785640853869 -0.13906111892287601 0 0.027612099619635538 -0.15558804579552429 0 0.053195735974414411 -0.15422229223451381 0 0.042052466826868973 -0.14738340868847291 0 0.040377898492702791 -0.16158002476673469 0 0.042052466826868973 -0.14738340868847291 0 0.040377898492702791 -0.16158002476673469 0 0.027612099619635538 -0.15558804579552429 0 0.042052466826868973 -0.14738340868847291 0 0.03123785640853869 -0.13906111892287601 0 0.046036379814288549 -0.13086197271507141 0 0.03123785640853869 -0.13906111892287601 0 0.046036379814288549 -0.13086197271507141 0 0.02934659504746313 -0.12431260919673549 0 0.066729837038700515 -0.18239086507659891 0 0.063881534017330238 -0.16423228993937869 0 0.051814825535029647 -0.1801379603172733 0 0.061774383995948777 -0.19601713953995309 0 0.066729837038700515 -0.18239086507659891 0 0.051814825535029647 -0.1801379603172733 0 0.051814825535029647 -0.1801379603172733 0 0.050231264230095329 -0.1664327197727114 0 0.042183279891292523 -0.17276997598892149 0 0.063881534017330238 -0.16423228993937869 0 0.051814825535029647 -0.1801379603172733 0 0.050231264230095329 -0.1664327197727114 0 0.063881534017330238 -0.16423228993937869 0 0.053195735974414411 -0.15422229223451381 0 0.050231264230095329 -0.1664327197727114 0 0.053195735974414411 -0.15422229223451381 0 0.050231264230095329 -0.1664327197727114 0 0.040377898492702791 -0.16158002476673469 0 0.040377898492702791 -0.16158002476673469 0 0.032239633746140611 -0.1710705196491169 0 0.027612099619635538 -0.15558804579552429 0 0.040377898492702791 -0.16158002476673469 0 0.032239633746140611 -0.1710705196491169 0 0.042183279891292523 -0.17276997598892149 0 0.050231264230095329 -0.1664327197727114 0 0.040377898492702791 -0.16158002476673469 0 0.042183279891292523 -0.17276997598892149 0 0.051814825535029647 -0.1801379603172733 0 0.042183279891292523 -0.17276997598892149 0 0.038002977254008162 -0.1836055185767505 0 0.032239633746140611 -0.1710705196491169 0 0.042183279891292523 -0.17276997598892149 0 0.038002977254008162 -0.1836055185767505 0 0.032239633746140611 -0.1710705196491169 0 0.038002977254008162 -0.1836055185767505 0 0.026983028279272781 -0.18246037584073141 0 0.045715712522978798 -0.19450466285923909 0 0.051814825535029647 -0.1801379603172733 0 0.038002977254008162 -0.1836055185767505 0 0.022420812440540821 -0.1941697723202806 0 0.01574208798430873 -0.17974058548895511 0 0.022420812440540821 -0.1941697723202806 0 0.01574208798430873 -0.17974058548895511 0 0.026983028279272781 -0.18246037584073141 0 0.032239633746140611 -0.1710705196491169 0 0.026983028279272781 -0.18246037584073141 0 0.021288416275330839 -0.16916301114902671 0 0.01574208798430873 -0.17974058548895511 0 0.021288416275330839 -0.16916301114902671 0 0.01574208798430873 -0.17974058548895511 0 0.026983028279272781 -0.18246037584073141 0 0.021288416275330839 -0.16916301114902671 0 0.01574208798430873 -0.17974058548895511 0 0.021288416275330839 -0.16916301114902671 0 0.01609552930556735 -0.15948906743890179 0 0.032239633746140611 -0.1710705196491169 0 0.021288416275330839 -0.16916301114902671 0 0.027612099619635538 -0.15558804579552429 0 0.021288416275330839 -0.16916301114902671 0 0.01609552930556735 -0.15948906743890179 0 0.027612099619635538 -0.15558804579552429 0 0.01574208798430873 -0.17974058548895511 0 0.0023115879498421211 -0.16915809622511249 0 0.0042359376227203427 -0.1548818876395931 0 0.01574208798430873 -0.17974058548895511 0 0.01609552930556735 -0.15948906743890179 0 0.0042359376227203427 -0.1548818876395931 0 0.01574208798430873 -0.17974058548895511 0 0.0042359376227203427 -0.1548818876395931 0 0.01574208798430873 -0.17974058548895511 0 0.0023115879498421211 -0.16915809622511249 0 0.0070763963435472891 -0.18227050705023601 0 -7.2502180123992725e-05 -0.18242754928670071 0 0.0023115879498421211 -0.16915809622511249 0 0.0070763963435472891 -0.18227050705023601 0 -7.2502180123992725e-05 -0.18242754928670071 0 0.0070763963435472891 -0.18227050705023601 0 0.0036942380870163098 -0.1869767201477103 0 -7.2502180123992725e-05 -0.18242754928670071 0 -0.0033902693685317338 -0.1900224435201405 0 0.0036942380870163098 -0.1869767201477103 0 0.0086200852296540835 -0.19332317736482679 0 0.01574208798430873 -0.17974058548895511 0 0.0086200852296540835 -0.19332317736482679 0 0.01574208798430873 -0.17974058548895511 0 0.0070763963435472891 -0.18227050705023601 0 0.015878097025296529 -0.1399072370087252 0 0.0095227933737201485 -0.1166750713313939 0 0.02934659504746313 -0.12431260919673549 0 0.03123785640853869 -0.13906111892287601 0 0.015878097025296529 -0.1399072370087252 0 0.02934659504746313 -0.12431260919673549 0 0.03123785640853869 -0.13906111892287601 0 0.015878097025296529 -0.1399072370087252 0 0.027612099619635538 -0.15558804579552429 0 0.01609552930556735 -0.15948906743890179 0 0.015878097025296529 -0.1399072370087252 0 0.027612099619635538 -0.15558804579552429 0 0.01609552930556735 -0.15948906743890179 0 0.015878097025296529 -0.1399072370087252 0 0.0042359376227203427 -0.1548818876395931 0 -0.0072702127388667073 -0.13002318979023039 0 0.015878097025296529 -0.1399072370087252 0 0.0042359376227203427 -0.1548818876395931 0 -0.0072702127388667073 -0.13002318979023039 0 0.015878097025296529 -0.1399072370087252 0 0.0095227933737201485 -0.1166750713313939 0 0.0095227933737201485 -0.1166750713313939 0 0.02934659504746313 -0.12431260919673549 0 0.029116483142495962 -0.1073593168472832 0 0.029116483142495962 -0.1073593168472832 0 0.0083263271382496232 -0.094540275567429041 0 0.034803307668796052 -0.09084960444019595 0 0.0095227933737201485 -0.1166750713313939 0 0.029116483142495962 -0.1073593168472832 0 0.0083263271382496232 -0.094540275567429041 0 -0.0020444196089744182 -0.071774698741020118 0 0.0083263271382496232 -0.094540275567429041 0 0.025270710400640752 -0.07621949281106552 0 -0.0020444196089744182 -0.071774698741020118 0 0.025270710400640752 -0.07621949281106552 0 -0.0020444196089744182 -0.071774698741020118 0 0.025270710400640752 -0.07621949281106552 0 0.01475542124843888 -0.057277792826055399 0 0.025270710400640752 -0.07621949281106552 0 0.01475542124843888 -0.057277792826055399 0 0.035928192635279167 -0.061202673239129958 0 0.0083263271382496232 -0.094540275567429041 0 0.025270710400640752 -0.07621949281106552 0 0.034803307668796052 -0.09084960444019595 0 0.034803307668796052 -0.09084960444019595 0 0.052585840410256053 -0.080664286881110964 0 0.049523785569974867 -0.1002420539246789 0 0.025270710400640752 -0.07621949281106552 0 0.052585840410256053 -0.080664286881110964 0 0.025270710400640752 -0.07621949281106552 0 0.034803307668796052 -0.09084960444019595 0 0.052585840410256053 -0.080664286881110964 0 0.025270710400640752 -0.07621949281106552 0 0.052585840410256053 -0.080664286881110964 0 0.035928192635279167 -0.061202673239129958 0 0.052585840410256053 -0.080664286881110964 0 0.05394463143710318 -0.06124372073323945 0 0.073070566850226698 -0.063773045826988506 0 0.052585840410256053 -0.080664286881110964 0 0.035928192635279167 -0.061202673239129958 0 0.05394463143710318 -0.06124372073323945 0 0.052585840410256053 -0.080664286881110964 0 0.049523785569974867 -0.1002420539246789 0 0.06930233767231668 -0.10145614576307289 0 0.049523785569974867 -0.1002420539246789 0 0.058703704924762033 -0.1178032105749884 0 0.06930233767231668 -0.10145614576307289 0 0.046036379814288549 -0.13086197271507141 0 0.058703704924762033 -0.1178032105749884 0 0.04304995957291239 -0.11502700002604239 0 0.049523785569974867 -0.1002420539246789 0 0.058703704924762033 -0.1178032105749884 0 0.04304995957291239 -0.11502700002604239 0 0.046036379814288549 -0.13086197271507141 0 0.02934659504746313 -0.12431260919673549 0 0.04304995957291239 -0.11502700002604239 0 0.02934659504746313 -0.12431260919673549 0 0.029116483142495962 -0.1073593168472832 0 0.04304995957291239 -0.11502700002604239 0 0.029116483142495962 -0.1073593168472832 0 0.049523785569974867 -0.1002420539246789 0 0.04304995957291239 -0.11502700002604239 0 0.029116483142495962 -0.1073593168472832 0 0.034803307668796052 -0.09084960444019595 0 0.049523785569974867 -0.1002420539246789 0 0.02195771354569279 0.00027068510611185341 0 0.02190271756857182 -0.0057628159259628534 0 0.047586019948014119 -0.0069708413330751753 0 0.024310021209645229 -0.012647398844456269 0 0.028619450510624148 -0.016676481890810949 0 0.032137623766032589 -0.01145678736356842 0 0.024310021209645229 -0.012647398844456269 0 0.02190271756857182 -0.0057628159259628534 0 0.032137623766032589 -0.01145678736356842 0 0.024310021209645229 -0.012647398844456269 0 0.018492357542233141 -0.011534653269405939 0 0.02190271756857182 -0.0057628159259628534 0 0.018492357542233141 -0.011534653269405939 0 0.02190271756857182 -0.0057628159259628534 0 0.0088263826454437738 -0.010148311930698119 0 0.024310021209645229 -0.012647398844456269 0 0.018492357542233141 -0.011534653269405939 0 0.018930308745271761 -0.017580086376506501 0 -0.0037805848108704472 -0.0045547905188501802 0 0.02190271756857182 -0.0057628159259628534 0 -0.0037805848108704472 -0.0045547905188501802 0 0.02195771354569279 0.00027068510611185341 0 0.02190271756857182 -0.0057628159259628534 0 -0.0037805848108704472 -0.0045547905188501802 0 0.02190271756857182 -0.0057628159259628534 0 0.0088263826454437738 -0.010148311930698119 0 -0.001564206153295278 -0.01656327972664837 0 -0.0016118125342605861 -0.01082199789130114 0 0.0088263826454437738 -0.010148311930698119 0 -0.0016118125342605861 -0.01082199789130114 0 -0.0037805848108704472 -0.0045547905188501802 0 0.0088263826454437738 -0.010148311930698119 0 0.018492357542233141 -0.011534653269405939 0 0.0088263826454437738 -0.010148311930698119 0 0.018930308745271761 -0.017580086376506501 0 0.0088263826454437738 -0.010148311930698119 0 0.0079958986943380675 -0.023801007064813501 0 0.018930308745271761 -0.017580086376506501 0 -0.001564206153295278 -0.01656327972664837 0 0.0088263826454437738 -0.010148311930698119 0 0.0079958986943380675 -0.023801007064813501 0 -0.0046318109277885136 -0.02826267259872681 0 -0.001564206153295278 -0.01656327972664837 0 0.0079958986943380675 -0.023801007064813501 0 -0.0046318109277885136 -0.02826267259872681 0 0.0079958986943380675 -0.023801007064813501 0 0.007371522745366091 -0.039158275089500767 0 0.0079958986943380675 -0.023801007064813501 0 0.02059862809037373 -0.030415124576170741 0 0.007371522745366091 -0.039158275089500767 0 0.02059862809037373 -0.030415124576170741 0 0.018930308745271761 -0.017580086376506501 0 0.030038299825343659 -0.02340254983833865 0 0.0079958986943380675 -0.023801007064813501 0 0.02059862809037373 -0.030415124576170741 0 0.018930308745271761 -0.017580086376506501 0 0.024310021209645229 -0.012647398844456269 0 0.018930308745271761 -0.017580086376506501 0 0.028619450510624148 -0.016676481890810949 0 0.018930308745271761 -0.017580086376506501 0 0.030038299825343659 -0.02340254983833865 0 0.028619450510624148 -0.016676481890810949 0 0.02059862809037373 -0.030415124576170741 0 0.030038299825343659 -0.02340254983833865 0 0.035107173379598323 -0.034508242930351957 0 0.02059862809037373 -0.030415124576170741 0 0.025677670915115219 -0.04496192438515418 0 0.007371522745366091 -0.039158275089500767 0 0.02059862809037373 -0.030415124576170741 0 0.025677670915115219 -0.04496192438515418 0 0.035107173379598323 -0.034508242930351957 0 -0.001131409320910022 -0.052669670764717437 0 -0.0020444196089744182 -0.071774698741020118 0 0.01475542124843888 -0.057277792826055399 0 -0.001131409320910022 -0.052669670764717437 0 0.007371522745366091 -0.039158275089500767 0 0.01475542124843888 -0.057277792826055399 0 0.025677670915115219 -0.04496192438515418 0 0.01475542124843888 -0.057277792826055399 0 0.035928192635279167 -0.061202673239129958 0 0.025677670915115219 -0.04496192438515418 0 0.007371522745366091 -0.039158275089500767 0 0.01475542124843888 -0.057277792826055399 0 0.025677670915115219 -0.04496192438515418 0 0.035928192635279167 -0.061202673239129958 0 0.043334881400121011 -0.046848821798154291 0 0.035928192635279167 -0.061202673239129958 0 0.05394463143710318 -0.06124372073323945 0 0.043334881400121011 -0.046848821798154291 0 0.05394463143710318 -0.06124372073323945 0 0.061812903243243643 -0.043982687354450503 0 0.043334881400121011 -0.046848821798154291 0 0.061812903243243643 -0.043982687354450503 0 0.048001007967219213 -0.03549450318178396 0 0.043334881400121011 -0.046848821798154291 0 0.061812903243243643 -0.043982687354450503 0 0.048001007967219213 -0.03549450318178396 0 0.055815949257505958 -0.026309380080884608 0 0.048001007967219213 -0.03549450318178396 0 0.035107173379598323 -0.034508242930351957 0 0.042050971603207123 -0.026029683859941609 0 0.048001007967219213 -0.03549450318178396 0 0.043334881400121011 -0.046848821798154291 0 0.035107173379598323 -0.034508242930351957 0 0.025677670915115219 -0.04496192438515418 0 0.043334881400121011 -0.046848821798154291 0 0.035107173379598323 -0.034508242930351957 0 0.030038299825343659 -0.02340254983833865 0 0.035107173379598323 -0.034508242930351957 0 0.042050971603207123 -0.026029683859941609 0 0.030038299825343659 -0.02340254983833865 0 0.037680999006827552 -0.018295587031184921 0 0.042050971603207123 -0.026029683859941609 0 0.030038299825343659 -0.02340254983833865 0 0.028619450510624148 -0.016676481890810949 0 0.037680999006827552 -0.018295587031184921 0 0.037680999006827552 -0.018295587031184921 0 0.042050971603207123 -0.026029683859941609 0 0.046927309715773788 -0.018375241411359891 0 0.037680999006827552 -0.018295587031184921 0 0.046927309715773788 -0.018375241411359891 0 0.043837053682391248 -0.01200264012329506 0 0.042050971603207123 -0.026029683859941609 0 0.055815949257505958 -0.026309380080884608 0 0.046927309715773788 -0.018375241411359891 0 0.048001007967219213 -0.03549450318178396 0 0.042050971603207123 -0.026029683859941609 0 0.055815949257505958 -0.026309380080884608 0 0.055815949257505958 -0.026309380080884608 0 0.05394498930247224 -0.016248121029561059 0 0.062775124876728261 -0.016975688305122399 0 0.055815949257505958 -0.026309380080884608 0 0.05394498930247224 -0.016248121029561059 0 0.046927309715773788 -0.018375241411359891 0 0.05394498930247224 -0.016248121029561059 0 0.046927309715773788 -0.018375241411359891 0 0.049789084823042173 -0.01219880318672383 0 0.049789084823042173 -0.01219880318672383 0 0.056650051466559471 -0.0073971720363279758 0 0.047586019948014119 -0.0069708413330751753 0 0.05394498930247224 -0.016248121029561059 0 0.049789084823042173 -0.01219880318672383 0 0.056650051466559471 -0.0073971720363279758 0 0.049485464115891477 -0.0044214396610316922 0 0.073214547606897384 -0.0084660789084670673 0 0.056650051466559471 -0.0073971720363279758 0 0.049485464115891477 -0.0044214396610316922 0 0.073214547606897384 -0.0084660789084670673 0 0.063722833214531371 0.0012779862689838799 0 0.049485464115891477 -0.0044214396610316922 0 0.073214547606897384 -0.0084660789084670673 0 0.046927309715773788 -0.018375241411359891 0 0.049789084823042173 -0.01219880318672383 0 0.043837053682391248 -0.01200264012329506 0 0.049789084823042173 -0.01219880318672383 0 0.047586019948014119 -0.0069708413330751753 0 0.043837053682391248 -0.01200264012329506 0 0.05394498930247224 -0.016248121029561059 0 0.056650051466559471 -0.0073971720363279758 0 0.062775124876728261 -0.016975688305122399 0 0.056650051466559471 -0.0073971720363279758 0 0.049485464115891477 -0.0044214396610316922 0 0.047586019948014119 -0.0069708413330751753 0 0.056650051466559471 -0.0073971720363279758 0 0.047586019948014119 -0.0069708413330751753 0 0.049485464115891477 -0.0044214396610316922 0 0.047586019948014119 -0.0069708413330751753 0 0.02195771354569279 0.00027068510611185341 0 0.049485464115891477 -0.0044214396610316922 0 0.02190271756857182 -0.0057628159259628534 0 0.047586019948014119 -0.0069708413330751753 0 0.02195771354569279 0.00027068510611185341 0 0.049485464115891477 -0.0044214396610316922 0 0.047586019948014119 -0.0069708413330751753 0 0.02190271756857182 -0.0057628159259628534 0 0.047586019948014119 -0.0069708413330751753 0 0.032137623766032589 -0.01145678736356842 0 0.047586019948014119 -0.0069708413330751753 0 0.040310424100816367 -0.01218146396278089 0 0.032137623766032589 -0.01145678736356842 0 0.047586019948014119 -0.0069708413330751753 0 0.043837053682391248 -0.01200264012329506 0 0.040310424100816367 -0.01218146396278089 0 0.047586019948014119 -0.0069708413330751753 0 0.043837053682391248 -0.01200264012329506 0 0.037680999006827552 -0.018295587031184921 0 0.043837053682391248 -0.01200264012329506 0 0.040310424100816367 -0.01218146396278089 0 0.028619450510624148 -0.016676481890810949 0 0.037680999006827552 -0.018295587031184921 0 0.032137623766032589 -0.01145678736356842 0 0.037680999006827552 -0.018295587031184921 0 0.040310424100816367 -0.01218146396278089 0 0.032137623766032589 -0.01145678736356842 0 0.075980605946258856 0.005337783885724247 0 0.073214547606897384 -0.0084660789084670673 0 0.096943631097903618 -0.01251071815590111 0 0.073214547606897384 -0.0084660789084670673 0 0.096943631097903618 -0.01251071815590111 0 0.063722833214531371 0.0012779862689838799 0 0.075980605946258856 0.005337783885724247 0 0.073214547606897384 -0.0084660789084670673 0 0.056650051466559471 -0.0073971720363279758 0 0.073214547606897384 -0.0084660789084670673 0 0.062775124876728261 -0.016975688305122399 0 0.073214547606897384 -0.0084660789084670673 0 0.074976301468875267 -0.027109796146331879 0 0.062775124876728261 -0.016975688305122399 0 0.055815949257505958 -0.026309380080884608 0 0.074976301468875267 -0.027109796146331879 0 0.062775124876728261 -0.016975688305122399 0 0.074976301468875267 -0.027109796146331879 0 0.09245676542212708 -0.035766686211982791 0 0.096943631097903618 -0.01251071815590111 0 0.073214547606897384 -0.0084660789084670673 0 0.074976301468875267 -0.027109796146331879 0 0.096943631097903618 -0.01251071815590111 0 0.074976301468875267 -0.027109796146331879 0 0.079719599795322171 -0.046147985036503837 0 0.09245676542212708 -0.035766686211982791 0 0.061812903243243643 -0.043982687354450503 0 0.055815949257505958 -0.026309380080884608 0 0.074976301468875267 -0.027109796146331879 0 0.061812903243243643 -0.043982687354450503 0 0.074976301468875267 -0.027109796146331879 0 0.079719599795322171 -0.046147985036503837 0 0.05394463143710318 -0.06124372073323945 0 0.061812903243243643 -0.043982687354450503 0 0.073070566850226698 -0.063773045826988506 0 0.061812903243243643 -0.043982687354450503 0 0.079719599795322171 -0.046147985036503837 0 0.073070566850226698 -0.063773045826988506 0 0.079719599795322171 -0.046147985036503837 0 0.095336529107698645 -0.061301663118300043 0 0.073070566850226698 -0.063773045826988506 0 0.079719599795322171 -0.046147985036503837 0 0.09245676542212708 -0.035766686211982791 0 0.095336529107698645 -0.061301663118300043 0 0.095336529107698645 -0.061301663118300043 0 0.1107720877955259 -0.037494245285442838 0 0.095336529107698645 -0.061301663118300043 0 0.12431847282835461 -0.059130027798205809 0 0.1107720877955259 -0.037494245285442838 0 0.12431847282835461 -0.059130027798205809 0 0.1107720877955259 -0.037494245285442838 0 0.12868689698667601 -0.034969201447917937 0 0.09245676542212708 -0.035766686211982791 0 0.095336529107698645 -0.061301663118300043 0 0.1107720877955259 -0.037494245285442838 0 0.09245676542212708 -0.035766686211982791 0 0.1107720877955259 -0.037494245285442838 0 0.096943631097903618 -0.01251071815590111 0 0.1107720877955259 -0.037494245285442838 0 0.12067271458890989 -0.01655535740333515 0 0.12868689698667601 -0.034969201447917937 0 0.1107720877955259 -0.037494245285442838 0 0.12067271458890989 -0.01655535740333515 0 0.096943631097903618 -0.01251071815590111 0 0.111748691765997 0.0062994286708312674 0 0.13901877174334179 0.0058069614355472322 0 0.12067271458890989 -0.01655535740333515 0 0.111748691765997 0.0062994286708312674 0 0.12067271458890989 -0.01655535740333515 0 0.096943631097903618 -0.01251071815590111 0 0.12067271458890989 -0.01655535740333515 0 0.096943631097903618 -0.01251071815590111 0 0.081129335596960006 -0.10837868211502449 0 0.085106233671482526 -0.096757129573246142 0 0.06930233767231668 -0.10145614576307289 0 0.085106233671482526 -0.096757129573246142 0 0.06930233767231668 -0.10145614576307289 0 0.079900970419871126 -0.085109080951157143 0 0.085106233671482526 -0.096757129573246142 0 0.092580691671527576 -0.1043733299089451 0 0.097874432554199212 -0.094257935064948117 0 0.081129335596960006 -0.10837868211502449 0 0.085106233671482526 -0.096757129573246142 0 0.092580691671527576 -0.1043733299089451 0 0.081129335596960006 -0.10837868211502449 0 0.092580691671527576 -0.1043733299089451 0 0.087057893820621068 -0.1189604455595262 0 0.084073337525069208 -0.13193661890216199 0 0.087057893820621068 -0.1189604455595262 0 0.073241631392407261 -0.1185238344207674 0 0.081129335596960006 -0.10837868211502449 0 0.087057893820621068 -0.1189604455595262 0 0.073241631392407261 -0.1185238344207674 0 0.058703704924762033 -0.1178032105749884 0 0.06930233767231668 -0.10145614576307289 0 0.081129335596960006 -0.10837868211502449 0 0.073241631392407261 -0.1185238344207674 0 0.06930233767231668 -0.10145614576307289 0 0.058703704924762033 -0.1178032105749884 0 0.073241631392407261 -0.1185238344207674 0 0.06930233767231668 -0.10145614576307289 0 0.063961482352277776 -0.13052845504641769 0 0.058703704924762033 -0.1178032105749884 0 0.073241631392407261 -0.1185238344207674 0 0.06930233767231668 -0.10145614576307289 0 0.079900970419871126 -0.085109080951157143 0 0.052585840410256053 -0.080664286881110964 0 0.06930233767231668 -0.10145614576307289 0 0.079900970419871126 -0.085109080951157143 0 0.052585840410256053 -0.080664286881110964 0 0.079900970419871126 -0.085109080951157143 0 0.052585840410256053 -0.080664286881110964 0 0.073070566850226698 -0.063773045826988506 0 0.079900970419871126 -0.085109080951157143 0 0.095336529107698645 -0.061301663118300043 0 0.079900970419871126 -0.085109080951157143 0 0.090037949508923715 -0.086758598435690948 0 0.095336529107698645 -0.061301663118300043 0 0.073070566850226698 -0.063773045826988506 0 0.079900970419871126 -0.085109080951157143 0 0.095336529107698645 -0.061301663118300043 0 0.079900970419871126 -0.085109080951157143 0 0.079900970419871126 -0.085109080951157143 0 0.090037949508923715 -0.086758598435690948 0 0.085106233671482526 -0.096757129573246142 0 0.079900970419871126 -0.085109080951157143 0 0.090037949508923715 -0.086758598435690948 0 0.085106233671482526 -0.096757129573246142 0 0.090037949508923715 -0.086758598435690948 0 0.097874432554199212 -0.094257935064948117 0 0.090037949508923715 -0.086758598435690948 0 0.10715500642495331 -0.080911808952020992 0 0.097874432554199212 -0.094257935064948117 0 0.10715500642495331 -0.080911808952020992 0 0.10826165130896639 -0.097381427171297108 0 0.097874432554199212 -0.094257935064948117 0 0.095336529107698645 -0.061301663118300043 0 0.12431847282835461 -0.059130027798205809 0 0.10715500642495331 -0.080911808952020992 0 0.095336529107698645 -0.061301663118300043 0 0.090037949508923715 -0.086758598435690948 0 0.10715500642495331 -0.080911808952020992 0 0.12431847282835461 -0.059130027798205809 0 0.10715500642495331 -0.080911808952020992 0 0.1254407182166527 -0.086763330011910667 0 0.10715500642495331 -0.080911808952020992 0 0.10826165130896639 -0.097381427171297108 0 0.1254407182166527 -0.086763330011910667 0 0.11784757173594131 -0.1064302729362821 0 0.10826165130896639 -0.097381427171297108 0 0.1254407182166527 -0.086763330011910667 0 0.11784757173594131 -0.1064302729362821 0 0.13102107144960631 -0.1069102577327558 0 0.1254407182166527 -0.086763330011910667 0 0.11784757173594131 -0.1064302729362821 0 0.10826165130896639 -0.097381427171297108 0 0.1036934956866515 -0.1125350000956668 0 0.092580691671527576 -0.1043733299089451 0 0.10826165130896639 -0.097381427171297108 0 0.097874432554199212 -0.094257935064948117 0 0.092580691671527576 -0.1043733299089451 0 0.10826165130896639 -0.097381427171297108 0 0.1036934956866515 -0.1125350000956668 0 0.092580691671527576 -0.1043733299089451 0 0.087057893820621068 -0.1189604455595262 0 0.1036934956866515 -0.1125350000956668 0 0.1001200439732048 -0.12853275121963489 0 0.087057893820621068 -0.1189604455595262 0 0.1036934956866515 -0.1125350000956668 0 0.1001200439732048 -0.12853275121963489 0 0.1036934956866515 -0.1125350000956668 0 0.1162931216096478 -0.1195317737783153 0 0.11784757173594131 -0.1064302729362821 0 0.1036934956866515 -0.1125350000956668 0 0.1162931216096478 -0.1195317737783153 0 0.11784757173594131 -0.1064302729362821 0 0.1162931216096478 -0.1195317737783153 0 0.13102107144960631 -0.1069102577327558 0 0.1162931216096478 -0.1195317737783153 0 0.13102107144960631 -0.1069102577327558 0 0.13232617362294369 -0.12634332872489029 0 0.14009076827615369 -0.1134015931759674 0 0.13102107144960631 -0.1069102577327558 0 0.13232617362294369 -0.12634332872489029 0 0.14009076827615369 -0.1134015931759674 0 0.15008676095112811 -0.1183490133929731 0 0.13232617362294369 -0.12634332872489029 0 0.15008676095112811 -0.1183490133929731 0 0.16054443653540021 -0.1187716905538113 0 0.1552416294656522 -0.1343573718922467 0 0.14009076827615369 -0.1134015931759674 0 0.15008676095112811 -0.1183490133929731 0 0.1469290670809365 -0.1020037728532505 0 0.15008676095112811 -0.1183490133929731 0 0.1469290670809365 -0.1020037728532505 0 0.16047519124216639 -0.09232697384284555 0 0.1469290670809365 -0.1020037728532505 0 0.14161989839513231 -0.089776581382589676 0 0.16047519124216639 -0.09232697384284555 0 0.15008676095112811 -0.1183490133929731 0 0.16047519124216639 -0.09232697384284555 0 0.14009076827615369 -0.1134015931759674 0 0.1469290670809365 -0.1020037728532505 0 0.13102107144960631 -0.1069102577327558 0 0.1469290670809365 -0.1020037728532505 0 0.13102107144960631 -0.1069102577327558 0 0.14161989839513231 -0.089776581382589676 0 0.13102107144960631 -0.1069102577327558 0 0.1254407182166527 -0.086763330011910667 0 0.14161989839513231 -0.089776581382589676 0 0.1254407182166527 -0.086763330011910667 0 0.14630221987455841 -0.072483524989022885 0 0.14161989839513231 -0.089776581382589676 0 0.12431847282835461 -0.059130027798205809 0 0.1254407182166527 -0.086763330011910667 0 0.14630221987455841 -0.072483524989022885 0 0.14630221987455841 -0.072483524989022885 0 0.14161989839513231 -0.089776581382589676 0 0.16047519124216639 -0.09232697384284555 0 0.16047519124216639 -0.09232697384284555 0 0.17086362153320481 -0.066304934292717985 0 0.1798870955806301 -0.089657583449105918 0 0.16047519124216639 -0.09232697384284555 0 0.17086362153320481 -0.066304934292717985 0 0.14630221987455841 -0.072483524989022885 0 0.16047519124216639 -0.09232697384284555 0 0.17086362153320481 -0.066304934292717985 0 0.17086362153320481 -0.066304934292717985 0 0.18654131265589899 -0.058407546651117907 0 0.19176141753904091 -0.073561746182889048 0 0.17086362153320481 -0.066304934292717985 0 0.1798870955806301 -0.089657583449105918 0 0.19176141753904091 -0.073561746182889048 0 0.1798870955806301 -0.089657583449105918 0 0.16749787851873929 -0.10553103400327769 0 0.1882837097199199 -0.10623481668802399 0 0.17798839512522749 -0.11701735342384829 0 0.16749787851873929 -0.10553103400327769 0 0.1882837097199199 -0.10623481668802399 0 0.17798839512522749 -0.11701735342384829 0 0.1941313504280705 -0.121923917949254 0 0.1753838116505009 -0.1335295967642709 0 0.17798839512522749 -0.11701735342384829 0 0.1941313504280705 -0.121923917949254 0 0.1882837097199199 -0.10623481668802399 0 0.15008676095112811 -0.1183490133929731 0 0.16054443653540021 -0.1187716905538113 0 0.16749787851873929 -0.10553103400327769 0 0.17798839512522749 -0.11701735342384829 0 0.16054443653540021 -0.1187716905538113 0 0.1753838116505009 -0.1335295967642709 0 0.17798839512522749 -0.11701735342384829 0 0.16054443653540021 -0.1187716905538113 0 0.16749787851873929 -0.10553103400327769 0 0.16047519124216639 -0.09232697384284555 0 0.1798870955806301 -0.089657583449105918 0 0.16749787851873929 -0.10553103400327769 0 0.15008676095112811 -0.1183490133929731 0 0.16047519124216639 -0.09232697384284555 0 0.16749787851873929 -0.10553103400327769 0 0.13901877174334179 0.0058069614355472322 0 0.14260871557628979 -0.01919444628096021 0 0.1596816684900709 -0.0045255925504788857 0 0.13901877174334179 0.0058069614355472322 0 0.12067271458890989 -0.01655535740333515 0 0.14260871557628979 -0.01919444628096021 0 0.12067271458890989 -0.01655535740333515 0 0.14260871557628979 -0.01919444628096021 0 0.12868689698667601 -0.034969201447917937 0 0.14260871557628979 -0.01919444628096021 0 0.1450624941442995 -0.042471930471645707 0 0.16137047324238829 -0.024206245200263671 0 0.14260871557628979 -0.01919444628096021 0 0.16137047324238829 -0.024206245200263671 0 0.1596816684900709 -0.0045255925504788857 0 0.14260871557628979 -0.01919444628096021 0 0.1450624941442995 -0.042471930471645707 0 0.12868689698667601 -0.034969201447917937 0 0.12431847282835461 -0.059130027798205809 0 0.1450624941442995 -0.042471930471645707 0 0.12868689698667601 -0.034969201447917937 0 0.12431847282835461 -0.059130027798205809 0 0.14630221987455841 -0.072483524989022885 0 0.1450624941442995 -0.042471930471645707 0 0.14630221987455841 -0.072483524989022885 0 0.1450624941442995 -0.042471930471645707 0 0.16371863901852471 -0.046874248516770037 0 0.14630221987455841 -0.072483524989022885 0 0.17086362153320481 -0.066304934292717985 0 0.16371863901852471 -0.046874248516770037 0 0.17086362153320481 -0.066304934292717985 0 0.16371863901852471 -0.046874248516770037 0 0.18125205182424309 -0.040282894742590433 0 0.17086362153320481 -0.066304934292717985 0 0.18654131265589899 -0.058407546651117907 0 0.18125205182424309 -0.040282894742590433 0 0.17086362153320481 -0.066304934292717985 0 0.18125205182424309 -0.040282894742590433 0 0.16371863901852471 -0.046874248516770037 0 0.18125205182424309 -0.040282894742590433 0 0.17585005373342449 -0.02843328014210093 0 0.18125205182424309 -0.040282894742590433 0 0.17585005373342449 -0.02843328014210093 0 0.1909847237407184 -0.029251960033766181 0 0.16371863901852471 -0.046874248516770037 0 0.16137047324238829 -0.024206245200263671 0 0.17585005373342449 -0.02843328014210093 0 0.1450624941442995 -0.042471930471645707 0 0.16371863901852471 -0.046874248516770037 0 0.16137047324238829 -0.024206245200263671 0 0.17585005373342449 -0.02843328014210093 0 0.17968128775432959 -0.0050233086812581373 0 0.1909847237407184 -0.029251960033766181 0 0.16137047324238829 -0.024206245200263671 0 0.17585005373342449 -0.02843328014210093 0 0.17968128775432959 -0.0050233086812581373 0 0.17968128775432959 -0.0050233086812581373 0 0.1909847237407184 -0.029251960033766181 0 0.16137047324238829 -0.024206245200263671 0 0.17968128775432959 -0.0050233086812581373 0 0.1596816684900709 -0.0045255925504788857 0 0.19639849458081471 0.0066490508137971582 0 0.17968128775432959 -0.0050233086812581373 0 0.1976380980387622 -0.012576092719077789 0 0.19639849458081471 0.0066490508137971582 0 0.21151018488638801 -0.0065786541425667854 0 0.1976380980387622 -0.012576092719077789 0 0.17968128775432959 -0.0050233086812581373 0 0.1976380980387622 -0.012576092719077789 0 0.1909847237407184 -0.029251960033766181 0 0.1976380980387622 -0.012576092719077789 0 0.1909847237407184 -0.029251960033766181 0 0.21159622781088941 -0.02804788352890589 0 0.21151018488638801 -0.0065786541425667854 0 0.21159622781088941 -0.02804788352890589 0 0.227087226477487 -0.0128536802907099 0 0.21151018488638801 -0.0065786541425667854 0 0.1976380980387622 -0.012576092719077789 0 0.21159622781088941 -0.02804788352890589 0 0.21159622781088941 -0.02804788352890589 0 0.20228815972710709 -0.053480611386274218 0 0.22392760489159169 -0.051119759318515423 0 0.1909847237407184 -0.029251960033766181 0 0.21159622781088941 -0.02804788352890589 0 0.20228815972710709 -0.053480611386274218 0 0.1909847237407184 -0.029251960033766181 0 0.20228815972710709 -0.053480611386274218 0 0.18125205182424309 -0.040282894742590433 0 0.1909847237407184 -0.029251960033766181 0 0.20228815972710709 -0.053480611386274218 0 0.18654131265589899 -0.058407546651117907 0 0.18125205182424309 -0.040282894742590433 0 0.20228815972710709 -0.053480611386274218 0 0.18654131265589899 -0.058407546651117907 0 0.20228815972710709 -0.053480611386274218 0 0.19176141753904091 -0.073561746182889048 0 0.20228815972710709 -0.053480611386274218 0 0.22392760489159169 -0.051119759318515423 0 0.2135915957134959 -0.077709262738782259 0 0.22392760489159169 -0.051119759318515423 0 0.24402431198102109 -0.056541483586260599 0 0.23437493224700801 -0.07250456993910584 0 0.25709784077608921 -0.044424429572376301 0 0.24402431198102109 -0.056541483586260599 0 0.23838481141133119 -0.043411345021317757 0 0.22392760489159169 -0.051119759318515423 0 0.24402431198102109 -0.056541483586260599 0 0.23838481141133119 -0.043411345021317757 0 0.24756494005480839 -0.033887202490842053 0 0.23838481141133119 -0.043411345021317757 0 0.23093659401298311 -0.03062429629588204 0 0.25709784077608921 -0.044424429572376301 0 0.24756494005480839 -0.033887202490842053 0 0.23838481141133119 -0.043411345021317757 0 0.21159622781088941 -0.02804788352890589 0 0.22392760489159169 -0.051119759318515423 0 0.23093659401298311 -0.03062429629588204 0 0.22392760489159169 -0.051119759318515423 0 0.23838481141133119 -0.043411345021317757 0 0.23093659401298311 -0.03062429629588204 0 0.21159622781088941 -0.02804788352890589 0 0.23093659401298311 -0.03062429629588204 0 0.227087226477487 -0.0128536802907099 0 0.23093659401298311 -0.03062429629588204 0 0.24131686124071669 -0.02160629731830695 0 0.227087226477487 -0.0128536802907099 0 0.25885049403245908 -0.025253221824478068 0 0.24131686124071669 -0.02160629731830695 0 0.2414431017406225 -0.0042112777133020444 0 0.25885049403245908 -0.025253221824478068 0 0.24756494005480839 -0.033887202490842053 0 0.24131686124071669 -0.02160629731830695 0 0.24756494005480839 -0.033887202490842053 0 0.23093659401298311 -0.03062429629588204 0 0.24131686124071669 -0.02160629731830695 0 0.24131686124071669 -0.02160629731830695 0 0.2414431017406225 -0.0042112777133020444 0 0.227087226477487 -0.0128536802907099 0 0.22403570944878601 0.01683066639787395 0 0.2414431017406225 -0.0042112777133020444 0 0.227087226477487 -0.0128536802907099 0 0.22403570944878601 0.01683066639787395 0 0.21151018488638801 -0.0065786541425667854 0 0.227087226477487 -0.0128536802907099 0 0.21095842409503521 -0.10975442677889399 0 0.20044075493070951 -0.093985995684881404 0 0.22496645837383331 -0.092785332055773523 0 0.21095842409503521 -0.10975442677889399 0 0.2241607992537083 -0.11940410141902109 0 0.21237071107608471 -0.1279972359841012 0 0.21095842409503521 -0.10975442677889399 0 0.1941313504280705 -0.121923917949254 0 0.21237071107608471 -0.1279972359841012 0 0.21095842409503521 -0.10975442677889399 0 0.1941313504280705 -0.121923917949254 0 0.1882837097199199 -0.10623481668802399 0 0.1798870955806301 -0.089657583449105918 0 0.20044075493070951 -0.093985995684881404 0 0.1882837097199199 -0.10623481668802399 0 0.21095842409503521 -0.10975442677889399 0 0.20044075493070951 -0.093985995684881404 0 0.1882837097199199 -0.10623481668802399 0 0.20044075493070951 -0.093985995684881404 0 0.19176141753904091 -0.073561746182889048 0 0.2135915957134959 -0.077709262738782259 0 0.1798870955806301 -0.089657583449105918 0 0.20044075493070951 -0.093985995684881404 0 0.19176141753904091 -0.073561746182889048 0 0.20228815972710709 -0.053480611386274218 0 0.19176141753904091 -0.073561746182889048 0 0.2135915957134959 -0.077709262738782259 0 0.20228815972710709 -0.053480611386274218 0 0.2135915957134959 -0.077709262738782259 0 0.20044075493070951 -0.093985995684881404 0 0.2135915957134959 -0.077709262738782259 0 0.22496645837383331 -0.092785332055773523 0 0.22496645837383331 -0.092785332055773523 0 0.23437493224700801 -0.07250456993910584 0 0.24260757852132581 -0.086972743885844209 0 0.2135915957134959 -0.077709262738782259 0 0.22496645837383331 -0.092785332055773523 0 0.23437493224700801 -0.07250456993910584 0 0.22392760489159169 -0.051119759318515423 0 0.2135915957134959 -0.077709262738782259 0 0.23437493224700801 -0.07250456993910584 0 0.25658434339092911 -0.072244835605310226 0 0.24402431198102109 -0.056541483586260599 0 0.23437493224700801 -0.07250456993910584 0 0.25658434339092911 -0.072244835605310226 0 0.23437493224700801 -0.07250456993910584 0 0.24260757852132581 -0.086972743885844209 0 0.22496645837383331 -0.092785332055773523 0 0.24260757852132581 -0.086972743885844209 0 0.2449733129926695 -0.1008425048982888 0 0.25705980902034259 -0.087081582156659412 0 0.24260757852132581 -0.086972743885844209 0 0.2449733129926695 -0.1008425048982888 0 0.2449733129926695 -0.1008425048982888 0 0.2278186101165891 -0.10772782046461821 0 0.23645448161112309 -0.1156332869383582 0 0.21095842409503521 -0.10975442677889399 0 0.22496645837383331 -0.092785332055773523 0 0.2278186101165891 -0.10772782046461821 0 0.22496645837383331 -0.092785332055773523 0 0.2449733129926695 -0.1008425048982888 0 0.2278186101165891 -0.10772782046461821 0 0.21095842409503521 -0.10975442677889399 0 0.2278186101165891 -0.10772782046461821 0 0.2241607992537083 -0.11940410141902109 0 0.2241607992537083 -0.11940410141902109 0 0.23645448161112309 -0.1156332869383582 0 0.2334255986037635 -0.1329636297254691 0 0.2278186101165891 -0.10772782046461821 0 0.2241607992537083 -0.11940410141902109 0 0.23645448161112309 -0.1156332869383582 0 0.25200600170591198 -0.1157563245825616 0 0.2334255986037635 -0.1329636297254691 0 0.25200600170591198 -0.1157563245825616 0 0.23645448161112309 -0.1156332869383582 0 0.2334255986037635 -0.1329636297254691 0 0.25200600170591198 -0.1157563245825616 0 0.2449733129926695 -0.1008425048982888 0 0.23645448161112309 -0.1156332869383582 0 0.25200600170591198 -0.1157563245825616 0 0.25278991145217811 -0.13329751277266699 0 0.2334255986037635 -0.1329636297254691 0 0.25278991145217811 -0.13329751277266699 0 0.24251452423871919 -0.15135382529707669 0 0.2334255986037635 -0.1329636297254691 0 0.24251452423871919 -0.15135382529707669 0 0.2278812078801867 -0.14740214135102869 0 0.2334255986037635 -0.1329636297254691 0 0.2334255986037635 -0.1329636297254691 0 0.21484519550161491 -0.1501709348683766 0 0.2334255986037635 -0.1329636297254691 0 0.21315822162090139 -0.14413476866275829 0 0.21484519550161491 -0.1501709348683766 0 0.2278812078801867 -0.14740214135102869 0 0.2334255986037635 -0.1329636297254691 0 0.21484519550161491 -0.1501709348683766 0 0.24251452423871919 -0.15135382529707669 0 0.2278812078801867 -0.14740214135102869 0 0.21394573216571819 -0.16027230134141551 0 0.24251452423871919 -0.15135382529707669 0 0.21394573216571819 -0.16027230134141551 0 0.2278812078801867 -0.14740214135102869 0 0.21484519550161491 -0.1501709348683766 0 0.21394573216571819 -0.16027230134141551 0 0.2334255986037635 -0.1329636297254691 0 0.21237071107608471 -0.1279972359841012 0 0.21315822162090139 -0.14413476866275829 0 0.2241607992537083 -0.11940410141902109 0 0.2334255986037635 -0.1329636297254691 0 0.21237071107608471 -0.1279972359841012 0 0.21237071107608471 -0.1279972359841012 0 0.21315822162090139 -0.14413476866275829 0 0.19980305090165501 -0.13701007805638571 0 0.21237071107608471 -0.1279972359841012 0 0.21315822162090139 -0.14413476866275829 0 0.21315822162090139 -0.14413476866275829 0 0.21484519550161491 -0.1501709348683766 0 0.21394573216571819 -0.16027230134141551 0 0.21315822162090139 -0.14413476866275829 0 0.20443855066691571 -0.15055001204409621 0 0.21394573216571819 -0.16027230134141551 0 0.21315822162090139 -0.14413476866275829 0 0.21394573216571819 -0.16027230134141551 0 0.21315822162090139 -0.14413476866275829 0 0.20443855066691571 -0.15055001204409621 0 0.19980305090165501 -0.13701007805638571 0 0.20443855066691571 -0.15055001204409621 0 0.19022318676560171 -0.14828750297473051 0 0.19980305090165501 -0.13701007805638571 0 0.19022318676560171 -0.14828750297473051 0 0.20506256188070321 -0.16304540918518931 0 0.20443855066691571 -0.15055001204409621 0 0.19022318676560171 -0.14828750297473051 0 0.20506256188070321 -0.16304540918518931 0 0.1941313504280705 -0.121923917949254 0 0.19980305090165501 -0.13701007805638571 0 0.1753838116505009 -0.1335295967642709 0 0.1941313504280705 -0.121923917949254 0 0.21237071107608471 -0.1279972359841012 0 0.19980305090165501 -0.13701007805638571 0 0.19022318676560171 -0.14828750297473051 0 0.19980305090165501 -0.13701007805638571 0 0.1753838116505009 -0.1335295967642709 0 0.19797874785879349 -0.18612506919960481 0 0.20187468717377841 -0.17415166282511471 0 0.18441171772143369 -0.1694920961315308 0 0.19022318676560171 -0.14828750297473051 0 0.20506256188070321 -0.16304540918518931 0 0.18441171772143369 -0.1694920961315308 0 0.20506256188070321 -0.16304540918518931 0 0.18441171772143369 -0.1694920961315308 0 0.20187468717377841 -0.17415166282511471 0 0.20506256188070321 -0.16304540918518931 0 0.18441171772143369 -0.1694920961315308 0 0.20187468717377841 -0.17415166282511471 0 0.20506256188070321 -0.16304540918518931 0 0.21454107084294241 -0.17247188066359001 0 0.20506256188070321 -0.16304540918518931 0 0.21454107084294241 -0.17247188066359001 0 0.20506256188070321 -0.16304540918518931 0 0.21394573216571819 -0.16027230134141551 0 0.20443855066691571 -0.15055001204409621 0 0.20506256188070321 -0.16304540918518931 0 0.21394573216571819 -0.16027230134141551 0 0.21394573216571819 -0.16027230134141551 0 0.21454107084294241 -0.17247188066359001 0 0.20506256188070321 -0.16304540918518931 0 0.21394573216571819 -0.16027230134141551 0 0.21454107084294241 -0.17247188066359001 0 0.21394573216571819 -0.16027230134141551 0 0.21454107084294241 -0.17247188066359001 0 0.22502693658511519 -0.17238821367641219 0 0.21454107084294241 -0.17247188066359001 0 0.2157917576932025 -0.19810074373052569 0 0.19797874785879349 -0.18612506919960481 0 0.20187468717377841 -0.17415166282511471 0 0.21454107084294241 -0.17247188066359001 0 0.19797874785879349 -0.18612506919960481 0 0.21454107084294241 -0.17247188066359001 0 0.2157917576932025 -0.19810074373052569 0 0.21454107084294241 -0.17247188066359001 0 0.2259507729700666 -0.1838189429607078 0 0.2157917576932025 -0.19810074373052569 0 0.21454107084294241 -0.17247188066359001 0 0.2259507729700666 -0.1838189429607078 0 0.21454107084294241 -0.17247188066359001 0 0.2259507729700666 -0.1838189429607078 0 0.22502693658511519 -0.17238821367641219 0 0.2259507729700666 -0.1838189429607078 0 0.22502693658511519 -0.17238821367641219 0 0.23353691237966631 -0.17863820043535539 0 0.22502693658511519 -0.17238821367641219 0 0.23353691237966631 -0.17863820043535539 0 0.23693501741856779 -0.16725207023071459 0 0.2259507729700666 -0.1838189429607078 0 0.23353691237966631 -0.17863820043535539 0 0.23624072879064639 -0.18746846689635149 0 0.21394573216571819 -0.16027230134141551 0 0.22502693658511519 -0.17238821367641219 0 0.23693501741856779 -0.16725207023071459 0 0.24251452423871919 -0.15135382529707669 0 0.21394573216571819 -0.16027230134141551 0 0.23693501741856779 -0.16725207023071459 0 0.25831068201549062 -0.1627575897226953 0 0.23693501741856779 -0.16725207023071459 0 0.24353110613393539 -0.1822633084125912 0 0.25831068201549062 -0.1627575897226953 0 0.24251452423871919 -0.15135382529707669 0 0.23693501741856779 -0.16725207023071459 0 0.23353691237966631 -0.17863820043535539 0 0.23624072879064639 -0.18746846689635149 0 0.24353110613393539 -0.1822633084125912 0 0.23353691237966631 -0.17863820043535539 0 0.23693501741856779 -0.16725207023071459 0 0.24353110613393539 -0.1822633084125912 0 0.24353110613393539 -0.1822633084125912 0 0.23736047509719069 -0.19516600525782571 0 0.2425149890166973 -0.20029222064052121 0 0.25959376107067561 -0.18478093295439479 0 0.24353110613393539 -0.1822633084125912 0 0.2425149890166973 -0.20029222064052121 0 0.23624072879064639 -0.18746846689635149 0 0.24353110613393539 -0.1822633084125912 0 0.23736047509719069 -0.19516600525782571 0 0.23624072879064639 -0.18746846689635149 0 0.23736047509719069 -0.19516600525782571 0 0.23736047509719069 -0.19516600525782571 0 0.23511283815644071 -0.20153232854682071 0 0.23862068060698319 -0.20382911064002851 0 0.23736047509719069 -0.19516600525782571 0 0.23862068060698319 -0.20382911064002851 0 0.23736047509719069 -0.19516600525782571 0 0.2425149890166973 -0.20029222064052121 0 0.23862068060698319 -0.20382911064002851 0 0.23511283815644071 -0.20153232854682071 0 0.23862068060698319 -0.20382911064002851 0 0.23434779179081811 -0.20377271982998679 0 0.23736047509719069 -0.19516600525782571 0 0.2425149890166973 -0.20029222064052121 0 0.2425149890166973 -0.20029222064052121 0 0.23862068060698319 -0.20382911064002851 0 0.23862068060698319 -0.20382911064002851 0 0.22861584522654591 -0.21379800236764179 0 0.24176165893330009 -0.22542132399948081 0 0.25493849033600441 -0.21264751632202741 0 0.2425149890166973 -0.20029222064052121 0 0.25493849033600441 -0.21264751632202741 0 0.2425149890166973 -0.20029222064052121 0 0.23862068060698319 -0.20382911064002851 0 0.25493849033600441 -0.21264751632202741 0 0.23862068060698319 -0.20382911064002851 0 0.24176165893330009 -0.22542132399948081 0 0.23862068060698319 -0.20382911064002851 0 0.24176165893330009 -0.22542132399948081 0 0.23862068060698319 -0.20382911064002851 0 0.23137894519482691 -0.20615290688040669 0 0.23434779179081811 -0.20377271982998679 0 0.23137894519482691 -0.20615290688040669 0 0.23434779179081811 -0.20377271982998679 0 0.22711697582790791 -0.20060839454041349 0 0.23137894519482691 -0.20615290688040669 0 0.22861584522654591 -0.21379800236764179 0 0.22711697582790791 -0.20060839454041349 0 0.22861584522654591 -0.21379800236764179 0 0.22711697582790791 -0.20060839454041349 0 0.2157917576932025 -0.19810074373052569 0 0.23862068060698319 -0.20382911064002851 0 0.23137894519482691 -0.20615290688040669 0 0.22861584522654591 -0.21379800236764179 0 0.22861584522654591 -0.21379800236764179 0 0.2170424445434648 -0.22372960679746129 0 0.2157917576932025 -0.19810074373052569 0 0.2259507729700666 -0.1838189429607078 0 0.23736047509719069 -0.19516600525782571 0 0.22711697582790791 -0.20060839454041349 0 0.2259507729700666 -0.1838189429607078 0 0.22711697582790791 -0.20060839454041349 0 0.2157917576932025 -0.19810074373052569 0 0.2259507729700666 -0.1838189429607078 0 0.23624072879064639 -0.18746846689635149 0 0.23736047509719069 -0.19516600525782571 0 0.2259507729700666 -0.1838189429607078 0 0.23736047509719069 -0.19516600525782571 0 0.23736047509719069 -0.19516600525782571 0 0.23511283815644071 -0.20153232854682071 0 0.22711697582790791 -0.20060839454041349 0 0.23511283815644071 -0.20153232854682071 0 0.23434779179081811 -0.20377271982998679 0 0.22711697582790791 -0.20060839454041349 0 0.244902637259619 -0.24701353735893281 0 0.24176165893330009 -0.22542132399948081 0 0.2312711503550155 -0.25302814347859781 0 0.244902637259619 -0.24701353735893281 0 0.22954566436966331 -0.2362041726071632 0 0.244902637259619 -0.24701353735893281 0 0.24176165893330009 -0.22542132399948081 0 0.22954566436966331 -0.2362041726071632 0 0.25624977092838908 -0.23386384710061689 0 0.244902637259619 -0.24701353735893281 0 0.24176165893330009 -0.22542132399948081 0 0.22861584522654591 -0.21379800236764179 0 0.24176165893330009 -0.22542132399948081 0 0.22954566436966331 -0.2362041726071632 0 0.22861584522654591 -0.21379800236764179 0 0.22954566436966331 -0.2362041726071632 0 0.2170424445434648 -0.22372960679746129 0 0.2312711503550155 -0.25302814347859781 0 0.22954566436966331 -0.2362041726071632 0 0.21474776374606869 -0.2492341283155978 0 0.22954566436966331 -0.2362041726071632 0 0.21474776374606869 -0.2492341283155978 0 0.2170424445434648 -0.22372960679746129 0 0.21474776374606869 -0.2492341283155978 0 0.2170424445434648 -0.22372960679746129 0 0.19616840244415679 -0.2306832201846665 0 0.21474776374606869 -0.2492341283155978 0 0.19616840244415679 -0.2306832201846665 0 0.2170424445434648 -0.22372960679746129 0 0.19616840244415679 -0.2306832201846665 0 0.20142220759756241 -0.21164692509224509 0 0.18704061167687469 -0.25416437777289619 0 0.21474776374606869 -0.2492341283155978 0 0.19616840244415679 -0.2306832201846665 0 0.2170424445434648 -0.22372960679746129 0 0.2157917576932025 -0.19810074373052569 0 0.20142220759756241 -0.21164692509224509 0 0.2170424445434648 -0.22372960679746129 0 0.2157917576932025 -0.19810074373052569 0 0.19616840244415679 -0.2306832201846665 0 0.20142220759756241 -0.21164692509224509 0 0.17758904114224491 -0.2121323120537352 0 0.20142220759756241 -0.21164692509224509 0 0.1899837946922005 -0.19954957839172199 0 0.17758904114224491 -0.2121323120537352 0 0.19797874785879349 -0.18612506919960481 0 0.1899837946922005 -0.19954957839172199 0 0.17738072666265689 -0.18275341671776951 0 0.2157917576932025 -0.19810074373052569 0 0.20142220759756241 -0.21164692509224509 0 0.1899837946922005 -0.19954957839172199 0 0.19797874785879349 -0.18612506919960481 0 0.2157917576932025 -0.19810074373052569 0 0.1899837946922005 -0.19954957839172199 0 0.1899837946922005 -0.19954957839172199 0 0.1734230328972288 -0.19500398706276151 0 0.17738072666265689 -0.18275341671776951 0 0.1899837946922005 -0.19954957839172199 0 0.1734230328972288 -0.19500398706276151 0 0.17758904114224491 -0.2121323120537352 0 0.1611272583854633 -0.21072791319459711 0 0.1642771143411666 -0.2264824924240475 0 0.14535606716576191 -0.2163092164898735 0 0.17758904114224491 -0.2121323120537352 0 0.1611272583854633 -0.21072791319459711 0 0.1642771143411666 -0.2264824924240475 0 0.17758904114224491 -0.2121323120537352 0 0.1611272583854633 -0.21072791319459711 0 0.15900967984033559 -0.19358140392280129 0 0.1734230328972288 -0.19500398706276151 0 0.17758904114224491 -0.2121323120537352 0 0.15900967984033559 -0.19358140392280129 0 0.17758904114224491 -0.2121323120537352 0 0.15900967984033559 -0.19358140392280129 0 0.15900967984033559 -0.19358140392280129 0 0.1529829998731938 -0.18756395345245749 0 0.16336792403135919 -0.18632666779867321 0 0.15900967984033559 -0.19358140392280129 0 0.16336792403135919 -0.18632666779867321 0 0.1734230328972288 -0.19500398706276151 0 0.17738072666265689 -0.18275341671776951 0 0.16336792403135919 -0.18632666779867321 0 0.1734230328972288 -0.19500398706276151 0 0.15900967984033559 -0.19358140392280129 0 0.16336792403135919 -0.18632666779867321 0 0.18704061167687469 -0.25416437777289619 0 0.17853369439848291 -0.23375267041800479 0 0.1675933023879716 -0.24530094965467869 0 0.18704061167687469 -0.25416437777289619 0 0.19616840244415679 -0.2306832201846665 0 0.17853369439848291 -0.23375267041800479 0 0.19616840244415679 -0.2306832201846665 0 0.17758904114224491 -0.2121323120537352 0 0.19616840244415679 -0.2306832201846665 0 0.17758904114224491 -0.2121323120537352 0 0.17853369439848291 -0.23375267041800479 0 0.17758904114224491 -0.2121323120537352 0 0.17853369439848291 -0.23375267041800479 0 0.1642771143411666 -0.2264824924240475 0 0.1642771143411666 -0.2264824924240475 0 0.1675933023879716 -0.24530094965467869 0 0.15006974999184261 -0.2355284728623013 0 0.1547367375858503 -0.25440718937350021 0 0.1675933023879716 -0.24530094965467869 0 0.15006974999184261 -0.2355284728623013 0 0.17853369439848291 -0.23375267041800479 0 0.1642771143411666 -0.2264824924240475 0 0.1675933023879716 -0.24530094965467869 0 0.15006974999184261 -0.2355284728623013 0 0.14309639145875069 -0.2473272623433824 0 0.13170245449118731 -0.23903702905694529 0 0.1547367375858503 -0.25440718937350021 0 0.15006974999184261 -0.2355284728623013 0 0.14309639145875069 -0.2473272623433824 0 0.15006974999184261 -0.2355284728623013 0 0.13170245449118731 -0.23903702905694529 0 0.14535606716576191 -0.2163092164898735 0 0.1642771143411666 -0.2264824924240475 0 0.15006974999184261 -0.2355284728623013 0 0.14535606716576191 -0.2163092164898735 0 0.1342258918700579 -0.2245729067836095 0 0.13170245449118731 -0.23903702905694529 0 0.14535606716576191 -0.2163092164898735 0 0.13170245449118731 -0.23903702905694529 0 0.14535606716576191 -0.2163092164898735 0 0.12400225421129139 -0.22059755592636501 0 0.1197239758713827 -0.23119541144502409 0 0.1342258918700579 -0.2245729067836095 0 0.120812168714685 -0.24498371709218231 0 0.1342258918700579 -0.2245729067836095 0 0.13315228571906421 -0.25575993808958492 0 0.14309639145875069 -0.2473272623433824 0 0.13170245449118731 -0.23903702905694529 0 0.120812168714685 -0.24498371709218231 0 0.1342258918700579 -0.2245729067836095 0 0.13170245449118731 -0.23903702905694529 0 0.14540656174770411 -0.20285628655050861 0 0.14761132123981421 -0.19487800652423529 0 0.13915450849455141 -0.19927931508189939 0 0.14370674546805259 -0.19007999832994071 0 0.14761132123981421 -0.19487800652423529 0 0.13915450849455141 -0.19927931508189939 0 0.14370674546805259 -0.19007999832994071 0 0.14761132123981421 -0.19487800652423529 0 0.1529829998731938 -0.18756395345245749 0 0.15900967984033559 -0.19358140392280129 0 0.14761132123981421 -0.19487800652423529 0 0.1529829998731938 -0.18756395345245749 0 0.15900967984033559 -0.19358140392280129 0 0.1529829998731938 -0.18756395345245749 0 0.15900967984033559 -0.19358140392280129 0 0.14540656174770411 -0.20285628655050861 0 0.14761132123981421 -0.19487800652423529 0 0.15900967984033559 -0.19358140392280129 0 0.14540656174770411 -0.20285628655050861 0 0.14535606716576191 -0.2163092164898735 0 0.1611272583854633 -0.21072791319459711 0 0.15900967984033559 -0.19358140392280129 0 0.14535606716576191 -0.2163092164898735 0 0.15900967984033559 -0.19358140392280129 0 0.14535606716576191 -0.2163092164898735 0 0.14540656174770411 -0.20285628655050861 0 0.14535606716576191 -0.2163092164898735 0 0.13590123199805729 -0.2102334907337334 0 0.14540656174770411 -0.20285628655050861 0 0.13590123199805729 -0.2102334907337334 0 0.13915450849455141 -0.19927931508189939 0 0.13590123199805729 -0.2102334907337334 0 0.12918043214548919 -0.2007896671818783 0 0.13915450849455141 -0.19927931508189939 0 0.1342258918700579 -0.2245729067836095 0 0.14535606716576191 -0.2163092164898735 0 0.13590123199805729 -0.2102334907337334 0 0.12400225421129139 -0.22059755592636501 0 0.1342258918700579 -0.2245729067836095 0 0.13590123199805729 -0.2102334907337334 0 0.12400225421129139 -0.22059755592636501 0 0.13590123199805729 -0.2102334907337334 0 0.12528178069324161 -0.20970310810199441 0 0.13590123199805729 -0.2102334907337334 0 0.12528178069324161 -0.20970310810199441 0 0.12918043214548919 -0.2007896671818783 0 0.12918043214548919 -0.2007896671818783 0 0.13915450849455141 -0.19927931508189939 0 0.13594972868882249 -0.19182545563737 0 0.14370674546805259 -0.19007999832994071 0 0.13915450849455141 -0.19927931508189939 0 0.13594972868882249 -0.19182545563737 0 0.1223029955599837 -0.19260822943308009 0 0.12918043214548919 -0.2007896671818783 0 0.13594972868882249 -0.19182545563737 0 0.1223029955599837 -0.19260822943308009 0 0.13594972868882249 -0.19182545563737 0 0.14540396177603521 -0.17637006816005171 0 0.1223029955599837 -0.19260822943308009 0 0.1285043636466611 -0.17524681598437639 0 0.14540396177603521 -0.17637006816005171 0 0.1223029955599837 -0.19260822943308009 0 0.14540396177603521 -0.17637006816005171 0 0.14370674546805259 -0.19007999832994071 0 0.13594972868882249 -0.19182545563737 0 0.14540396177603521 -0.17637006816005171 0 0.14370674546805259 -0.19007999832994071 0 0.1529829998731938 -0.18756395345245749 0 0.14540396177603521 -0.17637006816005171 0 0.14540396177603521 -0.17637006816005171 0 0.15619330579085311 -0.1718881290337303 0 0.15619022413843461 -0.17960949940015911 0 0.1529829998731938 -0.18756395345245749 0 0.14540396177603521 -0.17637006816005171 0 0.15619022413843461 -0.17960949940015911 0 0.1551136363193337 -0.1627465548327586 0 0.1376505302676245 -0.16107885483891349 0 0.1556257303172911 -0.14861807478849051 0 0.14540396177603521 -0.17637006816005171 0 0.1551136363193337 -0.1627465548327586 0 0.1376505302676245 -0.16107885483891349 0 0.14540396177603521 -0.17637006816005171 0 0.15619330579085311 -0.1718881290337303 0 0.1551136363193337 -0.1627465548327586 0 0.1285043636466611 -0.17524681598437639 0 0.14540396177603521 -0.17637006816005171 0 0.1376505302676245 -0.16107885483891349 0 0.12199740266402589 -0.1660433713446601 0 0.1285043636466611 -0.17524681598437639 0 0.1376505302676245 -0.16107885483891349 0 0.1206275776693459 -0.15145666616197501 0 0.12199740266402589 -0.1660433713446601 0 0.1376505302676245 -0.16107885483891349 0 0.1178339040518066 -0.133871799411696 0 0.1206275776693459 -0.15145666616197501 0 0.13969833066008991 -0.1443710529431006 0 0.1206275776693459 -0.15145666616197501 0 0.1376505302676245 -0.16107885483891349 0 0.13969833066008991 -0.1443710529431006 0 0.1178339040518066 -0.133871799411696 0 0.13969833066008991 -0.1443710529431006 0 0.13232617362294369 -0.12634332872489029 0 0.15008676095112811 -0.1183490133929731 0 0.13969833066008991 -0.1443710529431006 0 0.1552416294656522 -0.1343573718922467 0 0.15008676095112811 -0.1183490133929731 0 0.13969833066008991 -0.1443710529431006 0 0.13232617362294369 -0.12634332872489029 0 0.15008676095112811 -0.1183490133929731 0 0.13969833066008991 -0.1443710529431006 0 0.13969833066008991 -0.1443710529431006 0 0.1552416294656522 -0.1343573718922467 0 0.1556257303172911 -0.14861807478849051 0 0.1376505302676245 -0.16107885483891349 0 0.13969833066008991 -0.1443710529431006 0 0.1556257303172911 -0.14861807478849051 0 0.1556257303172911 -0.14861807478849051 0 0.1695483321906196 -0.15198014781897201 0 0.1753838116505009 -0.1335295967642709 0 0.1551136363193337 -0.1627465548327586 0 0.1556257303172911 -0.14861807478849051 0 0.1695483321906196 -0.15198014781897201 0 0.1552416294656522 -0.1343573718922467 0 0.1556257303172911 -0.14861807478849051 0 0.1753838116505009 -0.1335295967642709 0 0.16054443653540021 -0.1187716905538113 0 0.1552416294656522 -0.1343573718922467 0 0.1753838116505009 -0.1335295967642709 0 0.16054443653540021 -0.1187716905538113 0 0.1753838116505009 -0.1335295967642709 0 0.19022318676560171 -0.14828750297473051 0 0.1695483321906196 -0.15198014781897201 0 0.1712667063613785 -0.16534554474627161 0 0.19022318676560171 -0.14828750297473051 0 0.1695483321906196 -0.15198014781897201 0 0.1753838116505009 -0.1335295967642709 0 0.19022318676560171 -0.14828750297473051 0 0.1753838116505009 -0.1335295967642709 0 0.19022318676560171 -0.14828750297473051 0 0.18441171772143369 -0.1694920961315308 0 0.1712667063613785 -0.16534554474627161 0 0.18441171772143369 -0.1694920961315308 0 0.16376087356216479 -0.1759387830778745 0 0.1712667063613785 -0.16534554474627161 0 0.19797874785879349 -0.18612506919960481 0 0.18441171772143369 -0.1694920961315308 0 0.17738072666265689 -0.18275341671776951 0 0.18441171772143369 -0.1694920961315308 0 0.17738072666265689 -0.18275341671776951 0 0.16376087356216479 -0.1759387830778745 0 0.18441171772143369 -0.1694920961315308 0 0.16376087356216479 -0.1759387830778745 0 0.17738072666265689 -0.18275341671776951 0 0.16336792403135919 -0.18632666779867321 0 0.16376087356216479 -0.1759387830778745 0 0.1529829998731938 -0.18756395345245749 0 0.15619022413843461 -0.17960949940015911 0 0.16336792403135919 -0.18632666779867321 0 0.15619022413843461 -0.17960949940015911 0 0.16336792403135919 -0.18632666779867321 0 0.16376087356216479 -0.1759387830778745 0 0.15619330579085311 -0.1718881290337303 0 0.15619022413843461 -0.17960949940015911 0 0.16376087356216479 -0.1759387830778745 0 0.1551136363193337 -0.1627465548327586 0 0.1695483321906196 -0.15198014781897201 0 0.1712667063613785 -0.16534554474627161 0 0.15619330579085311 -0.1718881290337303 0 0.1551136363193337 -0.1627465548327586 0 0.1712667063613785 -0.16534554474627161 0 0.15619330579085311 -0.1718881290337303 0 0.16376087356216479 -0.1759387830778745 0 0.1712667063613785 -0.16534554474627161 0 
</DataArray>
</Points>
<Cells>
<DataArray type="UInt32" Name="connectivity" format="ascii">
0 1 2 3 4 5 6 7 8 9 10 11 12 13 14 15 16 17 18 19 20 21 22 23 24 25 26 27 28 29 30 31 32 33 34 35 36 37 38 39 40 41 42 43 44 45 46 47 48 49 50 51 52 53 54 55 56 57 58 59 60 61 62 63 64 65 66 67 68 69 70 71 72 73 74 75 76 77 78 79 80 81 82 83 84 85 86 87 88 89 90 91 92 93 94 95 96 97 98 99 100 101 102 103 104 105 106 107 108 109 110 111 112 113 114 115 116 117 118 119 120 121 122 123 124 125 126 127 128 129 130 131 132 133 134 135 136 137 138 139 140 141 142 143 144 145 146 147 148 149 150 151 152 153 154 155 156 157 158 159 160 161 162 163 164 165 166 167 168 169 170 171 172 173 174 175 176 177 178 179 180 181 182 183 184 185 186 187 188 189 190 191 192 193 194 195 196 197 198 199 200 201 202 203 204 205 206 207 208 209 210 211 212 213 214 215 216 217 218 219 220 221 222 223 224 225 226 227 228 229 230 231 232 233 234 235 236 237 238 239 240 241 242 243 244 245 246 247 248 249 250 251 252 253 254 255 256 257 258 259 260 261 262 263 264 265 266 267 268 269 270 271 272 273 274 275 276 277 278 279 280 281 282 283 284 285 286 287 288 289 290 291 292 293 294 295 296 297 298 299 300 301 302 303 304 305 306 307 308 309 310 311 312 313 314 315 316 317 318 319 320 321 322 323 324 325 326 327 328 329 330 331 332 333 334 335 336 337 338 339 340 341 342 343 344 345 346 347 348 349 350 351 352 353 354 355 356 357 358 359 360 361 362 363 364 365 366 367 368 369 370 371 372 373 374 375 376 377 378 379 380 381 382 383 384 385 386 387 388 389 390 391 392 393 394 395 396 397 398 399 400 401 402 403 404 405 406 407 408 409 410 411 412 413 414 415 416 417 418 419 420 421 422 423 424 425 426 427 428 429 430 431 432 433 434 435 436 437 438 439 440 441 442 443 444 445 446 447 448 449 450 451 452 453 454 455 456 457 458 459 460 461 462 463 464 465 466 467 468 469 470 471 472 473 474 475 476 477 478 479 480 481 482 483 484 485 486 487 488 489 490 491 492 493 494 495 496 497 498 499 500 501 502 503 504 505 506 507 508 509 510 511 512 513 514 515 516 517 518 519 520 521 522 523 524 525 526 527 528 529 530 531 532 533 534 535 536 537 538 539 540 541 542 543 544 545 546 547 548 549 550 551 552 553 554 555 556 557 558 559 560 561 562 563 564 565 566 567 568 569 570 571 572 573 574 575 576 577 578 579 580 581 582 583 584 585 586 587 588 589 590 591 592 593 594 595 596 597 598 599 600 601 602 603 604 605 606 607 608 609 610 611 612 613 614 615 616 617 618 619 620 621 622 623 624 625 626 627 628 629 630 631 632 633 634 635 636 637 638 639 640 641 642 643 644 645 646 647 648 649 650 651 652 653 654 655 656 657 658 659 660 661 662 663 664 665 666 667 668 669 670 671 672 673 674 675 676 677 678 679 680 681 682 683 684 685 686 687 688 689 690 691 692 693 694 695 696 697 698 699 700 701 702 703 704 705 706 707 708 709 710 711 712 713 714 715 716 717 718 719 720 721 722 723 724 725 726 727 728 729 730 731 732 733 734 735 736 737 738 739 740 741 742 743 744 745 746 747 748 749 750 751 752 753 754 755 756 757 758 759 760 761 762 763 764 765 766 767 768 769 770 771 772 773 774 775 776 777 778 779 780 781 782 783 784 785 786 787 788 789 790 791 792 793 794 795 796 797 798 799 800 801 802 803 804 805 806 807 808 809 810 811 812 813 814 815 816 817 818 819 820 821 822 823 824 825 826 827 828 829 830 831 832 833 834 835 836 837 838 839 840 841 842 843 844 845 846 847 848 849 850 851 852 853 854 855 856 857 858 859 860 861 862 863 864 865 866 867 868 869 870 871 872 873 874 875 876 877 878 879 880 881 882 883 884 885 886 887 888 889 890 891 892 893 894 895 896 897 898 899 900 901 902 903 904 905 906 907 908 909 910 911 912 913 914 915 916 917 918 919 920 921 922 923 924 925 926 927 928 929 930 931 932 933 934 935 936 937 938 939 940 941 942 943 944 945 946 947 948 949 950 951 952 953 954 955 956 957 958 959 960 961 962 963 964 965 966 967 968 969 970 971 972 973 974 975 976 977 978 979 980 981 982 983 984 985 986 987 988 989 990 991 992 993 994 995 996 997 998 999 1000 1001 1002 1003 1004 1005 1006 1007 1008 1009 1010 1011 1012 1013 1014 1015 1016 1017 1018 1019 1020 1021 1022 1023 1024 1025 1026 1027 1028 1029 1030 1031 1032 1033 1034 1035 1036 1037 1038 1039 1040 1041 1042 1043 1044 1045 1046 1047 1048 1049 1050 1051 1052 1053 1054 1055 1056 1057 1058 1059 1060 1061 1062 1063 1064 1065 1066 1067 1068 1069 1070 1071 1072 1073 1074 1075 1076 1077 1078 1079 1080 1081 1082 1083 1084 1085 1086 1087 1088 1089 1090 1091 1092 1093 1094 1095 1096 1097 1098 1099 1100 1101 1102 1103 1104 1105 1106 1107 1108 1109 1110 1111 1112 1113 1114 1115 1116 1117 1118 1119 1120 1121 1122 1123 1124 1125 1126 1127 1128 1129 1130 1131 1132 1133 1134 1135 1136 1137 1138 1139 1140 1141 1142 1143 1144 1145 1146 1147 1148 1149 1150 1151 1152 1153 1154 1155 1156 1157 1158 1159 1160 1161 1162 1163 1164 1165 1166 1167 1168 1169 1170 1171 1172 1173 1174 1175 1176 1177 1178 1179 1180 1181 1182 1183 1184 1185 1186 1187 1188 1189 1190 1191 1192 1193 1194 1195 1196 1197 1198 1199 1200 1201 1202 1203 1204 1205 1206 1207 1208 1209 1210 1211 1212 1213 1214 1215 1216 1217 1218 1219 1220 1221 1222 1223 1224 1225 1226 1227 1228 1229 1230 1231 1232 1233 1234 1235 1236 1237 1238 1239 1240 1241 1242 1243 1244 1245 1246 1247 1248 1249 1250 1251 1252 1253 1254 1255 1256 1257 1258 1259 1260 1261 1262 1263 1264 1265 1266 1267 1268 1269 1270 1271 1272 1273 1274 1275 1276 1277 1278 1279 1280 1281 1282 1283 1284 1285 1286 1287 1288 1289 1290 1291 1292 1293 1294 1295 1296 1297 1298 1299 1300 1301 1302 1303 1304 1305 1306 1307 1308 1309 1310 1311 1312 1313 1314 1315 1316 1317 1318 1319 1320 1321 1322 1323 1324 1325 1326 1327 1328 1329 1330 1331 1332 1333 1334 1335 1336 1337 1338 1339 1340 1341 1342 1343 1344 1345 1346 1347 1348 1349 1350 1351 1352 1353 1354 1355 1356 1357 1358 1359 1360 1361 1362 1363 1364 1365 1366 1367 1368 1369 1370 1371 1372 1373 1374 1375 1376 1377 1378 1379 1380 1381 1382 1383 1384 1385 1386 1387 1388 1389 1390 1391 1392 1393 1394 1395 1396 1397 1398 1399 1400 1401 1402 1403 1404 1405 1406 1407 1408 1409 1410 1411 1412 1413 1414 1415 1416 1417 1418 1419 1420 1421 1422 1423 1424 1425 1426 1427 1428 1429 1430 1431 1432 1433 1434 1435 1436 1437 1438 1439 1440 1441 1442 1443 1444 1445 1446 1447 1448 1449 1450 1451 1452 1453 1454 1455 1456 1457 1458 1459 1460 1461 1462 1463 1464 1465 1466 1467 1468 1469 1470 1471 1472 1473 1474 1475 1476 1477 1478 1479 1480 1481 1482 1483 1484 1485 1486 1487 1488 1489 1490 1491 1492 1493 1494 1495 1496 1497 1498 1499 1500 1501 1502 1503 1504 1505 1506 1507 1508 1509 1510 1511 1512 1513 1514 1515 1516 1517 1518 1519 1520 1521 1522 1523 1524 1525 1526 1527 1528 1529 1530 1531 1532 1533 1534 1535 1536 1537 1538 1539 1540 1541 1542 1543 1544 1545 1546 1547 1548 1549 1550 1551 1552 1553 1554 1555 1556 1557 1558 1559 1560 1561 1562 1563 1564 1565 1566 1567 1568 1569 1570 1571 1572 1573 1574 1575 1576 1577 1578 1579 1580 1581 1582 1583 1584 1585 1586 1587 1588 1589 1590 1591 1592 1593 1594 1595 1596 1597 1598 1599 1600 1601 1602 1603 1604 1605 1606 1607 1608 1609 1610 1611 1612 1613 1614 1615 1616 1617 1618 1619 1620 1621 1622 1623 1624 1625 1626 1627 1628 1629 1630 1631 1632 1633 1634 1635 1636 1637 1638 1639 1640 1641 1642 1643 1644 1645 1646 1647 1648 1649 1650 1651 1652 1653 1654 1655 1656 1657 1658 1659 1660 1661 1662 1663 1664 1665 1666 1667 1668 1669 1670 1671 1672 1673 1674 1675 1676 1677 1678 1679 1680 1681 1682 1683 1684 1685 1686 1687 1688 1689 1690 1691 1692 1693 1694 1695 1696 1697 1698 1699 1700 1701 1702 1703 1704 1705 1706 1707 1708 1709 1710 1711 1712 1713 1714 1715 1716 1717 1718 1719 1720 1721 1722 1723 1724 1725 1726 1727 1728 1729 1730 1731 1732 1733 1734 1735 1736 1737 1738 1739 1740 1741 1742 1743 1744 1745 1746 1747 1748 1749 1750 1751 1752 1753 1754 1755 1756 1757 1758 1759 1760 1761 1762 1763 1764 1765 1766 1767 1768 1769 1770 1771 1772 1773 1774 1775 1776 1777 1778 1779 1780 1781 1782 1783 1784 1785 1786 1787 1788 1789 1790 1791 1792 1793 1794 1795 1796 1797 1798 1799 1800 1801 1802 1803 1804 1805 1806 1807 1808 1809 1810 1811 1812 1813 1814 1815 1816 1817 1818 1819 1820 1821 1822 1823 1824 1825 1826 1827 1828 1829 1830 1831 1832 1833 1834 1835 1836 1837 1838 1839 1840 1841 1842 1843 1844 1845 1846 1847 1848 1849 1850 1851 1852 1853 1854 1855 1856 1857 1858 1859 1860 1861 1862 1863 1864 1865 1866 1867 1868 1869 1870 1871 1872 1873 1874 1875 1876 1877 1878 1879 1880 1881 1882 1883 1884 1885 1886 1887 1888 1889 1890 1891 1892 1893 1894 1895 1896 1897 1898 1899 1900 1901 1902 1903 1904 1905 1906 1907 1908 1909 1910 1911 1912 1913 1914 1915 1916 1917 1918 1919 1920 1921 1922 1923 1924 1925 1926 1927 1928 1929 1930 1931 1932 1933 1934 1935 1936 1937 1938 1939 1940 1941 1942 1943 1944 1945 1946 1947 1948 1949 1950 1951 1952 1953 1954 1955 1956 1957 1958 1959 1960 1961 1962 1963 1964 1965 1966 1967 1968 1969 1970 1971 1972 1973 1974 1975 1976 1977 1978 1979 1980 1981 1982 1983 1984 1985 1986 1987 1988 1989 1990 1991 1992 1993 1994 1995 1996 1997 1998 1999 2000 2001 2002 2003 2004 2005 2006 2007 2008 2009 2010 2011 2012 2013 2014 2015 2016 2017 2018 2019 2020 2021 2022 2023 2024 2025 2026 2027 2028 2029 2030 2031 2032 2033 2034 2035 2036 2037 2038 2039 2040 2041 2042 2043 2044 2045 2046 2047 2048 2049 2050 2051 2052 2053 2054 2055 2056 2057 2058 2059 2060 2061 2062 2063 2064 2065 2066 2067 2068 2069 2070 2071 2072 2073 2074 2075 2076 2077 2078 2079 2080 2081 2082 2083 2084 2085 2086 2087 2088 2089 2090 2091 2092 2093 2094 2095 2096 2097 2098 2099 2100 2101 2102 2103 2104 2105 2106 2107 2108 2109 2110 2111 2112 2113 2114 2115 2116 2117 2118 2119 2120 2121 2122 2123 2124 2125 2126 2127 2128 2129 2130 2131 2132 2133 2134 2135 2136 2137 2138 2139 2140 2141 2142 2143 2144 2145 2146 2147 2148 2149 2150 2151 2152 2153 2154 2155 2156 2157 2158 2159 2160 2161 2162 2163 2164 2165 2166 2167 2168 2169 2170 2171 2172 2173 2174 2175 2176 2177 2178 2179 2180 2181 2182 2183 2184 2185 2186 2187 2188 2189 2190 2191 2192 2193 2194 2195 2196 2197 2198 2199 2200 2201 2202 2203 2204 2205 2206 2207 2208 2209 2210 2211 2212 2213 2214 2215 2216 2217 2218 2219 2220 2221 2222 2223 2224 2225 2226 2227 2228 2229 2230 2231 2232 2233 2234 2235 2236 2237 2238 2239 2240 2241 2242 2243 2244 2245 2246 2247 2248 2249 2250 2251 2252 2253 2254 2255 2256 2257 2258 2259 2260 2261 2262 2263 2264 2265 2266 2267 2268 2269 2270 2271 2272 2273 2274 2275 2276 2277 2278 2279 2280 2281 2282 2283 2284 2285 2286 2287 2288 2289 2290 2291 2292 2293 2294 2295 2296 2297 2298 2299 2300 2301 2302 2303 2304 2305 2306 2307 2308 2309 2310 2311 2312 2313 2314 2315 2316 2317 2318 2319 2320 2321 2322 2323 2324 2325 2326 2327 2328 2329 2330 2331 2332 2333 2334 2335 2336 2337 2338 2339 2340 2341 2342 2343 2344 2345 2346 2347 2348 2349 2350 2351 2352 2353 2354 2355 2356 2357 2358 2359 2360 2361 2362 2363 2364 2365 2366 2367 2368 2369 2370 2371 2372 2373 2374 2375 2376 2377 2378 2379 2380 2381 2382 2383 2384 2385 2386 2387 2388 2389 2390 2391 2392 2393 2394 2395 2396 2397 2398 2399 2400 2401 2402 2403 2404 2405 2406 2407 2408 2409 2410 2411 2412 2413 2414 2415 2416 2417 2418 2419 2420 2421 2422 2423 2424 2425 2426 2427 2428 2429 2430 2431 2432 2433 2434 2435 2436 2437 2438 2439 2440 2441 2442 2443 2444 2445 2446 2447 2448 2449 2450 2451 2452 2453 2454 2455 2456 2457 2458 2459 2460 2461 2462 2463 2464 2465 2466 2467 2468 2469 2470 2471 2472 2473 2474 2475 2476 2477 2478 2479 2480 2481 2482 2483 2484 2485 2486 2487 2488 2489 2490 2491 2492 2493 2494 2495 2496 2497 2498 2499 2500 2501 2502 2503 2504 2505 2506 2507 2508 2509 2510 2511 2512 2513 2514 2515 2516 2517 2518 2519 2520 2521 2522 2523 2524 2525 2526 2527 2528 2529 2530 2531 2532 2533 2534 2535 2536 2537 2538 2539 2540 2541 2542 2543 2544 2545 2546 2547 2548 2549 2550 2551 2552 2553 2554 2555 2556 2557 2558 2559 2560 2561 2562 2563 2564 2565 2566 2567 2568 2569 2570 2571 2572 2573 2574 2575 2576 2577 2578 2579 2580 2581 2582 2583 2584 2585 2586 2587 2588 2589 2590 2591 2592 2593 2594 2595 2596 2597 2598 2599 2600 2601 2602 2603 2604 2605 2606 2607 2608 2609 2610 2611 2612 2613 2614 2615 2616 2617 2618 2619 2620 2621 2622 2623 2624 2625 2626 2627 2628 2629 2630 2631 2632 2633 2634 2635 2636 2637 2638 2639 2640 2641 2642 2643 2644 2645 2646 2647 2648 2649 2650 2651 2652 2653 2654 2655 2656 2657 2658 2659 2660 2661 2662 2663 2664 2665 2666 2667 2668 2669 2670 2671 2672 2673 2674 2675 2676 2677 2678 2679 2680 2681 2682 2683 2684 2685 2686 2687 2688 2689 2690 2691 2692 2693 2694 2695 2696 2697 2698 2699 2700 2701 2702 2703 2704 2705 2706 2707 2708 2709 2710 2711 2712 2713 2714 2715 2716 2717 2718 2719 2720 2721 2722 2723 2724 2725 2726 2727 2728 2729 2730 2731 2732 2733 2734 2735 2736 2737 2738 2739 2740 2741 2742 2743 2744 2745 2746 2747 2748 2749 2750 2751 2752 2753 2754 2755 2756 2757 2758 2759 2760 2761 2762 2763 2764 2765 2766 2767 2768 2769 2770 2771 2772 2773 2774 2775 2776 2777 2778 2779 2780 2781 2782 2783 2784 2785 2786 2787 2788 2789 2790 2791 2792 2793 2794 2795 2796 2797 2798 2799 2800 2801 2802 2803 2804 2805 2806 2807 2808 2809 2810 2811 2812 2813 2814 2815 2816 2817 2818 2819 2820 2821 2822 2823 2824 2825 2826 2827 2828 2829 2830 2831 2832 2833 2834 2835 2836 2837 2838 2839 2840 2841 2842 2843 2844 2845 2846 2847 2848 2849 2850 2851 2852 2853 2854 2855 2856 2857 2858 2859 2860 2861 2862 2863 2864 2865 2866 2867 2868 2869 2870 2871 2872 2873 2874 2875 2876 2877 2878 2879 2880 2881 2882 2883 2884 2885 2886 2887 2888 2889 2890 2891 2892 2893 2894 2895 2896 2897 2898 2899 2900 2901 2902 2903 2904 2905 2906 2907 2908 2909 2910 2911 2912 2913 2914 2915 2916 2917 2918 2919 2920 2921 2922 2923 2924 2925 2926 2927 2928 2929 2930 2931 2932 2933 2934 2935 2936 2937 2938 2939 2940 2941 2942 2943 2944 2945 2946 2947 2948 2949 2950 2951 2952 2953 2954 2955 2956 2957 2958 2959 2960 2961 2962 2963 2964 2965 2966 2967 2968 2969 2970 2971 2972 2973 2974 2975 2976 2977 2978 2979 2980 2981 2982 2983 2984 2985 2986 2987 2988 2989 2990 2991 2992 2993 2994 2995 2996 2997 2998 2999 3000 3001 3002 3003 3004 3005 3006 3007 3008 3009 3010 3011 3012 3013 3014 3015 3016 3017 3018 3019 3020 3021 3022 3023 3024 3025 3026 3027 3028 3029 3030 3031 3032 3033 3034 3035 3036 3037 3038 3039 3040 3041 3042 3043 3044 3045 3046 3047 3048 3049 3050 3051 3052 3053 3054 3055 3056 3057 3058 3059 3060 3061 3062 3063 3064 3065 3066 3067 3068 3069 3070 3071 3072 3073 3074 3075 3076 3077 3078 3079 3080 3081 3082 3083 3084 3085 3086 3087 3088 3089 3090 3091 3092 3093 3094 3095 3096 3097 3098 3099 3100 3101 3102 3103 3104 3105 3106 3107 3108 3109 3110 3111 3112 3113 3114 3115 3116 3117 3118 3119 3120 3121 3122 3123 3124 3125 3126 3127 3128 3129 3130 3131 3132 3133 3134 3135 3136 3137 3138 3139 3140 3141 3142 3143 3144 3145 3146 3147 3148 3149 3150 3151 3152 3153 3154 3155 3156 3157 3158 3159 3160 3161 3162 3163 3164 3165 3166 3167 3168 3169 3170 3171 3172 3173 3174 3175 3176 3177 3178 3179 3180 3181 3182 3183 3184 3185 3186 3187 3188 3189 3190 3191 3192 3193 3194 3195 3196 3197 3198 3199 3200 3201 3202 3203 3204 3205 3206 3207 3208 3209 3210 3211 3212 3213 3214 3215 3216 3217 3218 3219 3220 3221 3222 3223 3224 3225 3226 3227 3228 3229 3230 3231 3232 3233 3234 3235 3236 3237 3238 3239 3240 3241 3242 3243 3244 3245 3246 3247 3248 3249 3250 3251 3252 3253 3254 3255 3256 3257 3258 3259 3260 3261 3262 3263 3264 3265 3266 3267 3268 3269 3270 3271 3272 3273 3274 3275 3276 3277 3278 3279 3280 3281 3282 3283 3284 3285 3286 3287 3288 3289 3290 3291 3292 3293 3294 3295 3296 3297 3298 3299 3300 3301 3302 3303 3304 3305 3306 3307 3308 3309 3310 3311 3312 3313 3314 3315 3316 3317 3318 3319 3320 3321 3322 3323 3324 3325 3326 3327 3328 3329 3330 3331 3332 3333 3334 3335 3336 3337 3338 3339 3340 3341 3342 3343 3344 3345 3346 3347 3348 3349 3350 3351 3352 3353 3354 3355 3356 3357 3358 3359 3360 3361 3362 3363 3364 3365 3366 3367 3368 3369 3370 3371 3372 3373 3374 3375 3376 3377 3378 3379 3380 3381 3382 3383 3384 3385 3386 3387 3388 3389 3390 3391 3392 3393 3394 3395 3396 3397 3398 3399 3400 3401 3402 3403 3404 3405 3406 3407 3408 3409 3410 3411 3412 3413 3414 3415 3416 3417 3418 3419 3420 3421 3422 3423 3424 3425 3426 3427 3428 3429 3430 3431 3432 3433 3434 3435 3436 3437 3438 3439 3440 3441 3442 3443 3444 3445 3446 3447 3448 3449 3450 3451 3452 3453 3454 3455 3456 3457 3458 3459 3460 3461 3462 3463 3464 3465 3466 3467 3468 3469 3470 3471 3472 3473 3474 3475 3476 3477 3478 3479 3480 3481 3482 3483 3484 3485 3486 3487 3488 3489 3490 3491 3492 3493 3494 3495 3496 3497 3498 3499 3500 3501 3502 3503 3504 3505 3506 3507 3508 3509 3510 3511 3512 3513 3514 3515 3516 3517 3518 3519 3520 3521 3522 3523 3524 3525 3526 3527 3528 3529 3530 3531 3532 3533 3534 3535 3536 3537 3538 3539 3540 3541 3542 3543 3544 3545 3546 3547 3548 3549 3550 3551 3552 3553 3554 3555 3556 3557 3558 3559 3560 3561 3562 3563 3564 3565 3566 3567 3568 3569 3570 3571 3572 3573 3574 3575 3576 3577 3578 3579 3580 3581 3582 3583 3584 3585 3586 3587 3588 3589 3590 3591 3592 3593 3594 3595 3596 3597 3598 3599 3600 3601 3602 3603 3604 3605 3606 3607 3608 3609 3610 3611 3612 3613 3614 3615 3616 3617 3618 3619 3620 3621 3622 3623 3624 3625 3626 3627 3628 3629 3630 3631 3632 3633 3634 3635 3636 3637 3638 3639 3640 3641 3642 3643 3644 3645 3646 3647 3648 3649 3650 3651 3652 3653 3654 3655 3656 3657 3658 3659 3660 3661 3662 3663 3664 3665 3666 3667 3668 3669 3670 3671 3672 3673 3674 3675 3676 3677 3678 3679 3680 3681 3682 3683 3684 3685 3686 3687 3688 3689 3690 3691 3692 3693 3694 3695 3696 3697 3698 3699 3700 3701 3702 3703 3704 3705 3706 3707 3708 3709 3710 3711 3712 3713 3714 3715 3716 3717 3718 3719 3720 3721 3722 3723 3724 3725 3726 3727 3728 3729 3730 3731 3732 3733 3734 3735 3736 3737 3738 3739 3740 3741 3742 3743 3744 3745 3746 3747 3748 3749 3750 3751 3752 3753 3754 3755 3756 3757 3758 3759 3760 3761 3762 3763 3764 3765 3766 3767 3768 3769 3770 3771 3772 3773 3774 3775 3776 3777 3778 3779 3780 3781 3782 3783 3784 3785 3786 3787 3788 3789 3790 3791 3792 3793 3794 3795 3796 3797 3798 3799 3800 3801 3802 3803 3804 3805 3806 3807 3808 3809 3810 3811 3812 3813 3814 3815 3816 3817 3818 3819 3820 3821 3822 3823 3824 3825 3826 3827 3828 3829 3830 3831 3832 3833 3834 3835 3836 3837 3838 3839 3840 3841 3842 3843 3844 3845 3846 3847 3848 3849 3850 3851 3852 3853 3854 3855 3856 3857 3858 3859 3860 3861 3862 3863 3864 3865 3866 3867 3868 3869 3870 3871 3872 3873 3874 3875 3876 3877 3878 3879 3880 3881 3882 3883 3884 3885 3886 3887 3888 3889 3890 3891 3892 3893 3894 3895 3896 3897 3898 3899 3900 3901 3902 3903 3904 3905 3906 3907 3908 3909 3910 3911 3912 3913 3914 3915 3916 3917 3918 3919 3920 3921 3922 3923 3924 3925 3926 3927 3928 3929 3930 3931 3932 3933 3934 3935 3936 3937 3938 3939 3940 3941 3942 3943 3944 3945 3946 3947 3948 3949 3950 3951 3952 3953 3954 3955 3956 3957 3958 3959 3960 3961 3962 3963 3964 3965 3966 3967 3968 3969 3970 3971 3972 3973 3974 3975 3976 3977 3978 3979 3980 3981 3982 3983 3984 3985 3986 3987 3988 3989 3990 3991 3992 3993 3994 3995 3996 3997 3998 3999 4000 4001 4002 4003 4004 4005 4006 4007 4008 4009 4010 4011 4012 4013 4014 4015 4016 4017 4018 4019 4020 4021 4022 4023 4024 4025 4026 4027 4028 4029 4030 4031 4032 4033 4034 4035 4036 4037 4038 4039 4040 4041 4042 4043 4044 4045 4046 4047 4048 4049 4050 4051 4052 4053 4054 4055 4056 4057 4058 4059 4060 4061 4062 4063 4064 4065 4066 4067 4068 4069 4070 4071 4072 4073 4074 4075 4076 4077 4078 4079 4080 4081 4082 4083 4084 4085 4086 4087 4088 4089 4090 4091 4092 4093 4094 4095 4096 4097 4098 4099 4100 4101 4102 4103 4104 4105 4106 4107 4108 4109 4110 4111 4112 4113 4114 4115 4116 4117 4118 4119 4120 4121 4122 4123 4124 4125 4126 4127 4128 4129 4130 4131 4132 4133 4134 4135 4136 4137 4138 4139 4140 4141 4142 4143 4144 4145 4146 4147 4148 4149 4150 4151 4152 4153 4154 4155 4156 4157 4158 4159 4160 4161 4162 4163 4164 4165 4166 4167 4168 4169 4170 4171 4172 4173 4174 4175 4176 4177 4178 4179 4180 4181 4182 4183 4184 4185 4186 4187 4188 4189 4190 4191 4192 4193 4194 4195 4196 4197 4198 4199 4200 4201 4202 4203 4204 4205 4206 4207 4208 4209 4210 4211 4212 4213 4214 4215 4216 4217 4218 4219 4220 4221 4222 4223 4224 4225 4226 4227 4228 4229 4230 4231 4232 4233 4234 4235 4236 4237 4238 4239 4240 4241 4242 4243 4244 4245 4246 4247 4248 4249 4250 4251 4252 4253 4254 4255 4256 4257 4258 4259 4260 4261 4262 4263 4264 4265 4266 4267 4268 4269 4270 4271 4272 4273 4274 4275 4276 4277 4278 4279 4280 4281 4282 4283 4284 4285 4286 4287 4288 4289 4290 4291 4292 4293 4294 4295 4296 4297 4298 4299 4300 4301 4302 4303 4304 4305 4306 4307 4308 4309 4310 4311 4312 4313 4314 4315 4316 4317 4318 4319 4320 4321 4322 4323 4324 4325 4326 4327 4328 4329 4330 4331 4332 4333 4334 4335 4336 4337 4338 4339 4340 4341 4342 4343 4344 4345 4346 4347 4348 4349 4350 4351 4352 4353 4354 4355 4356 4357 4358 4359 4360 4361 4362 4363 4364 4365 4366 4367 4368 4369 4370 4371 4372 4373 4374 4375 4376 4377 4378 4379 4380 4381 4382 4383 4384 4385 4386 4387 4388 4389 4390 4391 4392 4393 4394 4395 4396 4397 4398 4399 4400 4401 4402 4403 4404 4405 4406 4407 4408 4409 4410 4411 4412 4413 4414 4415 4416 4417 4418 4419 4420 4421 4422 4423 4424 4425 4426 4427 4428 4429 4430 4431 4432 4433 4434 4435 4436 4437 4438 4439 4440 4441 4442 4443 4444 4445 4446 4447 4448 4449 4450 4451 4452 4453 4454 4455 4456 4457 4458 4459 4460 4461 4462 4463 4464 4465 4466 4467 4468 4469 4470 4471 4472 4473 4474 4475 4476 4477 4478 4479 4480 4481 4482 4483 4484 4485 4486 4487 4488 4489 4490 4491 4492 4493 4494 4495 4496 4497 4498 4499 4500 4501 4502 4503 4504 4505 4506 4507 4508 4509 4510 4511 4512 4513 4514 4515 4516 4517 4518 4519 4520 4521 4522 4523 4524 4525 4526 4527 4528 4529 4530 4531 4532 4533 4534 4535 4536 4537 4538 4539 4540 4541 4542 4543 4544 4545 4546 4547 4548 4549 4550 4551 4552 4553 4554 4555 4556 4557 4558 4559 4560 4561 4562 4563 4564 4565 4566 4567 4568 4569 4570 4571 4572 4573 4574 4575 4576 4577 4578 4579 4580 4581 4582 4583 4584 4585 4586 4587 4588 4589 4590 4591 4592 4593 4594 4595 4596 4597 4598 4599 4600 4601 4602 4603 4604 4605 4606 4607 4608 4609 4610 4611 4612 4613 4614 4615 4616 4617 4618 4619 4620 4621 4622 4623 4624 4625 4626 4627 4628 4629 4630 4631 4632 4633 4634 4635 4636 4637 4638 4639 4640 4641 4642 4643 4644 4645 4646 4647 4648 4649 4650 4651 4652 4653 4654 4655 4656 4657 4658 4659 4660 4661 4662 4663 4664 4665 4666 4667 4668 4669 4670 4671 4672 4673 4674 4675 4676 4677 4678 4679 4680 4681 4682 4683 4684 4685 4686 4687 4688 4689 4690 4691 4692 4693 4694 4695 4696 4697 4698 4699 4700 4701 4702 4703 4704 4705 4706 4707 4708 4709 4710 4711 4712 4713 4714 4715 4716 4717 4718 4719 4720 4721 4722 4723 4724 4725 4726 4727 4728 4729 4730 4731 4732 4733 4734 4735 4736 4737 4738 4739 4740 4741 4742 4743 4744 4745 4746 4747 4748 4749 4750 4751 4752 4753 4754 4755 4756 4757 4758 4759 4760 4761 4762 4763 4764 4765 4766 4767 4768 4769 4770 4771 4772 4773 4774 4775 4776 4777 4778 4779 4780 4781 4782 4783 4784 4785 4786 4787 4788 4789 4790 4791 4792 4793 4794 4795 4796 4797 4798 4799 4800 4801 4802 4803 4804 4805 4806 4807 4808 4809 4810 4811 4812 4813 4814 4815 4816 4817 4818 4819 4820 4821 4822 4823 4824 4825 4826 4827 4828 4829 4830 4831 4832 4833 4834 4835 4836 4837 4838 4839 4840 4841 4842 4843 4844 4845 4846 4847 4848 4849 4850 4851 4852 4853 4854 4855 4856 4857 4858 4859 4860 4861 4862 4863 4864 4865 4866 4867 4868 4869 4870 4871 4872 4873 4874 4875 4876 4877 4878 4879 4880 4881 4882 4883 4884 4885 4886 4887 4888 4889 4890 4891 4892 4893 4894 4895 4896 4897 4898 4899 4900 4901 4902 4903 4904 4905 4906 4907 4908 4909 4910 4911 4912 4913 4914 4915 4916 4917 4918 4919 4920 4921 4922 4923 4924 4925 4926 4927 4928 4929 4930 4931 4932 4933 4934 4935 4936 4937 4938 4939 4940 4941 4942 4943 4944 4945 4946 4947 4948 4949 4950 4951 4952 4953 4954 4955 4956 4957 4958 4959 4960 4961 4962 4963 4964 4965 4966 4967 4968 4969 4970 4971 4972 4973 4974 4975 4976 4977 4978 4979 4980 4981 4982 4983 4984 4985 4986 4987 4988 4989 4990 4991 4992 4993 4994 4995 4996 4997 4998 4999 5000 5001 5002 5003 5004 5005 5006 5007 5008 5009 5010 5011 5012 5013 5014 5015 5016 5017 5018 5019 5020 5021 5022 5023 5024 5025 5026 5027 5028 5029 5030 5031 5032 5033 5034 5035 5036 5037 5038 5039 5040 5041 5042 5043 5044 5045 5046 5047 5048 5049 5050 5051 5052 5053 5054 5055 5056 5057 5058 5059 5060 5061 5062 5063 5064 5065 5066 5067 5068 5069 5070 5071 5072 5073 5074 5075 5076 5077 5078 5079 5080 5081 5082 5083 5084 5085 5086 5087 5088 5089 5090 5091 5092 5093 5094 5095 5096 5097 5098 5099 5100 5101 5102 5103 5104 5105 5106 5107 5108 5109 5110 5111 5112 5113 5114 5115 5116 5117 5118 5119 5120 5121 5122 5123 5124 5125 5126 5127 5128 5129 5130 5131 5132 5133 5134 5135 5136 5137 5138 5139 5140 5141 5142 5143 5144 5145 5146 5147 5148 5149 5150 5151 5152 5153 5154 5155 5156 5157 5158 5159 5160 5161 5162 5163 5164 5165 5166 5167 5168 5169 5170 5171 5172 5173 5174 5175 5176 5177 5178 5179 5180 5181 5182 5183 5184 5185 5186 5187 5188 5189 5190 5191 5192 5193 5194 5195 5196 5197 5198 5199 5200 5201 5202 5203 5204 5205 5206 5207 5208 5209 5210 5211 5212 5213 5214 5215 5216 5217 5218 5219 5220 5221 5222 5223 5224 5225 5226 5227 5228 5229 5230 5231 5232 5233 5234 5235 5236 5237 5238 5239 5240 5241 5242 5243 5244 5245 5246 5247 5248 5249 5250 5251 5252 5253 5254 5255 5256 5257 5258 5259 5260 5261 5262 5263 5264 5265 5266 5267 5268 5269 5270 5271 5272 5273 5274 5275 5276 5277 5278 5279 5280 5281 5282 5283 5284 5285 5286 5287 5288 5289 5290 5291 5292 5293 5294 5295 5296 5297 5298 5299 5300 5301 5302 5303 5304 5305 5306 5307 5308 5309 5310 5311 5312 5313 5314 5315 5316 5317 5318 5319 5320 5321 5322 5323 5324 5325 5326 5327 5328 5329 5330 5331 5332 5333 5334 5335 5336 5337 5338 5339 5340 5341 5342 5343 5344 5345 5346 5347 5348 5349 5350 5351 5352 5353 5354 5355 5356 5357 5358 5359 5360 5361 5362 5363 5364 5365 5366 5367 5368 5369 5370 5371 5372 5373 5374 5375 5376 5377 5378 5379 5380 5381 5382 5383 5384 5385 5386 5387 5388 5389 5390 5391 5392 5393 5394 5395 5396 5397 5398 5399 5400 5401 5402 5403 5404 5405 5406 5407 5408 5409 5410 5411 5412 5413 5414 5415 5416 5417 5418 5419 5420 5421 5422 5423 5424 5425 5426 5427 5428 5429 5430 5431 5432 5433 5434 5435 5436 5437 5438 5439 5440 5441 5442 5443 5444 5445 5446 5447 5448 5449 5450 5451 5452 5453 5454 5455 5456 5457 5458 5459 5460 5461 5462 5463 5464 5465 5466 5467 5468 5469 5470 5471 5472 5473 5474 5475 5476 5477 5478 5479 5480 5481 5482 5483 5484 5485 5486 5487 5488 5489 5490 5491 5492 5493 5494 5495 5496 5497 5498 5499 5500 5501 5502 5503 5504 5505 5506 5507 5508 5509 5510 5511 5512 5513 5514 5515 5516 5517 5518 5519 5520 5521 5522 5523 5524 5525 5526 5527 5528 5529 5530 5531 5532 5533 5534 5535 5536 5537 5538 5539 5540 5541 5542 5543 5544 5545 5546 5547 5548 5549 5550 5551 5552 5553 5554 5555 5556 5557 5558 5559 5560 5561 5562 5563 5564 5565 5566 5567 5568 5569 5570 5571 5572 5573 5574 5575 5576 5577 5578 5579 5580 5581 5582 5583 5584 5585 5586 5587 5588 5589 5590 5591 5592 5593 5594 5595 5596 5597 5598 5599 5600 5601 5602 5603 5604 5605 5606 5607 5608 5609 5610 5611 5612 5613 5614 5615 5616 5617 5618 5619 5620 5621 5622 5623 5624 5625 5626 5627 5628 5629 5630 5631 5632 5633 5634 5635 5636 5637 5638 5639 5640 5641 5642 5643 5644 5645 5646 5647 5648 5649 5650 5651 5652 5653 5654 5655 5656 5657 5658 5659 5660 5661 5662 5663 5664 5665 5666 5667 5668 5669 5670 5671 5672 5673 5674 5675 5676 5677 5678 5679 5680 5681 5682 5683 5684 5685 5686 5687 5688 5689 5690 5691 5692 5693 5694 5695 5696 5697 5698 5699 5700 5701 5702 5703 5704 5705 5706 5707 5708 5709 5710 5711 5712 5713 5714 5715 5716 5717 5718 5719 5720 5721 5722 5723 5724 5725 5726 5727 5728 5729 5730 5731 5732 5733 5734 5735 5736 5737 5738 5739 5740 5741 5742 5743 5744 5745 5746 5747 5748 5749 5750 5751 5752 5753 5754 5755 5756 5757 5758 5759 5760 5761 5762 5763 5764 5765 5766 5767 5768 5769 5770 5771 5772 5773 5774 5775 5776 5777 5778 5779 5780 5781 5782 5783 5784 5785 5786 5787 5788 5789 5790 5791 5792 5793 5794 5795 5796 5797 5798 5799 5800 5801 5802 5803 5804 5805 5806 5807 5808 5809 5810 5811 5812 5813 5814 5815 5816 5817 5818 5819 5820 5821 5822 5823 5824 5825 5826 5827 5828 5829 5830 5831 5832 5833 5834 5835 5836 5837 5838 5839 5840 5841 5842 5843 5844 5845 5846 5847 5848 5849 5850 5851 5852 5853 5854 5855 5856 5857 5858 5859 5860 5861 5862 5863 5864 5865 5866 5867 5868 5869 5870 5871 5872 5873 5874 5875 5876 5877 5878 5879 5880 5881 5882 5883 5884 5885 5886 5887 5888 5889 5890 5891 5892 5893 5894 5895 5896 5897 5898 5899 5900 5901 5902 5903 5904 5905 5906 5907 5908 5909 5910 5911 5912 5913 5914 5915 5916 5917 5918 5919 5920 5921 5922 5923 5924 5925 5926 5927 5928 5929 5930 5931 5932 5933 5934 5935 5936 5937 5938 5939 5940 5941 5942 5943 5944 5945 5946 5947 5948 5949 5950 5951 5952 5953 5954 5955 5956 5957 5958 5959 5960 5961 5962 5963 5964 5965 5966 5967 5968 5969 5970 5971 5972 5973 5974 5975 5976 5977 5978 5979 5980 5981 5982 5983 5984 5985 5986 5987 5988 5989 5990 5991 5992 5993 5994 5995 5996 5997 5998 5999 6000 6001 6002 6003 6004 6005 6006 6007 6008 6009 6010 6011 6012 6013 6014 6015 6016 6017 6018 6019 6020 6021 6022 6023 6024 6025 6026 6027 6028 6029 6030 6031 6032 6033 6034 6035 6036 6037 6038 6039 6040 6041 6042 6043 6044 6045 6046 6047 6048 6049 6050 6051 6052 6053 6054 6055 6056 6057 6058 6059 6060 6061 6062 6063 6064 6065 6066 6067 6068 6069 6070 6071 6072 6073 6074 6075 6076 6077 6078 6079 6080 6081 6082 6083 6084 6085 6086 6087 6088 6089 6090 6091 6092 6093 6094 6095 6096 6097 6098 6099 6100 6101 6102 6103 6104 6105 6106 6107 6108 6109 6110 6111 6112 6113 6114 6115 6116 6117 6118 6119 6120 6121 6122 6123 6124 6125 6126 6127 6128 6129 6130 6131 6132 6133 6134 6135 6136 6137 6138 6139 6140 6141 6142 6143 6144 6145 6146 6147 6148 6149 6150 6151 6152 6153 6154 6155 6156 6157 6158 6159 6160 6161 6162 6163 6164 6165 6166 6167 6168 6169 6170 6171 6172 6173 6174 6175 6176 6177 6178 6179 6180 6181 6182 6183 6184 6185 6186 6187 6188 6189 6190 6191 6192 6193 6194 6195 6196 6197 6198 6199 6200 6201 6202 6203 6204 6205 6206 6207 6208 6209 6210 6211 6212 6213 6214 6215 6216 6217 6218 6219 6220 6221 6222 6223 6224 6225 6226 6227 6228 6229 6230 6231 6232 6233 6234 6235 6236 6237 6238 6239 6240 6241 6242 6243 6244 6245 6246 6247 6248 6249 6250 6251 6252 6253 6254 6255 6256 6257 6258 6259 6260 6261 6262 6263 6264 6265 6266 6267 6268 6269 6270 6271 6272 6273 6274 6275 6276 6277 6278 6279 6280 6281 6282 6283 6284 6285 6286 6287 6288 6289 6290 6291 6292 6293 6294 6295 6296 6297 6298 6299 6300 6301 6302 6303 6304 6305 6306 6307 6308 6309 6310 6311 6312 6313 6314 6315 6316 6317 6318 6319 6320 6321 6322 6323 6324 6325 6326 6327 6328 6329 6330 6331 6332 6333 6334 6335 6336 6337 6338 6339 6340 6341 6342 6343 6344 6345 6346 6347 6348 6349 6350 6351 6352 6353 6354 6355 6356 6357 6358 6359 6360 6361 6362 6363 6364 6365 6366 6367 6368 6369 6370 6371 6372 6373 6374 6375 6376 6377 6378 6379 6380 6381 6382 6383 6384 6385 6386 6387 6388 6389 6390 6391 6392 6393 6394 6395 6396 6397 6398 6399 6400 6401 6402 6403 6404 6405 6406 6407 6408 6409 6410 6411 6412 6413 6414 6415 6416 6417 6418 6419 6420 6421 6422 6423 6424 6425 6426 6427 6428 6429 6430 6431 6432 6433 6434 6435 6436 6437 6438 6439 6440 6441 6442 6443 6444 6445 6446 6447 6448 6449 6450 6451 6452 6453 6454 6455 6456 6457 6458 6459 6460 6461 6462 6463 6464 6465 6466 6467 6468 6469 6470 6471 6472 6473 6474 6475 6476 6477 6478 6479 6480 6481 6482 6483 6484 6485 6486 6487 6488 6489 6490 6491 6492 6493 6494 6495 6496 6497 6498 6499 6500 6501 6502 6503 6504 6505 6506 6507 6508 6509 6510 6511 6512 6513 6514 6515 6516 6517 6518 6519 6520 6521 6522 6523 6524 6525 6526 6527 6528 6529 6530 6531 6532 6533 6534 6535 6536 6537 6538 6539 6540 6541 6542 6543 6544 6545 6546 6547 6548 6549 6550 6551 6552 6553 6554 6555 6556 6557 6558 6559 6560 6561 6562 6563 6564 6565 6566 6567 6568 6569 6570 6571 6572 6573 6574 6575 6576 6577 6578 6579 6580 6581 6582 6583 6584 6585 6586 6587 6588 6589 6590 6591 6592 6593 6594 6595 6596 6597 6598 6599 6600 6601 6602 6603 6604 6605 6606 6607 6608 6609 6610 6611 6612 6613 6614 6615 6616 6617 6618 6619 6620 6621 6622 6623 6624 6625 6626 6627 6628 6629 6630 6631 6632 6633 6634 6635 6636 6637 6638 6639 6640 6641 6642 6643 6644 6645 6646 6647 6648 6649 6650 6651 6652 6653 6654 6655 6656 6657 6658 6659 6660 6661 6662 6663 6664 6665 6666 6667 6668 6669 6670 6671 6672 6673 6674 6675 6676 6677 6678 6679 6680 6681 6682 6683 6684 6685 6686 6687 6688 6689 6690 6691 6692 6693 6694 6695 6696 6697 6698 6699 6700 6701 6702 6703 6704 6705 6706 6707 6708 6709 6710 6711 6712 6713 6714 6715 6716 6717 6718 6719 6720 6721 6722 6723 6724 6725 6726 6727 6728 6729 6730 6731 6732 6733 6734 6735 6736 6737 6738 6739 6740 6741 6742 6743 6744 6745 6746 6747 6748 6749 6750 6751 6752 6753 6754 6755 6756 6757 6758 6759 6760 6761 6762 6763 6764 6765 6766 6767 6768 6769 6770 6771 6772 6773 6774 6775 6776 6777 6778 6779 6780 6781 6782 6783 6784 6785 6786 6787 6788 6789 6790 6791 6792 6793 6794 6795 6796 6797 6798 6799 6800 6801 6802 6803 6804 6805 6806 6807 6808 6809 6810 6811 6812 6813 6814 6815 6816 6817 6818 6819 6820 6821 6822 6823 6824 6825 6826 6827 6828 6829 6830 6831 6832 6833 6834 6835 6836 6837 6838 6839 6840 6841 6842 6843 6844 6845 6846 6847 6848 6849 6850 6851 6852 6853 6854 6855 6856 6857 6858 6859 6860 6861 6862 6863 6864 6865 6866 6867 6868 6869 6870 6871 6872 6873 6874 6875 6876 6877 6878 6879 6880 6881 6882 6883 6884 6885 6886 6887 6888 6889 6890 6891 6892 6893 6894 6895 6896 6897 6898 6899 6900 6901 6902 6903 6904 6905 6906 6907 6908 6909 6910 6911 6912 6913 6914 6915 6916 6917 6918 6919 6920 6921 6922 6923 6924 6925 6926 6927 6928 6929 6930 6931 6932 6933 6934 6935 6936 6937 6938 6939 6940 6941 6942 6943 6944 6945 6946 6947 6948 6949 6950 6951 6952 6953 6954 6955 6956 6957 6958 6959 6960 6961 6962 6963 6964 6965 6966 6967 6968 6969 6970 6971 6972 6973 6974 6975 6976 6977 6978 6979 6980 6981 6982 6983 6984 6985 6986 6987 6988 6989 6990 6991 6992 6993 6994 6995 6996 6997 6998 6999 7000 7001 7002 7003 7004 7005 7006 7007 7008 7009 7010 7011 7012 7013 7014 7015 7016 7017 7018 7019 7020 7021 7022 7023 7024 7025 7026 7027 7028 7029 7030 7031 7032 7033 7034 7035 7036 7037 7038 7039 7040 7041 7042 7043 7044 7045 7046 7047 7048 7049 7050 7051 7052 7053 7054 7055 7056 7057 7058 7059 7060 7061 7062 7063 7064 7065 7066 7067 7068 7069 7070 7071 7072 7073 7074 7075 7076 7077 7078 7079 7080 7081 7082 7083 7084 7085 7086 7087 7088 7089 7090 7091 7092 7093 7094 7095 7096 7097 7098 7099 7100 7101 7102 7103 7104 7105 7106 7107 7108 7109 7110 7111 7112 7113 7114 7115 7116 7117 7118 7119 7120 7121 7122 7123 7124 7125 7126 7127 7128 7129 7130 7131 7132 7133 7134 7135 7136 7137 7138 7139 7140 7141 7142 7143 7144 7145 7146 7147 7148 7149 7150 7151 7152 7153 7154 7155 7156 7157 7158 7159 7160 7161 7162 7163 7164 7165 7166 7167 7168 7169 7170 7171 7172 7173 7174 7175 7176 7177 7178 7179 7180 7181 7182 7183 7184 7185 7186 7187 7188 7189 7190 7191 7192 7193 7194 7195 7196 7197 7198 7199 7200 7201 7202 7203 7204 7205 7206 7207 7208 7209 7210 7211 7212 7213 7214 7215 7216 7217 7218 7219 7220 7221 7222 7223 7224 7225 7226 7227 7228 7229 7230 7231 7232 7233 7234 7235 7236 7237 7238 7239 7240 7241 7242 7243 7244 7245 7246 7247 7248 7249 7250 7251 7252 7253 7254 7255 7256 7257 7258 7259 7260 7261 7262 7263 7264 7265 7266 7267 7268 7269 7270 7271 7272 7273 7274 7275 7276 7277 7278 7279 7280 7281 7282 7283 7284 7285 7286 7287 7288 7289 7290 7291 7292 7293 7294 7295 7296 7297 7298 7299 7300 7301 7302 7303 7304 7305 7306 7307 7308 7309 7310 7311 7312 7313 7314 7315 7316 7317 7318 7319 7320 7321 7322 7323 7324 7325 7326 7327 7328 7329 7330 7331 7332 7333 7334 7335 7336 7337 7338 7339 7340 7341 7342 7343 7344 7345 7346 7347 7348 7349 7350 7351 7352 7353 7354 7355 7356 7357 7358 7359 7360 7361 7362 7363 7364 7365 7366 7367 7368 7369 7370 7371 7372 7373 7374 7375 7376 7377 7378 7379 7380 7381 7382 7383 7384 7385 7386 7387 7388 7389 7390 7391 7392 7393 7394 7395 7396 7397 7398 7399 7400 7401 7402 7403 7404 7405 7406 7407 7408 7409 7410 7411 7412 7413 7414 7415 7416 7417 7418 7419 7420 7421 7422 7423 7424 7425 7426 7427 7428 7429 7430 7431 7432 7433 7434 7435 7436 7437 7438 7439 7440 7441 7442 7443 7444 7445 7446 7447 7448 7449 7450 7451 7452 7453 7454 7455 7456 7457 7458 7459 7460 7461 7462 7463 7464 7465 7466 7467 7468 7469 7470 7471 7472 7473 7474 7475 7476 7477 7478 7479 7480 7481 7482 7483 7484 7485 7486 7487 7488 7489 7490 7491 7492 7493 7494 7495 7496 7497 7498 7499 7500 7501 7502 7503 7504 7505 7506 7507 7508 7509 7510 7511 7512 7513 7514 7515 7516 7517 7518 7519 7520 7521 7522 7523 7524 7525 7526 7527 7528 7529 7530 7531 7532 7533 7534 7535 7536 7537 7538 7539 7540 7541 7542 7543 7544 7545 7546 7547 7548 7549 7550 7551 7552 7553 7554 7555 7556 7557 7558 7559 7560 7561 7562 7563 7564 7565 7566 7567 7568 7569 7570 7571 7572 7573 7574 7575 7576 7577 7578 7579 7580 7581 7582 7583 7584 7585 7586 7587 7588 7589 7590 7591 7592 7593 7594 7595 7596 7597 7598 7599 7600 7601 7602 7603 7604 7605 7606 7607 7608 7609 7610 7611 7612 7613 7614 7615 7616 7617 7618 7619 7620 7621 7622 7623 7624 7625 7626 7627 7628 7629 7630 7631 7632 7633 7634 7635 7636 7637 7638 7639 7640 7641 7642 7643 7644 7645 7646 7647 7648 7649 7650 7651 7652 7653 7654 7655 7656 7657 7658 7659 7660 7661 7662 7663 7664 7665 7666 7667 7668 7669 7670 7671 7672 7673 7674 7675 7676 7677 7678 7679 7680 7681 7682 7683 7684 7685 7686 7687 7688 7689 7690 7691 7692 7693 7694 7695 7696 7697 7698 7699 7700 7701 7702 7703 7704 7705 7706 7707 7708 7709 7710 7711 7712 7713 7714 7715 7716 7717 7718 7719 7720 7721 7722 7723 7724 7725 7726 7727 7728 7729 7730 7731 7732 7733 7734 7735 7736 7737 7738 7739 7740 7741 7742 7743 7744 7745 7746 7747 7748 7749 7750 7751 7752 7753 7754 7755 7756 7757 7758 7759 7760 7761 7762 7763 7764 7765 7766 7767 7768 7769 7770 7771 7772 7773 7774 7775 7776 7777 7778 7779 7780 7781 7782 7783 7784 7785 7786 7787 7788 7789 7790 7791 7792 7793 7794 7795 7796 7797 7798 7799 7800 7801 7802 7803 7804 7805 7806 7807 7808 7809 7810 7811 7812 7813 7814 7815 7816 7817 7818 7819 7820 7821 7822 7823 7824 7825 7826 7827 7828 7829 7830 7831 7832 7833 7834 7835 7836 7837 7838 7839 7840 7841 7842 7843 7844 7845 7846 7847 7848 7849 7850 7851 7852 7853 7854 7855 7856 7857 7858 7859 7860 7861 7862 7863 7864 7865 7866 7867 7868 7869 7870 7871 7872 7873 7874 7875 7876 7877 7878 7879 7880 7881 7882 7883 7884 7885 7886 7887 7888 7889 7890 7891 7892 7893 7894 7895 7896 7897 7898 7899 7900 7901 7902 7903 7904 7905 7906 7907 7908 7909 7910 7911 7912 7913 7914 7915 7916 7917 7918 7919 7920 7921 7922 7923 7924 7925 7926 7927 7928 7929 7930 7931 7932 7933 7934 7935 7936 7937 7938 7939 7940 7941 7942 7943 7944 7945 7946 7947 7948 7949 7950 7951 7952 7953 7954 7955 7956 7957 7958 7959 7960 7961 7962 7963 7964 7965 7966 7967 7968 7969 7970 7971 7972 7973 7974 7975 7976 7977 7978 7979 7980 7981 7982 7983 7984 7985 7986 7987 7988 7989 7990 7991 7992 7993 7994 7995 7996 7997 7998 7999 8000 8001 8002 8003 8004 8005 8006 8007 8008 8009 8010 8011 8012 8013 8014 8015 8016 8017 8018 8019 8020 8021 8022 8023 8024 8025 8026 8027 8028 8029 8030 8031 8032 8033 8034 8035 8036 8037 8038 8039 8040 8041 8042 8043 8044 8045 8046 8047 8048 8049 8050 8051 8052 8053 8054 8055 8056 8057 8058 8059 8060 8061 8062 8063 8064 8065 8066 8067 8068 8069 8070 8071 8072 8073 8074 8075 8076 8077 8078 8079 8080 8081 8082 8083 8084 8085 8086 8087 8088 8089 8090 8091 8092 8093 8094 8095 8096 8097 8098 8099 8100 8101 8102 8103 8104 8105 8106 8107 8108 8109 8110 8111 8112 8113 8114 8115 8116 8117 8118 8119 8120 8121 8122 8123 8124 8125 8126 8127 8128 8129 8130 8131 8132 8133 8134 8135 8136 8137 8138 8139 8140 8141 8142 8143 8144 8145 8146 8147 8148 8149 8150 8151 8152 8153 8154 8155 8156 8157 8158 8159 8160 8161 8162 8163 8164 8165 8166 8167 8168 8169 8170 8171 8172 8173 8174 8175 8176 8177 8178 8179 8180 8181 8182 8183 8184 8185 8186 8187 8188 8189 8190 8191 8192 8193 8194 8195 8196 8197 8198 8199 8200 8201 8202 8203 8204 8205 8206 8207 8208 8209 8210 8211 8212 8213 8214 8215 8216 8217 8218 8219 8220 8221 8222 8223 8224 8225 8226 8227 8228 8229 8230 8231 8232 8233 8234 8235 8236 8237 8238 8239 8240 8241 8242 8243 8244 8245 8246 8247 8248 8249 8250 8251 8252 8253 8254 8255 8256 8257 8258 8259 8260 8261 8262 8263 8264 8265 8266 8267 8268 8269 8270 8271 8272 8273 8274 8275 8276 8277 8278 8279 8280 8281 8282 8283 8284 8285 8286 8287 8288 8289 8290 8291 8292 8293 8294 8295 8296 8297 8298 8299 8300 8301 8302 8303 8304 8305 8306 8307 8308 8309 8310 8311 8312 8313 8314 8315 8316 8317 8318 8319 8320 8321 8322 8323 8324 8325 8326 8327 8328 8329 8330 8331 8332 8333 8334 8335 8336 8337 8338 8339 8340 8341 8342 8343 8344 8345 8346 8347 8348 8349 8350 8351 8352 8353 8354 8355 8356 8357 8358 8359 8360 8361 8362 8363 8364 8365 8366 8367 8368 8369 8370 8371 8372 8373 8374 8375 8376 8377 8378 8379 8380 8381 8382 8383 8384 8385 8386 8387 8388 8389 8390 8391 8392 8393 8394 8395 8396 8397 8398 8399 8400 8401 8402 8403 8404 8405 8406 8407 8408 8409 8410 8411 8412 8413 8414 8415 8416 8417 8418 8419 8420 8421 8422 8423 8424 8425 8426 8427 8428 8429 8430 8431 8432 8433 8434 8435 8436 8437 8438 8439 8440 8441 8442 8443 8444 8445 8446 8447 8448 8449 8450 8451 8452 8453 8454 8455 8456 8457 8458 8459 8460 8461 8462 8463 8464 8465 8466 8467 8468 8469 8470 8471 8472 8473 8474 8475 8476 8477 8478 8479 8480 8481 8482 8483 8484 8485 8486 8487 8488 8489 8490 8491 8492 8493 8494 8495 8496 8497 8498 8499 8500 8501 8502 8503 8504 8505 8506 8507 8508 8509 8510 8511 8512 8513 8514 8515 8516 8517 8518 8519 8520 8521 8522 8523 8524 8525 8526 8527 8528 8529 8530 8531 8532 8533 8534 8535 8536 8537 8538 8539 8540 8541 8542 8543 8544 8545 8546 8547 8548 8549 8550 8551 8552 8553 8554 8555 8556 8557 8558 8559 8560 8561 8562 8563 8564 8565 8566 8567 8568 8569 8570 8571 8572 8573 8574 8575 8576 8577 8578 8579 8580 8581 8582 8583 8584 8585 8586 8587 8588 8589 8590 8591 8592 8593 8594 8595 8596 8597 8598 8599 8600 8601 8602 8603 8604 8605 8606 8607 8608 8609 8610 8611 8612 8613 8614 8615 8616 8617 8618 8619 8620 8621 8622 8623 8624 8625 8626 8627 8628 8629 8630 8631 8632 8633 8634 8635 8636 8637 8638 8639 8640 8641 8642 8643 8644 8645 8646 8647 8648 8649 8650 8651 8652 8653 8654 8655 8656 8657 8658 8659 8660 8661 8662 8663 8664 8665 8666 8667 8668 8669 8670 8671 8672 8673 8674 8675 8676 8677 8678 8679 8680 8681 8682 8683 8684 8685 8686 8687 8688 8689 8690 8691 8692 8693 8694 8695 8696 8697 8698 8699 8700 8701 8702 8703 8704 8705 8706 8707 8708 8709 8710 8711 8712 8713 8714 8715 8716 8717 8718 8719 8720 8721 8722 8723 8724 8725 8726 8727 8728 8729 8730 8731 8732 8733 8734 8735 8736 8737 8738 8739 8740 8741 8742 8743 8744 8745 8746 8747 8748 8749 8750 8751 8752 8753 8754 8755 8756 8757 8758 8759 8760 8761 8762 8763 8764 8765 8766 8767 8768 8769 8770 8771 8772 8773 8774 8775 8776 8777 8778 8779 8780 8781 8782 8783 8784 8785 8786 8787 8788 8789 8790 8791 8792 8793 8794 8795 8796 8797 8798 8799 8800 8801 8802 8803 8804 8805 8806 8807 8808 8809 8810 8811 8812 8813 8814 8815 8816 8817 8818 8819 8820 8821 8822 8823 8824 8825 8826 8827 8828 8829 8830 8831 8832 8833 8834 8835 8836 8837 8838 8839 8840 8841 8842 8843 8844 8845 8846 8847 8848 8849 8850 8851 8852 8853 8854 8855 8856 8857 8858 8859 8860 8861 8862 8863 8864 8865 8866 8867 8868 8869 8870 8871 8872 8873 8874 8875 8876 8877 8878 8879 8880 8881 8882 8883 8884 8885 8886 8887 8888 8889 8890 8891 8892 8893 8894 8895 8896 8897 8898 8899 8900 8901 8902 8903 8904 8905 8906 8907 8908 8909 8910 8911 8912 8913 8914 8915 8916 8917 8918 8919 8920 8921 8922 8923 8924 8925 8926 8927 8928 8929 8930 8931 8932 8933 8934 8935 8936 8937 8938 8939 8940 8941 8942 8943 8944 8945 8946 8947 8948 8949 8950 8951 8952 8953 8954 8955 8956 8957 8958 8959 8960 8961 8962 8963 8964 8965 8966 8967 8968 8969 8970 8971 8972 8973 8974 8975 8976 8977 8978 8979 8980 8981 8982 8983 8984 8985 8986 8987 8988 8989 8990 8991 8992 8993 8994 8995 8996 8997 8998 8999 9000 9001 9002 9003 9004 9005 9006 9007 9008 9009 9010 9011 9012 9013 9014 9015 9016 9017 9018 9019 9020 9021 9022 9023 9024 9025 9026 9027 9028 9029 9030 9031 9032 9033 9034 9035 9036 9037 9038 9039 9040 9041 9042 9043 9044 9045 9046 9047 9048 9049 9050 9051 9052 9053 9054 9055 9056 9057 9058 9059 9060 9061 9062 9063 9064 9065 9066 9067 9068 9069 9070 9071 9072 9073 9074 9075 9076 9077 9078 9079 9080 9081 9082 9083 9084 9085 9086 9087 9088 9089 9090 9091 9092 9093 9094 9095 9096 9097 9098 9099 9100 9101 9102 9103 9104 9105 9106 9107 9108 9109 9110 9111 9112 9113 9114 9115 9116 9117 9118 9119 9120 9121 9122 9123 9124 9125 9126 9127 9128 9129 9130 9131 9132 9133 9134 9135 9136 9137 9138 9139 9140 9141 9142 9143 9144 9145 9146 9147 9148 9149 9150 9151 9152 9153 9154 9155 9156 9157 9158 9159 9160 9161 9162 9163 9164 9165 9166 9167 9168 9169 9170 9171 9172 9173 9174 9175 9176 9177 9178 9179 9180 9181 9182 9183 9184 9185 9186 9187 9188 9189 9190 9191 9192 9193 9194 9195 9196 9197 9198 9199 9200 9201 9202 9203 9204 9205 9206 9207 9208 9209 9210 9211 9212 9213 9214 9215 9216 9217 9218 9219 9220 9221 9222 9223 9224 9225 9226 9227 9228 9229 9230 9231 9232 9233 9234 9235 9236 9237 9238 9239 9240 9241 9242 9243 9244 9245 9246 9247 9248 9249 9250 9251 9252 9253 9254 9255 9256 9257 9258 9259 9260 9261 9262 9263 9264 9265 9266 9267 9268 9269 9270 9271 9272 9273 9274 9275 9276 9277 9278 9279 9280 9281 9282 9283 9284 9285 9286 9287 9288 9289 9290 9291 9292 9293 9294 9295 9296 9297 9298 9299 9300 9301 9302 9303 9304 9305 9306 9307 9308 9309 9310 9311 9312 9313 9314 9315 9316 9317 9318 9319 9320 9321 9322 9323 9324 9325 9326 9327 9328 9329 9330 9331 9332 9333 9334 9335 9336 9337 9338 9339 9340 9341 9342 9343 9344 9345 9346 9347 9348 9349 9350 9351 9352 9353 9354 9355 9356 9357 9358 9359 9360 9361 9362 9363 9364 9365 9366 9367 9368 9369 9370 9371 9372 9373 9374 9375 9376 9377 9378 9379 9380 9381 9382 9383 9384 9385 9386 9387 9388 9389 9390 9391 9392 9393 9394 9395 9396 9397 9398 9399 9400 9401 9402 9403 9404 9405 9406 9407 9408 9409 9410 9411 9412 9413 9414 9415 9416 9417 9418 9419 9420 9421 9422 9423 9424 9425 9426 9427 9428 9429 9430 9431 9432 9433 9434 9435 9436 9437 9438 9439 9440 9441 9442 9443 9444 9445 9446 9447 9448 9449 9450 9451 9452 9453 9454 9455 9456 9457 9458 9459 9460 9461 9462 9463 9464 9465 9466 9467 9468 9469 9470 9471 9472 9473 9474 9475 9476 9477 9478 9479 9480 9481 9482 9483 9484 9485 9486 9487 9488 9489 9490 9491 9492 9493 9494 9495 9496 9497 9498 9499 9500 9501 9502 9503 9504 9505 9506 9507 9508 9509 9510 9511 9512 9513 9514 9515 9516 9517 9518 9519 9520 9521 9522 9523 9524 9525 9526 9527 9528 9529 9530 9531 9532 9533 9534 9535 9536 9537 9538 9539 9540 9541 9542 9543 9544 9545 9546 9547 9548 9549 9550 9551 9552 9553 9554 9555 9556 9557 9558 9559 9560 9561 9562 9563 9564 9565 9566 9567 9568 9569 9570 9571 9572 9573 9574 9575 9576 9577 9578 9579 9580 9581 9582 9583 9584 9585 9586 9587 9588 9589 9590 9591 9592 9593 9594 9595 9596 9597 9598 9599 9600 9601 9602 9603 9604 9605 9606 9607 9608 9609 9610 9611 9612 9613 9614 9615 9616 9617 9618 9619 9620 9621 9622 9623 9624 9625 9626 9627 9628 9629 9630 9631 9632 9633 9634 9635 9636 9637 9638 9639 9640 9641 9642 9643 9644 9645 9646 9647 9648 9649 9650 9651 9652 9653 9654 9655 9656 9657 9658 9659 9660 9661 9662 9663 9664 9665 9666 9667 9668 9669 9670 9671 9672 9673 9674 9675 9676 9677 9678 9679 9680 9681 9682 9683 9684 9685 9686 9687 9688 9689 9690 9691 9692 9693 9694 9695 9696 9697 9698 9699 9700 9701 9702 9703 9704 9705 9706 9707 9708 9709 9710 9711 9712 9713 9714 9715 9716 9717 9718 9719 9720 9721 9722 9723 9724 9725 9726 9727 9728 9729 9730 9731 9732 9733 9734 9735 9736 9737 9738 9739 9740 9741 9742 9743 9744 9745 9746 9747 9748 9749 9750 9751 9752 9753 9754 9755 9756 9757 9758 9759 9760 9761 9762 9763 9764 9765 9766 9767 9768 9769 9770 9771 9772 9773 9774 9775 9776 9777 9778 9779 9780 9781 9782 9783 9784 9785 9786 9787 9788 9789 9790 9791 9792 9793 9794 9795 9796 9797 9798 9799 9800 9801 9802 9803 9804 9805 9806 9807 9808 9809 9810 9811 9812 9813 9814 9815 9816 9817 9818 9819 9820 9821 9822 9823 9824 9825 9826 9827 9828 9829 9830 9831 9832 9833 9834 9835 9836 9837 9838 9839 9840 9841 9842 9843 9844 9845 9846 9847 9848 9849 9850 9851 9852 9853 9854 9855 9856 9857 9858 9859 9860 9861 9862 9863 9864 9865 9866 9867 9868 9869 9870 9871 9872 9873 9874 9875 9876 9877 9878 9879 9880 9881 9882 9883 9884 9885 9886 9887 9888 9889 9890 9891 9892 9893 9894 9895 9896 9897 9898 9899 9900 9901 9902 9903 9904 9905 9906 9907 9908 9909 9910 9911 9912 9913 9914 9915 9916 9917 9918 9919 9920 9921 9922 9923 9924 9925 9926 9927 9928 9929 9930 9931 9932 9933 9934 9935 9936 9937 9938 9939 9940 9941 9942 9943 9944 9945 9946 9947 9948 9949 9950 9951 9952 9953 9954 9955 9956 9957 9958 9959 9960 9961 9962 9963 9964 9965 9966 9967 9968 9969 9970 9971 9972 9973 9974 9975 9976 9977 9978 9979 9980 9981 9982 9983 9984 9985 9986 9987 9988 9989 9990 9991 9992 9993 9994 9995 9996 9997 9998 9999 10000 10001 10002 10003 10004 10005 10006 10007 10008 10009 10010 10011 10012 10013 10014 10015 10016 10017 10018 10019 10020 10021 10022 10023 10024 10025 10026 10027 10028 10029 10030 10031 10032 10033 10034 10035 10036 10037 10038 10039 10040 10041 10042 10043 10044 10045 10046 10047 10048 10049 10050 10051 10052 10053 10054 10055 10056 10057 10058 10059 10060 10061 10062 10063 10064 10065 10066 10067 10068 10069 10070 10071 10072 10073 10074 10075 10076 10077 10078 10079 10080 10081 10082 10083 10084 10085 10086 10087 10088 10089 10090 10091 10092 10093 10094 10095 10096 10097 10098 10099 10100 10101 10102 10103 10104 10105 10106 10107 10108 10109 10110 10111 10112 10113 10114 10115 10116 10117 10118 10119 10120 10121 10122 10123 10124 10125 10126 10127 10128 10129 10130 10131 10132 10133 10134 10135 10136 10137 10138 10139 10140 10141 10142 10143 10144 10145 10146 10147 10148 10149 10150 10151 10152 10153 10154 10155 10156 10157 10158 10159 10160 10161 10162 10163 10164 10165 10166 10167 10168 10169 10170 10171 10172 10173 10174 10175 10176 10177 10178 10179 10180 10181 10182 10183 10184 10185 10186 10187 10188 10189 10190 10191 10192 10193 10194 10195 10196 10197 10198 10199 10200 10201 10202 10203 10204 10205 10206 10207 10208 10209 10210 10211 10212 10213 10214 10215 10216 10217 10218 10219 10220 10221 10222 10223 10224 10225 10226 10227 10228 10229 10230 10231 10232 10233 10234 10235 10236 10237 10238 10239 10240 10241 10242 10243 10244 10245 10246 10247 10248 10249 10250 10251 10252 10253 10254 10255 10256 10257 10258 10259 10260 10261 10262 10263 10264 10265 10266 10267 10268 10269 10270 10271 10272 10273 10274 10275 10276 10277 10278 10279 10280 10281 10282 10283 10284 10285 10286 10287 10288 10289 10290 10291 10292 10293 10294 10295 10296 10297 10298 10299 10300 10301 10302 10303 10304 10305 10306 10307 10308 10309 10310 10311 10312 10313 10314 10315 10316 10317 10318 10319 10320 10321 10322 10323 10324 10325 10326 10327 10328 10329 10330 10331 10332 10333 10334 10335 10336 10337 10338 10339 10340 10341 10342 10343 10344 10345 10346 10347 10348 10349 10350 10351 10352 10353 10354 10355 10356 10357 10358 10359 10360 10361 10362 10363 10364 10365 10366 10367 10368 10369 10370 10371 10372 10373 10374 10375 10376 10377 10378 10379 10380 10381 10382 10383 10384 10385 10386 10387 10388 10389 10390 10391 10392 10393 10394 10395 10396 10397 10398 10399 10400 10401 10402 10403 10404 10405 10406 10407 10408 10409 10410 10411 10412 10413 10414 10415 10416 10417 10418 10419 10420 10421 10422 10423 10424 10425 10426 10427 10428 10429 10430 10431 10432 10433 10434 10435 10436 10437 10438 10439 10440 10441 10442 10443 10444 10445 10446 10447 10448 10449 10450 10451 10452 10453 10454 10455 10456 10457 10458 10459 10460 10461 10462 10463 10464 10465 10466 10467 10468 10469 10470 10471 10472 10473 10474 10475 10476 10477 10478 10479 10480 10481 10482 10483 10484 10485 10486 10487 10488 10489 10490 10491 10492 10493 10494 10495 10496 10497 10498 10499 10500 10501 10502 10503 10504 10505 10506 10507 10508 10509 10510 10511 10512 10513 10514 10515 10516 10517 10518 10519 10520 10521 10522 10523 10524 10525 10526 10527 10528 10529 10530 10531 10532 10533 10534 10535 10536 10537 10538 10539 10540 10541 10542 10543 10544 10545 10546 10547 10548 10549 10550 10551 10552 10553 10554 10555 10556 10557 10558 10559 10560 10561 10562 10563 10564 10565 10566 10567 10568 10569 10570 10571 10572 10573 10574 10575 10576 10577 10578 10579 10580 10581 10582 10583 10584 10585 10586 10587 10588 10589 10590 10591 10592 10593 10594 10595 10596 10597 10598 10599 10600 10601 10602 10603 10604 10605 10606 10607 10608 10609 10610 10611 10612 10613 10614 10615 10616 10617 10618 10619 10620 10621 10622 10623 10624 10625 10626 10627 10628 10629 10630 10631 10632 10633 10634 10635 10636 10637 10638 10639 10640 10641 10642 10643 10644 10645 10646 10647 10648 10649 10650 10651 10652 10653 10654 10655 10656 10657 10658 10659 10660 10661 10662 10663 10664 10665 10666 10667 10668 10669 10670 10671 10672 10673 10674 10675 10676 10677 10678 10679 10680 10681 10682 10683 10684 10685 10686 10687 10688 10689 10690 10691 10692 10693 10694 10695 10696 10697 10698 10699 10700 10701 10702 10703 10704 10705 10706 10707 10708 10709 10710 10711 10712 10713 10714 10715 10716 10717 10718 10719 10720 10721 10722 10723 10724 10725 10726 10727 10728 10729 10730 10731 10732 10733 10734 10735 10736 10737 10738 10739 10740 10741 10742 10743 10744 10745 10746 10747 10748 10749 10750 10751 10752 10753 10754 10755 10756 10757 10758 10759 10760 10761 10762 10763 10764 10765 10766 10767 10768 10769 10770 10771 10772 10773 10774 10775 10776 10777 10778 10779 10780 10781 10782 10783 10784 10785 10786 10787 10788 10789 10790 10791 10792 10793 10794 10795 10796 10797 10798 10799 10800 10801 10802 10803 10804 10805 10806 10807 10808 10809 10810 10811 10812 10813 10814 10815 10816 10817 10818 10819 10820 10821 10822 10823 10824 10825 10826 10827 10828 10829 10830 10831 10832 10833 10834 10835 10836 10837 10838 10839 10840 10841 10842 10843 10844 10845 10846 10847 10848 10849 10850 10851 10852 10853 10854 10855 10856 10857 10858 10859 10860 10861 10862 10863 10864 10865 10866 10867 10868 10869 10870 10871 10872 10873 10874 10875 10876 10877 10878 10879 10880 10881 10882 10883 10884 10885 10886 10887 10888 10889 10890 10891 10892 10893 10894 10895 10896 10897 10898 10899 10900 10901 10902 10903 10904 10905 10906 10907 10908 10909 10910 10911 10912 10913 10914 10915 10916 10917 10918 10919 10920 10921 10922 10923 10924 10925 10926 10927 10928 10929 10930 10931 10932 10933 10934 10935 10936 10937 10938 10939 10940 10941 10942 10943 10944 10945 10946 10947 10948 10949 10950 10951 10952 10953 10954 10955 10956 10957 10958 10959 10960 10961 10962 10963 10964 10965 10966 10967 10968 10969 10970 10971 10972 10973 10974 10975 10976 10977 10978 10979 10980 10981 10982 10983 10984 10985 10986 10987 10988 10989 10990 10991 10992 10993 10994 10995 10996 10997 10998 10999 11000 11001 11002 11003 11004 11005 11006 11007 11008 11009 11010 11011 11012 11013 11014 11015 11016 11017 11018 11019 11020 11021 11022 11023 11024 11025 11026 11027 11028 11029 11030 11031 11032 11033 11034 11035 11036 11037 11038 11039 11040 11041 11042 11043 11044 11045 11046 11047 11048 11049 11050 11051 11052 11053 11054 11055 11056 11057 11058 11059 11060 11061 11062 11063 11064 11065 11066 11067 11068 11069 11070 11071 11072 11073 11074 11075 11076 11077 11078 11079 11080 11081 11082 11083 11084 11085 11086 11087 11088 11089 11090 11091 11092 11093 11094 11095 11096 11097 11098 11099 11100 11101 11102 11103 11104 11105 11106 11107 11108 11109 11110 11111 11112 11113 11114 11115 11116 11117 11118 11119 11120 11121 11122 11123 11124 11125 11126 11127 11128 11129 11130 11131 11132 11133 11134 11135 11136 11137 11138 11139 11140 11141 11142 11143 11144 11145 11146 11147 11148 11149 11150 11151 11152 11153 11154 11155 11156 11157 11158 11159 11160 11161 11162 11163 11164 11165 11166 11167 11168 11169 11170 11171 11172 11173 11174 11175 11176 11177 11178 11179 11180 11181 11182 11183 11184 11185 11186 11187 11188 11189 11190 11191 11192 11193 11194 11195 11196 11197 11198 11199 11200 11201 11202 11203 11204 11205 11206 11207 11208 11209 11210 11211 11212 11213 11214 11215 11216 11217 11218 11219 11220 11221 11222 11223 11224 11225 11226 11227 11228 11229 11230 11231 11232 11233 11234 11235 11236 11237 11238 11239 11240 11241 11242 11243 11244 11245 11246 11247 11248 11249 11250 11251 11252 11253 11254 11255 11256 11257 11258 11259 11260 11261 11262 11263 11264 11265 11266 11267 11268 11269 11270 11271 11272 11273 11274 11275 11276 11277 11278 11279 11280 11281 11282 11283 11284 11285 11286 11287 11288 11289 11290 11291 11292 11293 11294 11295 11296 11297 11298 11299 11300 11301 11302 11303 11304 11305 11306 11307 11308 11309 11310 11311 11312 11313 11314 11315 11316 11317 11318 11319 11320 11321 11322 11323 11324 11325 11326 11327 11328 11329 11330 11331 11332 11333 11334 11335 11336 11337 11338 11339 11340 11341 11342 11343 11344 11345 11346 11347 11348 11349 11350 11351 11352 11353 11354 11355 11356 11357 11358 11359 11360 11361 11362 11363 11364 11365 11366 11367 11368 11369 11370 11371 11372 11373 11374 11375 11376 11377 11378 11379 11380 11381 11382 11383 11384 11385 11386 11387 11388 11389 11390 11391 11392 11393 11394 11395 11396 11397 11398 11399 11400 11401 11402 11403 11404 11405 11406 11407 11408 11409 11410 11411 11412 11413 11414 11415 11416 11417 11418 11419 11420 11421 11422 11423 11424 11425 11426 11427 11428 11429 11430 11431 11432 11433 11434 11435 11436 11437 11438 11439 11440 11441 11442 11443 11444 11445 11446 11447 11448 11449 11450 11451 11452 11453 11454 11455 11456 11457 11458 11459 11460 11461 11462 11463 11464 11465 11466 11467 11468 11469 11470 11471 11472 11473 11474 11475 11476 11477 11478 11479 11480 11481 11482 11483 11484 11485 11486 11487 11488 11489 11490 11491 11492 11493 11494 11495 11496 11497 11498 11499 11500 11501 11502 11503 11504 11505 11506 11507 11508 11509 11510 11511 11512 11513 11514 11515 11516 11517 11518 11519 11520 11521 11522 11523 11524 11525 11526 11527 11528 11529 11530 11531 11532 11533 11534 11535 11536 11537 11538 11539 11540 11541 11542 11543 11544 11545 11546 11547 11548 11549 11550 11551 11552 11553 11554 11555 11556 11557 11558 11559 11560 11561 11562 11563 11564 11565 11566 11567 11568 11569 11570 11571 11572 11573 11574 11575 11576 11577 11578 11579 11580 11581 11582 11583 11584 11585 11586 11587 11588 11589 11590 11591 11592 11593 11594 11595 11596 11597 11598 11599 11600 11601 11602 11603 11604 11605 11606 11607 11608 11609 11610 11611 11612 11613 11614 11615 11616 11617 11618 11619 11620 11621 11622 11623 11624 11625 11626 11627 11628 11629 11630 11631 11632 11633 11634 11635 11636 11637 11638 11639 11640 11641 11642 11643 11644 11645 11646 11647 11648 11649 11650 11651 11652 11653 11654 11655 11656 11657 11658 11659 11660 11661 11662 11663 11664 11665 11666 11667 11668 11669 11670 11671 11672 11673 11674 11675 11676 11677 11678 11679 11680 11681 11682 11683 11684 11685 11686 11687 11688 11689 11690 11691 11692 11693 11694 11695 11696 11697 11698 11699 11700 11701 11702 11703 11704 11705 11706 11707 11708 11709 11710 11711 11712 11713 11714 11715 11716 11717 11718 11719 11720 11721 11722 11723 11724 11725 11726 11727 11728 11729 11730 11731 11732 11733 11734 11735 11736 11737 11738 11739 11740 11741 11742 11743 11744 11745 11746 11747 11748 11749 11750 11751 11752 11753 11754 11755 11756 11757 11758 11759 11760 11761 11762 11763 11764 11765 11766 11767 11768 11769 11770 11771 11772 11773 11774 11775 11776 11777 11778 11779 11780 11781 11782 11783 11784 11785 11786 11787 11788 11789 11790 11791 11792 11793 11794 11795 11796 11797 11798 11799 11800 11801 11802 11803 11804 11805 11806 11807 11808 11809 11810 11811 11812 11813 11814 11815 11816 11817 11818 11819 11820 11821 11822 11823 11824 11825 11826 11827 11828 11829 11830 11831 11832 11833 11834 11835 11836 11837 11838 11839 11840 11841 11842 11843 11844 11845 11846 11847 11848 11849 11850 11851 11852 11853 11854 11855 11856 11857 11858 11859 11860 11861 11862 11863 11864 11865 11866 11867 11868 11869 11870 11871 11872 11873 11874 11875 11876 11877 11878 11879 11880 11881 11882 11883 11884 11885 11886 11887 11888 11889 11890 11891 11892 11893 11894 11895 11896 11897 11898 11899 11900 11901 11902 11903 11904 11905 11906 11907 11908 11909 11910 11911 11912 11913 11914 11915 11916 11917 11918 11919 11920 11921 11922 11923 11924 11925 11926 11927 11928 11929 11930 11931 11932 11933 11934 11935 11936 11937 11938 11939 11940 11941 11942 11943 11944 11945 11946 11947 11948 11949 11950 11951 11952 11953 11954 11955 11956 11957 11958 11959 11960 11961 11962 11963 11964 11965 11966 11967 11968 11969 11970 11971 11972 11973 11974 11975 11976 11977 11978 11979 11980 11981 11982 11983 11984 11985 11986 11987 11988 11989 11990 11991 11992 11993 11994 11995 11996 11997 11998 11999 12000 12001 12002 12003 12004 12005 12006 12007 12008 12009 12010 12011 12012 12013 12014 12015 12016 12017 12018 12019 12020 12021 12022 12023 12024 12025 12026 12027 12028 12029 12030 12031 12032 12033 12034 12035 12036 12037 12038 12039 12040 12041 12042 12043 12044 12045 12046 12047 12048 12049 12050 12051 12052 12053 12054 12055 12056 12057 12058 12059 12060 12061 12062 12063 12064 12065 12066 12067 12068 12069 12070 12071 12072 12073 12074 12075 12076 12077 12078 12079 12080 12081 12082 12083 12084 12085 12086 12087 12088 12089 12090 12091 12092 12093 12094 12095 12096 12097 12098 12099 12100 12101 12102 12103 12104 12105 12106 12107 12108 12109 12110 12111 12112 12113 12114 12115 12116 12117 12118 12119 12120 12121 12122 12123 12124 12125 12126 12127 12128 12129 12130 12131 12132 12133 12134 12135 12136 12137 12138 12139 12140 12141 12142 12143 12144 12145 12146 12147 12148 12149 12150 12151 12152 12153 12154 12155 12156 12157 12158 12159 12160 12161 12162 12163 12164 12165 12166 12167 12168 12169 12170 12171 12172 12173 12174 12175 12176 12177 12178 12179 12180 12181 12182 12183 12184 12185 12186 12187 12188 12189 12190 12191 12192 12193 12194 12195 12196 12197 12198 12199 12200 12201 12202 12203 12204 12205 12206 12207 12208 12209 12210 12211 12212 12213 12214 12215 12216 12217 12218 12219 12220 12221 12222 12223 12224 12225 12226 12227 12228 12229 12230 12231 12232 12233 12234 12235 12236 12237 12238 12239 12240 12241 12242 12243 12244 12245 12246 12247 12248 12249 12250 12251 12252 12253 12254 12255 12256 12257 12258 12259 12260 12261 12262 12263 12264 12265 12266 12267 12268 12269 12270 12271 12272 12273 12274 12275 12276 12277 12278 12279 12280 12281 12282 12283 12284 12285 12286 12287 12288 12289 12290 12291 12292 12293 12294 12295 12296 12297 12298 12299 12300 12301 12302 12303 12304 12305 12306 12307 12308 12309 12310 12311 12312 12313 12314 12315 12316 12317 12318 12319 12320 12321 12322 12323 12324 12325 12326 12327 12328 12329 12330 12331 12332 12333 12334 12335 12336 12337 12338 12339 12340 12341 12342 12343 12344 12345 12346 12347 12348 12349 12350 12351 12352 12353 12354 12355 12356 12357 12358 12359 12360 12361 12362 12363 12364 12365 12366 12367 12368 12369 12370 12371 12372 12373 12374 12375 12376 12377 12378 12379 12380 12381 12382 12383 12384 12385 12386 12387 12388 12389 12390 12391 12392 12393 12394 12395 12396 12397 12398 12399 12400 12401 12402 12403 12404 12405 12406 12407 12408 12409 12410 12411 12412 12413 12414 12415 12416 12417 12418 12419 12420 12421 12422 12423 12424 12425 12426 12427 12428 12429 12430 12431 12432 12433 12434 12435 12436 12437 12438 12439 12440 12441 12442 12443 12444 12445 12446 12447 12448 12449 12450 12451 12452 12453 12454 12455 12456 12457 12458 12459 12460 12461 12462 12463 12464 12465 12466 12467 12468 12469 12470 12471 12472 12473 12474 12475 12476 12477 12478 12479 12480 12481 12482 12483 12484 12485 12486 12487 12488 12489 12490 12491 12492 12493 12494 12495 12496 12497 12498 12499 12500 12501 12502 12503 12504 12505 12506 12507 12508 12509 12510 12511 12512 12513 12514 12515 12516 12517 12518 12519 12520 12521 12522 12523 12524 12525 12526 12527 12528 12529 12530 12531 12532 12533 12534 12535 12536 12537 12538 12539 12540 12541 12542 12543 12544 12545 12546 12547 12548 12549 12550 12551 12552 12553 12554 12555 12556 12557 12558 12559 12560 12561 12562 12563 12564 12565 12566 12567 12568 12569 12570 12571 12572 12573 12574 12575 12576 12577 12578 12579 12580 12581 12582 12583 12584 12585 12586 12587 12588 12589 12590 12591 12592 12593 12594 12595 12596 12597 12598 12599 12600 12601 12602 12603 12604 12605 12606 12607 12608 12609 12610 12611 12612 12613 12614 12615 12616 12617 12618 12619 12620 12621 12622 12623 12624 12625 12626 12627 12628 12629 12630 12631 12632 12633 12634 12635 12636 12637 12638 12639 12640 12641 12642 12643 12644 12645 12646 12647 12648 12649 12650 12651 12652 12653 12654 12655 12656 12657 12658 12659 12660 12661 12662 12663 12664 12665 12666 12667 12668 12669 12670 12671 12672 12673 12674 12675 12676 12677 12678 12679 12680 12681 12682 12683 12684 12685 12686 12687 12688 12689 12690 12691 12692 12693 12694 12695 12696 12697 12698 12699 12700 12701 12702 12703 12704 12705 12706 12707 12708 12709 12710 12711 12712 12713 12714 12715 12716 12717 12718 12719 12720 12721 12722 12723 12724 12725 12726 12727 12728 12729 12730 12731 12732 12733 12734 12735 12736 12737 12738 12739 12740 12741 12742 12743 12744 12745 12746 12747 12748 12749 12750 12751 12752 12753 12754 12755 12756 12757 12758 12759 12760 12761 12762 12763 12764 12765 12766 12767 12768 12769 12770 12771 12772 12773 12774 12775 12776 12777 12778 12779 12780 12781 12782 12783 12784 12785 12786 12787 12788 12789 12790 12791 12792 12793 12794 12795 12796 12797 12798 12799 12800 12801 12802 12803 12804 12805 12806 12807 12808 12809 12810 12811 12812 12813 12814 12815 12816 12817 12818 12819 12820 12821 12822 12823 12824 12825 12826 12827 12828 12829 12830 12831 12832 12833 12834 12835 12836 12837 12838 12839 12840 12841 12842 12843 12844 12845 12846 12847 12848 12849 12850 12851 12852 12853 12854 12855 12856 12857 12858 12859 12860 12861 12862 12863 12864 12865 12866 12867 12868 12869 12870 12871 12872 12873 12874 12875 12876 12877 12878 12879 12880 12881 12882 12883 12884 12885 12886 12887 12888 12889 12890 12891 12892 12893 12894 12895 12896 12897 12898 12899 12900 12901 12902 12903 12904 12905 12906 12907 12908 12909 12910 12911 12912 12913 12914 12915 12916 12917 12918 12919 12920 12921 12922 12923 12924 12925 12926 12927 12928 12929 12930 12931 12932 12933 12934 12935 12936 12937 12938 12939 12940 12941 12942 12943 12944 12945 12946 12947 12948 12949 12950 12951 12952 12953 12954 12955 12956 12957 12958 12959 12960 12961 12962 12963 12964 12965 12966 12967 12968 12969 12970 12971 12972 12973 12974 12975 12976 12977 12978 12979 12980 12981 12982 12983 12984 12985 12986 12987 12988 12989 12990 12991 12992 12993 12994 12995 12996 12997 12998 12999 13000 13001 13002 13003 13004 13005 13006 13007 13008 13009 13010 13011 13012 13013 13014 13015 13016 13017 13018 13019 13020 13021 13022 13023 13024 13025 13026 13027 13028 13029 13030 13031 13032 13033 13034 13035 13036 13037 13038 13039 13040 13041 13042 13043 13044 13045 13046 13047 13048 13049 13050 13051 13052 13053 13054 13055 13056 13057 13058 13059 13060 13061 13062 13063 13064 13065 13066 13067 13068 13069 13070 13071 13072 13073 13074 13075 13076 13077 13078 13079 13080 13081 13082 13083 13084 13085 13086 13087 13088 13089 13090 13091 13092 13093 13094 13095 13096 13097 13098 13099 13100 13101 13102 13103 13104 13105 13106 13107 13108 13109 13110 13111 13112 13113 13114 13115 13116 13117 13118 13119 13120 13121 13122 13123 13124 13125 13126 13127 13128 13129 13130 13131 13132 13133 13134 13135 13136 13137 13138 13139 13140 13141 13142 13143 13144 13145 13146 13147 13148 13149 13150 13151 13152 13153 13154 13155 13156 13157 13158 13159 13160 13161 13162 13163 13164 13165 13166 13167 13168 13169 13170 13171 13172 13173 13174 13175 13176 13177 13178 13179 13180 13181 13182 13183 13184 13185 13186 13187 13188 13189 13190 13191 13192 13193 13194 13195 13196 13197 13198 13199 13200 13201 13202 13203 13204 13205 13206 13207 13208 13209 13210 13211 13212 13213 13214 13215 13216 13217 13218 13219 13220 13221 13222 13223 13224 13225 13226 13227 13228 13229 13230 13231 13232 13233 13234 13235 13236 13237 13238 13239 13240 13241 13242 13243 13244 13245 13246 13247 13248 13249 13250 13251 13252 13253 13254 13255 13256 13257 13258 13259 13260 13261 13262 13263 13264 13265 13266 13267 13268 13269 13270 13271 13272 13273 13274 13275 13276 13277 13278 13279 13280 13281 13282 13283 13284 13285 13286 13287 13288 13289 13290 13291 13292 13293 13294 13295 13296 13297 13298 13299 13300 13301 13302 13303 13304 13305 13306 13307 13308 13309 13310 13311 13312 13313 13314 13315 13316 13317 13318 13319 13320 13321 13322 13323 13324 13325 13326 13327 13328 13329 13330 13331 13332 13333 13334 13335 13336 13337 13338 13339 13340 13341 13342 13343 13344 13345 13346 13347 13348 13349 13350 13351 13352 13353 13354 13355 13356 13357 13358 13359 13360 13361 13362 13363 13364 13365 13366 13367 13368 13369 13370 13371 13372 13373 13374 13375 13376 13377 13378 13379 13380 13381 13382 13383 13384 13385 13386 13387 13388 13389 13390 13391 13392 13393 13394 13395 13396 13397 13398 13399 13400 13401 13402 13403 13404 13405 13406 13407 13408 13409 13410 13411 13412 13413 13414 13415 13416 13417 13418 13419 13420 13421 13422 13423 13424 13425 13426 13427 13428 13429 13430 13431 13432 13433 13434 13435 13436 13437 13438 13439 13440 13441 13442 13443 13444 13445 13446 13447 13448 13449 13450 13451 13452 13453 13454 13455 13456 13457 13458 13459 13460 13461 13462 13463 13464 13465 13466 13467 13468 13469 13470 13471 13472 13473 13474 13475 13476 13477 13478 13479 13480 13481 13482 13483 13484 13485 13486 13487 13488 13489 13490 13491 13492 13493 13494 13495 13496 13497 13498 13499 13500 13501 13502 13503 13504 13505 13506 13507 13508 13509 13510 13511 13512 13513 13514 13515 13516 13517 13518 13519 13520 13521 13522 13523 13524 13525 13526 13527 13528 13529 13530 13531 13532 13533 13534 13535 13536 13537 13538 13539 13540 13541 13542 13543 13544 13545 13546 13547 13548 13549 13550 13551 13552 13553 13554 13555 13556 13557 13558 13559 13560 13561 13562 13563 13564 13565 13566 13567 13568 13569 13570 13571 13572 13573 13574 13575 13576 13577 13578 13579 13580 13581 13582 13583 13584 13585 13586 13587 13588 13589 13590 13591 13592 13593 13594 13595 13596 13597 13598 13599 13600 13601 13602 13603 13604 13605 13606 13607 13608 13609 13610 13611 13612 13613 13614 13615 13616 13617 13618 13619 13620 13621 13622 13623 13624 13625 13626 13627 13628 13629 13630 13631 13632 13633 13634 13635 13636 13637 13638 13639 13640 13641 13642 13643 13644 13645 13646 13647 13648 13649 13650 13651 13652 13653 13654 13655 13656 13657 13658 13659 13660 13661 13662 13663 13664 13665 13666 13667 13668 13669 13670 13671 13672 13673 13674 13675 13676 13677 13678 13679 13680 13681 13682 13683 13684 13685 13686 13687 13688 13689 13690 13691 13692 13693 13694 13695 13696 13697 13698 13699 13700 13701 13702 13703 13704 13705 13706 13707 13708 13709 13710 13711 13712 13713 13714 13715 13716 13717 13718 13719 13720 13721 13722 13723 13724 13725 13726 13727 13728 13729 13730 13731 13732 13733 13734 13735 13736 13737 13738 13739 13740 13741 13742 13743 13744 13745 13746 13747 13748 13749 13750 13751 13752 13753 13754 13755 13756 13757 13758 13759 13760 13761 13762 13763 13764 13765 13766 13767 13768 13769 13770 13771 13772 13773 13774 13775 13776 13777 13778 13779 13780 13781 13782 13783 13784 13785 13786 13787 13788 13789 13790 13791 13792 13793 13794 13795 13796 13797 13798 13799 13800 13801 13802 13803 13804 13805 13806 13807 13808 13809 13810 13811 13812 13813 13814 13815 13816 13817 13818 13819 13820 13821 13822 13823 13824 13825 13826 13827 13828 13829 13830 13831 13832 13833 13834 13835 13836 13837 13838 13839 13840 13841 13842 13843 13844 13845 13846 13847 13848 13849 13850 13851 13852 13853 13854 13855 13856 13857 13858 13859 13860 13861 13862 13863 13864 13865 13866 13867 13868 13869 13870 13871 13872 13873 13874 13875 13876 13877 13878 13879 13880 13881 13882 13883 13884 13885 13886 13887 13888 13889 13890 13891 13892 13893 13894 13895 13896 13897 13898 13899 13900 13901 13902 13903 13904 13905 13906 13907 13908 13909 13910 13911 13912 13913 13914 13915 13916 13917 13918 13919 13920 13921 13922 13923 13924 13925 13926 13927 13928 13929 13930 13931 13932 13933 13934 13935 13936 13937 13938 13939 13940 13941 13942 13943 13944 13945 13946 13947 13948 13949 13950 13951 13952 13953 13954 13955 13956 13957 13958 13959 13960 13961 13962 13963 13964 13965 13966 13967 13968 13969 13970 13971 13972 13973 13974 13975 13976 13977 13978 13979 13980 13981 13982 13983 13984 13985 13986 13987 13988 13989 13990 13991 13992 13993 13994 13995 13996 13997 13998 13999 14000 14001 14002 14003 14004 14005 14006 14007 14008 14009 14010 14011 14012 14013 14014 14015 14016 14017 14018 14019 14020 14021 14022 14023 14024 14025 14026 14027 14028 14029 14030 14031 14032 14033 14034 14035 14036 14037 14038 14039 14040 14041 14042 14043 14044 14045 14046 14047 14048 14049 14050 14051 14052 14053 14054 14055 14056 14057 14058 14059 14060 14061 14062 14063 14064 14065 14066 14067 14068 14069 14070 14071 14072 14073 14074 14075 14076 14077 14078 14079 14080 14081 14082 14083 14084 14085 14086 14087 14088 14089 14090 14091 14092 14093 14094 14095 14096 14097 14098 14099 14100 14101 14102 14103 14104 14105 14106 14107 14108 14109 14110 14111 14112 14113 14114 14115 14116 14117 14118 14119 14120 14121 14122 14123 14124 14125 14126 14127 14128 14129 14130 14131 14132 14133 14134 14135 14136 14137 14138 14139 14140 14141 14142 14143 14144 14145 14146 14147 14148 14149 14150 14151 14152 14153 14154 14155 14156 14157 14158 14159 14160 14161 14162 14163 14164 14165 14166 14167 14168 14169 14170 14171 14172 14173 14174 14175 14176 14177 14178 14179 14180 14181 14182 14183 14184 14185 14186 14187 14188 14189 14190 14191 14192 14193 14194 14195 14196 14197 14198 14199 14200 14201 14202 14203 14204 14205 14206 14207 14208 14209 14210 14211 14212 14213 14214 14215 14216 14217 14218 14219 14220 14221 14222 14223 14224 14225 14226 14227 14228 14229 14230 14231 14232 14233 14234 14235 14236 14237 14238 14239 14240 14241 14242 14243 14244 14245 14246 14247 14248 14249 14250 14251 14252 14253 14254 14255 14256 14257 14258 14259 14260 14261 14262 14263 14264 14265 14266 14267 14268 14269 14270 14271 14272 14273 14274 14275 14276 14277 14278 14279 14280 14281 14282 14283 14284 14285 14286 14287 14288 14289 14290 14291 14292 14293 14294 14295 14296 14297 14298 14299 14300 14301 14302 14303 14304 14305 14306 14307 14308 14309 14310 14311 14312 14313 14314 14315 14316 14317 14318 14319 14320 14321 14322 14323 14324 14325 14326 14327 14328 14329 14330 14331 14332 14333 14334 14335 14336 14337 14338 14339 14340 14341 14342 14343 14344 14345 14346 14347 14348 14349 14350 14351 14352 14353 14354 14355 14356 14357 14358 14359 14360 14361 14362 14363 14364 14365 14366 14367 14368 14369 14370 14371 14372 14373 14374 14375 14376 14377 14378 14379 14380 14381 14382 14383 14384 14385 14386 14387 14388 14389 14390 14391 14392 14393 14394 14395 14396 14397 14398 14399 14400 14401 14402 14403 14404 14405 14406 14407 14408 14409 14410 14411 14412 14413 14414 14415 14416 14417 14418 14419 14420 14421 14422 14423 14424 14425 14426 14427 14428 14429 14430 14431 14432 14433 14434 14435 14436 14437 14438 14439 14440 14441 14442 14443 14444 14445 14446 14447 14448 14449 14450 14451 14452 14453 14454 14455 14456 14457 14458 14459 14460 14461 14462 14463 14464 14465 14466 14467 14468 14469 14470 14471 14472 14473 14474 14475 14476 14477 14478 14479 14480 14481 14482 14483 14484 14485 14486 14487 14488 14489 14490 14491 14492 14493 14494 14495 14496 14497 14498 14499 14500 14501 14502 14503 14504 14505 14506 14507 14508 14509 14510 14511 14512 14513 14514 14515 14516 14517 14518 14519 14520 14521 14522 14523 14524 14525 14526 14527 14528 14529 14530 14531 14532 14533 14534 14535 14536 14537 14538 14539 14540 14541 14542 14543 14544 14545 14546 14547 14548 14549 14550 14551 14552 14553 14554 14555 14556 14557 14558 14559 14560 14561 14562 14563 14564 14565 14566 14567 14568 14569 14570 14571 14572 14573 14574 14575 14576 14577 14578 14579 14580 14581 14582 14583 14584 14585 14586 14587 14588 14589 14590 14591 14592 14593 14594 14595 14596 14597 14598 14599 14600 14601 14602 14603 14604 14605 14606 14607 14608 14609 14610 14611 14612 14613 14614 14615 14616 14617 14618 14619 14620 14621 14622 14623 14624 14625 14626 14627 14628 14629 14630 14631 14632 14633 14634 14635 14636 14637 14638 14639 14640 14641 14642 14643 14644 14645 14646 14647 14648 14649 14650 14651 14652 14653 14654 14655 14656 14657 14658 14659 14660 14661 14662 14663 14664 14665 14666 14667 14668 14669 14670 14671 14672 14673 14674 14675 14676 14677 14678 14679 14680 14681 14682 14683 14684 14685 14686 14687 14688 14689 14690 14691 14692 14693 14694 14695 14696 14697 14698 14699 14700 14701 14702 14703 14704 14705 14706 14707 14708 14709 14710 14711 14712 14713 14714 14715 14716 14717 14718 14719 14720 14721 14722 14723 14724 14725 14726 14727 14728 14729 14730 14731 14732 14733 14734 14735 14736 14737 14738 14739 14740 14741 14742 14743 14744 14745 14746 14747 14748 14749 14750 14751 14752 14753 14754 14755 14756 14757 14758 14759 14760 14761 14762 14763 14764 14765 14766 14767 14768 14769 14770 14771 14772 14773 14774 14775 14776 14777 14778 14779 14780 14781 14782 14783 14784 14785 14786 14787 14788 14789 14790 14791 14792 14793 14794 14795 14796 14797 14798 14799 14800 14801 14802 14803 14804 14805 14806 14807 14808 14809 14810 14811 14812 14813 14814 14815 14816 14817 14818 14819 14820 14821 14822 14823 14824 14825 14826 14827 14828 14829 14830 14831 14832 14833 14834 14835 14836 14837 14838 14839 14840 14841 14842 14843 14844 14845 14846 14847 14848 14849 14850 14851 14852 14853 14854 14855 14856 14857 14858 14859 14860 14861 14862 14863 14864 14865 14866 14867 14868 14869 14870 14871 14872 14873 14874 14875 14876 14877 14878 14879 14880 14881 14882 14883 14884 14885 14886 14887 14888 14889 14890 14891 14892 14893 14894 14895 14896 14897 14898 14899 14900 14901 14902 14903 14904 14905 14906 14907 14908 14909 14910 14911 14912 14913 14914 14915 14916 14917 14918 14919 14920 14921 14922 14923 14924 14925 14926 14927 14928 14929 14930 14931 14932 14933 14934 14935 14936 14937 14938 14939 14940 14941 14942 14943 14944 14945 14946 14947 14948 14949 14950 14951 14952 14953 14954 14955 14956 14957 14958 14959 14960 14961 14962 14963 14964 14965 14966 14967 14968 14969 14970 14971 14972 14973 14974 14975 14976 14977 14978 14979 14980 14981 14982 14983 14984 14985 14986 14987 14988 14989 14990 14991 14992 14993 14994 14995 14996 14997 14998 14999 15000 15001 15002 15003 15004 15005 15006 15007 15008 15009 15010 15011 15012 15013 15014 15015 15016 15017 15018 15019 15020 15021 15022 15023 15024 15025 15026 15027 15028 15029 15030 15031 15032 15033 15034 15035 15036 15037 15038 15039 15040 15041 15042 15043 15044 15045 15046 15047 15048 15049 15050 15051 15052 15053 15054 15055 15056 15057 15058 15059 15060 15061 15062 15063 15064 15065 15066 15067 15068 15069 15070 15071 15072 15073 15074 15075 15076 15077 15078 15079 15080 15081 15082 15083 15084 15085 15086 15087 15088 15089 15090 15091 15092 15093 15094 15095 15096 15097 15098 15099 15100 15101 15102 15103 15104 15105 15106 15107 15108 15109 15110 15111 15112 15113 15114 15115 15116 15117 15118 15119 15120 15121 15122 15123 15124 15125 15126 15127 15128 15129 15130 15131 15132 15133 15134 15135 15136 15137 15138 15139 15140 15141 15142 15143 15144 15145 15146 15147 15148 15149 15150 15151 15152 15153 15154 15155 15156 15157 15158 15159 15160 15161 15162 15163 15164 15165 15166 15167 15168 15169 15170 15171 15172 15173 15174 15175 15176 15177 15178 15179 15180 15181 15182 15183 15184 15185 15186 15187 15188 15189 15190 15191 15192 15193 15194 15195 15196 15197 15198 15199 15200 15201 15202 15203 15204 15205 15206 15207 15208 15209 15210 15211 15212 15213 15214 15215 15216 15217 15218 15219 15220 15221 15222 15223 15224 15225 15226 15227 15228 15229 15230 15231 15232 15233 15234 15235 15236 15237 15238 15239 15240 15241 15242 15243 15244 15245 15246 15247 15248 15249 15250 15251 15252 15253 15254 15255 15256 15257 15258 15259 15260 15261 15262 15263 15264 15265 15266 15267 15268 15269 15270 15271 15272 15273 15274 15275 15276 15277 15278 15279 15280 15281 15282 15283 15284 15285 15286 15287 15288 15289 15290 15291 15292 15293 15294 15295 15296 15297 15298 15299 15300 15301 15302 15303 15304 15305 15306 15307 15308 15309 15310 15311 15312 15313 15314 15315 15316 15317 15318 15319 15320 15321 15322 15323 15324 15325 15326 15327 15328 15329 15330 15331 15332 15333 15334 15335 15336 15337 15338 15339 15340 15341 15342 15343 15344 15345 15346 15347 15348 15349 15350 15351 15352 15353 15354 15355 15356 15357 15358 15359 15360 15361 15362 15363 15364 15365 15366 15367 15368 15369 15370 15371 15372 15373 15374 15375 15376 15377 15378 15379 15380 15381 15382 15383 15384 15385 15386 15387 15388 15389 15390 15391 15392 15393 15394 15395 15396 15397 15398 15399 15400 15401 15402 15403 15404 15405 15406 15407 15408 15409 15410 15411 15412 15413 15414 15415 15416 15417 15418 15419 15420 15421 15422 15423 15424 15425 15426 15427 15428 15429 15430 15431 15432 15433 15434 15435 15436 15437 15438 15439 15440 15441 15442 15443 15444 15445 15446 15447 15448 15449 15450 15451 15452 15453 15454 15455 15456 15457 15458 15459 15460 15461 15462 15463 15464 15465 15466 15467 15468 15469 15470 15471 15472 15473 15474 15475 15476 15477 15478 15479 15480 15481 15482 15483 15484 15485 15486 15487 15488 15489 15490 15491 15492 15493 15494 15495 15496 15497 15498 15499 15500 15501 15502 15503 15504 15505 15506 15507 15508 15509 15510 15511 15512 15513 15514 15515 15516 15517 15518 15519 15520 15521 15522 15523 15524 15525 15526 15527 15528 15529 15530 15531 15532 15533 15534 15535 15536 15537 15538 15539 15540 15541 15542 15543 15544 15545 15546 15547 15548 15549 15550 15551 15552 15553 15554 15555 15556 15557 15558 15559 15560 15561 15562 15563 15564 15565 15566 15567 15568 15569 15570 15571 15572 15573 15574 15575 15576 15577 15578 15579 15580 15581 15582 15583 15584 15585 15586 15587 15588 15589 15590 15591 15592 15593 15594 15595 15596 15597 15598 15599 15600 15601 15602 15603 15604 15605 15606 15607 15608 15609 15610 15611 15612 15613 15614 15615 15616 15617 15618 15619 15620 15621 15622 15623 15624 15625 15626 15627 15628 15629 15630 15631 15632 15633 15634 15635 15636 15637 15638 15639 15640 15641 15642 15643 15644 15645 15646 15647 15648 15649 15650 15651 15652 15653 15654 15655 15656 15657 15658 15659 15660 15661 15662 15663 15664 15665 15666 15667 15668 15669 15670 15671 15672 15673 15674 15675 15676 15677 15678 15679 15680 15681 15682 15683 15684 15685 15686 15687 15688 15689 15690 15691 15692 15693 15694 15695 15696 15697 15698 15699 15700 15701 15702 15703 15704 15705 15706 15707 15708 15709 15710 15711 15712 15713 15714 15715 15716 15717 15718 15719 15720 15721 15722 15723 15724 15725 15726 15727 15728 15729 15730 15731 15732 15733 15734 15735 15736 15737 15738 15739 15740 15741 15742 15743 15744 15745 15746 15747 15748 15749 15750 15751 15752 15753 15754 15755 15756 15757 15758 15759 15760 15761 15762 15763 15764 15765 15766 15767 15768 15769 15770 15771 15772 15773 15774 15775 15776 15777 15778 15779 15780 15781 15782 15783 15784 15785 15786 15787 15788 15789 15790 15791 15792 15793 15794 15795 15796 15797 15798 15799 15800 15801 15802 15803 15804 15805 15806 15807 15808 15809 15810 15811 15812 15813 15814 15815 15816 15817 15818 15819 15820 15821 15822 15823 15824 15825 15826 15827 15828 15829 15830 15831 15832 15833 15834 15835 15836 15837 15838 15839 15840 15841 15842 15843 15844 15845 15846 15847 15848 15849 15850 15851 15852 15853 15854 15855 15856 15857 15858 15859 15860 15861 15862 15863 15864 15865 15866 15867 15868 15869 15870 15871 15872 15873 15874 15875 15876 15877 15878 15879 15880 15881 15882 15883 15884 15885 15886 15887 15888 15889 15890 15891 15892 15893 15894 15895 15896 15897 15898 15899 15900 15901 15902 15903 15904 15905 15906 15907 15908 15909 15910 15911 15912 15913 15914 15915 15916 15917 15918 15919 15920 15921 15922 15923 15924 15925 15926 15927 15928 15929 15930 15931 15932 15933 15934 15935 15936 15937 15938 15939 15940 15941 15942 15943 15944 15945 15946 15947 15948 15949 15950 15951 15952 15953 15954 15955 15956 15957 15958 15959 15960 15961 15962 15963 15964 15965 15966 15967 15968 15969 15970 15971 15972 15973 15974 15975 15976 15977 15978 15979 15980 15981 15982 15983 15984 15985 15986 15987 15988 15989 15990 15991 15992 15993 15994 15995 15996 15997 15998 15999 16000 16001 16002 16003 16004 16005 16006 16007 16008 16009 16010 16011 16012 16013 16014 16015 16016 16017 16018 16019 16020 16021 16022 16023 16024 16025 16026 16027 16028 16029 16030 16031 16032 16033 16034 16035 16036 16037 16038 16039 16040 16041 16042 16043 16044 16045 16046 16047 16048 16049 16050 16051 16052 16053 16054 16055 16056 16057 16058 16059 16060 16061 16062 16063 16064 16065 16066 16067 16068 16069 16070 16071 16072 16073 16074 16075 16076 16077 16078 16079 16080 16081 16082 16083 16084 16085 16086 16087 16088 16089 16090 16091 16092 16093 16094 16095 16096 16097 16098 16099 16100 16101 16102 16103 16104 16105 16106 16107 16108 16109 16110 16111 16112 16113 16114 16115 16116 16117 16118 16119 16120 16121 16122 16123 16124 16125 16126 16127 16128 16129 16130 16131 16132 16133 16134 16135 16136 16137 16138 16139 16140 16141 16142 16143 16144 16145 16146 16147 16148 16149 16150 16151 16152 16153 16154 16155 16156 16157 16158 16159 16160 16161 16162 16163 16164 16165 16166 16167 16168 16169 16170 16171 16172 16173 16174 16175 16176 16177 16178 16179 16180 16181 16182 16183 16184 16185 16186 16187 16188 16189 16190 16191 16192 16193 16194 16195 16196 16197 16198 16199 16200 16201 16202 16203 16204 16205 16206 16207 16208 16209 16210 16211 16212 16213 16214 16215 16216 16217 16218 16219 16220 16221 16222 16223 16224 16225 16226 16227 16228 16229 16230 16231 16232 16233 16234 16235 16236 16237 16238 16239 16240 16241 16242 16243 16244 16245 16246 16247 16248 16249 16250 16251 16252 16253 16254 16255 16256 16257 16258 16259 16260 16261 16262 16263 16264 16265 16266 16267 16268 16269 16270 16271 16272 16273 16274 16275 16276 16277 16278 16279 16280 16281 16282 16283 16284 16285 16286 16287 16288 16289 16290 16291 16292 16293 16294 16295 16296 16297 16298 16299 16300 16301 16302 16303 16304 16305 16306 16307 16308 16309 16310 16311 16312 16313 16314 16315 16316 16317 16318 16319 16320 16321 16322 16323 16324 16325 16326 16327 16328 16329 16330 16331 16332 16333 16334 16335 16336 16337 16338 16339 16340 16341 16342 16343 16344 16345 16346 16347 16348 16349 16350 16351 16352 16353 16354 16355 16356 16357 16358 16359 16360 16361 16362 16363 16364 16365 16366 16367 16368 16369 16370 16371 16372 16373 16374 16375 16376 16377 16378 16379 16380 16381 16382 16383 16384 16385 16386 16387 16388 16389 16390 16391 16392 16393 16394 16395 16396 16397 16398 16399 16400 16401 16402 16403 16404 16405 16406 16407 16408 16409 16410 16411 16412 16413 16414 16415 16416 16417 16418 16419 16420 16421 16422 16423 16424 16425 16426 16427 16428 16429 16430 16431 16432 16433 16434 16435 16436 16437 16438 16439 16440 16441 16442 16443 16444 16445 16446 16447 16448 16449 16450 16451 16452 16453 16454 16455 16456 16457 16458 16459 16460 16461 16462 16463 16464 16465 16466 16467 16468 16469 16470 16471 16472 16473 16474 16475 16476 16477 16478 16479 16480 16481 16482 16483 16484 16485 16486 16487 16488 16489 16490 16491 16492 16493 16494 16495 16496 16497 16498 16499 16500 16501 16502 16503 16504 16505 16506 16507 16508 16509 16510 16511 16512 16513 16514 16515 16516 16517 16518 16519 16520 16521 16522 16523 16524 16525 16526 16527 16528 16529 16530 16531 16532 16533 16534 16535 16536 16537 16538 16539 16540 16541 16542 16543 16544 16545 16546 16547 16548 16549 16550 16551 16552 16553 16554 16555 16556 16557 16558 16559 16560 16561 16562 16563 16564 16565 16566 16567 16568 16569 16570 16571 16572 16573 16574 16575 16576 16577 16578 16579 16580 16581 16582 16583 16584 16585 16586 16587 16588 16589 16590 16591 16592 16593 16594 16595 16596 16597 16598 16599 16600 16601 16602 16603 16604 16605 16606 16607 16608 16609 16610 16611 16612 16613 16614 16615 16616 16617 16618 16619 16620 16621 16622 16623 16624 16625 16626 16627 16628 16629 16630 16631 16632 16633 16634 16635 16636 16637 16638 16639 16640 16641 16642 16643 16644 16645 16646 16647 16648 16649 16650 16651 16652 16653 16654 16655 16656 16657 16658 16659 16660 16661 16662 16663 16664 16665 16666 16667 16668 16669 16670 16671 16672 16673 16674 16675 16676 16677 16678 16679 16680 16681 16682 16683 16684 16685 16686 16687 16688 16689 16690 16691 16692 16693 16694 16695 16696 16697 16698 16699 16700 16701 16702 16703 16704 16705 16706 16707 16708 16709 16710 16711 16712 16713 16714 16715 16716 16717 16718 16719 16720 16721 16722 16723 16724 16725 16726 16727 16728 16729 16730 16731 16732 16733 16734 16735 16736 16737 16738 16739 16740 16741 16742 16743 16744 16745 16746 16747 16748 16749 16750 16751 16752 16753 16754 16755 16756 16757 16758 16759 16760 16761 16762 16763 16764 16765 16766 16767 16768 16769 16770 16771 16772 16773 16774 16775 16776 16777 16778 16779 16780 16781 16782 16783 16784 16785 16786 16787 16788 16789 16790 16791 16792 16793 16794 16795 16796 16797 16798 16799 16800 16801 16802 16803 16804 16805 16806 16807 16808 16809 16810 16811 16812 16813 16814 16815 16816 16817 16818 16819 16820 16821 16822 16823 16824 16825 16826 16827 16828 16829 16830 16831 16832 16833 16834 16835 16836 16837 16838 16839 16840 16841 16842 16843 16844 16845 16846 16847 16848 16849 16850 16851 16852 16853 16854 16855 16856 16857 16858 16859 16860 16861 16862 16863 16864 16865 16866 16867 16868 16869 16870 16871 16872 16873 16874 16875 16876 16877 16878 16879 16880 16881 16882 16883 16884 16885 16886 16887 16888 16889 16890 16891 16892 16893 16894 16895 16896 16897 16898 16899 16900 16901 16902 16903 16904 16905 16906 16907 16908 16909 16910 16911 16912 16913 16914 16915 16916 16917 16918 16919 16920 16921 16922 16923 16924 16925 16926 16927 16928 16929 16930 16931 16932 16933 16934 16935 16936 16937 16938 16939 16940 16941 16942 16943 16944 16945 16946 16947 16948 16949 16950 16951 16952 16953 16954 16955 16956 16957 16958 16959 16960 16961 16962 16963 16964 16965 16966 16967 16968 16969 16970 16971 16972 16973 16974 16975 16976 16977 16978 16979 16980 16981 16982 16983 16984 16985 16986 16987 16988 16989 16990 16991 16992 16993 16994 16995 16996 16997 16998 16999 17000 17001 17002 17003 17004 17005 17006 17007 17008 17009 17010 17011 17012 17013 17014 17015 17016 17017 17018 17019 17020 17021 17022 17023 17024 17025 17026 17027 17028 17029 17030 17031 17032 17033 17034 17035 17036 17037 17038 17039 17040 17041 17042 17043 17044 17045 17046 17047 17048 17049 17050 17051 17052 17053 17054 17055 17056 17057 17058 17059 17060 17061 17062 17063 17064 17065 17066 17067 17068 17069 17070 17071 17072 17073 17074 17075 17076 17077 17078 17079 17080 17081 17082 17083 17084 17085 17086 17087 17088 17089 17090 17091 17092 17093 17094 17095 17096 17097 17098 17099 17100 17101 17102 17103 17104 17105 17106 17107 17108 17109 17110 17111 17112 17113 17114 17115 17116 17117 17118 17119 17120 17121 17122 17123 17124 17125 17126 17127 17128 17129 17130 17131 17132 17133 17134 17135 17136 17137 17138 17139 17140 17141 17142 17143 17144 17145 17146 17147 17148 17149 17150 17151 17152 17153 17154 17155 17156 17157 17158 17159 17160 17161 17162 17163 17164 17165 17166 17167 17168 17169 17170 17171 17172 17173 17174 17175 17176 17177 17178 17179 17180 17181 17182 17183 17184 17185 17186 17187 17188 17189 17190 17191 17192 17193 17194 17195 17196 17197 17198 17199 17200 17201 17202 17203 17204 17205 17206 17207 17208 17209 17210 17211 17212 17213 17214 17215 17216 17217 17218 17219 17220 17221 17222 17223 17224 17225 17226 17227 17228 17229 17230 17231 17232 17233 17234 17235 17236 17237 17238 17239 17240 17241 17242 17243 17244 17245 17246 17247 17248 17249 17250 17251 17252 17253 17254 17255 17256 17257 17258 17259 17260 17261 17262 17263 17264 17265 17266 17267 17268 17269 17270 17271 17272 17273 17274 17275 17276 17277 17278 17279 17280 17281 17282 17283 17284 17285 17286 17287 17288 17289 17290 17291 17292 17293 17294 17295 17296 17297 17298 17299 17300 17301 17302 17303 17304 17305 17306 17307 17308 17309 17310 17311 17312 17313 17314 17315 17316 17317 17318 17319 17320 17321 17322 17323 17324 17325 17326 17327 17328 17329 17330 17331 17332 17333 17334 17335 17336 17337 17338 17339 17340 17341 17342 17343 17344 17345 17346 17347 17348 17349 17350 17351 17352 17353 17354 17355 17356 17357 17358 17359 17360 17361 17362 17363 17364 17365 17366 17367 17368 17369 17370 17371 17372 17373 17374 17375 17376 17377 17378 17379 17380 17381 17382 17383 17384 17385 17386 17387 17388 17389 17390 17391 17392 17393 17394 17395 17396 17397 17398 17399 17400 17401 17402 17403 17404 17405 17406 17407 17408 17409 17410 17411 17412 17413 17414 17415 17416 17417 17418 17419 17420 17421 17422 17423 17424 17425 17426 17427 17428 17429 17430 17431 17432 17433 17434 17435 17436 17437 17438 17439 17440 17441 17442 17443 17444 17445 17446 17447 17448 17449 17450 17451 17452 17453 17454 17455 17456 17457 17458 17459 17460 17461 17462 17463 17464 17465 17466 17467 17468 17469 17470 17471 17472 17473 17474 17475 17476 17477 17478 17479 17480 17481 17482 17483 17484 17485 17486 17487 17488 17489 17490 17491 17492 17493 17494 17495 17496 17497 17498 17499 17500 17501 17502 17503 17504 17505 17506 17507 17508 17509 17510 17511 17512 17513 17514 17515 17516 17517 17518 17519 17520 17521 17522 17523 17524 17525 17526 17527 17528 17529 17530 17531 17532 17533 17534 17535 17536 17537 17538 17539 17540 17541 17542 17543 17544 17545 17546 17547 17548 17549 17550 17551 17552 17553 17554 17555 17556 17557 17558 17559 17560 17561 17562 17563 17564 17565 17566 17567 17568 17569 17570 17571 17572 17573 17574 17575 17576 17577 17578 17579 17580 17581 17582 17583 17584 17585 17586 17587 17588 17589 17590 17591 17592 17593 17594 17595 17596 17597 17598 17599 17600 17601 17602 17603 17604 17605 17606 17607 17608 17609 17610 17611 17612 17613 17614 17615 17616 17617 17618 17619 17620 17621 17622 17623 17624 17625 17626 17627 17628 17629 17630 17631 17632 17633 17634 17635 17636 17637 17638 17639 17640 17641 17642 17643 17644 17645 17646 17647 17648 17649 17650 17651 17652 17653 17654 17655 17656 17657 17658 17659 17660 17661 17662 17663 17664 17665 17666 17667 17668 17669 17670 17671 17672 17673 17674 17675 17676 17677 17678 17679 17680 17681 17682 17683 17684 17685 17686 17687 17688 17689 17690 17691 17692 17693 17694 17695 17696 17697 17698 17699 17700 17701 17702 17703 17704 17705 17706 17707 17708 17709 17710 17711 17712 17713 17714 17715 17716 17717 17718 17719 17720 17721 17722 17723 17724 17725 17726 17727 17728 17729 17730 17731 17732 17733 17734 17735 17736 17737 17738 17739 17740 17741 17742 17743 17744 17745 17746 17747 17748 17749 17750 17751 17752 17753 17754 17755 17756 17757 17758 17759 17760 17761 17762 17763 17764 17765 17766 17767 17768 17769 17770 17771 17772 17773 17774 17775 17776 17777 17778 17779 17780 17781 17782 17783 17784 17785 17786 17787 17788 17789 17790 17791 17792 17793 17794 17795 17796 17797 17798 17799 17800 17801 17802 17803 17804 17805 17806 17807 17808 17809 17810 17811 17812 17813 17814 17815 17816 17817 17818 17819 17820 17821 17822 17823 17824 17825 17826 17827 17828 17829 17830 17831 17832 17833 17834 17835 17836 17837 17838 17839 17840 17841 17842 17843 17844 17845 17846 17847 17848 17849 17850 17851 17852 17853 17854 17855 17856 17857 17858 17859 17860 17861 17862 17863 17864 17865 17866 17867 17868 17869 17870 17871 17872 17873 17874 17875 17876 17877 17878 17879 17880 17881 17882 17883 17884 17885 17886 17887 17888 17889 17890 17891 17892 17893 17894 17895 17896 17897 17898 17899 17900 17901 17902 17903 17904 17905 17906 17907 17908 17909 17910 17911 17912 17913 17914 17915 17916 17917 17918 17919 17920 17921 17922 17923 17924 17925 17926 17927 17928 17929 17930 17931 17932 17933 17934 17935 17936 17937 17938 17939 17940 17941 17942 17943 17944 17945 17946 17947 17948 17949 17950 17951 17952 17953 17954 17955 17956 17957 17958 17959 17960 17961 17962 17963 17964 17965 17966 17967 17968 17969 17970 17971 17972 17973 17974 17975 17976 17977 17978 17979 17980 17981 17982 17983 17984 17985 17986 17987 17988 17989 17990 17991 17992 17993 17994 17995 17996 17997 17998 17999 18000 18001 18002 18003 18004 18005 18006 18007 18008 18009 18010 18011 18012 18013 18014 18015 18016 18017 18018 18019 18020 18021 18022 18023 18024 18025 18026 18027 18028 18029 18030 18031 18032 18033 18034 18035 18036 18037 18038 18039 18040 18041 18042 18043 18044 18045 18046 18047 18048 18049 18050 18051 18052 18053 18054 18055 18056 18057 18058 18059 18060 18061 18062 18063 18064 18065 18066 18067 18068 18069 18070 18071 18072 18073 18074 18075 18076 18077 18078 18079 18080 18081 18082 18083 18084 18085 18086 18087 18088 18089 18090 18091 18092 18093 18094 18095 18096 18097 18098 18099 18100 18101 18102 18103 18104 18105 18106 18107 18108 18109 18110 18111 18112 18113 18114 18115 18116 18117 18118 18119 18120 18121 18122 18123 18124 18125 18126 18127 18128 18129 18130 18131 18132 18133 18134 18135 18136 18137 18138 18139 18140 18141 18142 18143 18144 18145 18146 18147 18148 18149 18150 18151 18152 18153 18154 18155 18156 18157 18158 18159 18160 18161 18162 18163 18164 18165 18166 18167 18168 18169 18170 18171 18172 18173 18174 18175 18176 18177 18178 18179 18180 18181 18182 18183 18184 18185 18186 18187 18188 18189 18190 18191 18192 18193 18194 18195 18196 18197 18198 18199 18200 18201 18202 18203 18204 18205 18206 18207 18208 18209 18210 18211 18212 18213 18214 18215 18216 18217 18218 18219 18220 18221 18222 18223 18224 18225 18226 18227 18228 18229 18230 18231 18232 18233 18234 18235 18236 18237 18238 18239 18240 18241 18242 18243 18244 18245 18246 18247 18248 18249 18250 18251 18252 18253 18254 18255 18256 18257 18258 18259 18260 18261 18262 18263 18264 18265 18266 18267 18268 18269 18270 18271 18272 18273 18274 18275 18276 18277 18278 18279 18280 18281 18282 18283 18284 18285 18286 18287 18288 18289 18290 18291 18292 18293 18294 18295 18296 18297 18298 18299 18300 18301 18302 18303 18304 18305 18306 18307 18308 18309 18310 18311 18312 18313 18314 18315 18316 18317 18318 18319 18320 18321 18322 18323 18324 18325 18326 18327 18328 18329 18330 18331 18332 18333 18334 18335 18336 18337 18338 18339 18340 18341 18342 18343 18344 18345 18346 18347 18348 18349 18350 18351 18352 18353 18354 18355 18356 18357 18358 18359 18360 18361 18362 18363 18364 18365 18366 18367 18368 18369 18370 18371 18372 18373 18374 18375 18376 18377 18378 18379 18380 18381 18382 18383 18384 18385 18386 18387 18388 18389 18390 18391 18392 18393 18394 18395 18396 18397 18398 18399 18400 18401 18402 18403 18404 18405 18406 18407 18408 18409 18410 18411 18412 18413 18414 18415 18416 18417 18418 18419 18420 18421 18422 18423 18424 18425 18426 18427 18428 18429 18430 18431 18432 18433 18434 18435 18436 18437 18438 18439 18440 18441 18442 18443 18444 18445 18446 18447 18448 18449 18450 18451 18452 18453 18454 18455 18456 18457 18458 18459 18460 18461 18462 18463 18464 18465 18466 18467 18468 18469 18470 18471 18472 18473 18474 18475 18476 18477 18478 18479 18480 18481 18482 18483 18484 18485 18486 18487 18488 18489 18490 18491 18492 18493 18494 18495 18496 18497 18498 18499 18500 18501 18502 18503 18504 18505 18506 18507 18508 18509 18510 18511 18512 18513 18514 18515 18516 18517 18518 18519 18520 18521 18522 18523 18524 18525 18526 18527 18528 18529 18530 18531 18532 18533 18534 18535 18536 18537 18538 18539 18540 18541 18542 18543 18544 18545 18546 18547 18548 18549 18550 18551 18552 18553 18554 18555 18556 18557 18558 18559 18560 18561 18562 18563 18564 18565 18566 18567 18568 18569 18570 18571 18572 18573 18574 18575 18576 18577 18578 18579 18580 18581 18582 18583 18584 18585 18586 18587 18588 18589 18590 18591 18592 18593 18594 18595 18596 18597 18598 18599 18600 18601 18602 18603 18604 18605 18606 18607 18608 18609 18610 18611 18612 18613 18614 18615 18616 18617 18618 18619 18620 18621 18622 18623 18624 18625 18626 18627 18628 18629 18630 18631 18632 18633 18634 18635 18636 18637 18638 18639 18640 18641 18642 18643 18644 18645 18646 18647 18648 18649 18650 18651 18652 18653 18654 18655 18656 18657 18658 18659 18660 18661 18662 18663 18664 18665 18666 18667 18668 18669 18670 18671 18672 18673 18674 18675 18676 18677 18678 18679 18680 18681 18682 18683 18684 18685 18686 18687 18688 18689 18690 18691 18692 18693 18694 18695 18696 18697 18698 18699 18700 18701 18702 18703 18704 18705 18706 18707 18708 18709 18710 18711 18712 18713 18714 18715 18716 18717 18718 18719 18720 18721 18722 18723 18724 18725 18726 18727 18728 18729 18730 18731 18732 18733 18734 18735 18736 18737 18738 18739 18740 18741 18742 18743 18744 18745 18746 18747 18748 18749 18750 18751 18752 18753 18754 18755 18756 18757 18758 18759 18760 18761 18762 18763 18764 18765 18766 18767 18768 18769 18770 18771 18772 18773 18774 18775 18776 18777 18778 18779 18780 18781 18782 18783 18784 18785 18786 18787 18788 18789 18790 18791 18792 18793 18794 18795 18796 18797 18798 18799 18800 18801 18802 18803 18804 18805 18806 18807 18808 18809 18810 18811 18812 18813 18814 18815 18816 18817 18818 18819 18820 18821 18822 18823 18824 18825 18826 18827 18828 18829 18830 18831 18832 18833 18834 18835 18836 18837 18838 18839 18840 18841 18842 18843 18844 18845 18846 18847 18848 18849 18850 18851 18852 18853 18854 18855 18856 18857 18858 18859 18860 18861 18862 18863 18864 18865 18866 18867 18868 18869 18870 18871 18872 18873 18874 18875 18876 18877 18878 18879 18880 18881 18882 18883 18884 18885 18886 18887 18888 18889 18890 18891 18892 18893 18894 18895 18896 18897 18898 18899 18900 18901 18902 18903 18904 18905 18906 18907 18908 18909 18910 18911 18912 18913 18914 18915 18916 18917 18918 18919 18920 18921 18922 18923 18924 18925 18926 18927 18928 18929 18930 18931 18932 18933 18934 18935 18936 18937 18938 18939 18940 18941 18942 18943 18944 18945 18946 18947 18948 18949 18950 18951 18952 18953 18954 18955 18956 18957 18958 18959 18960 18961 18962 18963 18964 18965 18966 18967 18968 18969 18970 18971 18972 18973 18974 18975 18976 18977 18978 18979 18980 18981 18982 18983 18984 18985 18986 18987 18988 18989 18990 18991 18992 18993 18994 18995 18996 18997 18998 18999 19000 19001 19002 19003 19004 19005 19006 19007 19008 19009 19010 19011 19012 19013 19014 19015 19016 19017 19018 19019 19020 19021 19022 19023 19024 19025 19026 19027 19028 19029 19030 19031 19032 19033 19034 19035 19036 19037 19038 19039 19040 19041 19042 19043 19044 19045 19046 19047 19048 19049 19050 19051 19052 19053 19054 19055 19056 19057 19058 19059 19060 19061 19062 19063 19064 19065 19066 19067 19068 19069 19070 19071 19072 19073 19074 19075 19076 19077 19078 19079 19080 19081 19082 19083 19084 19085 19086 19087 19088 19089 19090 19091 19092 19093 19094 19095 19096 19097 19098 19099 19100 19101 19102 19103 19104 19105 19106 19107 19108 19109 19110 19111 19112 19113 19114 19115 19116 19117 19118 19119 19120 19121 19122 19123 19124 19125 19126 19127 19128 19129 19130 19131 19132 19133 19134 19135 19136 19137 19138 19139 19140 19141 19142 19143 19144 19145 19146 19147 19148 19149 19150 19151 19152 19153 19154 19155 19156 19157 19158 19159 19160 19161 19162 19163 19164 19165 19166 19167 19168 19169 19170 19171 19172 19173 19174 19175 19176 19177 19178 19179 19180 19181 19182 19183 19184 19185 19186 19187 19188 19189 19190 19191 19192 19193 19194 19195 19196 19197 19198 19199 19200 19201 19202 19203 19204 19205 19206 19207 19208 19209 19210 19211 19212 19213 19214 19215 19216 19217 19218 19219 19220 19221 19222 19223 19224 19225 19226 19227 19228 19229 19230 19231 19232 19233 19234 19235 19236 19237 19238 19239 19240 19241 19242 19243 19244 19245 19246 19247 19248 19249 19250 19251 19252 19253 19254 19255 19256 19257 19258 19259 19260 19261 19262 19263 19264 19265 19266 19267 19268 19269 19270 19271 19272 19273 19274 19275 19276 19277 19278 19279 19280 19281 19282 19283 19284 19285 19286 19287 19288 19289 19290 19291 19292 19293 19294 19295 19296 19297 19298 19299 19300 19301 19302 19303 19304 19305 19306 19307 19308 19309 19310 19311 19312 19313 19314 19315 19316 19317 19318 19319 19320 19321 19322 19323 19324 19325 19326 19327 19328 19329 19330 19331 19332 19333 19334 19335 19336 19337 19338 19339 19340 19341 19342 19343 19344 19345 19346 19347 19348 19349 19350 19351 19352 19353 19354 19355 19356 19357 19358 19359 19360 19361 19362 19363 19364 19365 19366 19367 19368 19369 19370 19371 19372 19373 19374 19375 19376 19377 19378 19379 19380 19381 19382 19383 19384 19385 19386 19387 19388 19389 19390 19391 19392 19393 19394 19395 19396 19397 19398 19399 19400 19401 19402 19403 19404 19405 19406 19407 19408 19409 19410 19411 19412 19413 19414 19415 19416 19417 19418 19419 19420 19421 19422 19423 19424 19425 19426 19427 19428 19429 19430 19431 19432 19433 19434 19435 19436 19437 19438 19439 19440 19441 19442 19443 19444 19445 19446 19447 19448 19449 19450 19451 19452 19453 19454 19455 19456 19457 19458 19459 19460 19461 19462 19463 19464 19465 19466 19467 19468 19469 19470 19471 19472 19473 19474 19475 19476 19477 19478 19479 19480 19481 19482 19483 19484 19485 19486 19487 19488 19489 19490 19491 19492 19493 19494 19495 19496 19497 19498 19499 19500 19501 19502 19503 19504 19505 19506 19507 19508 19509 19510 19511 19512 19513 19514 19515 19516 19517 19518 19519 19520 19521 19522 19523 19524 19525 19526 19527 19528 19529 19530 19531 19532 19533 19534 19535 19536 19537 19538 19539 19540 19541 19542 19543 19544 19545 19546 19547 19548 19549 19550 19551 19552 19553 19554 19555 19556 19557 19558 19559 19560 19561 19562 19563 19564 19565 19566 19567 19568 19569 19570 19571 19572 19573 19574 19575 19576 19577 19578 19579 19580 19581 19582 19583 19584 19585 19586 19587 19588 19589 19590 19591 19592 19593 19594 19595 19596 19597 19598 19599 19600 19601 19602 19603 19604 19605 19606 19607 19608 19609 19610 19611 19612 19613 19614 19615 19616 19617 19618 19619 19620 19621 19622 19623 19624 19625 19626 19627 19628 19629 19630 19631 19632 19633 19634 19635 19636 19637 19638 19639 19640 19641 19642 19643 19644 19645 19646 19647 19648 19649 19650 19651 19652 19653 19654 19655 19656 19657 19658 19659 19660 19661 19662 19663 19664 19665 19666 19667 19668 19669 19670 19671 19672 19673 19674 19675 19676 19677 19678 19679 19680 19681 19682 19683 19684 19685 19686 19687 19688 19689 19690 19691 19692 19693 19694 19695 19696 19697 19698 19699 19700 19701 19702 19703 19704 19705 19706 19707 19708 19709 19710 19711 19712 19713 19714 19715 19716 19717 19718 19719 19720 19721 19722 19723 19724 19725 19726 19727 19728 19729 19730 19731 19732 19733 19734 19735 19736 19737 19738 19739 19740 19741 19742 19743 19744 19745 19746 19747 19748 19749 19750 19751 19752 19753 19754 19755 19756 19757 19758 19759 19760 19761 19762 19763 19764 19765 19766 19767 19768 19769 19770 19771 19772 19773 19774 19775 19776 19777 19778 19779 19780 19781 19782 19783 19784 19785 19786 19787 19788 19789 19790 19791 19792 19793 19794 19795 19796 19797 19798 19799 19800 19801 19802 19803 19804 19805 19806 19807 19808 19809 19810 19811 19812 19813 19814 19815 19816 19817 19818 19819 19820 19821 19822 19823 19824 19825 19826 19827 19828 19829 19830 19831 19832 19833 19834 19835 19836 19837 19838 19839 19840 19841 19842 19843 19844 19845 19846 19847 19848 19849 19850 19851 19852 19853 19854 19855 19856 19857 19858 19859 19860 19861 19862 19863 19864 19865 19866 19867 19868 19869 19870 19871 19872 19873 19874 19875 19876 19877 19878 19879 19880 19881 19882 19883 19884 19885 19886 19887 19888 19889 19890 19891 19892 19893 19894 19895 19896 19897 19898 19899 19900 19901 19902 19903 19904 19905 19906 19907 19908 19909 19910 19911 19912 19913 19914 19915 19916 19917 19918 19919 19920 19921 19922 19923 19924 19925 19926 19927 19928 19929 19930 19931 19932 19933 19934 19935 19936 19937 19938 19939 19940 19941 19942 19943 19944 19945 19946 19947 19948 19949 19950 19951 19952 19953 19954 19955 19956 19957 19958 19959 19960 19961 19962 19963 19964 19965 19966 19967 19968 19969 19970 19971 19972 19973 19974 19975 19976 19977 19978 19979 19980 19981 19982 19983 19984 19985 19986 19987 19988 19989 19990 19991 19992 19993 19994 19995 19996 19997 19998 19999 20000 20001 20002 20003 20004 20005 20006 20007 20008 20009 20010 20011 20012 20013 20014 20015 20016 20017 20018 20019 20020 20021 20022 20023 20024 20025 20026 20027 20028 20029 20030 20031 20032 20033 20034 20035 20036 20037 20038 20039 20040 20041 20042 20043 20044 20045 20046 20047 20048 20049 20050 20051 20052 20053 20054 20055 20056 20057 20058 20059 20060 20061 20062 20063 20064 20065 20066 20067 20068 20069 20070 20071 20072 20073 20074 20075 20076 20077 20078 20079 20080 20081 20082 20083 20084 20085 20086 20087 20088 20089 20090 20091 20092 20093 20094 20095 20096 20097 20098 20099 20100 20101 20102 20103 20104 20105 20106 20107 20108 20109 20110 20111 20112 20113 20114 20115 20116 20117 20118 20119 20120 20121 20122 20123 20124 20125 20126 20127 20128 20129 20130 20131 20132 20133 20134 20135 20136 20137 20138 20139 20140 20141 20142 20143 20144 20145 20146 20147 20148 20149 20150 20151 20152 20153 20154 20155 20156 20157 20158 20159 20160 20161 20162 20163 20164 20165 20166 20167 20168 20169 20170 20171 20172 20173 20174 20175 20176 20177 20178 20179 20180 20181 20182 20183 20184 20185 20186 20187 20188 20189 20190 20191 20192 20193 20194 20195 20196 20197 20198 20199 20200 20201 20202 20203 20204 20205 20206 20207 20208 20209 20210 20211 20212 20213 20214 20215 20216 20217 20218 20219 20220 20221 20222 20223 20224 20225 20226 20227 20228 20229 20230 20231 20232 20233 20234 20235 20236 20237 20238 20239 20240 20241 20242 20243 20244 20245 20246 20247 20248 20249 20250 20251 20252 20253 20254 20255 20256 20257 20258 20259 20260 20261 20262 20263 20264 20265 20266 20267 20268 20269 20270 20271 20272 20273 20274 20275 20276 20277 20278 20279 20280 20281 20282 20283 20284 20285 20286 20287 20288 20289 20290 20291 20292 20293 20294 20295 20296 20297 20298 20299 20300 20301 20302 20303 20304 20305 20306 20307 20308 20309 20310 20311 20312 20313 20314 20315 20316 20317 20318 20319 20320 20321 20322 20323 20324 20325 20326 20327 20328 20329 20330 20331 20332 20333 20334 20335 20336 20337 20338 20339 20340 20341 20342 20343 20344 20345 20346 20347 20348 20349 20350 20351 20352 20353 20354 20355 20356 20357 20358 20359 20360 20361 20362 20363 20364 20365 20366 20367 20368 20369 20370 20371 20372 20373 20374 20375 20376 20377 20378 20379 20380 20381 20382 20383 20384 20385 20386 20387 20388 20389 20390 20391 20392 20393 20394 20395 20396 20397 20398 20399 20400 20401 20402 20403 20404 20405 20406 20407 20408 20409 20410 20411 20412 20413 20414 20415 20416 20417 20418 20419 20420 20421 20422 20423 20424 20425 20426 20427 20428 20429 20430 20431 20432 20433 20434 20435 20436 20437 20438 20439 20440 20441 20442 20443 20444 20445 20446 20447 20448 20449 20450 20451 20452 20453 20454 20455 20456 20457 20458 20459 20460 20461 20462 20463 20464 20465 20466 20467 20468 20469 20470 20471 20472 20473 20474 20475 20476 20477 20478 20479 20480 20481 20482 20483 20484 20485 20486 20487 20488 20489 20490 20491 20492 20493 20494 20495 20496 20497 20498 20499 20500 20501 20502 20503 20504 20505 20506 20507 20508 20509 20510 20511 20512 20513 20514 20515 20516 20517 20518 20519 20520 20521 20522 20523 20524 20525 20526 20527 20528 20529 20530 20531 20532 20533 20534 20535 20536 20537 20538 20539 20540 20541 20542 20543 20544 20545 20546 20547 20548 20549 20550 20551 20552 20553 20554 20555 20556 20557 20558 20559 20560 20561 20562 20563 20564 20565 20566 20567 20568 20569 20570 20571 20572 20573 20574 20575 20576 20577 20578 20579 20580 20581 20582 20583 20584 20585 20586 20587 20588 20589 20590 20591 20592 20593 20594 20595 20596 20597 20598 20599 20600 20601 20602 20603 20604 20605 20606 20607 20608 20609 20610 20611 20612 20613 20614 20615 20616 20617 20618 20619 20620 20621 20622 20623 20624 20625 20626 20627 20628 20629 20630 20631 20632 20633 20634 20635 20636 20637 20638 20639 20640 20641 20642 20643 20644 20645 20646 20647 20648 20649 20650 20651 20652 20653 20654 20655 20656 20657 20658 20659 20660 20661 20662 20663 20664 20665 20666 20667 20668 20669 20670 20671 20672 20673 20674 20675 20676 20677 20678 20679 20680 20681 20682 20683 20684 20685 20686 20687 20688 20689 20690 20691 20692 20693 20694 20695 20696 20697 20698 20699 20700 20701 20702 20703 20704 20705 20706 20707 20708 20709 20710 20711 20712 20713 20714 20715 20716 20717 20718 20719 20720 20721 20722 20723 20724 20725 20726 20727 20728 20729 20730 20731 20732 20733 20734 20735 20736 20737 20738 20739 20740 20741 20742 20743 20744 20745 20746 20747 20748 20749 20750 20751 20752 20753 20754 20755 20756 20757 20758 20759 20760 20761 20762 20763 20764 20765 20766 20767 20768 20769 20770 20771 20772 20773 20774 20775 20776 20777 20778 20779 20780 20781 20782 20783 20784 20785 20786 20787 20788 20789 20790 20791 20792 20793 20794 20795 20796 20797 20798 20799 20800 20801 20802 20803 20804 20805 20806 20807 20808 20809 20810 20811 20812 20813 20814 20815 20816 20817 20818 20819 20820 20821 20822 20823 20824 20825 20826 20827 20828 20829 20830 20831 20832 20833 20834 20835 20836 20837 20838 20839 20840 20841 20842 20843 20844 20845 20846 20847 20848 20849 20850 20851 20852 20853 20854 20855 20856 20857 20858 20859 20860 20861 20862 20863 20864 20865 20866 20867 20868 20869 20870 20871 20872 20873 20874 20875 20876 20877 20878 20879 20880 20881 20882 20883 20884 20885 20886 20887 20888 20889 20890 20891 20892 20893 20894 20895 20896 20897 20898 20899 20900 20901 20902 20903 20904 20905 20906 20907 20908 20909 20910 20911 20912 20913 20914 20915 20916 20917 20918 20919 20920 20921 20922 20923 20924 20925 20926 20927 20928 20929 20930 20931 20932 20933 20934 20935 20936 20937 20938 20939 20940 20941 20942 20943 20944 20945 20946 20947 20948 20949 20950 20951 20952 20953 20954 20955 20956 20957 20958 20959 20960 20961 20962 20963 20964 20965 20966 20967 20968 20969 20970 20971 20972 20973 20974 20975 20976 20977 20978 20979 20980 20981 20982 20983 20984 20985 20986 20987 20988 20989 20990 20991 20992 20993 20994 20995 20996 20997 20998 20999 21000 21001 21002 21003 21004 21005 21006 21007 21008 21009 21010 21011 21012 21013 21014 21015 21016 21017 21018 21019 21020 21021 21022 21023 21024 21025 21026 21027 21028 21029 21030 21031 21032 21033 21034 21035 21036 21037 21038 21039 21040 21041 21042 21043 21044 21045 21046 21047 21048 21049 21050 21051 21052 21053 21054 21055 21056 21057 21058 21059 21060 21061 21062 21063 21064 21065 21066 21067 21068 21069 21070 21071 21072 21073 21074 21075 21076 21077 21078 21079 21080 21081 21082 21083 21084 21085 21086 21087 21088 21089 21090 21091 21092 21093 21094 21095 21096 21097 21098 21099 21100 21101 21102 21103 21104 21105 21106 21107 21108 21109 21110 21111 21112 21113 21114 21115 21116 21117 21118 21119 21120 21121 21122 21123 21124 21125 21126 21127 21128 21129 21130 21131 21132 21133 21134 21135 21136 21137 21138 21139 21140 21141 21142 21143 21144 21145 21146 21147 21148 21149 21150 21151 21152 21153 21154 21155 21156 21157 21158 21159 21160 21161 21162 21163 21164 21165 21166 21167 21168 21169 21170 21171 21172 21173 21174 21175 21176 21177 21178 21179 21180 21181 21182 21183 21184 21185 21186 21187 21188 21189 21190 21191 21192 21193 21194 21195 21196 21197 21198 21199 21200 21201 21202 21203 21204 21205 21206 21207 21208 21209 21210 21211 21212 21213 21214 21215 21216 21217 21218 21219 21220 21221 21222 21223 21224 21225 21226 21227 21228 21229 21230 21231 21232 21233 21234 21235 21236 21237 21238 21239 21240 21241 21242 21243 21244 21245 21246 21247 21248 21249 21250 21251 21252 21253 21254 21255 21256 21257 21258 21259 21260 21261 21262 21263 21264 21265 21266 21267 21268 21269 21270 21271 21272 21273 21274 21275 21276 21277 21278 21279 21280 21281 21282 21283 21284 21285 21286 21287 21288 21289 21290 21291 21292 21293 21294 21295 21296 21297 21298 21299 21300 21301 21302 21303 21304 21305 21306 21307 21308 21309 21310 21311 21312 21313 21314 21315 21316 21317 21318 21319 21320 21321 21322 21323 21324 21325 21326 21327 21328 21329 21330 21331 21332 21333 21334 21335 21336 21337 21338 21339 21340 21341 21342 21343 21344 21345 21346 21347 21348 21349 21350 21351 21352 21353 21354 21355 21356 21357 21358 21359 21360 21361 21362 21363 21364 21365 21366 21367 21368 21369 21370 21371 21372 21373 21374 21375 21376 21377 21378 21379 21380 21381 21382 21383 21384 21385 21386 21387 21388 21389 21390 21391 21392 21393 21394 21395 21396 21397 21398 21399 21400 21401 21402 21403 21404 21405 21406 21407 21408 21409 21410 21411 21412 21413 21414 21415 21416 21417 21418 21419 21420 21421 21422 21423 21424 21425 21426 21427 21428 21429 21430 21431 21432 21433 21434 21435 21436 21437 21438 21439 21440 21441 21442 21443 21444 21445 21446 21447 21448 21449 21450 21451 21452 21453 21454 21455 21456 21457 21458 21459 21460 21461 21462 21463 21464 21465 21466 21467 21468 21469 21470 21471 21472 21473 21474 21475 21476 21477 21478 21479 21480 21481 21482 21483 21484 21485 21486 21487 21488 21489 21490 21491 21492 21493 21494 21495 21496 21497 21498 21499 21500 21501 21502 21503 21504 21505 21506 21507 21508 21509 21510 21511 21512 21513 21514 21515 21516 21517 21518 21519 21520 21521 21522 21523 21524 21525 21526 21527 21528 21529 21530 21531 21532 21533 21534 21535 21536 21537 21538 21539 21540 21541 21542 21543 21544 21545 21546 21547 21548 21549 21550 21551 21552 21553 21554 21555 21556 21557 21558 21559 21560 21561 21562 21563 21564 21565 21566 21567 21568 21569 21570 21571 21572 21573 21574 21575 21576 21577 21578 21579 21580 21581 21582 21583 21584 21585 21586 21587 21588 21589 21590 21591 21592 21593 21594 21595 21596 21597 21598 21599 21600 21601 21602 21603 21604 21605 21606 21607 21608 21609 21610 21611 21612 21613 21614 21615 21616 21617 21618 21619 21620 21621 21622 21623 21624 21625 21626 21627 21628 21629 21630 21631 21632 21633 21634 21635 21636 21637 21638 21639 21640 21641 21642 21643 21644 21645 21646 21647 21648 21649 21650 21651 21652 21653 21654 21655 21656 21657 21658 21659 21660 21661 21662 21663 21664 21665 21666 21667 21668 21669 21670 21671 21672 21673 21674 21675 21676 21677 21678 21679 21680 21681 21682 21683 21684 21685 21686 21687 21688 21689 21690 21691 21692 21693 21694 21695 21696 21697 21698 21699 21700 21701 21702 21703 21704 21705 21706 21707 21708 21709 21710 21711 21712 21713 21714 21715 21716 21717 21718 21719 21720 21721 21722 21723 21724 21725 21726 21727 21728 21729 21730 21731 21732 21733 21734 21735 21736 21737 21738 21739 21740 21741 21742 21743 21744 21745 21746 21747 21748 21749 21750 21751 21752 21753 21754 21755 21756 21757 21758 21759 21760 21761 21762 21763 21764 21765 21766 21767 21768 21769 21770 21771 21772 21773 21774 21775 21776 21777 21778 21779 21780 21781 21782 21783 21784 21785 21786 21787 21788 21789 21790 21791 21792 21793 21794 21795 21796 21797 21798 21799 21800 21801 21802 21803 21804 21805 21806 21807 21808 21809 21810 21811 21812 21813 21814 21815 21816 21817 21818 21819 21820 21821 21822 21823 21824 21825 21826 21827 21828 21829 21830 21831 21832 21833 21834 21835 21836 21837 21838 21839 21840 21841 21842 21843 21844 21845 21846 21847 21848 21849 21850 21851 21852 21853 21854 21855 21856 21857 21858 21859 21860 21861 21862 21863 21864 21865 21866 21867 21868 21869 21870 21871 21872 21873 21874 21875 21876 21877 21878 21879 21880 21881 21882 21883 21884 21885 21886 21887 21888 21889 21890 21891 21892 21893 21894 21895 21896 21897 21898 21899 21900 21901 21902 21903 21904 21905 21906 21907 21908 21909 21910 21911 21912 21913 21914 21915 21916 21917 21918 21919 21920 21921 21922 21923 21924 21925 21926 21927 21928 21929 21930 21931 21932 21933 21934 21935 21936 21937 21938 21939 21940 21941 21942 21943 21944 21945 21946 21947 21948 21949 21950 21951 21952 21953 21954 21955 21956 21957 21958 21959 21960 21961 21962 21963 21964 21965 21966 21967 21968 21969 21970 21971 21972 21973 21974 21975 21976 21977 21978 21979 21980 21981 21982 21983 21984 21985 21986 21987 21988 21989 21990 21991 21992 21993 21994 21995 21996 21997 21998 21999 22000 22001 22002 22003 22004 22005 22006 22007 22008 22009 22010 22011 22012 22013 22014 22015 22016 22017 22018 22019 22020 22021 22022 22023 22024 22025 22026 22027 22028 22029 22030 22031 22032 22033 22034 22035 22036 22037 22038 22039 22040 22041 22042 22043 22044 22045 22046 22047 22048 22049 22050 22051 22052 22053 22054 22055 22056 22057 22058 22059 22060 22061 22062 22063 22064 22065 22066 22067 22068 22069 22070 22071 22072 22073 22074 22075 22076 22077 22078 22079 22080 22081 22082 22083 22084 22085 22086 22087 22088 22089 22090 22091 22092 22093 22094 22095 22096 22097 22098 22099 22100 22101 22102 22103 22104 22105 22106 22107 22108 22109 22110 22111 22112 22113 22114 22115 22116 22117 22118 22119 22120 22121 22122 22123 22124 22125 22126 22127 22128 22129 22130 22131 22132 22133 22134 22135 22136 22137 22138 22139 22140 22141 22142 22143 22144 22145 22146 22147 22148 22149 22150 22151 22152 22153 22154 22155 22156 22157 22158 22159 22160 22161 22162 22163 22164 22165 22166 22167 22168 22169 22170 22171 22172 22173 22174 22175 22176 22177 22178 22179 22180 22181 22182 22183 22184 22185 22186 22187 22188 22189 22190 22191 22192 22193 22194 22195 22196 22197 22198 22199 22200 22201 22202 22203 22204 22205 22206 22207 22208 22209 22210 22211 22212 22213 22214 22215 22216 22217 22218 22219 22220 22221 22222 22223 22224 22225 22226 22227 22228 22229 22230 22231 22232 22233 22234 22235 22236 22237 22238 22239 22240 22241 22242 22243 22244 22245 22246 22247 22248 22249 22250 22251 22252 22253 22254 22255 22256 22257 22258 22259 22260 22261 22262 22263 22264 22265 22266 22267 22268 22269 22270 22271 22272 22273 22274 22275 22276 22277 22278 22279 22280 22281 22282 22283 22284 22285 22286 22287 22288 22289 22290 22291 22292 22293 22294 22295 22296 22297 22298 22299 22300 22301 22302 22303 22304 22305 22306 22307 22308 22309 22310 22311 22312 22313 22314 22315 22316 22317 22318 22319 22320 22321 22322 22323 22324 22325 22326 22327 22328 22329 22330 22331 22332 22333 22334 22335 22336 22337 22338 22339 22340 22341 22342 22343 22344 22345 22346 22347 22348 22349 22350 22351 22352 22353 22354 22355 22356 22357 22358 22359 22360 22361 22362 22363 22364 22365 22366 22367 22368 22369 22370 22371 22372 22373 22374 22375 22376 22377 22378 22379 22380 22381 22382 22383 22384 22385 22386 22387 22388 22389 22390 22391 22392 22393 22394 22395 22396 22397 22398 22399 22400 22401 22402 22403 22404 22405 22406 22407 22408 22409 22410 22411 22412 22413 22414 22415 22416 22417 22418 22419 22420 22421 22422 22423 22424 22425 22426 22427 22428 22429 22430 22431 22432 22433 22434 22435 22436 22437 22438 22439 22440 22441 22442 22443 22444 22445 22446 22447 22448 22449 22450 22451 22452 22453 22454 22455 22456 22457 22458 22459 22460 22461 22462 22463 22464 22465 22466 22467 22468 22469 22470 22471 22472 22473 22474 22475 22476 22477 22478 22479 22480 22481 22482 22483 22484 22485 22486 22487 22488 22489 22490 22491 22492 22493 22494 22495 22496 22497 22498 22499 22500 22501 22502 22503 22504 22505 22506 22507 22508 22509 22510 22511 22512 22513 22514 22515 22516 22517 22518 22519 22520 22521 22522 22523 22524 22525 22526 22527 22528 22529 22530 22531 22532 22533 22534 22535 22536 22537 22538 22539 22540 22541 22542 22543 22544 22545 22546 22547 22548 22549 22550 22551 22552 22553 22554 22555 22556 22557 22558 22559 22560 22561 22562 22563 22564 22565 22566 22567 22568 22569 22570 22571 22572 22573 22574 22575 22576 22577 22578 22579 22580 22581 22582 22583 22584 22585 22586 22587 22588 22589 22590 22591 22592 22593 22594 22595 22596 22597 22598 22599 22600 22601 22602 22603 22604 22605 22606 22607 22608 22609 22610 22611 22612 22613 22614 22615 22616 22617 22618 22619 22620 22621 22622 22623 22624 22625 22626 22627 22628 22629 22630 22631 22632 22633 22634 22635 22636 22637 22638 22639 22640 22641 22642 22643 22644 22645 22646 22647 22648 22649 22650 22651 22652 22653 22654 22655 22656 22657 22658 22659 22660 22661 22662 22663 22664 22665 22666 22667 22668 22669 22670 22671 22672 22673 22674 22675 22676 22677 22678 22679 22680 22681 22682 22683 22684 22685 22686 22687 22688 22689 22690 22691 22692 22693 22694 22695 22696 22697 22698 22699 22700 22701 22702 22703 22704 22705 22706 22707 22708 22709 22710 22711 22712 22713 22714 22715 22716 22717 22718 22719 22720 22721 22722 22723 22724 22725 22726 22727 22728 22729 22730 22731 22732 22733 22734 22735 22736 22737 22738 22739 22740 22741 22742 22743 22744 22745 22746 22747 22748 22749 22750 22751 22752 22753 22754 22755 22756 22757 22758 22759 22760 22761 22762 22763 22764 22765 22766 22767 22768 22769 22770 22771 22772 22773 22774 22775 22776 22777 22778 22779 22780 22781 22782 22783 22784 22785 22786 22787 22788 22789 22790 22791 22792 22793 22794 22795 22796 22797 22798 22799 22800 22801 22802 22803 22804 22805 22806 22807 22808 22809 22810 22811 22812 22813 22814 22815 22816 22817 22818 22819 22820 22821 22822 22823 22824 22825 22826 22827 22828 22829 22830 22831 22832 22833 22834 22835 22836 22837 22838 22839 22840 22841 22842 22843 22844 22845 22846 22847 22848 22849 22850 22851 22852 22853 22854 22855 22856 22857 22858 22859 22860 22861 22862 22863 22864 22865 22866 22867 22868 22869 22870 22871 22872 22873 22874 22875 22876 22877 22878 22879 22880 22881 22882 22883 22884 22885 22886 22887 22888 22889 22890 22891 22892 22893 22894 22895 22896 22897 22898 22899 22900 22901 22902 22903 22904 22905 22906 22907 22908 22909 22910 22911 22912 22913 22914 22915 22916 22917 22918 22919 22920 22921 22922 22923 22924 22925 22926 22927 22928 22929 22930 22931 22932 22933 22934 22935 22936 22937 22938 22939 22940 22941 22942 22943 22944 22945 22946 22947 22948 22949 22950 22951 22952 22953 22954 22955 22956 22957 22958 22959 22960 22961 22962 22963 22964 22965 22966 22967 22968 22969 22970 22971 22972 22973 22974 22975 22976 22977 22978 22979 22980 22981 22982 22983 22984 22985 22986 22987 22988 22989 22990 22991 22992 22993 22994 22995 22996 22997 22998 22999 23000 23001 23002 23003 23004 23005 23006 23007 23008 23009 23010 23011 23012 23013 23014 23015 23016 23017 23018 23019 23020 23021 23022 23023 23024 23025 23026 23027 23028 23029 23030 23031 23032 23033 23034 23035 23036 23037 23038 23039 23040 23041 23042 23043 23044 23045 23046 23047 23048 23049 23050 23051 23052 23053 23054 23055 23056 23057 23058 23059 23060 23061 23062 23063 23064 23065 23066 23067 23068 23069 23070 23071 23072 23073 23074 23075 23076 23077 23078 23079 23080 23081 23082 23083 23084 23085 23086 23087 23088 23089 23090 23091 23092 23093 23094 23095 23096 23097 23098 23099 23100 23101 23102 23103 23104 23105 23106 23107 23108 23109 23110 23111 23112 23113 23114 23115 23116 23117 23118 23119 23120 23121 23122 23123 23124 23125 23126 23127 23128 23129 23130 23131 23132 23133 23134 23135 23136 23137 23138 23139 23140 23141 23142 23143 23144 23145 23146 23147 23148 23149 23150 23151 23152 23153 23154 23155 23156 23157 23158 23159 23160 23161 23162 23163 23164 23165 23166 23167 23168 23169 23170 23171 23172 23173 23174 23175 23176 23177 23178 23179 23180 23181 23182 23183 23184 23185 23186 23187 23188 23189 23190 23191 23192 23193 23194 23195 23196 23197 23198 23199 23200 23201 23202 23203 23204 23205 23206 23207 23208 23209 23210 23211 23212 23213 23214 23215 23216 23217 23218 23219 23220 23221 23222 23223 23224 23225 23226 23227 23228 23229 23230 23231 23232 23233 23234 23235 23236 23237 23238 23239 23240 23241 23242 23243 23244 23245 23246 23247 23248 23249 23250 23251 23252 23253 23254 23255 23256 23257 23258 23259 23260 23261 23262 23263 23264 23265 23266 23267 23268 23269 23270 23271 23272 23273 23274 23275 23276 23277 23278 23279 23280 23281 23282 23283 23284 23285 23286 23287 23288 23289 23290 23291 23292 23293 23294 23295 23296 23297 23298 23299 23300 23301 23302 23303 23304 23305 23306 23307 23308 23309 23310 23311 23312 23313 23314 23315 23316 23317 23318 23319 23320 23321 23322 23323 23324 23325 23326 23327 23328 23329 23330 23331 23332 23333 23334 23335 23336 23337 23338 23339 23340 23341 23342 23343 23344 23345 23346 23347 23348 23349 23350 23351 23352 23353 23354 23355 23356 23357 23358 23359 23360 23361 23362 23363 23364 23365 23366 23367 23368 23369 23370 23371 23372 23373 23374 23375 23376 23377 23378 23379 23380 23381 23382 23383 23384 23385 23386 23387 23388 23389 23390 23391 23392 23393 23394 23395 23396 23397 23398 23399 23400 23401 23402 23403 23404 23405 23406 23407 23408 23409 23410 23411 23412 23413 23414 23415 23416 23417 23418 23419 23420 23421 23422 23423 23424 23425 23426 23427 23428 23429 23430 23431 23432 23433 23434 23435 23436 23437 23438 23439 23440 23441 23442 23443 23444 23445 23446 23447 23448 23449 23450 23451 23452 23453 23454 23455 23456 23457 23458 23459 23460 23461 23462 23463 23464 23465 23466 23467 23468 23469 23470 23471 23472 23473 23474 23475 23476 23477 23478 23479 23480 23481 23482 23483 23484 23485 23486 23487 23488 23489 23490 23491 23492 23493 23494 23495 23496 23497 23498 23499 23500 23501 23502 23503 23504 23505 23506 23507 23508 23509 23510 23511 23512 23513 23514 23515 23516 23517 23518 23519 23520 23521 23522 23523 23524 23525 23526 23527 23528 23529 23530 23531 23532 23533 23534 23535 23536 23537 23538 23539 23540 23541 23542 23543 23544 23545 23546 23547 23548 23549 23550 23551 23552 23553 23554 23555 23556 23557 23558 23559 23560 23561 23562 23563 23564 23565 23566 23567 23568 23569 23570 23571 23572 23573 23574 23575 23576 23577 23578 23579 23580 23581 23582 23583 23584 23585 23586 23587 23588 23589 23590 23591 23592 23593 23594 23595 23596 23597 23598 23599 23600 23601 23602 23603 23604 23605 23606 23607 23608 23609 23610 23611 23612 23613 23614 23615 23616 23617 23618 23619 23620 23621 23622 23623 23624 23625 23626 23627 23628 23629 23630 23631 23632 23633 23634 23635 23636 23637 23638 23639 23640 23641 23642 23643 23644 23645 23646 23647 23648 23649 23650 23651 23652 23653 23654 23655 23656 23657 23658 23659 23660 23661 23662 23663 23664 23665 23666 23667 23668 23669 23670 23671 23672 23673 23674 23675 23676 23677 23678 23679 23680 23681 23682 23683 23684 23685 23686 23687 23688 23689 23690 23691 23692 23693 23694 23695 23696 23697 23698 23699 23700 23701 23702 23703 23704 23705 23706 23707 23708 23709 23710 23711 23712 23713 23714 23715 23716 23717 23718 23719 23720 23721 23722 23723 23724 23725 23726 23727 23728 23729 23730 23731 23732 23733 23734 23735 23736 23737 23738 23739 23740 23741 23742 23743 23744 23745 23746 23747 23748 23749 23750 23751 23752 23753 23754 23755 23756 23757 23758 23759 23760 23761 23762 23763 23764 23765 23766 23767 23768 23769 23770 23771 23772 23773 23774 23775 23776 23777 23778 23779 23780 23781 23782 23783 23784 23785 23786 23787 23788 23789 23790 23791 23792 23793 23794 23795 23796 23797 23798 23799 23800 23801 23802 23803 23804 23805 23806 23807 23808 23809 23810 23811 23812 23813 23814 23815 23816 23817 23818 23819 23820 23821 23822 23823 23824 23825 23826 23827 23828 23829 23830 23831 23832 23833 23834 23835 23836 23837 23838 23839 23840 23841 23842 23843 23844 23845 23846 23847 23848 23849 23850 23851 23852 23853 23854 23855 23856 23857 23858 23859 23860 23861 23862 23863 23864 23865 23866 23867 23868 23869 23870 23871 23872 23873 23874 23875 23876 23877 23878 23879 23880 23881 23882 23883 23884 23885 23886 23887 23888 23889 23890 23891 23892 23893 23894 23895 23896 23897 23898 23899 23900 23901 23902 23903 23904 23905 23906 23907 23908 23909 23910 23911 23912 23913 23914 23915 23916 23917 23918 23919 23920 23921 23922 23923 23924 23925 23926 23927 23928 23929 23930 23931 23932 23933 23934 23935 23936 23937 23938 23939 23940 23941 23942 23943 23944 23945 23946 23947 23948 23949 23950 23951 23952 23953 23954 23955 23956 23957 23958 23959 23960 23961 23962 23963 23964 23965 23966 23967 23968 23969 23970 23971 23972 23973 23974 23975 23976 23977 23978 23979 23980 23981 23982 23983 23984 23985 23986 23987 23988 23989 23990 23991 23992 23993 23994 23995 23996 23997 23998 23999 24000 24001 24002 24003 24004 24005 24006 24007 24008 24009 24010 24011 24012 24013 24014 24015 24016 24017 24018 24019 24020 24021 24022 24023 24024 24025 24026 24027 24028 24029 24030 24031 24032 24033 24034 24035 24036 24037 24038 24039 24040 24041 24042 24043 24044 24045 24046 24047 24048 24049 24050 24051 24052 24053 24054 24055 24056 24057 24058 24059 24060 24061 24062 24063 24064 24065 24066 24067 24068 24069 24070 24071 24072 24073 24074 24075 24076 24077 24078 24079 24080 24081 24082 24083 24084 24085 24086 24087 24088 24089 24090 24091 24092 24093 24094 24095 24096 24097 24098 24099 24100 24101 24102 24103 24104 24105 24106 24107 24108 24109 24110 24111 24112 24113 24114 24115 24116 24117 24118 24119 24120 24121 24122 24123 24124 24125 24126 24127 24128 24129 24130 24131 24132 24133 24134 24135 24136 24137 24138 24139 24140 24141 24142 24143 24144 24145 24146 24147 24148 24149 24150 24151 24152 24153 24154 24155 24156 24157 24158 24159 24160 24161 24162 24163 24164 24165 24166 24167 24168 24169 24170 24171 24172 24173 24174 24175 24176 24177 24178 24179 24180 24181 24182 24183 24184 24185 24186 24187 24188 24189 24190 24191 24192 24193 24194 24195 24196 24197 24198 24199 24200 24201 24202 24203 24204 24205 24206 24207 24208 24209 24210 24211 24212 24213 24214 24215 24216 24217 24218 24219 24220 24221 24222 24223 24224 24225 24226 24227 24228 24229 24230 24231 24232 24233 24234 24235 24236 24237 24238 24239 24240 24241 24242 24243 24244 24245 24246 24247 24248 24249 24250 24251 24252 24253 24254 24255 24256 24257 24258 24259 24260 24261 24262 24263 24264 24265 24266 24267 24268 24269 24270 24271 24272 24273 24274 24275 24276 24277 24278 24279 24280 24281 24282 24283 24284 24285 24286 24287 24288 24289 24290 24291 24292 24293 24294 24295 24296 24297 24298 24299 24300 24301 24302 24303 24304 24305 24306 24307 24308 24309 24310 24311 24312 24313 24314 24315 24316 24317 24318 24319 24320 24321 24322 24323 24324 24325 24326 24327 24328 24329 24330 24331 24332 24333 24334 24335 24336 24337 24338 24339 24340 24341 24342 24343 24344 24345 24346 24347 24348 24349 24350 24351 24352 24353 24354 24355 24356 24357 24358 24359 24360 24361 24362 24363 24364 24365 24366 24367 24368 24369 24370 24371 24372 24373 24374 24375 24376 24377 24378 24379 24380 24381 24382 24383 24384 24385 24386 24387 24388 24389 24390 24391 24392 24393 24394 24395 24396 24397 24398 24399 24400 24401 24402 24403 24404 24405 24406 24407 24408 24409 24410 24411 24412 24413 24414 24415 24416 24417 24418 24419 24420 24421 24422 24423 24424 24425 24426 24427 24428 24429 24430 24431 24432 24433 24434 24435 24436 24437 24438 24439 24440 24441 24442 24443 24444 24445 24446 24447 24448 24449 24450 24451 24452 24453 24454 24455 24456 24457 24458 24459 24460 24461 24462 24463 24464 24465 24466 24467 24468 24469 24470 24471 24472 24473 24474 24475 24476 24477 24478 24479 24480 24481 24482 24483 24484 24485 24486 24487 24488 24489 24490 24491 24492 24493 24494 24495 24496 24497 24498 24499 24500 24501 24502 24503 24504 24505 24506 24507 24508 24509 24510 24511 24512 24513 24514 24515 24516 24517 24518 24519 24520 24521 24522 24523 24524 24525 24526 24527 24528 24529 24530 24531 24532 24533 24534 24535 24536 24537 24538 24539 24540 24541 24542 24543 24544 24545 24546 24547 24548 24549 24550 24551 24552 24553 24554 24555 24556 24557 24558 24559 24560 24561 24562 24563 24564 24565 24566 24567 24568 24569 24570 24571 24572 24573 24574 24575 24576 24577 24578 24579 24580 24581 24582 24583 24584 24585 24586 24587 24588 24589 24590 24591 24592 24593 24594 24595 24596 24597 24598 24599 24600 24601 24602 24603 24604 24605 24606 24607 24608 24609 24610 24611 24612 24613 24614 24615 24616 24617 24618 24619 24620 24621 24622 24623 24624 24625 24626 24627 24628 24629 24630 24631 24632 24633 24634 24635 24636 24637 24638 24639 24640 24641 24642 24643 24644 24645 24646 24647 24648 24649 24650 24651 24652 24653 24654 24655 24656 24657 24658 24659 24660 24661 24662 24663 24664 24665 24666 24667 24668 24669 24670 24671 24672 24673 24674 24675 24676 24677 24678 24679 24680 24681 24682 24683 24684 24685 24686 24687 24688 24689 24690 24691 24692 24693 24694 24695 24696 24697 24698 24699 24700 24701 24702 24703 24704 24705 24706 24707 24708 24709 24710 24711 24712 24713 24714 24715 24716 24717 24718 24719 24720 24721 24722 24723 24724 24725 24726 24727 24728 24729 24730 24731 24732 24733 24734 24735 24736 24737 24738 24739 24740 24741 24742 24743 24744 24745 24746 24747 24748 24749 24750 24751 24752 24753 24754 24755 24756 24757 24758 24759 24760 24761 24762 24763 24764 24765 24766 24767 24768 24769 24770 24771 24772 24773 24774 24775 24776 24777 24778 24779 24780 24781 24782 24783 24784 24785 24786 24787 24788 24789 24790 24791 24792 24793 24794 24795 24796 24797 24798 24799 24800 24801 24802 24803 24804 24805 24806 24807 24808 24809 24810 24811 24812 24813 24814 24815 24816 24817 24818 24819 24820 24821 24822 24823 24824 24825 24826 24827 24828 24829 24830 24831 24832 24833 24834 24835 24836 24837 24838 24839 24840 24841 24842 24843 24844 24845 24846 24847 24848 24849 24850 24851 24852 24853 24854 24855 24856 24857 24858 24859 24860 24861 24862 24863 24864 24865 24866 24867 24868 24869 24870 24871 24872 24873 24874 24875 24876 24877 24878 24879 24880 24881 24882 24883 24884 24885 24886 24887 24888 24889 24890 24891 24892 24893 24894 24895 24896 24897 24898 24899 24900 24901 24902 24903 24904 24905 24906 24907 24908 24909 24910 24911 24912 24913 24914 24915 24916 24917 24918 24919 24920 24921 24922 24923 24924 24925 24926 24927 24928 24929 24930 24931 24932 24933 24934 24935 24936 24937 24938 24939 24940 24941 24942 24943 24944 24945 24946 24947 24948 24949 24950 24951 24952 24953 24954 24955 24956 24957 24958 24959 24960 24961 24962 24963 24964 24965 24966 24967 24968 24969 24970 24971 24972 24973 24974 24975 24976 24977 24978 24979 24980 24981 24982 24983 24984 24985 24986 24987 24988 24989 24990 24991 24992 24993 24994 24995 24996 24997 24998 24999 25000 25001 25002 25003 25004 25005 25006 25007 25008 25009 25010 25011 25012 25013 25014 25015 25016 25017 25018 25019 25020 25021 25022 25023 25024 25025 25026 25027 25028 25029 25030 25031 25032 25033 25034 25035 25036 25037 25038 25039 25040 25041 25042 25043 25044 25045 25046 25047 25048 25049 25050 25051 25052 25053 25054 25055 25056 25057 25058 25059 25060 25061 25062 25063 25064 25065 25066 25067 25068 25069 25070 25071 25072 25073 25074 25075 25076 25077 25078 25079 25080 25081 25082 25083 25084 25085 25086 25087 25088 25089 25090 25091 25092 25093 25094 25095 25096 25097 25098 25099 25100 25101 25102 25103 25104 25105 25106 25107 25108 25109 25110 25111 25112 25113 25114 25115 25116 25117 25118 25119 25120 25121 25122 25123 25124 25125 25126 25127 25128 25129 25130 25131 25132 25133 25134 25135 25136 25137 25138 25139 25140 25141 25142 25143 25144 25145 25146 25147 25148 25149 25150 25151 25152 25153 25154 25155 25156 25157 25158 25159 25160 25161 25162 25163 25164 25165 25166 25167 25168 25169 25170 25171 25172 25173 25174 25175 25176 25177 25178 25179 25180 25181 25182 25183 25184 25185 25186 25187 25188 25189 25190 25191 25192 25193 25194 25195 25196 25197 25198 25199 25200 25201 25202 25203 25204 25205 25206 25207 25208 25209 25210 25211 25212 25213 25214 25215 25216 25217 25218 25219 25220 25221 25222 25223 25224 25225 25226 25227 25228 25229 25230 25231 25232 25233 25234 25235 25236 25237 25238 25239 25240 25241 25242 25243 25244 25245 25246 25247 25248 25249 25250 25251 25252 25253 25254 25255 25256 25257 25258 25259 25260 25261 25262 25263 25264 25265 25266 25267 25268 25269 25270 25271 25272 25273 25274 25275 25276 25277 25278 25279 25280 25281 25282 25283 25284 25285 25286 25287 25288 25289 25290 25291 25292 25293 25294 25295 25296 25297 25298 25299 25300 25301 25302 25303 25304 25305 25306 25307 25308 25309 25310 25311 25312 25313 25314 25315 25316 25317 25318 25319 25320 25321 25322 25323 25324 25325 25326 25327 25328 25329 25330 25331 25332 25333 25334 25335 25336 25337 25338 25339 25340 25341 25342 25343 25344 25345 25346 25347 25348 25349 25350 25351 25352 25353 25354 25355 25356 25357 25358 25359 25360 25361 25362 25363 25364 25365 25366 25367 25368 25369 25370 25371 25372 25373 25374 25375 25376 25377 25378 25379 25380 25381 25382 25383 25384 25385 25386 25387 25388 25389 25390 25391 25392 25393 25394 25395 25396 25397 25398 25399 25400 25401 25402 25403 25404 25405 25406 25407 25408 25409 25410 25411 25412 25413 25414 25415 25416 25417 25418 25419 25420 25421 25422 25423 25424 25425 25426 25427 25428 25429 25430 25431 25432 25433 25434 25435 25436 25437 25438 25439 25440 25441 25442 25443 25444 25445 25446 25447 25448 25449 25450 25451 25452 25453 25454 25455 25456 25457 25458 25459 25460 25461 25462 25463 25464 25465 25466 25467 25468 25469 25470 25471 25472 25473 25474 25475 25476 25477 25478 25479 25480 25481 25482 25483 25484 25485 25486 25487 25488 25489 25490 25491 25492 25493 25494 25495 25496 25497 25498 25499 25500 25501 25502 25503 25504 25505 25506 25507 25508 25509 25510 25511 25512 25513 25514 25515 25516 25517 25518 25519 25520 25521 25522 25523 25524 25525 25526 25527 25528 25529 25530 25531 25532 25533 25534 25535 25536 25537 25538 25539 25540 25541 25542 25543 25544 25545 25546 25547 25548 25549 25550 25551 25552 25553 25554 25555 25556 25557 25558 25559 25560 25561 25562 25563 25564 25565 25566 25567 25568 25569 25570 25571 25572 25573 25574 25575 25576 25577 25578 25579 25580 25581 25582 25583 25584 25585 25586 25587 25588 25589 25590 25591 25592 25593 25594 25595 25596 25597 25598 25599 25600 25601 25602 25603 25604 25605 25606 25607 25608 25609 25610 25611 25612 25613 25614 25615 25616 25617 25618 25619 25620 25621 25622 25623 25624 25625 25626 25627 25628 25629 25630 25631 25632 25633 25634 25635 25636 25637 25638 25639 25640 25641 25642 25643 25644 25645 25646 25647 25648 25649 25650 25651 25652 25653 25654 25655 25656 25657 25658 25659 25660 25661 25662 25663 25664 25665 25666 25667 25668 25669 25670 25671 25672 25673 25674 25675 25676 25677 25678 25679 25680 25681 25682 25683 25684 25685 25686 25687 25688 25689 25690 25691 25692 25693 25694 25695 25696 25697 25698 25699 25700 25701 25702 25703 25704 25705 25706 25707 25708 25709 25710 25711 25712 25713 25714 25715 25716 25717 25718 25719 25720 25721 25722 25723 25724 25725 25726 25727 25728 25729 25730 25731 25732 25733 25734 25735 25736 25737 25738 25739 25740 25741 25742 25743 25744 25745 25746 25747 25748 25749 25750 25751 25752 25753 25754 25755 25756 25757 25758 25759 25760 25761 25762 25763 25764 25765 25766 25767 25768 25769 25770 25771 25772 25773 25774 25775 25776 25777 25778 25779 25780 25781 25782 25783 25784 25785 25786 25787 25788 25789 25790 25791 25792 25793 25794 25795 25796 25797 25798 25799 25800 25801 25802 25803 25804 25805 25806 25807 25808 25809 25810 25811 25812 25813 25814 25815 25816 25817 25818 25819 25820 25821 25822 25823 25824 25825 25826 25827 25828 25829 25830 25831 25832 25833 25834 25835 25836 25837 25838 25839 25840 25841 25842 25843 25844 25845 25846 25847 25848 25849 25850 25851 25852 25853 25854 25855 25856 25857 25858 25859 25860 25861 25862 25863 25864 25865 25866 25867 25868 25869 25870 25871 25872 25873 25874 25875 25876 25877 25878 25879 25880 25881 25882 25883 25884 25885 25886 25887 25888 25889 25890 25891 25892 25893 25894 25895 25896 25897 25898 25899 25900 25901 25902 25903 25904 25905 25906 25907 25908 25909 25910 25911 25912 25913 25914 25915 25916 25917 25918 25919 25920 25921 25922 25923 25924 25925 25926 25927 25928 25929 25930 25931 25932 25933 25934 25935 25936 25937 25938 25939 25940 25941 25942 25943 25944 25945 25946 25947 25948 25949 25950 25951 25952 25953 25954 25955 25956 25957 25958 25959 25960 25961 25962 25963 25964 25965 25966 25967 25968 25969 25970 25971 25972 25973 25974 25975 25976 25977 25978 25979 25980 25981 25982 25983 25984 25985 25986 25987 25988 25989 25990 25991 25992 25993 25994 25995 25996 25997 25998 25999 26000 26001 26002 26003 26004 26005 26006 26007 26008 26009 26010 26011 26012 26013 26014 26015 26016 26017 26018 26019 26020 26021 26022 26023 26024 26025 26026 26027 26028 26029 26030 26031 26032 26033 26034 26035 26036 26037 26038 26039 26040 26041 26042 26043 26044 26045 26046 26047 26048 26049 26050 26051 26052 26053 26054 26055 26056 26057 26058 26059 26060 26061 26062 26063 26064 26065 26066 26067 26068 26069 26070 26071 26072 26073 26074 26075 26076 26077 26078 26079 26080 26081 26082 26083 26084 26085 26086 26087 26088 26089 26090 26091 26092 26093 26094 26095 26096 26097 26098 26099 26100 26101 26102 26103 26104 26105 26106 26107 26108 26109 26110 26111 26112 26113 26114 26115 26116 26117 26118 26119 26120 26121 26122 26123 26124 26125 26126 26127 26128 26129 26130 26131 26132 26133 26134 26135 26136 26137 26138 26139 26140 26141 26142 26143 26144 26145 26146 26147 26148 26149 26150 26151 26152 26153 26154 26155 26156 26157 26158 26159 26160 26161 26162 26163 26164 26165 26166 26167 26168 26169 26170 26171 26172 26173 26174 26175 26176 26177 26178 26179 26180 26181 26182 26183 26184 26185 26186 26187 26188 26189 26190 26191 26192 26193 26194 26195 26196 26197 26198 26199 26200 26201 26202 26203 26204 26205 26206 26207 26208 26209 26210 26211 26212 26213 26214 26215 26216 26217 26218 26219 26220 26221 26222 26223 26224 26225 26226 26227 26228 26229 26230 26231 26232 26233 26234 26235 26236 26237 26238 26239 26240 26241 26242 26243 26244 26245 26246 26247 26248 26249 26250 26251 26252 26253 26254 26255 26256 26257 26258 26259 26260 26261 26262 26263 26264 26265 26266 26267 26268 26269 26270 26271 26272 26273 26274 26275 26276 26277 26278 26279 26280 26281 26282 26283 26284 26285 26286 26287 26288 26289 26290 26291 26292 26293 26294 26295 26296 26297 26298 26299 26300 26301 26302 26303 26304 26305 26306 26307 26308 26309 26310 26311 26312 26313 26314 26315 26316 26317 26318 26319 26320 26321 26322 26323 26324 26325 26326 26327 26328 26329 26330 26331 26332 26333 26334 26335 26336 26337 26338 26339 26340 26341 26342 26343 26344 26345 26346 26347 26348 26349 26350 26351 26352 26353 26354 26355 26356 26357 26358 26359 26360 26361 26362 26363 26364 26365 26366 26367 26368 26369 26370 26371 26372 26373 26374 26375 26376 26377 26378 26379 26380 26381 26382 26383 26384 26385 26386 26387 26388 26389 26390 26391 26392 26393 26394 26395 26396 26397 26398 26399 26400 26401 26402 26403 26404 26405 26406 26407 26408 26409 26410 26411 26412 26413 26414 26415 26416 26417 26418 26419 26420 26421 26422 26423 26424 26425 26426 26427 26428 26429 26430 26431 26432 26433 26434 26435 26436 26437 26438 26439 26440 26441 26442 26443 26444 26445 26446 26447 26448 26449 26450 26451 26452 26453 26454 26455 26456 26457 26458 26459 26460 26461 26462 26463 26464 26465 26466 26467 26468 26469 26470 26471 26472 26473 26474 26475 26476 26477 26478 26479 26480 26481 26482 26483 26484 26485 26486 26487 26488 26489 26490 26491 26492 26493 26494 26495 26496 26497 26498 26499 26500 26501 26502 26503 26504 26505 26506 26507 26508 26509 26510 26511 26512 26513 26514 26515 26516 26517 26518 26519 26520 26521 26522 26523 26524 26525 26526 26527 26528 26529 26530 26531 26532 26533 26534 26535 26536 26537 26538 26539 26540 26541 26542 26543 26544 26545 26546 26547 26548 26549 26550 26551 26552 26553 26554 26555 26556 26557 26558 26559 26560 26561 26562 26563 26564 26565 26566 26567 26568 26569 26570 26571 26572 26573 26574 26575 26576 26577 26578 26579 26580 26581 26582 26583 26584 26585 26586 26587 26588 26589 26590 26591 26592 26593 26594 26595 26596 26597 26598 26599 26600 26601 26602 26603 26604 26605 26606 26607 26608 26609 26610 26611 26612 26613 26614 26615 26616 26617 26618 26619 26620 26621 26622 26623 26624 26625 26626 26627 26628 26629 26630 26631 26632 26633 26634 26635 26636 26637 26638 26639 26640 26641 26642 26643 26644 26645 26646 26647 26648 26649 26650 26651 26652 26653 26654 26655 26656 26657 26658 26659 26660 26661 26662 26663 26664 26665 26666 26667 26668 26669 26670 26671 26672 26673 26674 26675 26676 26677 26678 26679 26680 26681 26682 26683 26684 26685 26686 26687 26688 26689 26690 26691 26692 26693 26694 26695 26696 26697 26698 26699 26700 26701 26702 26703 26704 26705 26706 26707 26708 26709 26710 26711 26712 26713 26714 26715 26716 26717 26718 26719 26720 26721 26722 26723 26724 26725 26726 26727 26728 26729 26730 26731 26732 26733 26734 26735 26736 26737 26738 26739 26740 26741 26742 26743 26744 26745 26746 26747 26748 26749 26750 26751 26752 26753 26754 26755 26756 26757 26758 26759 26760 26761 26762 26763 26764 26765 26766 26767 26768 26769 26770 26771 26772 26773 26774 26775 26776 26777 26778 26779 26780 26781 26782 26783 26784 26785 26786 26787 26788 26789 26790 26791 26792 26793 26794 26795 26796 26797 26798 26799 26800 26801 26802 26803 26804 26805 26806 26807 26808 26809 26810 26811 26812 26813 26814 26815 26816 26817 26818 26819 26820 26821 26822 26823 26824 26825 26826 26827 26828 26829 26830 26831 26832 26833 26834 26835 26836 26837 26838 26839 26840 26841 26842 26843 26844 26845 26846 26847 26848 26849 26850 26851 26852 26853 26854 26855 26856 26857 26858 26859 26860 26861 26862 26863 26864 26865 26866 26867 26868 26869 26870 26871 26872 26873 26874 26875 26876 26877 26878 26879 26880 26881 26882 26883 26884 26885 26886 26887 26888 26889 26890 26891 26892 26893 26894 26895 26896 26897 26898 26899 26900 26901 26902 26903 26904 26905 26906 26907 26908 26909 26910 26911 26912 26913 26914 26915 26916 26917 26918 26919 26920 26921 26922 26923 26924 26925 26926 26927 26928 26929 26930 26931 26932 26933 26934 26935 26936 26937 26938 26939 26940 26941 26942 26943 26944 26945 26946 26947 26948 26949 26950 26951 26952 26953 26954 26955 26956 26957 26958 26959 26960 26961 26962 26963 26964 26965 26966 26967 26968 26969 26970 26971 26972 26973 26974 26975 26976 26977 26978 26979 26980 26981 26982 26983 26984 26985 26986 26987 26988 26989 26990 26991 26992 26993 26994 26995 26996 26997 26998 26999 27000 27001 27002 27003 27004 27005 27006 27007 27008 27009 27010 27011 27012 27013 27014 27015 27016 27017 27018 27019 27020 27021 27022 27023 27024 27025 27026 27027 27028 27029 27030 27031 27032 27033 27034 27035 27036 27037 27038 27039 27040 27041 27042 27043 27044 27045 27046 27047 27048 27049 27050 27051 27052 27053 27054 27055 27056 27057 27058 27059 27060 27061 27062 27063 27064 27065 27066 27067 27068 27069 27070 27071 27072 27073 27074 27075 27076 27077 27078 27079 27080 27081 27082 27083 27084 27085 27086 27087 27088 27089 27090 27091 27092 27093 27094 27095 27096 27097 27098 27099 27100 27101 27102 27103 27104 27105 27106 27107 27108 27109 27110 27111 27112 27113 27114 27115 27116 27117 27118 27119 27120 27121 27122 27123 27124 27125 27126 27127 27128 27129 27130 27131 27132 27133 27134 27135 27136 27137 27138 27139 27140 27141 27142 27143 27144 27145 27146 27147 27148 27149 27150 27151 27152 27153 27154 27155 27156 27157 27158 27159 27160 27161 27162 27163 27164 27165 27166 27167 27168 27169 27170 27171 27172 27173 27174 27175 27176 27177 27178 27179 27180 27181 27182 27183 27184 27185 27186 27187 27188 27189 27190 27191 27192 27193 27194 27195 27196 27197 27198 27199 27200 27201 27202 27203 27204 27205 27206 27207 27208 27209 27210 27211 27212 27213 27214 27215 27216 27217 27218 27219 27220 27221 27222 27223 27224 27225 27226 27227 27228 27229 27230 27231 27232 27233 27234 27235 27236 27237 27238 27239 27240 27241 27242 27243 27244 27245 27246 27247 27248 27249 27250 27251 27252 27253 27254 27255 27256 27257 27258 27259 27260 27261 27262 27263 27264 27265 27266 27267 27268 27269 27270 27271 27272 27273 27274 27275 27276 27277 27278 27279 27280 27281 27282 27283 27284 27285 27286 27287 27288 27289 27290 27291 27292 27293 27294 27295 27296 27297 27298 27299 27300 27301 27302 27303 27304 27305 27306 27307 27308 27309 27310 27311 27312 27313 27314 27315 27316 27317 27318 27319 27320 27321 27322 27323 27324 27325 27326 27327 27328 27329 27330 27331 27332 27333 27334 27335 27336 27337 27338 27339 27340 27341 27342 27343 27344 27345 27346 27347 27348 27349 27350 27351 27352 27353 27354 27355 27356 27357 27358 27359 27360 27361 27362 27363 27364 27365 27366 27367 27368 27369 27370 27371 27372 27373 27374 27375 27376 27377 27378 27379 27380 27381 27382 27383 27384 27385 27386 27387 27388 27389 27390 27391 27392 27393 27394 27395 27396 27397 27398 27399 27400 27401 27402 27403 27404 27405 27406 27407 27408 27409 27410 27411 27412 27413 27414 27415 27416 27417 27418 27419 27420 27421 27422 27423 27424 27425 27426 27427 27428 27429 27430 27431 27432 27433 27434 27435 27436 27437 27438 27439 27440 27441 27442 27443 27444 27445 27446 27447 27448 27449 27450 27451 27452 27453 27454 27455 27456 27457 27458 27459 27460 27461 27462 27463 27464 27465 27466 27467 27468 27469 27470 27471 27472 27473 27474 27475 27476 27477 27478 27479 27480 27481 27482 27483 27484 27485 27486 27487 27488 27489 27490 27491 27492 27493 27494 27495 27496 27497 27498 27499 27500 27501 27502 27503 27504 27505 27506 27507 27508 27509 27510 27511 27512 27513 27514 27515 27516 27517 27518 27519 27520 27521 27522 27523 27524 27525 27526 27527 27528 27529 27530 27531 27532 27533 27534 27535 27536 27537 27538 27539 27540 27541 27542 27543 27544 27545 27546 27547 27548 27549 27550 27551 27552 27553 27554 27555 27556 27557 27558 27559 27560 27561 27562 27563 27564 27565 27566 27567 27568 27569 27570 27571 27572 27573 27574 27575 27576 27577 27578 27579 27580 27581 27582 27583 27584 27585 27586 27587 27588 27589 27590 27591 27592 27593 27594 27595 27596 27597 27598 27599 27600 27601 27602 27603 27604 27605 27606 27607 27608 27609 27610 27611 27612 27613 27614 27615 27616 27617 27618 27619 27620 27621 27622 27623 27624 27625 27626 27627 27628 27629 27630 27631 27632 27633 27634 27635 27636 27637 27638 27639 27640 27641 27642 27643 27644 27645 27646 27647 27648 27649 27650 27651 27652 27653 27654 27655 27656 27657 27658 27659 27660 27661 27662 27663 27664 27665 27666 27667 27668 27669 27670 27671 27672 27673 27674 27675 27676 27677 27678 27679 27680 27681 27682 27683 27684 27685 27686 27687 27688 27689 27690 27691 27692 27693 27694 27695 27696 27697 27698 27699 27700 27701 27702 27703 27704 27705 27706 27707 27708 27709 27710 27711 27712 27713 27714 27715 27716 27717 27718 27719 27720 27721 27722 27723 27724 27725 27726 27727 27728 27729 27730 27731 27732 27733 27734 27735 27736 27737 27738 27739 27740 27741 27742 27743 27744 27745 27746 27747 27748 27749 27750 27751 27752 27753 27754 27755 27756 27757 27758 27759 27760 27761 27762 27763 27764 27765 27766 27767 27768 27769 27770 27771 27772 27773 27774 27775 27776 27777 27778 27779 27780 27781 27782 27783 27784 27785 27786 27787 27788 27789 27790 27791 27792 27793 27794 27795 27796 27797 27798 27799 27800 27801 27802 27803 27804 27805 27806 27807 27808 27809 27810 27811 27812 27813 27814 27815 27816 27817 27818 27819 27820 27821 27822 27823 27824 27825 27826 27827 27828 27829 27830 27831 27832 27833 27834 27835 27836 27837 27838 27839 27840 27841 27842 27843 27844 27845 27846 27847 27848 27849 27850 27851 27852 27853 27854 27855 27856 27857 27858 27859 27860 27861 27862 27863 27864 27865 27866 27867 27868 27869 27870 27871 27872 27873 27874 27875 27876 27877 27878 27879 27880 27881 27882 27883 27884 27885 27886 27887 27888 27889 27890 27891 27892 27893 27894 27895 27896 27897 27898 27899 27900 27901 27902 27903 27904 27905 27906 27907 27908 27909 27910 27911 27912 27913 27914 27915 27916 27917 27918 27919 27920 27921 27922 27923 27924 27925 27926 27927 27928 27929 27930 27931 27932 27933 27934 27935 27936 27937 27938 27939 27940 27941 27942 27943 27944 27945 27946 27947 27948 27949 27950 27951 27952 27953 27954 27955 27956 27957 27958 27959 27960 27961 27962 27963 27964 27965 27966 27967 27968 27969 27970 27971 27972 27973 27974 27975 27976 27977 27978 27979 27980 27981 27982 27983 27984 27985 27986 27987 27988 27989 27990 27991 27992 27993 27994 27995 27996 27997 27998 27999 28000 28001 28002 28003 28004 28005 28006 28007 28008 28009 28010 28011 28012 28013 28014 28015 28016 28017 28018 28019 28020 28021 28022 28023 28024 28025 28026 28027 28028 28029 28030 28031 28032 28033 28034 28035 28036 28037 28038 28039 28040 28041 28042 28043 28044 28045 28046 28047 28048 28049 28050 28051 28052 28053 28054 28055 28056 28057 28058 28059 28060 28061 28062 28063 28064 28065 28066 28067 28068 28069 28070 28071 28072 28073 28074 28075 28076 28077 28078 28079 28080 28081 28082 28083 28084 28085 28086 28087 28088 28089 28090 28091 28092 28093 28094 28095 28096 28097 28098 28099 28100 28101 28102 28103 28104 28105 28106 28107 28108 28109 28110 28111 28112 28113 28114 28115 28116 28117 28118 28119 28120 28121 28122 28123 28124 28125 28126 28127 28128 28129 28130 28131 28132 28133 28134 28135 28136 28137 28138 28139 28140 28141 28142 28143 28144 28145 28146 28147 28148 28149 28150 28151 28152 28153 28154 28155 28156 28157 28158 28159 28160 28161 28162 28163 28164 28165 28166 28167 28168 28169 28170 28171 28172 28173 28174 28175 28176 28177 28178 28179 28180 28181 28182 28183 28184 28185 28186 28187 28188 28189 28190 28191 28192 28193 28194 28195 28196 28197 28198 28199 28200 28201 28202 28203 28204 28205 28206 28207 28208 28209 28210 28211 28212 28213 28214 28215 28216 28217 28218 28219 28220 28221 28222 28223 28224 28225 28226 28227 28228 28229 28230 28231 28232 28233 28234 28235 28236 28237 28238 28239 28240 28241 28242 28243 28244 28245 28246 28247 28248 28249 28250 28251 28252 28253 28254 28255 28256 28257 28258 28259 28260 28261 28262 28263 28264 28265 28266 28267 28268 28269 28270 28271 28272 28273 28274 28275 28276 28277 28278 28279 28280 28281 28282 28283 28284 28285 28286 28287 28288 28289 28290 28291 28292 28293 28294 28295 28296 28297 28298 28299 28300 28301 28302 28303 28304 28305 28306 28307 28308 28309 28310 28311 28312 28313 28314 28315 28316 28317 28318 28319 28320 28321 28322 28323 28324 28325 28326 28327 28328 28329 28330 28331 28332 28333 28334 28335 28336 28337 28338 28339 28340 28341 28342 28343 28344 28345 28346 28347 28348 28349 28350 28351 28352 28353 28354 28355 28356 28357 28358 28359 28360 28361 28362 28363 28364 28365 28366 28367 28368 28369 28370 28371 28372 28373 28374 28375 28376 28377 28378 28379 28380 28381 28382 28383 28384 28385 28386 28387 28388 28389 28390 28391 28392 28393 28394 28395 28396 28397 28398 28399 28400 28401 28402 28403 28404 28405 28406 28407 28408 28409 28410 28411 28412 28413 28414 28415 28416 28417 28418 28419 28420 28421 28422 28423 28424 28425 28426 28427 28428 28429 28430 28431 28432 28433 28434 28435 28436 28437 28438 28439 28440 28441 28442 28443 28444 28445 28446 28447 28448 28449 28450 28451 28452 28453 28454 28455 28456 28457 28458 28459 28460 28461 28462 28463 28464 28465 28466 28467 28468 28469 28470 28471 28472 28473 28474 28475 28476 28477 28478 28479 28480 28481 28482 28483 28484 28485 28486 28487 28488 28489 28490 28491 28492 28493 28494 28495 28496 28497 28498 28499 28500 28501 28502 28503 28504 28505 28506 28507 28508 28509 28510 28511 28512 28513 28514 28515 28516 28517 28518 28519 28520 28521 28522 28523 28524 28525 28526 28527 28528 28529 28530 28531 28532 28533 28534 28535 28536 28537 28538 28539 28540 28541 28542 28543 28544 28545 28546 28547 28548 28549 28550 28551 28552 28553 28554 28555 28556 28557 28558 28559 28560 28561 28562 28563 28564 28565 28566 28567 28568 28569 28570 28571 28572 28573 28574 28575 28576 28577 28578 28579 28580 28581 28582 28583 28584 28585 28586 28587 28588 28589 28590 28591 28592 28593 28594 28595 28596 28597 28598 28599 28600 28601 28602 28603 28604 28605 28606 28607 28608 28609 28610 28611 28612 28613 28614 28615 28616 28617 28618 28619 28620 28621 28622 28623 28624 28625 28626 28627 28628 28629 28630 28631 28632 28633 28634 28635 28636 28637 28638 28639 28640 28641 28642 28643 28644 28645 28646 28647 28648 28649 28650 28651 28652 28653 28654 28655 28656 28657 28658 28659 28660 28661 28662 28663 28664 28665 28666 28667 28668 28669 28670 28671 28672 28673 28674 28675 28676 28677 28678 28679 28680 28681 28682 28683 28684 28685 28686 28687 28688 28689 28690 28691 28692 28693 28694 28695 28696 28697 28698 28699 28700 28701 28702 28703 28704 28705 28706 28707 28708 28709 28710 28711 28712 28713 28714 28715 28716 28717 28718 28719 28720 28721 28722 28723 28724 28725 28726 28727 28728 28729 28730 28731 28732 28733 28734 28735 28736 28737 28738 28739 28740 28741 28742 28743 28744 28745 28746 28747 28748 28749 28750 28751 28752 28753 28754 28755 28756 28757 28758 28759 28760 28761 28762 28763 28764 28765 28766 28767 28768 28769 28770 28771 28772 28773 28774 28775 28776 28777 28778 28779 28780 28781 28782 28783 28784 28785 28786 28787 28788 28789 28790 28791 28792 28793 28794 28795 28796 28797 28798 28799 28800 28801 28802 28803 28804 28805 28806 28807 28808 28809 28810 28811 28812 28813 28814 28815 28816 28817 28818 28819 28820 28821 28822 28823 28824 28825 28826 28827 28828 28829 28830 28831 28832 28833 28834 28835 28836 28837 28838 28839 28840 28841 28842 28843 28844 28845 28846 28847 28848 28849 28850 28851 28852 28853 28854 28855 28856 28857 28858 28859 28860 28861 28862 28863 28864 28865 28866 28867 28868 28869 28870 28871 28872 28873 28874 28875 28876 28877 28878 28879 28880 28881 28882 28883 28884 28885 28886 28887 28888 28889 28890 28891 28892 28893 28894 28895 28896 28897 28898 28899 28900 28901 28902 28903 28904 28905 28906 28907 28908 28909 28910 28911 28912 28913 28914 28915 28916 28917 28918 28919 28920 28921 28922 28923 28924 28925 28926 28927 28928 28929 28930 28931 28932 28933 28934 28935 28936 28937 28938 28939 28940 28941 28942 28943 28944 28945 28946 28947 28948 28949 28950 28951 28952 28953 28954 28955 28956 28957 28958 28959 28960 28961 28962 28963 28964 28965 28966 28967 28968 28969 28970 28971 28972 28973 28974 28975 28976 28977 28978 28979 28980 28981 28982 28983 28984 28985 28986 28987 28988 28989 28990 28991 28992 28993 28994 28995 28996 28997 28998 28999 29000 29001 29002 29003 29004 29005 29006 29007 29008 29009 29010 29011 29012 29013 29014 29015 29016 29017 29018 29019 29020 29021 29022 29023 29024 29025 29026 29027 29028 29029 29030 29031 29032 29033 29034 29035 29036 29037 29038 29039 29040 29041 29042 29043 29044 29045 29046 29047 29048 29049 29050 29051 29052 29053 29054 29055 29056 29057 29058 29059 29060 29061 29062 29063 29064 29065 29066 29067 29068 29069 29070 29071 29072 29073 29074 29075 29076 29077 29078 29079 29080 29081 29082 29083 29084 29085 29086 29087 29088 29089 29090 29091 29092 29093 29094 29095 29096 29097 29098 29099 29100 29101 29102 29103 29104 29105 29106 29107 29108 29109 29110 29111 29112 29113 29114 29115 29116 29117 29118 29119 29120 29121 29122 29123 29124 29125 29126 29127 29128 29129 29130 29131 29132 29133 29134 29135 29136 29137 29138 29139 29140 29141 29142 29143 29144 29145 29146 29147 29148 29149 29150 29151 29152 29153 29154 29155 29156 29157 29158 29159 29160 29161 29162 29163 29164 29165 29166 29167 29168 29169 29170 29171 29172 29173 29174 29175 29176 29177 29178 29179 29180 29181 29182 29183 29184 29185 29186 29187 29188 29189 29190 29191 29192 29193 29194 29195 29196 29197 29198 29199 29200 29201 29202 29203 29204 29205 29206 29207 29208 29209 29210 29211 29212 29213 29214 29215 29216 29217 29218 29219 29220 29221 29222 29223 29224 29225 29226 29227 29228 29229 29230 29231 29232 29233 29234 29235 29236 29237 29238 29239 29240 29241 29242 29243 29244 29245 29246 29247 29248 29249 29250 29251 29252 29253 29254 29255 29256 29257 29258 29259 29260 29261 29262 29263 29264 29265 29266 29267 29268 29269 29270 29271 29272 29273 29274 29275 29276 29277 29278 29279 29280 29281 29282 29283 29284 29285 29286 29287 29288 29289 29290 29291 29292 29293 29294 29295 29296 29297 29298 29299 29300 29301 29302 29303 29304 29305 29306 29307 29308 29309 29310 29311 29312 29313 29314 29315 29316 29317 29318 29319 29320 29321 29322 29323 29324 29325 29326 29327 29328 29329 29330 29331 29332 29333 29334 29335 29336 29337 29338 29339 29340 29341 29342 29343 29344 29345 29346 29347 29348 29349 29350 29351 29352 29353 29354 29355 29356 29357 29358 29359 29360 29361 29362 29363 29364 29365 29366 29367 29368 29369 29370 29371 29372 29373 29374 29375 29376 29377 29378 29379 29380 29381 29382 29383 29384 29385 29386 29387 29388 29389 29390 29391 29392 29393 29394 29395 29396 29397 29398 29399 29400 29401 29402 29403 29404 29405 29406 29407 29408 29409 29410 29411 29412 29413 29414 29415 29416 29417 29418 29419 29420 29421 29422 29423 29424 29425 29426 29427 29428 29429 29430 29431 29432 29433 29434 29435 29436 29437 29438 29439 29440 29441 29442 29443 29444 29445 29446 29447 29448 29449 29450 29451 29452 29453 29454 29455 29456 29457 29458 29459 29460 29461 29462 29463 29464 29465 29466 29467 29468 29469 29470 29471 29472 29473 29474 29475 29476 29477 29478 29479 29480 29481 29482 29483 29484 29485 29486 29487 29488 29489 29490 29491 29492 29493 29494 29495 29496 29497 29498 29499 29500 29501 29502 29503 29504 29505 29506 29507 29508 29509 29510 29511 29512 29513 29514 29515 29516 29517 29518 29519 29520 29521 29522 29523 29524 29525 29526 29527 29528 29529 29530 29531 29532 29533 29534 29535 29536 29537 29538 29539 29540 29541 29542 29543 29544 29545 29546 29547 29548 29549 29550 29551 29552 29553 29554 29555 29556 29557 29558 29559 29560 29561 29562 29563 29564 29565 29566 29567 29568 29569 29570 29571 29572 29573 29574 29575 29576 29577 29578 29579 29580 29581 29582 29583 29584 29585 29586 29587 29588 29589 29590 29591 29592 29593 29594 29595 29596 29597 29598 29599 29600 29601 29602 29603 29604 29605 29606 29607 29608 29609 29610 29611 29612 29613 29614 29615 29616 29617 29618 29619 29620 29621 29622 29623 29624 29625 29626 29627 29628 29629 29630 29631 29632 29633 29634 29635 29636 29637 29638 29639 29640 29641 29642 29643 29644 29645 29646 29647 29648 29649 29650 29651 29652 29653 29654 29655 29656 29657 29658 29659 29660 29661 29662 29663 29664 29665 29666 29667 29668 29669 29670 29671 29672 29673 29674 29675 29676 29677 29678 29679 29680 29681 29682 29683 29684 29685 29686 29687 29688 29689 29690 29691 29692 29693 29694 29695 29696 29697 29698 29699 29700 29701 29702 29703 29704 29705 29706 29707 29708 29709 29710 29711 29712 29713 29714 29715 29716 29717 29718 29719 29720 29721 29722 29723 29724 29725 29726 29727 29728 29729 29730 29731 29732 29733 29734 29735 29736 29737 29738 29739 29740 29741 29742 29743 29744 29745 29746 29747 29748 29749 29750 29751 29752 29753 29754 29755 29756 29757 29758 29759 29760 29761 29762 29763 29764 29765 29766 29767 29768 29769 29770 29771 29772 29773 29774 29775 29776 29777 29778 29779 29780 29781 29782 29783 29784 29785 29786 29787 29788 29789 29790 29791 29792 29793 29794 29795 29796 29797 29798 29799 29800 29801 29802 29803 29804 29805 29806 29807 29808 29809 29810 29811 29812 29813 29814 29815 29816 29817 29818 29819 29820 29821 29822 29823 29824 29825 29826 29827 29828 29829 29830 29831 29832 29833 29834 29835 29836 29837 29838 29839 29840 29841 29842 29843 29844 29845 29846 29847 29848 29849 29850 29851 29852 29853 29854 29855 29856 29857 29858 29859 29860 29861 29862 29863 29864 29865 29866 29867 29868 29869 29870 29871 29872 29873 29874 29875 29876 29877 29878 29879 29880 29881 29882 29883 29884 29885 29886 29887 29888 29889 29890 29891 29892 29893 29894 29895 29896 29897 29898 29899 29900 29901 29902 29903 29904 29905 29906 29907 29908 29909 29910 29911 29912 29913 29914 29915 29916 29917 29918 29919 29920 29921 29922 29923 29924 29925 29926 29927 29928 29929 29930 29931 29932 29933 29934 29935 29936 29937 29938 29939 29940 29941 29942 29943 29944 29945 29946 29947 29948 29949 29950 29951 29952 29953 29954 29955 29956 29957 29958 29959 29960 29961 29962 29963 29964 29965 29966 29967 29968 29969 29970 29971 29972 29973 29974 29975 29976 29977 29978 29979 29980 29981 29982 29983 29984 29985 29986 29987 29988 29989 29990 29991 29992 29993 29994 29995 29996 29997 29998 29999 30000 30001 30002 30003 30004 30005 30006 30007 30008 30009 30010 30011 30012 30013 30014 30015 30016 30017 30018 30019 30020 30021 30022 30023 30024 30025 30026 30027 30028 30029 30030 30031 30032 30033 30034 30035 30036 30037 30038 30039 30040 30041 30042 30043 30044 30045 30046 30047 30048 30049 30050 30051 30052 30053 30054 30055 30056 30057 30058 30059 30060 30061 30062 30063 30064 30065 30066 30067 30068 30069 30070 30071 30072 30073 30074 30075 30076 30077 30078 30079 30080 30081 30082 30083 30084 30085 30086 30087 30088 30089 30090 30091 30092 30093 30094 30095 30096 30097 30098 30099 30100 30101 30102 30103 30104 30105 30106 30107 30108 30109 30110 30111 30112 30113 30114 30115 30116 30117 30118 30119 30120 30121 30122 30123 30124 30125 30126 30127 30128 30129 30130 30131 30132 30133 30134 30135 30136 30137 30138 30139 30140 30141 30142 30143 30144 30145 30146 30147 30148 30149 30150 30151 30152 30153 30154 30155 30156 30157 30158 30159 30160 30161 30162 30163 30164 30165 30166 30167 30168 30169 30170 30171 30172 30173 30174 30175 30176 30177 30178 30179 30180 30181 30182 30183 30184 30185 30186 30187 30188 30189 30190 30191 30192 30193 30194 30195 30196 30197 30198 30199 30200 30201 30202 30203 30204 30205 30206 30207 30208 30209 30210 30211 30212 
</DataArray>
<DataArray type="UInt32" Name="offsets" format="ascii">
3 6 9 11 14 16 19 22 25 27 30 32 35 38 40 43 46 49 52 55 58 61 64 67 70 73 76 79 82 85 87 90 93 95 98 101 104 107 110 113 116 119 122 125 128 131 134 136 139 141 144 147 149 152 155 158 161 164 167 170 173 176 179 182 184 186 189 192 195 198 201 204 207 210 213 216 219 222 224 227 230 233 236 239 242 245 247 250 253 256 259 261 264 267 270 273 276 279 282 284 287 290 292 295 298 301 304 306 309 312 315 317 319 322 325 328 331 334 337 340 342 345 348 351 354 356 359 362 365 368 371 374 376 379 382 385 388 390 393 395 398 401 404 407 409 412 415 418 421 424 427 429 431 434 437 440 442 445 447 450 453 456 459 462 465 468 471 474 477 480 483 486 488 491 494 496 499 502 505 508 510 513 515 518 521 523 526 529 532 535 538 540 543 546 548 550 553 555 558 561 564 567 570 573 575 577 580 583 585 588 591 594 597 600 603 606 609 612 615 618 621 624 627 630 633 636 639 642 645 648 651 654 656 659 662 665 667 670 673 676 679 682 685 688 691 694 696 699 702 705 708 711 714 717 720 723 726 729 732 735 738 741 744 746 749 752 755 758 761 764 767 770 773 776 779 782 785 788 791 794 797 800 803 806 808 811 813 816 819 822 825 828 831 834 837 840 843 846 849 852 855 858 861 863 866 869 872 874 877 880 883 886 889 892 895 897 900 903 905 908 911 914 917 920 923 926 928 931 934 936 939 942 945 948 951 953 956 959 962 965 968 971 974 976 979 982 985 988 991 994 997 1000 1003 1005 1008 1011 1014 1017 1019 1022 1025 1028 1030 1033 1035 1038 1041 1043 1046 1049 1052 1055 1058 1061 1064 1067 1070 1073 1076 1079 1082 1084 1087 1090 1093 1096 1098 1101 1104 1107 1110 1113 1116 1119 1122 1125 1128 1131 1134 1137 1140 1143 1146 1149 1152 1155 1158 1161 1164 1167 1170 1173 1176 1178 1181 1183 1186 1189 1191 1194 1197 1200 1203 1206 1209 1211 1214 1217 1220 1223 1226 1229 1231 1234 1237 1240 1242 1245 1247 1250 1253 1256 1259 1262 1265 1268 1271 1274 1277 1280 1283 1286 1289 1292 1295 1298 1301 1304 1307 1310 1313 1316 1319 1322 1324 1327 1330 1333 1336 1339 1342 1345 1348 1350 1353 1356 1359 1362 1365 1368 1371 1373 1376 1379 1382 1385 1388 1391 1394 1396 1399 1402 1405 1408 1411 1413 1416 1419 1422 1425 1427 1429 1432 1435 1437 1440 1443 1446 1449 1452 1455 1458 1461 1464 1466 1469 1472 1475 1478 1481 1484 1487 1490 1493 1496 1499 1502 1505 1508 1511 1513 1516 1518 1521 1523 1526 1528 1531 1534 1537 1540 1543 1545 1548 1551 1554 1557 1560 1563 1566 1569 1572 1575 1578 1581 1583 1586 1589 1592 1595 1598 1601 1604 1606 1608 1611 1614 1617 1620 1623 1626 1628 1631 1634 1637 1639 1641 1643 1646 1649 1652 1655 1657 1660 1662 1665 1668 1670 1673 1676 1679 1681 1684 1687 1690 1693 1696 1699 1702 1705 1708 1711 1714 1717 1720 1723 1726 1729 1732 1735 1738 1740 1742 1744 1747 1749 1752 1755 1758 1760 1763 1765 1768 1771 1774 1777 1780 1783 1786 1788 1791 1794 1797 1800 1803 1806 1809 1812 1814 1817 1820 1823 1826 1829 1832 1835 1838 1841 1844 1847 1850 1853 1856 1858 1861 1864 1867 1870 1873 1876 1879 1882 1885 1888 1891 1894 1896 1899 1902 1905 1907 1910 1913 1915 1917 1920 1923 1926 1928 1930 1933 1936 1939 1942 1945 1948 1950 1953 1956 1958 1960 1963 1966 1969 1972 1974 1977 1980 1983 1986 1989 1992 1995 1998 2001 2004 2007 2010 2013 2016 2019 2022 2024 2027 2030 2033 2036 2039 2041 2044 2047 2050 2053 2056 2059 2061 2064 2067 2070 2073 2076 2079 2082 2085 2088 2091 2094 2097 2100 2103 2106 2109 2112 2114 2117 2120 2123 2125 2128 2131 2134 2137 2140 2143 2146 2149 2152 2155 2158 2161 2164 2167 2170 2173 2176 2179 2182 2185 2188 2191 2194 2197 2200 2203 2206 2209 2212 2215 2218 2221 2224 2227 2230 2233 2236 2239 2242 2244 2247 2250 2253 2256 2259 2262 2264 2267 2270 2273 2276 2279 2282 2285 2288 2291 2294 2297 2300 2303 2306 2309 2312 2315 2318 2321 2324 2326 2329 2332 2335 2338 2341 2343 2346 2349 2352 2355 2358 2361 2364 2367 2370 2373 2376 2379 2382 2384 2387 2390 2392 2394 2397 2400 2403 2406 2409 2412 2415 2418 2421 2424 2427 2430 2433 2436 2439 2442 2445 2448 2451 2454 2457 2460 2463 2466 2469 2472 2475 2478 2481 2484 2487 2490 2493 2496 2498 2501 2504 2507 2509 2512 2515 2518 2521 2524 2527 2529 2531 2534 2536 2539 2541 2544 2547 2550 2553 2556 2559 2562 2565 2567 2570 2573 2576 2579 2582 2585 2588 2591 2594 2597 2600 2603 2606 2608 2611 2613 2616 2619 2622 2625 2628 2631 2634 2637 2640 2643 2646 2649 2652 2654 2657 2660 2663 2666 2669 2672 2675 2678 2681 2683 2686 2689 2691 2694 2697 2699 2701 2704 2707 2709 2712 2714 2717 2720 2723 2725 2727 2730 2733 2736 2739 2742 2744 2747 2750 2753 2756 2759 2761 2763 2766 2769 2772 2775 2778 2781 2784 2786 2789 2792 2794 2797 2800 2802 2804 2807 2810 2813 2816 2819 2822 2825 2828 2831 2834 2837 2840 2842 2845 2848 2851 2854 2857 2860 2863 2866 2869 2872 2875 2878 2881 2884 2887 2890 2893 2896 2899 2902 2905 2908 2911 2914 2917 2920 2923 2926 2928 2931 2934 2937 2940 2943 2946 2949 2952 2955 2958 2961 2964 2967 2970 2973 2976 2979 2982 2985 2988 2991 2994 2996 2999 3002 3004 3007 3010 3013 3015 3018 3021 3024 3027 3030 3033 3036 3039 3042 3045 3048 3050 3053 3056 3059 3062 3065 3068 3071 3074 3076 3079 3082 3085 3088 3091 3094 3097 3100 3103 3105 3107 3110 3113 3116 3119 3122 3125 3128 3131 3134 3137 3140 3143 3146 3149 3152 3155 3158 3161 3164 3167 3170 3173 3176 3179 3182 3185 3188 3191 3194 3197 3200 3203 3206 3209 3211 3214 3217 3220 3223 3226 3229 3232 3235 3238 3241 3244 3247 3250 3253 3255 3258 3260 3263 3266 3269 3272 3275 3278 3281 3284 3287 3290 3293 3296 3299 3302 3305 3308 3311 3314 3317 3320 3322 3325 3328 3331 3333 3336 3338 3340 3343 3346 3349 3352 3355 3358 3361 3364 3367 3370 3373 3376 3379 3382 3385 3388 3391 3394 3397 3400 3402 3405 3407 3410 3413 3416 3418 3421 3424 3427 3430 3433 3436 3439 3442 3445 3447 3450 3453 3455 3457 3460 3462 3465 3467 3470 3473 3476 3479 3482 3485 3487 3490 3493 3496 3498 3501 3504 3507 3510 3513 3516 3519 3521 3524 3527 3530 3533 3536 3538 3540 3543 3546 3549 3552 3555 3558 3561 3564 3567 3570 3573 3576 3579 3582 3585 3588 3591 3594 3597 3600 3603 3606 3608 3611 3614 3617 3620 3623 3625 3627 3629 3632 3635 3638 3641 3643 3646 3649 3652 3655 3658 3661 3664 3667 3670 3672 3675 3678 3681 3684 3687 3690 3693 3696 3699 3702 3705 3708 3711 3713 3716 3719 3722 3725 3728 3731 3734 3737 3740 3743 3746 3749 3752 3754 3757 3760 3763 3766 3769 3772 3775 3778 3781 3784 3787 3790 3793 3796 3799 3802 3804 3807 3810 3813 3816 3819 3822 3825 3828 3830 3833 3836 3839 3842 3845 3848 3851 3854 3856 3859 3862 3865 3867 3870 3872 3875 3878 3881 3884 3887 3890 3893 3896 3899 3902 3905 3907 3910 3912 3915 3918 3921 3924 3926 3929 3932 3935 3938 3940 3943 3946 3949 3952 3955 3958 3961 3964 3967 3970 3973 3976 3979 3982 3985 3988 3991 3994 3997 4000 4003 4006 4009 4012 4015 4018 4021 4024 4027 4030 4032 4035 4037 4040 4043 4046 4049 4052 4055 4057 4060 4063 4066 4069 4072 4075 4078 4080 4083 4086 4089 4092 4095 4098 4101 4104 4107 4110 4113 4116 4119 4121 4124 4127 4130 4133 4136 4139 4142 4145 4147 4150 4153 4156 4159 4161 4164 4167 4169 4172 4175 4178 4181 4184 4187 4190 4193 4196 4199 4202 4205 4208 4211 4214 4217 4220 4223 4226 4229 4232 4235 4238 4241 4244 4247 4250 4253 4256 4259 4262 4264 4267 4270 4273 4276 4279 4282 4285 4288 4291 4294 4297 4300 4303 4306 4309 4312 4315 4318 4321 4324 4327 4330 4332 4334 4337 4339 4342 4344 4347 4350 4353 4355 4357 4360 4363 4366 4369 4372 4375 4378 4381 4384 4387 4390 4392 4395 4398 4401 4404 4406 4409 4412 4415 4418 4421 4424 4427 4430 4433 4436 4439 4442 4445 4448 4451 4454 4457 4459 4462 4465 4468 4471 4474 4477 4480 4483 4486 4489 4491 4494 4497 4500 4503 4506 4508 4510 4513 4516 4519 4522 4525 4528 4531 4534 4537 4539 4542 4545 4548 4551 4554 4557 4560 4563 4565 4568 4571 4574 4577 4580 4583 4586 4589 4591 4594 4597 4600 4603 4606 4609 4612 4614 4617 4620 4622 4624 4627 4630 4633 4636 4639 4642 4644 4647 4650 4653 4656 4659 4662 4665 4668 4671 4674 4677 4680 4682 4685 4688 4691 4694 4696 4699 4702 4704 4707 4710 4713 4715 4718 4720 4723 4725 4728 4731 4734 4736 4739 4742 4745 4748 4751 4754 4757 4760 4763 4766 4769 4772 4775 4778 4780 4783 4786 4789 4791 4794 4796 4799 4802 4805 4808 4811 4814 4817 4819 4822 4825 4828 4830 4833 4836 4839 4842 4845 4848 4851 4854 4857 4860 4863 4866 4869 4872 4875 4878 4881 4884 4887 4890 4893 4896 4899 4902 4905 4908 4911 4913 4916 4919 4922 4924 4926 4929 4932 4935 4938 4941 4944 4947 4950 4952 4955 4958 4961 4964 4967 4970 4973 4976 4979 4982 4984 4987 4990 4993 4995 4998 5001 5004 5007 5010 5013 5016 5019 5022 5025 5028 5031 5034 5037 5040 5043 5046 5049 5052 5055 5058 5061 5064 5067 5070 5073 5076 5078 5081 5084 5087 5090 5093 5096 5099 5102 5104 5107 5110 5113 5116 5119 5122 5125 5127 5130 5133 5136 5139 5142 5145 5148 5151 5154 5157 5160 5162 5165 5167 5170 5173 5175 5178 5180 5182 5185 5188 5191 5194 5197 5200 5203 5206 5209 5211 5214 5217 5220 5222 5225 5228 5230 5233 5236 5239 5242 5245 5248 5250 5253 5256 5259 5262 5264 5267 5269 5272 5275 5277 5279 5281 5283 5286 5289 5292 5295 5298 5300 5303 5306 5309 5312 5315 5317 5320 5323 5326 5329 5331 5334 5336 5339 5342 5344 5347 5350 5353 5356 5359 5362 5365 5367 5370 5373 5376 5378 5381 5384 5387 5390 5392 5395 5398 5401 5403 5406 5409 5412 5414 5417 5420 5422 5424 5427 5430 5433 5436 5438 5441 5444 5447 5450 5453 5456 5459 5462 5465 5468 5471 5474 5477 5480 5483 5486 5489 5492 5495 5498 5501 5504 5507 5510 5512 5515 5518 5521 5524 5527 5530 5533 5536 5539 5541 5544 5547 5550 5553 5556 5559 5562 5564 5567 5570 5573 5576 5579 5582 5585 5588 5591 5594 5597 5600 5603 5606 5609 5612 5615 5617 5620 5623 5626 5629 5632 5634 5636 5639 5642 5645 5648 5651 5653 5656 5659 5662 5664 5667 5670 5673 5676 5679 5682 5684 5687 5690 5692 5694 5697 5700 5703 5706 5709 5712 5714 5717 5720 5723 5726 5729 5731 5734 5737 5739 5742 5745 5748 5751 5753 5756 5758 5761 5764 5767 5769 5772 5775 5777 5780 5783 5786 5789 5792 5795 5798 5801 5803 5806 5809 5812 5815 5818 5820 5823 5826 5829 5832 5835 5838 5841 5844 5847 5849 5852 5854 5857 5860 5863 5866 5869 5872 5875 5878 5881 5884 5887 5889 5892 5895 5898 5901 5904 5907 5910 5913 5916 5919 5922 5925 5927 5930 5933 5935 5938 5941 5943 5946 5949 5952 5954 5957 5960 5963 5966 5969 5971 5974 5977 5979 5982 5985 5988 5990 5993 5996 5999 6002 6004 6007 6010 6013 6016 6019 6022 6025 6028 6031 6034 6037 6040 6042 6045 6048 6051 6053 6056 6059 6062 6065 6068 6071 6073 6076 6079 6082 6085 6088 6091 6093 6096 6099 6102 6105 6108 6111 6114 6117 6120 6123 6126 6129 6132 6135 6138 6141 6143 6146 6149 6152 6155 6158 6161 6163 6166 6169 6172 6175 6178 6181 6184 6187 6190 6193 6196 6199 6202 6204 6207 6210 6213 6216 6219 6222 6225 6228 6230 6233 6236 6239 6242 6245 6248 6250 6253 6256 6259 6262 6265 6268 6271 6274 6277 6280 6283 6286 6289 6292 6295 6298 6301 6304 6307 6310 6313 6316 6319 6322 6325 6328 6331 6334 6337 6340 6342 6345 6348 6351 6353 6356 6359 6362 6364 6367 6370 6372 6375 6378 6381 6384 6386 6389 6392 6395 6398 6401 6404 6407 6409 6412 6415 6418 6421 6424 6427 6430 6433 6436 6439 6442 6445 6448 6451 6454 6457 6460 6463 6466 6469 6472 6475 6478 6481 6483 6486 6489 6492 6495 6498 6500 6503 6505 6508 6511 6513 6516 6519 6522 6525 6528 6531 6533 6536 6539 6542 6545 6548 6550 6553 6556 6559 6561 6564 6567 6570 6573 6576 6579 6582 6584 6587 6590 6592 6595 6598 6601 6604 6606 6609 6612 6615 6618 6621 6623 6626 6629 6631 6634 6637 6640 6643 6646 6649 6652 6655 6658 6660 6663 6666 6668 6670 6673 6676 6679 6682 6685 6688 6691 6694 6697 6700 6703 6706 6709 6712 6715 6718 6721 6724 6727 6730 6733 6736 6739 6742 6745 6748 6751 6754 6757 6759 6762 6765 6768 6771 6774 6777 6780 6783 6786 6789 6792 6795 6798 6801 6804 6807 6810 6812 6815 6818 6820 6823 6826 6829 6832 6834 6836 6839 6842 6845 6848 6851 6854 6857 6860 6863 6866 6869 6872 6875 6878 6881 6884 6887 6890 6893 6896 6899 6902 6904 6907 6910 6912 6915 6918 6921 6924 6927 6930 6933 6936 6939 6942 6945 6948 6951 6954 6957 6960 6963 6966 6968 6971 6974 6977 6979 6982 6985 6988 6991 6994 6997 7000 7003 7006 7009 7012 7015 7018 7021 7024 7027 7030 7033 7036 7039 7042 7045 7048 7051 7054 7057 7060 7063 7066 7068 7071 7073 7076 7078 7081 7084 7087 7090 7093 7095 7098 7101 7104 7106 7109 7112 7115 7118 7121 7123 7126 7129 7131 7134 7137 7140 7143 7145 7148 7151 7154 7157 7160 7163 7166 7169 7172 7175 7178 7181 7184 7187 7190 7193 7196 7199 7202 7205 7207 7210 7213 7216 7218 7221 7224 7227 7230 7233 7236 7239 7242 7245 7248 7251 7254 7257 7260 7263 7265 7268 7271 7274 7277 7280 7283 7286 7289 7292 7295 7298 7301 7304 7307 7310 7313 7316 7319 7322 7325 7328 7331 7334 7337 7340 7343 7346 7349 7352 7355 7358 7361 7364 7367 7370 7373 7376 7379 7382 7385 7388 7391 7394 7397 7400 7403 7406 7408 7411 7414 7417 7420 7423 7425 7428 7431 7434 7437 7440 7443 7446 7449 7452 7455 7458 7461 7464 7467 7470 7473 7476 7479 7482 7485 7488 7491 7494 7497 7500 7503 7506 7509 7511 7514 7517 7520 7523 7525 7528 7531 7533 7536 7539 7542 7545 7548 7551 7554 7557 7560 7562 7565 7568 7571 7573 7576 7579 7582 7585 7588 7591 7594 7596 7599 7602 7605 7608 7611 7614 7617 7619 7622 7625 7628 7631 7634 7637 7640 7642 7645 7648 7651 7654 7656 7659 7662 7664 7667 7669 7672 7675 7677 7680 7683 7686 7689 7692 7694 7697 7699 7701 7704 7707 7710 7713 7716 7719 7722 7724 7727 7730 7733 7735 7738 7741 7744 7747 7750 7752 7755 7758 7760 7763 7766 7768 7771 7773 7776 7779 7782 7785 7788 7791 7794 7797 7800 7803 7806 7809 7812 7815 7818 7821 7824 7827 7830 7833 7836 7839 7842 7844 7847 7850 7853 7856 7858 7861 7864 7867 7870 7873 7876 7878 7881 7884 7887 7890 7893 7896 7899 7902 7905 7908 7911 7914 7917 7920 7923 7926 7929 7932 7935 7938 7941 7944 7947 7950 7953 7956 7959 7962 7965 7968 7971 7974 7977 7980 7983 7986 7989 7992 7995 7998 8001 8004 8007 8010 8013 8016 8019 8022 8025 8028 8031 8034 8037 8040 8043 8046 8049 8052 8055 8058 8061 8064 8067 8070 8073 8076 8079 8081 8084 8087 8090 8093 8096 8099 8102 8105 8108 8111 8114 8117 8120 8123 8126 8129 8132 8135 8138 8141 8144 8147 8150 8153 8156 8159 8162 8165 8168 8171 8174 8177 8180 8183 8186 8189 8192 8195 8198 8201 8204 8207 8210 8213 8216 8219 8222 8225 8228 8231 8234 8237 8240 8243 8246 8249 8252 8255 8258 8261 8264 8267 8269 8272 8275 8278 8281 8284 8287 8290 8293 8296 8299 8302 8305 8308 8310 8313 8316 8319 8322 8325 8328 8331 8334 8337 8340 8343 8345 8348 8351 8354 8357 8360 8363 8366 8369 8372 8374 8376 8379 8381 8384 8386 8389 8391 8394 8397 8399 8402 8405 8408 8411 8414 8417 8420 8422 8425 8428 8431 8434 8436 8438 8441 8444 8447 8450 8453 8456 8458 8460 8463 8466 8469 8471 8474 8477 8480 8483 8486 8489 8492 8495 8498 8501 8504 8507 8510 8513 8516 8519 8522 8525 8528 8531 8534 8537 8539 8542 8545 8548 8550 8553 8556 8559 8562 8564 8567 8570 8573 8576 8579 8582 8585 8588 8591 8594 8596 8599 8602 8605 8608 8611 8614 8617 8620 8623 8626 8629 8632 8634 8637 8640 8643 8646 8649 8652 8655 8658 8661 8663 8666 8669 8672 8675 8678 8681 8683 8686 8689 8692 8695 8698 8701 8704 8707 8710 8713 8715 8717 8720 8723 8726 8728 8731 8734 8737 8740 8742 8745 8748 8751 8754 8757 8760 8763 8766 8769 8772 8775 8778 8781 8783 8786 8789 8792 8795 8798 8801 8803 8806 8809 8812 8815 8817 8820 8822 8825 8828 8831 8834 8837 8840 8843 8846 8849 8852 8855 8858 8861 8864 8867 8870 8873 8876 8879 8882 8885 8888 8891 8894 8896 8899 8902 8905 8908 8911 8914 8917 8920 8923 8925 8928 8931 8934 8937 8940 8943 8946 8949 8952 8955 8957 8960 8963 8965 8968 8971 8974 8977 8980 8982 8985 8988 8990 8992 8995 8998 9000 9003 9006 9009 9012 9015 9018 9021 9024 9027 9030 9033 9036 9039 9042 9045 9048 9050 9053 9055 9058 9061 9064 9067 9070 9072 9075 9078 9081 9084 9087 9089 9092 9095 9098 9101 9104 9107 9110 9113 9116 9118 9121 9124 9126 9129 9131 9134 9137 9140 9142 9145 9148 9150 9153 9156 9159 9162 9164 9167 9170 9173 9176 9179 9181 9184 9187 9190 9193 9196 9199 9202 9205 9208 9211 9214 9217 9220 9223 9226 9229 9232 9235 9238 9241 9244 9247 9250 9253 9256 9259 9261 9264 9267 9270 9272 9275 9278 9281 9284 9287 9290 9293 9296 9299 9302 9305 9307 9310 9313 9315 9318 9321 9324 9327 9330 9332 9335 9338 9341 9344 9347 9350 9353 9356 9359 9362 9365 9368 9371 9374 9377 9380 9383 9386 9388 9391 9394 9397 9400 9403 9406 9408 9411 9414 9417 9420 9423 9425 9428 9431 9434 9437 9440 9443 9446 9449 9452 9455 9458 9461 9464 9467 9470 9472 9475 9478 9481 9484 9487 9490 9493 9496 9499 9502 9505 9508 9510 9513 9516 9519 9522 9525 9528 9531 9534 9537 9540 9543 9546 9549 9552 9555 9558 9561 9564 9567 9570 9573 9576 9579 9581 9584 9587 9590 9593 9596 9598 9601 9604 9606 9609 9611 9614 9617 9619 9622 9625 9628 9631 9634 9637 9640 9643 9646 9649 9651 9654 9657 9660 9663 9666 9669 9672 9675 9678 9681 9684 9687 9690 9693 9696 9699 9702 9705 9708 9711 9714 9717 9720 9723 9726 9729 9732 9735 9738 9740 9743 9746 9749 9752 9755 9758 9761 9764 9767 9770 9773 9775 9778 9781 9784 9787 9790 9793 9795 9798 9801 9804 9807 9810 9813 9816 9819 9822 9825 9828 9831 9834 9836 9839 9842 9844 9847 9850 9853 9855 9858 9860 9863 9866 9869 9872 9875 9878 9880 9883 9886 9888 9891 9893 9896 9899 9902 9905 9908 9911 9913 9915 9918 9921 9923 9926 9929 9932 9935 9938 9941 9944 9947 9950 9953 9956 9959 9962 9965 9968 9971 9974 9977 9980 9983 9986 9989 9992 9994 9997 10000 10003 10006 10008 10010 10013 10016 10019 10022 10025 10028 10031 10034 10037 10039 10042 10045 10047 10049 10052 10055 10058 10060 10063 10066 10069 10072 10075 10078 10080 10083 10086 10089 10092 10095 10098 10100 10103 10106 10109 10112 10115 10118 10121 10124 10126 10129 10132 10135 10137 10140 10143 10146 10148 10151 10154 10156 10159 10161 10164 10167 10170 10173 10176 10179 10182 10185 10188 10191 10194 10197 10200 10203 10206 10209 10212 10215 10218 10221 10224 10227 10230 10233 10235 10238 10241 10244 10247 10250 10253 10255 10258 10261 10264 10266 10269 10272 10275 10278 10281 10284 10287 10290 10293 10296 10299 10302 10305 10308 10311 10314 10316 10319 10322 10325 10328 10330 10333 10336 10338 10341 10344 10347 10350 10353 10356 10358 10361 10364 10367 10370 10373 10376 10378 10381 10384 10387 10390 10393 10396 10399 10402 10405 10408 10411 10414 10417 10420 10423 10425 10428 10430 10433 10436 10438 10441 10444 10447 10450 10453 10456 10459 10462 10465 10468 10471 10474 10477 10479 10482 10485 10488 10491 10494 10497 10500 10503 10506 10509 10512 10515 10518 10521 10524 10527 10530 10533 10536 10539 10542 10545 10548 10551 10554 10557 10560 10562 10565 10568 10570 10573 10576 10579 10581 10584 10587 10589 10592 10595 10598 10601 10603 10606 10609 10612 10615 10617 10620 10623 10626 10628 10631 10633 10635 10638 10641 10644 10647 10650 10653 10656 10659 10662 10665 10668 10671 10674 10677 10679 10682 10685 10688 10690 10693 10696 10699 10702 10705 10708 10711 10713 10716 10719 10722 10725 10728 10731 10734 10737 10740 10742 10745 10748 10751 10754 10757 10760 10763 10766 10769 10771 10774 10777 10780 10783 10786 10789 10792 10795 10798 10801 10803 10806 10809 10812 10815 10818 10821 10824 10827 10830 10833 10836 10839 10842 10844 10847 10850 10852 10855 10858 10861 10864 10867 10870 10873 10876 10879 10882 10885 10888 10891 10894 10896 10899 10902 10905 10908 10910 10913 10916 10919 10921 10923 10926 10929 10932 10935 10938 10941 10944 10947 10950 10953 10956 10959 10962 10965 10968 10971 10974 10977 10980 10983 10986 10989 10991 10994 10997 11000 11003 11006 11009 11012 11015 11018 11021 11024 11027 11030 11033 11036 11039 11042 11045 11048 11051 11054 11057 11060 11063 11066 11068 11071 11074 11077 11080 11082 11084 11087 11090 11093 11096 11099 11102 11105 11107 11110 11113 11116 11119 11122 11125 11127 11130 11133 11136 11139 11142 11145 11148 11151 11153 11156 11159 11162 11165 11168 11171 11174 11177 11180 11183 11186 11189 11192 11195 11198 11201 11204 11207 11210 11212 11215 11218 11221 11224 11227 11230 11233 11235 11238 11241 11244 11246 11249 11252 11255 11258 11261 11264 11267 11270 11273 11276 11279 11281 11284 11286 11289 11291 11294 11297 11300 11302 11305 11308 11311 11314 11317 11320 11323 11326 11329 11331 11334 11337 11340 11343 11346 11349 11352 11355 11358 11361 11364 11367 11370 11373 11375 11377 11380 11383 11385 11388 11391 11394 11397 11399 11402 11404 11406 11408 11411 11413 11415 11418 11421 11424 11427 11430 11432 11435 11438 11440 11443 11446 11449 11452 11455 11458 11460 11463 11466 11469 11471 11474 11477 11480 11482 11485 11488 11491 11494 11496 11499 11501 11504 11507 11510 11512 11514 11516 11519 11521 11524 11527 11530 11533 11535 11538 11540 11543 11545 11548 11551 11553 11555 11558 11560 11562 11565 11568 11571 11574 11577 11580 11583 11585 11588 11591 11593 11596 11599 11602 11605 11607 11610 11613 11616 11619 11622 11625 11628 11630 11632 11635 11638 11641 11643 11646 11649 11652 11654 11657 11659 11662 11665 11668 11670 11673 11676 11678 11681 11684 11686 11688 11691 11694 11697 11699 11702 11705 11708 11711 11714 11716 11719 11722 11725 11728 11731 11734 11737 11740 11743 11746 11749 11752 11755 11758 11761 11764 11767 11770 11773 11776 11779 11782 11785 11788 11791 11794 11797 11800 11803 11806 11809 11812 11815 11818 11821 11824 11827 11830 11833 11835 11838 11841 11843 11846 11848 11851 11853 11856 11859 11862 11864 11866 11869 11872 11874 11876 11879 11882 11885 11888 11890 11892 11895 11898 11901 11903 11906 11909 11912 11915 11918 11921 11924 11927 11930 11933 11936 11939 11941 11944 11947 11950 11953 11956 11959 11962 11965 11968 11971 11974 11977 11980 11982 11984 11987 11990 11993 11996 11999 12002 12004 12006 12008 12011 12014 12017 12020 12023 12026 12029 12032 12035 12038 12041 12043 12045 12048 12051 12053 12056 12058 12061 12064 12067 12069 12072 12075 12078 12081 12084 12087 12090 12093 12096 12099 12101 12104 12107 12110 12113 12116 12119 12122 12125 12127 12130 12133 12136 12139 12142 12145 12148 12151 12154 12156 12159 12162 12165 12168 12171 12174 12177 12179 12182 12185 12188 12191 12194 12197 12200 12203 12206 12209 12212 12215 12218 12220 12223 12226 12229 12232 12235 12238 12240 12243 12246 12249 12252 12255 12258 12261 12263 12266 12268 12271 12273 12276 12279 12282 12284 12287 12290 12293 12296 12299 12302 12305 12307 12310 12313 12315 12318 12320 12323 12326 12329 12332 12335 12338 12340 12343 12346 12349 12352 12355 12358 12361 12364 12367 12370 12373 12375 12377 12380 12382 12385 12388 12390 12393 12396 12399 12402 12405 12407 12410 12413 12416 12419 12422 12425 12428 12431 12433 12436 12439 12441 12444 12447 12450 12453 12455 12458 12461 12464 12467 12470 12473 12475 12478 12481 12484 12486 12489 12492 12495 12498 12500 12503 12505 12507 12510 12513 12516 12519 12522 12525 12528 12531 12533 12536 12539 12542 12545 12548 12551 12554 12557 12560 12563 12566 12569 12572 12574 12577 12580 12583 12586 12589 12592 12595 12598 12601 12604 12607 12610 12613 12615 12618 12621 12624 12627 12630 12633 12635 12638 12641 12644 12647 12650 12653 12656 12659 12662 12664 12667 12670 12673 12676 12679 12682 12685 12688 12691 12694 12697 12700 12703 12705 12708 12711 12714 12717 12719 12722 12725 12728 12730 12733 12736 12739 12741 12744 12747 12749 12751 12754 12757 12760 12762 12765 12768 12771 12774 12777 12780 12783 12786 12789 12792 12795 12798 12800 12803 12805 12808 12811 12814 12817 12820 12822 12824 12827 12830 12833 12836 12838 12841 12843 12846 12848 12851 12854 12857 12860 12863 12866 12869 12872 12875 12878 12881 12884 12887 12890 12893 12896 12899 12902 12905 12908 12911 12914 12917 12920 12923 12926 12929 12932 12935 12938 12941 12944 12947 12950 12953 12956 12959 12962 12965 12968 12971 12974 12977 12980 12983 12986 12989 12991 12994 12996 12999 13002 13005 13008 13010 13013 13016 13019 13022 13025 13028 13031 13034 13037 13040 13043 13046 13049 13052 13055 13058 13061 13064 13067 13069 13072 13075 13078 13081 13084 13087 13090 13092 13095 13098 13100 13103 13106 13108 13111 13114 13117 13120 13123 13126 13129 13132 13134 13137 13140 13143 13146 13149 13152 13154 13157 13160 13163 13166 13169 13172 13175 13178 13180 13183 13186 13189 13192 13195 13197 13200 13202 13204 13207 13210 13213 13215 13218 13220 13223 13226 13229 13232 13235 13238 13241 13244 13247 13250 13253 13256 13259 13262 13265 13268 13270 13272 13275 13278 13281 13284 13287 13290 13293 13296 13299 13302 13305 13308 13310 13313 13316 13318 13321 13324 13327 13330 13332 13335 13338 13341 13344 13347 13350 13353 13356 13359 13362 13365 13368 13371 13374 13377 13380 13383 13386 13389 13392 13395 13398 13401 13404 13407 13410 13413 13416 13419 13422 13425 13428 13431 13434 13437 13440 13442 13445 13447 13450 13453 13456 13459 13462 13465 13468 13470 13473 13476 13479 13482 13484 13487 13490 13492 13495 13498 13501 13504 13507 13510 13513 13516 13519 13522 13525 13528 13531 13534 13537 13540 13543 13546 13548 13550 13553 13556 13559 13562 13565 13568 13571 13574 13577 13580 13583 13586 13589 13592 13595 13598 13601 13604 13607 13610 13613 13616 13619 13621 13624 13627 13630 13633 13636 13639 13642 13645 13648 13651 13654 13657 13660 13663 13666 13669 13671 13674 13677 13680 13682 13685 13688 13691 13693 13696 13698 13701 13704 13706 13709 13712 13714 13717 13720 13723 13726 13729 13732 13735 13738 13741 13743 13746 13749 13752 13755 13758 13761 13763 13765 13768 13771 13774 13777 13780 13783 13786 13789 13791 13794 13797 13799 13802 13805 13808 13811 13814 13817 13820 13822 13825 13828 13831 13833 13836 13839 13842 13844 13846 13849 13852 13855 13858 13861 13864 13867 13870 13873 13876 13879 13881 13884 13886 13889 13892 13894 13897 13900 13903 13905 13908 13911 13914 13917 13920 13923 13926 13928 13931 13934 13937 13939 13942 13945 13948 13950 13952 13955 13958 13961 13964 13966 13969 13972 13975 13978 13981 13984 13987 13990 13992 13994 13997 14000 14003 14006 14008 14010 14012 14015 14017 14020 14022 14024 14027 14029 14032 14035 14038 14040 14043 14046 14049 14052 14055 14058 14060 14063 14065 14068 14070 14072 14074 14076 14079 14082 14085 14088 14090 14092 14095 14098 14101 14103 14105 14108 14111 14114 14117 14119 14122 14125 14127 14130 14133 14136 14139 14141 14143 14146 14149 14152 14155 14157 14160 14162 14165 14168 14171 14174 14176 14179 14182 14185 14188 14191 14194 14197 14200 14203 14206 14209 14212 14215 14218 14221 14224 14227 14230 14233 14236 14239 14242 14244 14247 14250 14253 14256 14259 14262 14265 14268 14271 14274 14277 14280 14283 14286 14289 14292 14295 14298 14301 14304 14307 14310 14313 14316 14319 14321 14324 14327 14330 14333 14335 14338 14341 14343 14346 14349 14352 14354 14357 14359 14362 14365 14368 14371 14374 14377 14380 14383 14385 14388 14391 14394 14396 14399 14402 14405 14408 14411 14414 14417 14419 14422 14424 14427 14430 14432 14435 14437 14440 14443 14446 14449 14452 14455 14458 14461 14464 14467 14470 14473 14476 14479 14481 14483 14486 14489 14492 14495 14498 14501 14504 14507 14510 14513 14516 14519 14521 14524 14527 14530 14533 14536 14539 14542 14545 14548 14551 14554 14557 14560 14563 14565 14568 14570 14573 14576 14579 14582 14585 14588 14591 14594 14597 14599 14602 14605 14608 14611 14614 14617 14620 14622 14625 14627 14630 14633 14636 14638 14641 14643 14646 14649 14652 14655 14658 14660 14663 14666 14668 14670 14673 14676 14679 14682 14684 14687 14690 14693 14696 14699 14702 14705 14708 14711 14714 14717 14720 14723 14726 14729 14732 14735 14737 14739 14742 14745 14747 14750 14753 14756 14758 14761 14764 14767 14770 14773 14776 14779 14781 14784 14786 14789 14792 14795 14797 14800 14803 14806 14809 14812 14815 14818 14821 14824 14826 14829 14832 14835 14837 14840 14843 14846 14849 14852 14855 14857 14860 14863 14866 14869 14872 14875 14877 14880 14883 14886 14889 14892 14894 14897 14900 14902 14905 14908 14911 14913 14916 14919 14922 14925 14928 14931 14934 14936 14938 14941 14944 14947 14950 14953 14956 14959 14962 14964 14967 14970 14973 14976 14978 14981 14984 14986 14989 14992 14995 14998 15001 15004 15007 15010 15013 15016 15019 15022 15025 15028 15031 15034 15037 15040 15043 15046 15049 15052 15055 15058 15061 15064 15067 15070 15073 15076 15079 15082 15085 15088 15091 15094 15097 15100 15102 15105 15108 15111 15114 15117 15120 15123 15126 15129 15132 15135 15138 15141 15144 15147 15150 15153 15155 15158 15161 15164 15167 15170 15173 15176 15179 15182 15185 15188 15191 15194 15197 15200 15203 15206 15209 15212 15215 15218 15221 15224 15227 15230 15233 15236 15239 15242 15245 15248 15251 15254 15257 15260 15263 15266 15269 15272 15275 15278 15281 15284 15287 15290 15293 15296 15299 15302 15305 15308 15311 15314 15317 15320 15323 15326 15329 15332 15335 15338 15341 15344 15347 15350 15353 15356 15359 15362 15365 15368 15371 15374 15377 15380 15383 15386 15389 15392 15395 15398 15401 15404 15407 15410 15413 15416 15419 15422 15425 15428 15430 15433 15436 15439 15442 15445 15448 15451 15453 15456 15459 15462 15465 15468 15471 15473 15476 15479 15482 15485 15488 15491 15494 15497 15500 15503 15506 15509 15512 15515 15517 15520 15522 15525 15528 15531 15534 15537 15540 15543 15546 15549 15552 15555 15558 15561 15564 15567 15570 15572 15575 15578 15580 15583 15586 15589 15592 15595 15598 15600 15603 15606 15609 15612 15615 15617 15620 15623 15626 15629 15632 15635 15638 15640 15643 15645 15648 15651 15654 15657 15660 15662 15665 15667 15670 15672 15675 15677 15680 15683 15686 15689 15692 15695 15698 15701 15704 15707 15710 15713 15716 15719 15722 15725 15728 15731 15734 15737 15740 15743 15746 15749 15752 15755 15758 15761 15764 15766 15769 15772 15775 15778 15781 15784 15787 15790 15793 15796 15799 15802 15805 15808 15811 15814 15817 15820 15823 15826 15829 15832 15835 15838 15841 15844 15846 15849 15852 15855 15857 15860 15863 15865 15868 15871 15874 15877 15880 15883 15885 15888 15891 15893 15896 15899 15901 15904 15907 15910 15913 15916 15919 15922 15925 15928 15931 15933 15936 15939 15942 15945 15948 15951 15954 15956 15959 15962 15965 15968 15971 15974 15977 15980 15983 15985 15988 15991 15994 15997 16000 16003 16006 16009 16012 16015 16018 16021 16024 16027 16030 16033 16035 16038 16041 16044 16047 16050 16053 16056 16059 16062 16065 16068 16071 16074 16077 16080 16083 16086 16089 16092 16095 16098 16101 16104 16107 16109 16112 16115 16118 16121 16124 16127 16130 16133 16136 16139 16141 16143 16146 16149 16152 16155 16158 16161 16164 16167 16170 16173 16176 16179 16181 16184 16187 16190 16193 16195 16198 16201 16204 16207 16210 16213 16216 16219 16221 16224 16227 16230 16233 16236 16239 16242 16245 16247 16250 16253 16256 16258 16261 16264 16267 16270 16273 16276 16279 16282 16285 16287 16289 16292 16295 16298 16301 16304 16307 16310 16313 16316 16319 16322 16325 16328 16331 16334 16337 16340 16343 16346 16349 16352 16355 16358 16361 16364 16367 16370 16373 16376 16379 16382 16385 16388 16391 16394 16397 16400 16403 16406 16409 16412 16415 16418 16421 16424 16427 16430 16433 16436 16439 16442 16445 16448 16451 16454 16457 16460 16463 16466 16469 16472 16475 16478 16481 16484 16487 16490 16493 16496 16499 16502 16505 16508 16511 16514 16517 16520 16523 16526 16529 16532 16535 16538 16541 16544 16547 16550 16553 16556 16559 16562 16565 16568 16571 16574 16577 16580 16583 16586 16589 16592 16595 16598 16601 16604 16607 16610 16613 16616 16619 16622 16625 16628 16631 16634 16637 16640 16643 16646 16649 16652 16654 16657 16660 16662 16665 16667 16669 16672 16675 16678 16680 16683 16686 16688 16691 16694 16697 16700 16703 16706 16708 16711 16714 16717 16720 16723 16726 16729 16732 16735 16738 16741 16744 16747 16750 16753 16756 16759 16762 16765 16768 16771 16774 16777 16780 16783 16786 16789 16792 16795 16798 16801 16804 16807 16810 16813 16816 16819 16822 16825 16828 16831 16834 16837 16840 16843 16846 16849 16852 16855 16858 16860 16862 16865 16868 16871 16874 16877 16880 16882 16885 16888 16891 16894 16897 16899 16902 16905 16908 16911 16914 16916 16919 16922 16925 16928 16931 16934 16937 16940 16943 16946 16948 16951 16953 16956 16959 16962 16965 16968 16970 16973 16976 16979 16982 16985 16987 16990 16992 16995 16998 17001 17004 17007 17009 17012 17015 17018 17021 17024 17027 17030 17033 17036 17039 17042 17045 17048 17051 17054 17057 17060 17063 17065 17068 17071 17074 17076 17078 17081 17084 17087 17090 17093 17096 17099 17102 17104 17107 17110 17113 17116 17119 17122 17125 17128 17131 17134 17137 17140 17143 17145 17148 17151 17154 17157 17160 17163 17166 17169 17172 17175 17178 17181 17184 17187 17190 17193 17196 17199 17202 17205 17208 17211 17214 17217 17220 17223 17226 17229 17232 17235 17238 17241 17244 17247 17250 17253 17256 17259 17262 17265 17268 17271 17274 17277 17280 17283 17286 17289 17292 17295 17298 17301 17303 17306 17309 17312 17315 17318 17321 17324 17326 17329 17332 17335 17337 17340 17343 17346 17349 17352 17355 17358 17361 17364 17367 17370 17373 17376 17379 17382 17384 17387 17390 17393 17395 17398 17401 17404 17407 17410 17413 17416 17418 17421 17424 17427 17430 17433 17436 17438 17441 17444 17446 17449 17452 17455 17458 17461 17464 17467 17470 17473 17476 17478 17481 17484 17487 17489 17492 17495 17498 17501 17503 17506 17509 17512 17515 17518 17521 17524 17527 17530 17533 17535 17538 17541 17544 17547 17550 17553 17556 17558 17561 17564 17567 17570 17573 17576 17579 17582 17585 17588 17591 17594 17597 17599 17602 17604 17607 17610 17613 17616 17619 17622 17624 17627 17629 17632 17635 17638 17641 17644 17647 17650 17653 17656 17658 17661 17664 17667 17670 17673 17676 17679 17682 17685 17688 17691 17694 17697 17700 17703 17706 17709 17712 17715 17718 17721 17724 17727 17730 17733 17736 17739 17742 17745 17748 17751 17754 17757 17760 17763 17765 17768 17771 17774 17777 17780 17783 17785 17788 17791 17794 17797 17799 17802 17805 17808 17810 17813 17816 17819 17821 17824 17827 17830 17833 17836 17839 17842 17845 17848 17851 17854 17857 17860 17863 17866 17869 17872 17875 17878 17881 17884 17886 17889 17892 17895 17898 17901 17904 17907 17910 17913 17916 17918 17921 17924 17926 17929 17932 17935 17938 17941 17944 17947 17950 17953 17956 17959 17962 17965 17968 17971 17974 17977 17980 17983 17986 17989 17992 17995 17998 18000 18002 18005 18008 18010 18012 18015 18018 18021 18024 18027 18030 18033 18036 18039 18042 18045 18048 18051 18054 18056 18059 18062 18065 18068 18070 18073 18076 18079 18082 18085 18088 18091 18094 18097 18100 18103 18106 18109 18111 18114 18117 18120 18123 18126 18129 18132 18135 18138 18141 18143 18146 18149 18152 18155 18158 18160 18163 18166 18169 18172 18175 18178 18181 18184 18187 18190 18193 18196 18199 18202 18205 18207 18210 18213 18216 18218 18220 18223 18226 18229 18231 18233 18236 18239 18241 18244 18247 18250 18253 18255 18258 18261 18264 18267 18270 18273 18276 18279 18281 18284 18287 18290 18293 18295 18297 18300 18302 18305 18308 18311 18314 18316 18319 18321 18324 18327 18330 18333 18335 18338 18340 18343 18346 18349 18352 18355 18358 18361 18364 18367 18370 18373 18376 18379 18381 18384 18387 18390 18393 18396 18398 18401 18404 18407 18410 18413 18415 18418 18420 18423 18426 18429 18432 18435 18438 18441 18444 18446 18449 18452 18455 18458 18461 18464 18467 18470 18473 18476 18479 18482 18485 18487 18490 18493 18496 18499 18501 18504 18507 18510 18513 18516 18519 18522 18525 18528 18531 18534 18537 18539 18542 18545 18548 18551 18554 18557 18560 18563 18566 18569 18572 18575 18578 18581 18584 18587 18590 18593 18596 18599 18602 18605 18608 18611 18614 18617 18620 18623 18626 18629 18632 18634 18637 18640 18643 18646 18649 18652 18655 18657 18660 18663 18666 18669 18671 18674 18677 18680 18683 18686 18688 18691 18694 18697 18700 18703 18706 18709 18712 18714 18717 18720 18723 18726 18729 18732 18735 18738 18741 18744 18747 18750 18753 18756 18759 18761 18764 18767 18770 18773 18776 18779 18782 18785 18788 18791 18794 18796 18799 18802 18804 18807 18810 18813 18816 18819 18822 18825 18828 18831 18834 18837 18840 18843 18846 18849 18852 18854 18857 18860 18863 18866 18869 18872 18875 18878 18881 18884 18887 18890 18893 18895 18898 18901 18904 18907 18910 18913 18916 18919 18922 18925 18928 18931 18934 18937 18940 18943 18946 18949 18952 18954 18957 18960 18963 18966 18969 18971 18974 18977 18980 18983 18985 18988 18991 18994 18997 19000 19003 19005 19007 19010 19013 19016 19019 19022 19025 19028 19031 19034 19037 19040 19043 19046 19049 19052 19055 19058 19061 19064 19067 19070 19072 19075 19078 19081 19084 19087 19090 19093 19096 19099 19102 19105 19108 19111 19114 19117 19120 19123 19126 19129 19132 19135 19138 19141 19144 19147 19150 19153 19156 19159 19162 19165 19168 19171 19174 19177 19180 19183 19185 19188 19191 19194 19196 19199 19202 19204 19207 19210 19213 19216 19219 19222 19225 19228 19231 19234 19236 19239 19242 19245 19248 19250 19253 19256 19259 19262 19265 19268 19271 19274 19277 19280 19282 19285 19288 19291 19293 19296 19299 19301 19303 19306 19309 19312 19315 19318 19321 19324 19327 19330 19333 19336 19339 19342 19345 19348 19351 19353 19356 19359 19362 19364 19367 19369 19372 19375 19378 19381 19383 19386 19389 19392 19395 19398 19400 19403 19406 19409 19412 19414 19416 19419 19421 19424 19427 19429 19432 19434 19437 19440 19443 19446 19448 19451 19454 19457 19460 19463 19466 19468 19471 19474 19476 19478 19481 19484 19487 19490 19493 19496 19499 19502 19505 19508 19511 19514 19517 19520 19523 19526 19528 19531 19533 19536 19538 19541 19544 19547 19550 19553 19556 19559 19562 19565 19568 19571 19574 19577 19580 19583 19586 19589 19592 19595 19598 19600 19603 19606 19609 19612 19615 19618 19620 19623 19625 19628 19631 19633 19636 19639 19641 19644 19647 19650 19653 19656 19659 19662 19664 19667 19670 19673 19676 19678 19681 19684 19687 19690 19693 19696 19698 19701 19704 19707 19710 19712 19715 19718 19721 19724 19727 19730 19733 19736 19739 19741 19744 19747 19750 19753 19756 19759 19762 19765 19768 19771 19774 19777 19780 19782 19785 19788 19790 19793 19796 19799 19801 19803 19806 19808 19811 19814 19817 19819 19822 19825 19828 19831 19833 19836 19839 19841 19844 19846 19849 19852 19855 19858 19861 19863 19865 19868 19871 19874 19877 19880 19883 19886 19889 19892 19895 19898 19901 19904 19907 19910 19913 19915 19918 19921 19924 19927 19930 19933 19936 19939 19942 19945 19948 19951 19954 19957 19960 19963 19966 19969 19972 19975 19978 19981 19984 19987 19990 19993 19996 19999 20002 20005 20008 20011 20014 20017 20020 20023 20026 20029 20032 20035 20038 20041 20044 20047 20050 20053 20055 20058 20061 20064 20067 20070 20073 20075 20078 20081 20084 20087 20090 20093 20096 20099 20101 20103 20106 20109 20112 20115 20118 20121 20124 20127 20130 20133 20136 20139 20142 20145 20148 20151 20154 20157 20160 20163 20166 20169 20171 20173 20176 20179 20182 20185 20188 20191 20194 20197 20200 20203 20206 20209 20212 20215 20218 20220 20223 20226 20229 20232 20235 20238 20241 20244 20247 20250 20253 20256 20259 20262 20264 20267 20270 20273 20276 20279 20282 20285 20288 20291 20294 20297 20300 20303 20306 20309 20312 20315 20318 20321 20324 20327 20330 20333 20336 20339 20342 20345 20348 20351 20354 20357 20360 20363 20366 20369 20372 20375 20378 20381 20384 20387 20390 20393 20396 20399 20402 20405 20408 20411 20414 20417 20420 20423 20426 20429 20432 20435 20438 20441 20444 20447 20450 20453 20456 20459 20462 20465 20468 20471 20473 20476 20479 20482 20485 20488 20491 20494 20497 20500 20503 20506 20509 20512 20515 20518 20521 20523 20526 20529 20532 20535 20537 20540 20543 20546 20549 20552 20555 20557 20560 20563 20566 20569 20571 20574 20576 20579 20581 20584 20587 20590 20593 20595 20598 20601 20603 20606 20608 20611 20614 20617 20620 20623 20626 20629 20632 20635 20638 20641 20644 20647 20650 20653 20656 20659 20662 20665 20668 20671 20674 20677 20680 20683 20686 20689 20692 20694 20697 20700 20702 20705 20708 20711 20714 20717 20720 20723 20726 20729 20732 20735 20738 20740 20743 20746 20749 20752 20755 20758 20761 20764 20767 20770 20773 20776 20779 20782 20784 20787 20790 20793 20796 20799 20802 20805 20807 20810 20812 20815 20818 20820 20823 20825 20828 20830 20833 20836 20839 20842 20845 20848 20851 20854 20857 20860 20862 20865 20868 20871 20874 20877 20880 20883 20886 20889 20892 20894 20897 20900 20903 20905 20908 20910 20912 20915 20918 20920 20923 20926 20929 20932 20934 20937 20940 20943 20946 20948 20951 20954 20956 20959 20962 20965 20968 20971 20974 20977 20979 20982 20985 20988 20990 20993 20996 20999 21002 21005 21008 21011 21014 21017 21020 21023 21026 21029 21032 21034 21037 21040 21043 21045 21048 21051 21054 21057 21060 21063 21066 21069 21072 21074 21077 21080 21083 21086 21088 21091 21094 21097 21099 21102 21105 21107 21110 21113 21116 21119 21122 21125 21128 21131 21134 21137 21140 21143 21146 21149 21151 21154 21157 21160 21163 21166 21169 21172 21175 21178 21181 21184 21187 21190 21193 21196 21199 21202 21205 21208 21211 21214 21217 21220 21223 21226 21228 21231 21234 21237 21240 21243 21246 21248 21251 21254 21257 21260 21263 21266 21269 21272 21275 21278 21281 21284 21287 21290 21293 21296 21299 21302 21305 21308 21311 21314 21317 21319 21322 21325 21328 21331 21334 21337 21340 21342 21345 21348 21351 21354 21357 21360 21363 21365 21368 21371 21373 21376 21379 21382 21385 21388 21391 21394 21397 21400 21403 21406 21409 21412 21415 21418 21421 21424 21427 21430 21433 21436 21439 21442 21445 21448 21451 21454 21457 21460 21463 21466 21469 21472 21475 21478 21481 21484 21487 21490 21493 21496 21499 21502 21505 21508 21510 21513 21516 21518 21521 21524 21527 21530 21532 21534 21537 21540 21543 21546 21549 21552 21554 21557 21560 21563 21565 21568 21571 21574 21577 21579 21582 21585 21588 21591 21594 21596 21599 21602 21605 21608 21611 21614 21616 21619 21622 21625 21628 21631 21634 21637 21640 21643 21645 21648 21651 21654 21657 21660 21662 21665 21668 21670 21672 21675 21678 21681 21684 21687 21690 21693 21696 21699 21702 21705 21708 21710 21713 21716 21719 21722 21725 21728 21731 21734 21737 21740 21743 21746 21749 21752 21755 21758 21761 21764 21767 21770 21773 21776 21778 21781 21784 21787 21790 21793 21796 21799 21802 21804 21807 21810 21813 21816 21818 21821 21824 21826 21828 21831 21834 21837 21840 21843 21846 21849 21852 21855 21858 21861 21864 21867 21870 21873 21876 21879 21882 21885 21888 21891 21894 21897 21900 21903 21906 21909 21912 21915 21918 21921 21924 21927 21930 21933 21936 21939 21942 21945 21948 21951 21954 21957 21960 21962 21965 21967 21970 21973 21976 21979 21982 21985 21988 21991 21994 21997 22000 22003 22006 22009 22012 22015 22018 22021 22023 22026 22029 22032 22034 22037 22040 22043 22046 22049 22052 22055 22058 22061 22064 22067 22070 22073 22075 22078 22081 22084 22087 22090 22093 22096 22099 22102 22105 22108 22111 22114 22117 22120 22123 22125 22128 22130 22133 22136 22139 22142 22145 22148 22151 22154 22157 22160 22163 22165 22168 22171 22174 22176 22179 22182 22185 22188 22190 22193 22196 22198 22200 22203 22205 22208 22211 22214 22217 22220 22223 22226 22229 22232 22235 22238 22241 22244 22247 22250 22253 22256 22259 22262 22265 22268 22271 22274 22277 22280 22283 22285 22288 22290 22293 22296 22299 22301 22304 22307 22310 22313 22316 22319 22321 22324 22327 22330 22333 22336 22339 22342 22344 22346 22349 22352 22354 22356 22359 22361 22364 22367 22369 22371 22374 22377 22379 22382 22385 22387 22390 22393 22396 22399 22402 22404 22407 22410 22413 22416 22418 22421 22424 22427 22430 22433 22436 22439 22442 22445 22448 22451 22453 22456 22459 22462 22464 22467 22469 22471 22474 22477 22480 22483 22485 22488 22491 22494 22496 22499 22502 22505 22507 22510 22513 22516 22519 22522 22525 22527 22530 22533 22536 22539 22542 22545 22548 22551 22554 22556 22558 22561 22564 22567 22570 22573 22576 22579 22582 22585 22588 22591 22594 22597 22600 22603 22606 22609 22611 22614 22617 22620 22623 22626 22629 22632 22635 22638 22641 22644 22647 22650 22653 22655 22658 22661 22664 22666 22669 22672 22675 22678 22681 22684 22687 22690 22693 22696 22699 22702 22705 22708 22711 22714 22717 22720 22722 22725 22728 22731 22734 22737 22740 22742 22745 22748 22751 22754 22757 22760 22763 22765 22768 22771 22774 22777 22780 22783 22786 22789 22792 22795 22798 22801 22803 22806 22809 22812 22815 22818 22821 22824 22826 22829 22832 22835 22838 22841 22844 22847 22850 22853 22856 22859 22862 22865 22868 22871 22874 22877 22880 22883 22886 22889 22892 22895 22898 22901 22904 22907 22910 22913 22916 22919 22922 22925 22928 22930 22933 22936 22939 22941 22944 22947 22950 22953 22956 22959 22962 22965 22968 22971 22974 22976 22979 22982 22985 22988 22990 22993 22996 22999 23002 23005 23008 23011 23014 23017 23019 23021 23024 23026 23029 23032 23035 23038 23041 23044 23047 23050 23053 23056 23058 23061 23064 23067 23070 23073 23075 23078 23080 23083 23086 23089 23092 23095 23098 23101 23104 23107 23110 23113 23116 23119 23122 23124 23127 23130 23133 23136 23139 23142 23145 23148 23151 23153 23156 23159 23162 23165 23168 23170 23173 23176 23179 23182 23185 23187 23189 23192 23195 23197 23200 23203 23206 23208 23210 23212 23215 23218 23221 23223 23226 23228 23231 23234 23237 23240 23243 23246 23249 23252 23254 23257 23260 23263 23265 23268 23271 23273 23275 23278 23281 23284 23287 23290 23293 23296 23299 23302 23305 23308 23311 23314 23317 23320 23323 23326 23329 23332 23335 23337 23340 23343 23346 23349 23352 23355 23358 23361 23363 23366 23369 23371 23374 23377 23379 23381 23383 23386 23389 23392 23395 23398 23401 23404 23407 23410 23413 23416 23419 23422 23425 23428 23431 23433 23436 23438 23441 23443 23446 23449 23451 23454 23457 23460 23462 23465 23467 23470 23472 23475 23478 23481 23484 23487 23490 23493 23495 23498 23501 23504 23507 23510 23513 23516 23519 23522 23525 23528 23531 23534 23537 23540 23543 23546 23549 23552 23555 23558 23561 23564 23567 23570 23573 23576 23579 23582 23585 23588 23591 23594 23596 23599 23601 23604 23607 23610 23613 23616 23619 23622 23625 23628 23631 23634 23637 23640 23643 23646 23649 23652 23655 23658 23661 23664 23667 23669 23671 23674 23677 23680 23682 23684 23687 23690 23692 23695 23698 23701 23703 23706 23708 23711 23714 23717 23720 23722 23725 23727 23730 23733 23735 23737 23740 23743 23746 23749 23752 23755 23758 23761 23764 23767 23769 23772 23775 23778 23781 23784 23787 23790 23793 23796 23799 23802 23805 23808 23811 23814 23816 23819 23822 23825 23828 23831 23834 23836 23839 23842 23845 23848 23851 23854 23857 23860 23862 23865 23868 23870 23872 23874 23877 23880 23883 23886 23888 23890 23893 23896 23898 23901 23904 23907 23910 23913 23916 23919 23921 23924 23927 23930 23933 23936 23938 23940 23943 23946 23949 23951 23954 23957 23960 23962 23965 23967 23970 23973 23976 23979 23982 23985 23988 23991 23994 23997 24000 24003 24006 24009 24012 24015 24018 24021 24024 24027 24030 24033 24036 24039 24041 24044 24047 24050 24053 24056 24059 24062 24065 24067 24070 24073 24076 24079 24082 24084 24087 24089 24092 24094 24097 24100 24103 24106 24108 24111 24114 24117 24120 24123 24125 24128 24131 24133 24136 24138 24141 24144 24147 24150 24152 24154 24157 24160 24163 24166 24168 24171 24174 24177 24180 24182 24185 24188 24190 24193 24196 24198 24201 24204 24207 24209 24212 24214 24217 24220 24223 24225 24228 24231 24233 24236 24239 24242 24244 24247 24250 24253 24256 24259 24262 24265 24268 24271 24274 24277 24280 24283 24286 24289 24291 24294 24297 24300 24303 24306 24308 24311 24314 24316 24319 24322 24325 24327 24330 24333 24336 24339 24342 24345 24347 24350 24353 24356 24359 24362 24365 24368 24371 24374 24377 24380 24383 24386 24389 24392 24395 24398 24401 24404 24407 24410 24413 24416 24419 24422 24425 24428 24431 24434 24436 24439 24442 24445 24448 24450 24453 24456 24459 24462 24465 24468 24471 24474 24477 24480 24483 24486 24488 24491 24494 24496 24499 24502 24505 24507 24510 24513 24515 24518 24521 24524 24526 24529 24532 24534 24537 24540 24542 24545 24547 24550 24553 24556 24558 24560 24563 24566 24569 24572 24575 24578 24581 24583 24586 24588 24590 24593 24596 24598 24601 24603 24606 24609 24612 24615 24618 24621 24624 24626 24629 24632 24634 24636 24639 24642 24645 24648 24651 24653 24656 24659 24662 24665 24668 24671 24674 24677 24680 24683 24686 24689 24692 24695 24698 24701 24704 24706 24709 24712 24715 24718 24720 24723 24726 24729 24731 24734 24736 24738 24741 24744 24747 24750 24753 24756 24759 24762 24765 24768 24770 24773 24776 24778 24781 24784 24787 24790 24793 24796 24798 24801 24804 24807 24810 24813 24816 24819 24822 24825 24828 24831 24834 24837 24840 24843 24846 24849 24851 24854 24857 24860 24862 24865 24867 24870 24873 24876 24879 24882 24885 24888 24891 24893 24896 24899 24902 24904 24907 24909 24912 24915 24918 24920 24923 24926 24929 24932 24935 24938 24941 24944 24947 24949 24952 24955 24958 24961 24963 24966 24969 24972 24975 24978 24981 24984 24986 24989 24991 24994 24996 24999 25002 25005 25008 25011 25014 25017 25020 25023 25026 25029 25032 25035 25038 25041 25044 25047 25049 25052 25054 25057 25060 25063 25065 25068 25071 25074 25077 25080 25083 25086 25088 25090 25093 25096 25099 25101 25104 25106 25109 25111 25114 25117 25120 25122 25125 25128 25131 25133 25136 25139 25142 25144 25147 25150 25153 25156 25159 25161 25164 25167 25170 25173 25175 25178 25181 25184 25187 25189 25192 25195 25198 25201 25204 25207 25210 25213 25215 25218 25221 25224 25227 25229 25232 25235 25238 25241 25244 25247 25250 25252 25255 25258 25261 25264 25267 25270 25273 25276 25279 25282 25285 25287 25289 25292 25295 25298 25301 25304 25307 25310 25312 25315 25318 25321 25324 25327 25330 25333 25336 25338 25341 25344 25347 25350 25353 25356 25359 25362 25365 25368 25371 25373 25376 25379 25382 25385 25387 25390 25392 25394 25397 25400 25403 25405 25408 25411 25414 25417 25420 25423 25425 25428 25431 25434 25437 25440 25443 25446 25449 25452 25454 25456 25459 25461 25464 25467 25469 25472 25475 25478 25480 25483 25485 25487 25489 25492 25494 25497 25499 25502 25505 25508 25511 25513 25515 25517 25519 25522 25524 25527 25530 25533 25536 25538 25541 25544 25547 25550 25552 25555 25557 25560 25563 25566 25569 25572 25575 25578 25581 25583 25586 25589 25591 25594 25597 25600 25602 25605 25608 25611 25614 25617 25620 25623 25626 25629 25632 25635 25638 25640 25643 25646 25649 25652 25655 25657 25660 25662 25664 25667 25669 25672 25675 25678 25681 25684 25687 25690 25693 25695 25698 25701 25703 25706 25709 25712 25714 25717 25720 25723 25726 25729 25732 25735 25738 25741 25744 25747 25750 25753 25756 25759 25762 25765 25768 25771 25774 25777 25780 25783 25785 25787 25790 25793 25796 25799 25802 25804 25807 25810 25813 25816 25819 25822 25824 25827 25830 25833 25836 25839 25842 25845 25848 25851 25854 25857 25860 25863 25866 25869 25871 25874 25877 25880 25883 25885 25888 25891 25894 25897 25900 25903 25906 25909 25911 25914 25917 25920 25922 25924 25927 25930 25933 25935 25938 25941 25944 25947 25950 25953 25956 25958 25961 25964 25967 25970 25973 25976 25979 25982 25985 25988 25991 25994 25996 25999 26002 26005 26008 26011 26014 26016 26019 26022 26025 26028 26030 26033 26036 26039 26042 26045 26047 26050 26053 26056 26059 26061 26064 26067 26070 26073 26076 26079 26082 26085 26088 26091 26094 26097 26100 26103 26106 26109 26111 26114 26116 26119 26122 26125 26127 26130 26132 26135 26138 26141 26144 26147 26150 26152 26155 26158 26161 26164 26167 26170 26173 26176 26179 26182 26185 26188 26191 26194 26197 26200 26203 26206 26209 26212 26215 26218 26221 26224 26227 26230 26233 26236 26239 26242 26245 26248 26251 26254 26257 26260 26262 26265 26268 26270 26273 26276 26279 26282 26285 26288 26291 26294 26296 26299 26302 26305 26308 26311 26314 26317 26320 26323 26326 26329 26332 26335 26338 26340 26343 26345 26348 26351 26354 26357 26360 26363 26365 26368 26371 26374 26377 26380 26383 26386 26389 26392 26395 26398 26401 26404 26407 26409 26412 26415 26417 26420 26423 26426 26429 26432 26435 26437 26439 26442 26444 26447 26450 26453 26456 26459 26461 26464 26467 26470 26473 26475 26478 26481 26484 26487 26490 26492 26495 26498 26501 26504 26507 26510 26513 26515 26518 26521 26524 26527 26530 26533 26536 26539 26542 26545 26548 26551 26554 26557 26559 26562 26564 26567 26570 26573 26576 26579 26582 26584 26587 26590 26593 26596 26599 26602 26605 26608 26611 26614 26617 26619 26622 26625 26628 26631 26634 26637 26640 26642 26645 26648 26651 26654 26657 26660 26663 26665 26668 26671 26673 26676 26679 26681 26683 26686 26689 26692 26695 26698 26701 26704 26707 26710 26713 26716 26719 26722 26725 26728 26730 26733 26736 26739 26742 26745 26748 26750 26753 26755 26758 26761 26764 26767 26770 26773 26776 26779 26782 26785 26787 26790 26793 26796 26799 26802 26805 26808 26811 26814 26817 26820 26823 26826 26829 26832 26835 26838 26841 26844 26847 26850 26852 26855 26858 26861 26864 26867 26870 26872 26875 26878 26881 26884 26887 26889 26892 26895 26898 26901 26904 26906 26909 26912 26914 26917 26920 26923 26926 26929 26932 26935 26938 26940 26943 26946 26949 26951 26954 26957 26960 26963 26966 26969 26972 26975 26978 26981 26983 26986 26989 26992 26995 26998 27001 27004 27007 27010 27013 27016 27019 27022 27025 27028 27031 27034 27037 27040 27043 27046 27049 27052 27055 27057 27060 27062 27065 27068 27071 27074 27077 27080 27083 27086 27089 27091 27094 27096 27099 27102 27105 27108 27110 27113 27116 27119 27121 27124 27126 27129 27132 27134 27137 27140 27143 27146 27149 27152 27155 27158 27160 27163 27166 27169 27172 27174 27177 27180 27183 27185 27188 27191 27194 27196 27199 27202 27205 27208 27211 27214 27217 27220 27222 27225 27228 27231 27234 27237 27240 27243 27246 27249 27252 27255 27258 27261 27264 27266 27269 27272 27275 27277 27280 27283 27285 27288 27291 27294 27297 27300 27303 27305 27308 27311 27314 27317 27320 27323 27326 27329 27332 27335 27338 27341 27344 27347 27350 27353 27356 27359 27362 27365 27368 27371 27373 27376 27379 27382 27385 27388 27391 27394 27397 27400 27403 27406 27409 27412 27415 27418 27421 27424 27427 27430 27433 27436 27438 27441 27443 27446 27449 27452 27455 27458 27461 27464 27467 27470 27473 27476 27479 27482 27485 27488 27491 27494 27496 27499 27502 27505 27508 27511 27514 27517 27520 27523 27526 27529 27532 27534 27537 27540 27543 27546 27549 27552 27555 27558 27561 27564 27566 27569 27572 27575 27577 27580 27583 27586 27589 27592 27594 27597 27600 27603 27606 27609 27611 27614 27617 27620 27623 27626 27629 27631 27634 27637 27639 27642 27645 27648 27651 27654 27656 27659 27662 27665 27668 27671 27674 27677 27680 27683 27686 27689 27692 27695 27698 27701 27704 27707 27710 27713 27716 27719 27722 27725 27728 27730 27733 27736 27739 27742 27745 27748 27750 27753 27756 27758 27760 27763 27766 27769 27772 27775 27778 27781 27784 27787 27790 27793 27796 27799 27802 27805 27808 27811 27814 27817 27819 27822 27825 27827 27830 27833 27835 27838 27841 27844 27847 27850 27853 27856 27859 27861 27863 27866 27869 27872 27875 27878 27881 27883 27886 27889 27892 27895 27898 27900 27903 27906 27909 27912 27915 27918 27921 27924 27927 27930 27933 27936 27939 27942 27945 27948 27951 27954 27957 27960 27963 27966 27969 27972 27975 27978 27981 27984 27987 27990 27993 27996 27999 28002 28005 28008 28011 28014 28017 28020 28023 28026 28029 28032 28035 28038 28041 28044 28047 28050 28053 28056 28059 28062 28065 28068 28071 28074 28077 28080 28083 28086 28088 28091 28094 28097 28100 28103 28106 28109 28111 28114 28117 28120 28123 28126 28129 28132 28135 28138 28141 28143 28146 28149 28152 28155 28157 28160 28163 28166 28169 28171 28174 28177 28180 28183 28186 28189 28191 28194 28197 28200 28203 28206 28209 28212 28215 28218 28221 28223 28226 28229 28232 28235 28238 28241 28244 28246 28249 28252 28255 28258 28261 28264 28267 28270 28272 28275 28278 28280 28283 28286 28289 28292 28295 28298 28301 28304 28306 28309 28312 28315 28318 28321 28323 28326 28328 28331 28334 28337 28340 28343 28345 28348 28351 28354 28356 28359 28362 28365 28368 28371 28374 28377 28380 28383 28385 28388 28391 28394 28397 28399 28402 28405 28408 28411 28414 28417 28420 28423 28426 28429 28432 28435 28438 28440 28443 28446 28449 28452 28455 28458 28461 28464 28467 28469 28472 28475 28478 28481 28484 28487 28490 28493 28496 28499 28502 28505 28508 28511 28514 28517 28520 28523 28525 28527 28530 28533 28536 28539 28542 28545 28548 28551 28554 28557 28560 28563 28565 28568 28571 28574 28577 28580 28583 28586 28589 28592 28595 28598 28601 28604 28607 28610 28612 28615 28618 28621 28624 28627 28629 28632 28635 28637 28640 28643 28646 28649 28652 28655 28657 28660 28663 28666 28669 28672 28675 28678 28681 28684 28687 28690 28693 28696 28699 28702 28705 28708 28711 28714 28717 28720 28723 28726 28729 28732 28735 28738 28741 28744 28747 28750 28753 28756 28759 28761 28764 28767 28770 28773 28775 28778 28781 28784 28787 28790 28792 28795 28798 28801 28804 28807 28810 28813 28816 28819 28822 28825 28828 28831 28834 28837 28840 28843 28846 28849 28852 28855 28858 28861 28864 28867 28870 28873 28876 28879 28882 28885 28887 28890 28893 28895 28898 28901 28904 28907 28910 28913 28915 28918 28921 28924 28927 28929 28932 28935 28938 28941 28944 28947 28950 28953 28956 28959 28962 28965 28967 28970 28973 28976 28979 28981 28984 28987 28990 28993 28996 28999 29002 29005 29008 29011 29014 29017 29020 29023 29026 29029 29032 29035 29037 29040 29043 29046 29049 29052 29055 29058 29061 29064 29067 29070 29073 29076 29079 29082 29085 29088 29091 29094 29097 29100 29103 29106 29109 29112 29115 29118 29121 29124 29127 29130 29133 29136 29139 29142 29145 29148 29151 29154 29157 29160 29162 29165 29168 29171 29174 29177 29180 29182 29184 29186 29188 29191 29194 29197 29200 29202 29205 29208 29211 29214 29216 29219 29222 29225 29228 29231 29234 29237 29240 29243 29246 29249 29252 29255 29257 29260 29263 29266 29269 29272 29275 29278 29281 29283 29286 29289 29292 29295 29298 29301 29304 29306 29309 29312 29315 29317 29320 29322 29325 29328 29331 29333 29335 29338 29341 29344 29347 29350 29353 29356 29359 29362 29365 29368 29371 29374 29377 29380 29383 29386 29389 29392 29395 29398 29401 29404 29407 29410 29412 29415 29418 29421 29424 29427 29430 29433 29435 29438 29441 29444 29447 29450 29453 29456 29459 29462 29465 29468 29471 29474 29477 29480 29483 29486 29489 29492 29495 29498 29501 29504 29507 29509 29512 29515 29518 29521 29524 29527 29529 29532 29535 29538 29541 29544 29547 29550 29553 29556 29558 29561 29564 29567 29570 29573 29576 29579 29582 29585 29588 29591 29594 29597 29600 29603 29606 29609 29612 29615 29618 29621 29624 29627 29630 29633 29636 29639 29642 29644 29647 29650 29653 29656 29659 29662 29665 29668 29671 29674 29677 29680 29683 29686 29688 29691 29694 29697 29700 29703 29705 29708 29711 29714 29716 29719 29722 29725 29728 29730 29733 29736 29738 29741 29744 29746 29749 29752 29755 29758 29761 29764 29766 29769 29772 29774 29776 29779 29781 29784 29787 29789 29792 29795 29798 29800 29803 29806 29809 29812 29815 29818 29821 29824 29827 29830 29833 29836 29839 29841 29844 29846 29849 29852 29854 29856 29859 29861 29864 29867 29869 29872 29875 29878 29881 29884 29887 29890 29893 29896 29898 29901 29904 29906 29909 29912 29915 29918 29921 29924 29927 29930 29932 29935 29938 29941 29943 29946 29949 29952 29955 29958 29961 29964 29967 29970 29973 29976 29978 29981 29983 29986 29989 29992 29995 29997 30000 30003 30006 30009 30012 30015 30018 30021 30024 30027 30029 30032 30034 30037 30040 30043 30046 30049 30052 30054 30057 30060 30063 30065 30068 30071 30074 30077 30080 30083 30086 30089 30092 30095 30098 30101 30103 30106 30109 30112 30115 30118 30121 30124 30127 30130 30133 30136 30139 30142 30145 30148 30150 30153 30156 30159 30162 30165 30168 30170 30173 30176 30178 30181 30184 30187 30190 30192 30195 30198 30201 30204 30207 30210 30213 
</DataArray>
<DataArray type="UInt32" Name="types" format="ascii">
5 5 5 3 5 3 5 5 5 3 5 3 5 5 3 5 5 5 5 5 5 5 5 5 5 5 5 5 5 5 3 5 5 3 5 5 5 5 5 5 5 5 5 5 5 5 5 3 5 3 5 5 3 5 5 5 5 5 5 5 5 5 5 5 3 3 5 5 5 5 5 5 5 5 5 5 5 5 3 5 5 5 5 5 5 5 3 5 5 5 5 3 5 5 5 5 5 5 5 3 5 5 3 5 5 5 5 3 5 5 5 3 3 5 5 5 5 5 5 5 3 5 5 5 5 3 5 5 5 5 5 5 3 5 5 5 5 3 5 3 5 5 5 5 3 5 5 5 5 5 5 3 3 5 5 5 3 5 3 5 5 5 5 5 5 5 5 5 5 5 5 5 3 5 5 3 5 5 5 5 3 5 3 5 5 3 5 5 5 5 5 3 5 5 3 3 5 3 5 5 5 5 5 5 3 3 5 5 3 5 5 5 5 5 5 5 5 5 5 5 5 5 5 5 5 5 5 5 5 5 5 5 3 5 5 5 3 5 5 5 5 5 5 5 5 5 3 5 5 5 5 5 5 5 5 5 5 5 5 5 5 5 5 3 5 5 5 5 5 5 5 5 5 5 5 5 5 5 5 5 5 5 5 5 3 5 3 5 5 5 5 5 5 5 5 5 5 5 5 5 5 5 5 3 5 5 5 3 5 5 5 5 5 5 5 3 5 5 3 5 5 5 5 5 5 5 3 5 5 3 5 5 5 5 5 3 5 5 5 5 5 5 5 3 5 5 5 5 5 5 5 5 5 3 5 5 5 5 3 5 5 5 3 5 3 5 5 3 5 5 5 5 5 5 5 5 5 5 5 5 5 3 5 5 5 5 3 5 5 5 5 5 5 5 5 5 5 5 5 5 5 5 5 5 5 5 5 5 5 5 5 5 5 3 5 3 5 5 3 5 5 5 5 5 5 3 5 5 5 5 5 5 3 5 5 5 3 5 3 5 5 5 5 5 5 5 5 5 5 5 5 5 5 5 5 5 5 5 5 5 5 5 5 5 3 5 5 5 5 5 5 5 5 3 5 5 5 5 5 5 5 3 5 5 5 5 5 5 5 3 5 5 5 5 5 3 5 5 5 5 3 3 5 5 3 5 5 5 5 5 5 5 5 5 3 5 5 5 5 5 5 5 5 5 5 5 5 5 5 5 3 5 3 5 3 5 3 5 5 5 5 5 3 5 5 5 5 5 5 5 5 5 5 5 5 3 5 5 5 5 5 5 5 3 3 5 5 5 5 5 5 3 5 5 5 3 3 3 5 5 5 5 3 5 3 5 5 3 5 5 5 3 5 5 5 5 5 5 5 5 5 5 5 5 5 5 5 5 5 5 5 3 3 3 5 3 5 5 5 3 5 3 5 5 5 5 5 5 5 3 5 5 5 5 5 5 5 5 3 5 5 5 5 5 5 5 5 5 5 5 5 5 5 3 5 5 5 5 5 5 5 5 5 5 5 5 3 5 5 5 3 5 5 3 3 5 5 5 3 3 5 5 5 5 5 5 3 5 5 3 3 5 5 5 5 3 5 5 5 5 5 5 5 5 5 5 5 5 5 5 5 5 3 5 5 5 5 5 3 5 5 5 5 5 5 3 5 5 5 5 5 5 5 5 5 5 5 5 5 5 5 5 5 3 5 5 5 3 5 5 5 5 5 5 5 5 5 5 5 5 5 5 5 5 5 5 5 5 5 5 5 5 5 5 5 5 5 5 5 5 5 5 5 5 5 5 5 3 5 5 5 5 5 5 3 5 5 5 5 5 5 5 5 5 5 5 5 5 5 5 5 5 5 5 5 3 5 5 5 5 5 3 5 5 5 5 5 5 5 5 5 5 5 5 5 3 5 5 3 3 5 5 5 5 5 5 5 5 5 5 5 5 5 5 5 5 5 5 5 5 5 5 5 5 5 5 5 5 5 5 5 5 5 5 3 5 5 5 3 5 5 5 5 5 5 3 3 5 3 5 3 5 5 5 5 5 5 5 5 3 5 5 5 5 5 5 5 5 5 5 5 5 5 3 5 3 5 5 5 5 5 5 5 5 5 5 5 5 5 3 5 5 5 5 5 5 5 5 5 3 5 5 3 5 5 3 3 5 5 3 5 3 5 5 5 3 3 5 5 5 5 5 3 5 5 5 5 5 3 3 5 5 5 5 5 5 5 3 5 5 3 5 5 3 3 5 5 5 5 5 5 5 5 5 5 5 5 3 5 5 5 5 5 5 5 5 5 5 5 5 5 5 5 5 5 5 5 5 5 5 5 5 5 5 5 5 3 5 5 5 5 5 5 5 5 5 5 5 5 5 5 5 5 5 5 5 5 5 5 3 5 5 3 5 5 5 3 5 5 5 5 5 5 5 5 5 5 5 3 5 5 5 5 5 5 5 5 3 5 5 5 5 5 5 5 5 5 3 3 5 5 5 5 5 5 5 5 5 5 5 5 5 5 5 5 5 5 5 5 5 5 5 5 5 5 5 5 5 5 5 5 5 5 3 5 5 5 5 5 5 5 5 5 5 5 5 5 5 3 5 3 5 5 5 5 5 5 5 5 5 5 5 5 5 5 5 5 5 5 5 5 3 5 5 5 3 5 3 3 5 5 5 5 5 5 5 5 5 5 5 5 5 5 5 5 5 5 5 5 3 5 3 5 5 5 3 5 5 5 5 5 5 5 5 5 3 5 5 3 3 5 3 5 3 5 5 5 5 5 5 3 5 5 5 3 5 5 5 5 5 5 5 3 5 5 5 5 5 3 3 5 5 5 5 5 5 5 5 5 5 5 5 5 5 5 5 5 5 5 5 5 5 3 5 5 5 5 5 3 3 3 5 5 5 5 3 5 5 5 5 5 5 5 5 5 3 5 5 5 5 5 5 5 5 5 5 5 5 5 3 5 5 5 5 5 5 5 5 5 5 5 5 5 3 5 5 5 5 5 5 5 5 5 5 5 5 5 5 5 5 3 5 5 5 5 5 5 5 5 3 5 5 5 5 5 5 5 5 3 5 5 5 3 5 3 5 5 5 5 5 5 5 5 5 5 5 3 5 3 5 5 5 5 3 5 5 5 5 3 5 5 5 5 5 5 5 5 5 5 5 5 5 5 5 5 5 5 5 5 5 5 5 5 5 5 5 5 5 5 3 5 3 5 5 5 5 5 5 3 5 5 5 5 5 5 5 3 5 5 5 5 5 5 5 5 5 5 5 5 5 3 5 5 5 5 5 5 5 5 3 5 5 5 5 3 5 5 3 5 5 5 5 5 5 5 5 5 5 5 5 5 5 5 5 5 5 5 5 5 5 5 5 5 5 5 5 5 5 5 3 5 5 5 5 5 5 5 5 5 5 5 5 5 5 5 5 5 5 5 5 5 5 3 3 5 3 5 3 5 5 5 3 3 5 5 5 5 5 5 5 5 5 5 5 3 5 5 5 5 3 5 5 5 5 5 5 5 5 5 5 5 5 5 5 5 5 5 3 5 5 5 5 5 5 5 5 5 5 3 5 5 5 5 5 3 3 5 5 5 5 5 5 5 5 5 3 5 5 5 5 5 5 5 5 3 5 5 5 5 5 5 5 5 3 5 5 5 5 5 5 5 3 5 5 3 3 5 5 5 5 5 5 3 5 5 5 5 5 5 5 5 5 5 5 5 3 5 5 5 5 3 5 5 3 5 5 5 3 5 3 5 3 5 5 5 3 5 5 5 5 5 5 5 5 5 5 5 5 5 5 3 5 5 5 3 5 3 5 5 5 5 5 5 5 3 5 5 5 3 5 5 5 5 5 5 5 5 5 5 5 5 5 5 5 5 5 5 5 5 5 5 5 5 5 5 5 3 5 5 5 3 3 5 5 5 5 5 5 5 5 3 5 5 5 5 5 5 5 5 5 5 3 5 5 5 3 5 5 5 5 5 5 5 5 5 5 5 5 5 5 5 5 5 5 5 5 5 5 5 5 5 5 5 3 5 5 5 5 5 5 5 5 3 5 5 5 5 5 5 5 3 5 5 5 5 5 5 5 5 5 5 5 3 5 3 5 5 3 5 3 3 5 5 5 5 5 5 5 5 5 3 5 5 5 3 5 5 3 5 5 5 5 5 5 3 5 5 5 5 3 5 3 5 5 3 3 3 3 5 5 5 5 5 3 5 5 5 5 5 3 5 5 5 5 3 5 3 5 5 3 5 5 5 5 5 5 5 3 5 5 5 3 5 5 5 5 3 5 5 5 3 5 5 5 3 5 5 3 3 5 5 5 5 3 5 5 5 5 5 5 5 5 5 5 5 5 5 5 5 5 5 5 5 5 5 5 5 5 3 5 5 5 5 5 5 5 5 5 3 5 5 5 5 5 5 5 3 5 5 5 5 5 5 5 5 5 5 5 5 5 5 5 5 5 3 5 5 5 5 5 3 3 5 5 5 5 5 3 5 5 5 3 5 5 5 5 5 5 3 5 5 3 3 5 5 5 5 5 5 3 5 5 5 5 5 3 5 5 3 5 5 5 5 3 5 3 5 5 5 3 5 5 3 5 5 5 5 5 5 5 5 3 5 5 5 5 5 3 5 5 5 5 5 5 5 5 5 3 5 3 5 5 5 5 5 5 5 5 5 5 5 3 5 5 5 5 5 5 5 5 5 5 5 5 3 5 5 3 5 5 3 5 5 5 3 5 5 5 5 5 3 5 5 3 5 5 5 3 5 5 5 5 3 5 5 5 5 5 5 5 5 5 5 5 5 3 5 5 5 3 5 5 5 5 5 5 3 5 5 5 5 5 5 3 5 5 5 5 5 5 5 5 5 5 5 5 5 5 5 5 3 5 5 5 5 5 5 3 5 5 5 5 5 5 5 5 5 5 5 5 5 3 5 5 5 5 5 5 5 5 3 5 5 5 5 5 5 3 5 5 5 5 5 5 5 5 5 5 5 5 5 5 5 5 5 5 5 5 5 5 5 5 5 5 5 5 5 5 3 5 5 5 3 5 5 5 3 5 5 3 5 5 5 5 3 5 5 5 5 5 5 5 3 5 5 5 5 5 5 5 5 5 5 5 5 5 5 5 5 5 5 5 5 5 5 5 5 3 5 5 5 5 5 3 5 3 5 5 3 5 5 5 5 5 5 3 5 5 5 5 5 3 5 5 5 3 5 5 5 5 5 5 5 3 5 5 3 5 5 5 5 3 5 5 5 5 5 3 5 5 3 5 5 5 5 5 5 5 5 5 3 5 5 3 3 5 5 5 5 5 5 5 5 5 5 5 5 5 5 5 5 5 5 5 5 5 5 5 5 5 5 5 5 5 3 5 5 5 5 5 5 5 5 5 5 5 5 5 5 5 5 5 3 5 5 3 5 5 5 5 3 3 5 5 5 5 5 5 5 5 5 5 5 5 5 5 5 5 5 5 5 5 5 5 3 5 5 3 5 5 5 5 5 5 5 5 5 5 5 5 5 5 5 5 5 5 3 5 5 5 3 5 5 5 5 5 5 5 5 5 5 5 5 5 5 5 5 5 5 5 5 5 5 5 5 5 5 5 5 5 3 5 3 5 3 5 5 5 5 5 3 5 5 5 3 5 5 5 5 5 3 5 5 3 5 5 5 5 3 5 5 5 5 5 5 5 5 5 5 5 5 5 5 5 5 5 5 5 5 3 5 5 5 3 5 5 5 5 5 5 5 5 5 5 5 5 5 5 5 3 5 5 5 5 5 5 5 5 5 5 5 5 5 5 5 5 5 5 5 5 5 5 5 5 5 5 5 5 5 5 5 5 5 5 5 5 5 5 5 5 5 5 5 5 5 5 5 3 5 5 5 5 5 3 5 5 5 5 5 5 5 5 5 5 5 5 5 5 5 5 5 5 5 5 5 5 5 5 5 5 5 5 3 5 5 5 5 3 5 5 3 5 5 5 5 5 5 5 5 5 3 5 5 5 3 5 5 5 5 5 5 5 3 5 5 5 5 5 5 5 3 5 5 5 5 5 5 5 3 5 5 5 5 3 5 5 3 5 3 5 5 3 5 5 5 5 5 3 5 3 3 5 5 5 5 5 5 5 3 5 5 5 3 5 5 5 5 5 3 5 5 3 5 5 3 5 3 5 5 5 5 5 5 5 5 5 5 5 5 5 5 5 5 5 5 5 5 5 5 5 3 5 5 5 5 3 5 5 5 5 5 5 3 5 5 5 5 5 5 5 5 5 5 5 5 5 5 5 5 5 5 5 5 5 5 5 5 5 5 5 5 5 5 5 5 5 5 5 5 5 5 5 5 5 5 5 5 5 5 5 5 5 5 5 5 5 5 5 5 5 5 5 5 5 5 5 5 5 5 5 3 5 5 5 5 5 5 5 5 5 5 5 5 5 5 5 5 5 5 5 5 5 5 5 5 5 5 5 5 5 5 5 5 5 5 5 5 5 5 5 5 5 5 5 5 5 5 5 5 5 5 5 5 5 5 5 5 5 5 5 5 5 5 3 5 5 5 5 5 5 5 5 5 5 5 5 5 3 5 5 5 5 5 5 5 5 5 5 5 3 5 5 5 5 5 5 5 5 5 3 3 5 3 5 3 5 3 5 5 3 5 5 5 5 5 5 5 3 5 5 5 5 3 3 5 5 5 5 5 5 3 3 5 5 5 3 5 5 5 5 5 5 5 5 5 5 5 5 5 5 5 5 5 5 5 5 5 5 3 5 5 5 3 5 5 5 5 3 5 5 5 5 5 5 5 5 5 5 3 5 5 5 5 5 5 5 5 5 5 5 5 3 5 5 5 5 5 5 5 5 5 3 5 5 5 5 5 5 3 5 5 5 5 5 5 5 5 5 5 3 3 5 5 5 3 5 5 5 5 3 5 5 5 5 5 5 5 5 5 5 5 5 5 3 5 5 5 5 5 5 3 5 5 5 5 3 5 3 5 5 5 5 5 5 5 5 5 5 5 5 5 5 5 5 5 5 5 5 5 5 5 5 3 5 5 5 5 5 5 5 5 5 3 5 5 5 5 5 5 5 5 5 5 3 5 5 3 5 5 5 5 5 3 5 5 3 3 5 5 3 5 5 5 5 5 5 5 5 5 5 5 5 5 5 5 5 3 5 3 5 5 5 5 5 3 5 5 5 5 5 3 5 5 5 5 5 5 5 5 5 3 5 5 3 5 3 5 5 5 3 5 5 3 5 5 5 5 3 5 5 5 5 5 3 5 5 5 5 5 5 5 5 5 5 5 5 5 5 5 5 5 5 5 5 5 5 5 5 5 5 3 5 5 5 3 5 5 5 5 5 5 5 5 5 5 5 3 5 5 3 5 5 5 5 5 3 5 5 5 5 5 5 5 5 5 5 5 5 5 5 5 5 5 5 3 5 5 5 5 5 5 3 5 5 5 5 5 3 5 5 5 5 5 5 5 5 5 5 5 5 5 5 5 3 5 5 5 5 5 5 5 5 5 5 5 5 3 5 5 5 5 5 5 5 5 5 5 5 5 5 5 5 5 5 5 5 5 5 5 5 3 5 5 5 5 5 3 5 5 3 5 3 5 5 3 5 5 5 5 5 5 5 5 5 5 3 5 5 5 5 5 5 5 5 5 5 5 5 5 5 5 5 5 5 5 5 5 5 5 5 5 5 5 5 5 3 5 5 5 5 5 5 5 5 5 5 5 3 5 5 5 5 5 5 3 5 5 5 5 5 5 5 5 5 5 5 5 5 3 5 5 3 5 5 5 3 5 3 5 5 5 5 5 5 3 5 5 3 5 3 5 5 5 5 5 5 3 3 5 5 3 5 5 5 5 5 5 5 5 5 5 5 5 5 5 5 5 5 5 5 5 5 5 5 3 5 5 5 5 3 3 5 5 5 5 5 5 5 5 5 3 5 5 3 3 5 5 5 3 5 5 5 5 5 5 3 5 5 5 5 5 5 3 5 5 5 5 5 5 5 5 3 5 5 5 3 5 5 5 3 5 5 3 5 3 5 5 5 5 5 5 5 5 5 5 5 5 5 5 5 5 5 5 5 5 5 5 5 5 3 5 5 5 5 5 5 3 5 5 5 3 5 5 5 5 5 5 5 5 5 5 5 5 5 5 5 5 3 5 5 5 5 3 5 5 3 5 5 5 5 5 5 3 5 5 5 5 5 5 3 5 5 5 5 5 5 5 5 5 5 5 5 5 5 5 3 5 3 5 5 3 5 5 5 5 5 5 5 5 5 5 5 5 5 3 5 5 5 5 5 5 5 5 5 5 5 5 5 5 5 5 5 5 5 5 5 5 5 5 5 5 5 3 5 5 3 5 5 5 3 5 5 3 5 5 5 5 3 5 5 5 5 3 5 5 5 3 5 3 3 5 5 5 5 5 5 5 5 5 5 5 5 5 5 3 5 5 5 3 5 5 5 5 5 5 5 3 5 5 5 5 5 5 5 5 5 3 5 5 5 5 5 5 5 5 5 3 5 5 5 5 5 5 5 5 5 5 3 5 5 5 5 5 5 5 5 5 5 5 5 5 3 5 5 3 5 5 5 5 5 5 5 5 5 5 5 5 5 5 3 5 5 5 5 3 5 5 5 3 3 5 5 5 5 5 5 5 5 5 5 5 5 5 5 5 5 5 5 5 5 5 5 3 5 5 5 5 5 5 5 5 5 5 5 5 5 5 5 5 5 5 5 5 5 5 5 5 5 3 5 5 5 5 3 3 5 5 5 5 5 5 5 3 5 5 5 5 5 5 3 5 5 5 5 5 5 5 5 3 5 5 5 5 5 5 5 5 5 5 5 5 5 5 5 5 5 5 5 3 5 5 5 5 5 5 5 3 5 5 5 3 5 5 5 5 5 5 5 5 5 5 5 3 5 3 5 3 5 5 5 3 5 5 5 5 5 5 5 5 5 3 5 5 5 5 5 5 5 5 5 5 5 5 5 5 3 3 5 5 3 5 5 5 5 3 5 3 3 3 5 3 3 5 5 5 5 5 3 5 5 3 5 5 5 5 5 5 3 5 5 5 3 5 5 5 3 5 5 5 5 3 5 3 5 5 5 3 3 3 5 3 5 5 5 5 3 5 3 5 3 5 5 3 3 5 3 3 5 5 5 5 5 5 5 3 5 5 3 5 5 5 5 3 5 5 5 5 5 5 5 3 3 5 5 5 3 5 5 5 3 5 3 5 5 5 3 5 5 3 5 5 3 3 5 5 5 3 5 5 5 5 5 3 5 5 5 5 5 5 5 5 5 5 5 5 5 5 5 5 5 5 5 5 5 5 5 5 5 5 5 5 5 5 5 5 5 5 5 5 5 5 5 3 5 5 3 5 3 5 3 5 5 5 3 3 5 5 3 3 5 5 5 5 3 3 5 5 5 3 5 5 5 5 5 5 5 5 5 5 5 5 3 5 5 5 5 5 5 5 5 5 5 5 5 5 3 3 5 5 5 5 5 5 3 3 3 5 5 5 5 5 5 5 5 5 5 5 3 3 5 5 3 5 3 5 5 5 3 5 5 5 5 5 5 5 5 5 5 3 5 5 5 5 5 5 5 5 3 5 5 5 5 5 5 5 5 5 3 5 5 5 5 5 5 5 3 5 5 5 5 5 5 5 5 5 5 5 5 5 3 5 5 5 5 5 5 3 5 5 5 5 5 5 5 3 5 3 5 3 5 5 5 3 5 5 5 5 5 5 5 3 5 5 3 5 3 5 5 5 5 5 5 3 5 5 5 5 5 5 5 5 5 5 5 3 3 5 3 5 5 3 5 5 5 5 5 3 5 5 5 5 5 5 5 5 3 5 5 3 5 5 5 5 3 5 5 5 5 5 5 3 5 5 5 3 5 5 5 5 3 5 3 3 5 5 5 5 5 5 5 5 3 5 5 5 5 5 5 5 5 5 5 5 5 5 3 5 5 5 5 5 5 5 5 5 5 5 5 5 3 5 5 5 5 5 5 3 5 5 5 5 5 5 5 5 5 3 5 5 5 5 5 5 5 5 5 5 5 5 5 3 5 5 5 5 3 5 5 5 3 5 5 5 3 5 5 3 3 5 5 5 3 5 5 5 5 5 5 5 5 5 5 5 5 3 5 3 5 5 5 5 5 3 3 5 5 5 5 3 5 3 5 3 5 5 5 5 5 5 5 5 5 5 5 5 5 5 5 5 5 5 5 5 5 5 5 5 5 5 5 5 5 5 5 5 5 5 5 5 5 5 5 5 5 5 5 5 5 5 5 3 5 3 5 5 5 5 3 5 5 5 5 5 5 5 5 5 5 5 5 5 5 5 5 5 5 5 3 5 5 5 5 5 5 5 3 5 5 3 5 5 3 5 5 5 5 5 5 5 5 3 5 5 5 5 5 5 3 5 5 5 5 5 5 5 5 3 5 5 5 5 5 3 5 3 3 5 5 5 3 5 3 5 5 5 5 5 5 5 5 5 5 5 5 5 5 5 5 3 3 5 5 5 5 5 5 5 5 5 5 5 5 3 5 5 3 5 5 5 5 3 5 5 5 5 5 5 5 5 5 5 5 5 5 5 5 5 5 5 5 5 5 5 5 5 5 5 5 5 5 5 5 5 5 5 5 5 3 5 3 5 5 5 5 5 5 5 3 5 5 5 5 3 5 5 3 5 5 5 5 5 5 5 5 5 5 5 5 5 5 5 5 5 5 3 3 5 5 5 5 5 5 5 5 5 5 5 5 5 5 5 5 5 5 5 5 5 5 5 3 5 5 5 5 5 5 5 5 5 5 5 5 5 5 5 5 3 5 5 5 3 5 5 5 3 5 3 5 5 3 5 5 3 5 5 5 5 5 5 5 5 5 3 5 5 5 5 5 5 3 3 5 5 5 5 5 5 5 5 3 5 5 3 5 5 5 5 5 5 5 3 5 5 5 3 5 5 5 3 3 5 5 5 5 5 5 5 5 5 5 5 3 5 3 5 5 3 5 5 5 3 5 5 5 5 5 5 5 3 5 5 5 3 5 5 5 3 3 5 5 5 5 3 5 5 5 5 5 5 5 5 3 3 5 5 5 5 3 3 3 5 3 5 3 3 5 3 5 5 5 3 5 5 5 5 5 5 3 5 3 5 3 3 3 3 5 5 5 5 3 3 5 5 5 3 3 5 5 5 5 3 5 5 3 5 5 5 5 3 3 5 5 5 5 3 5 3 5 5 5 5 3 5 5 5 5 5 5 5 5 5 5 5 5 5 5 5 5 5 5 5 5 5 5 3 5 5 5 5 5 5 5 5 5 5 5 5 5 5 5 5 5 5 5 5 5 5 5 5 5 3 5 5 5 5 3 5 5 3 5 5 5 3 5 3 5 5 5 5 5 5 5 5 3 5 5 5 3 5 5 5 5 5 5 5 3 5 3 5 5 3 5 3 5 5 5 5 5 5 5 5 5 5 5 5 5 5 3 3 5 5 5 5 5 5 5 5 5 5 5 5 3 5 5 5 5 5 5 5 5 5 5 5 5 5 5 3 5 3 5 5 5 5 5 5 5 5 5 3 5 5 5 5 5 5 5 3 5 3 5 5 5 3 5 3 5 5 5 5 5 3 5 5 3 3 5 5 5 5 3 5 5 5 5 5 5 5 5 5 5 5 5 5 5 5 5 5 3 3 5 5 3 5 5 5 3 5 5 5 5 5 5 5 3 5 3 5 5 5 3 5 5 5 5 5 5 5 5 5 3 5 5 5 3 5 5 5 5 5 5 3 5 5 5 5 5 5 3 5 5 5 5 5 3 5 5 3 5 5 5 3 5 5 5 5 5 5 5 3 3 5 5 5 5 5 5 5 5 3 5 5 5 5 3 5 5 3 5 5 5 5 5 5 5 5 5 5 5 5 5 5 5 5 5 5 5 5 5 5 5 5 5 5 5 5 5 5 5 5 5 5 5 5 5 5 3 5 5 5 5 5 5 5 5 5 5 5 5 5 5 5 5 5 3 5 5 5 5 5 5 5 5 5 5 5 5 5 5 5 5 5 5 5 5 5 5 5 5 5 5 5 5 5 5 5 5 5 5 5 5 5 5 5 5 5 5 5 5 5 5 5 5 5 5 5 5 5 5 5 5 5 5 5 5 5 5 5 5 5 5 5 5 5 5 5 5 5 5 5 5 5 5 5 5 5 5 5 5 5 5 5 5 5 5 5 3 5 5 5 5 5 5 5 3 5 5 5 5 5 5 3 5 5 5 5 5 5 5 5 5 5 5 5 5 5 3 5 3 5 5 5 5 5 5 5 5 5 5 5 5 5 5 5 5 3 5 5 3 5 5 5 5 5 5 3 5 5 5 5 5 3 5 5 5 5 5 5 5 3 5 3 5 5 5 5 5 3 5 3 5 3 5 3 5 5 5 5 5 5 5 5 5 5 5 5 5 5 5 5 5 5 5 5 5 5 5 5 5 5 5 5 5 3 5 5 5 5 5 5 5 5 5 5 5 5 5 5 5 5 5 5 5 5 5 5 5 5 5 5 3 5 5 5 3 5 5 3 5 5 5 5 5 5 3 5 5 3 5 5 3 5 5 5 5 5 5 5 5 5 5 3 5 5 5 5 5 5 5 3 5 5 5 5 5 5 5 5 5 3 5 5 5 5 5 5 5 5 5 5 5 5 5 5 5 5 3 5 5 5 5 5 5 5 5 5 5 5 5 5 5 5 5 5 5 5 5 5 5 5 5 3 5 5 5 5 5 5 5 5 5 5 3 3 5 5 5 5 5 5 5 5 5 5 5 5 3 5 5 5 5 3 5 5 5 5 5 5 5 5 3 5 5 5 5 5 5 5 5 3 5 5 5 3 5 5 5 5 5 5 5 5 5 3 3 5 5 5 5 5 5 5 5 5 5 5 5 5 5 5 5 5 5 5 5 5 5 5 5 5 5 5 5 5 5 5 5 5 5 5 5 5 5 5 5 5 5 5 5 5 5 5 5 5 5 5 5 5 5 5 5 5 5 5 5 5 5 5 5 5 5 5 5 5 5 5 5 5 5 5 5 5 5 5 5 5 5 5 5 5 5 5 5 5 5 5 5 5 5 5 5 5 5 5 5 5 5 5 5 5 5 5 5 5 5 5 5 5 5 5 5 5 5 5 5 5 3 5 5 3 5 3 3 5 5 5 3 5 5 3 5 5 5 5 5 5 3 5 5 5 5 5 5 5 5 5 5 5 5 5 5 5 5 5 5 5 5 5 5 5 5 5 5 5 5 5 5 5 5 5 5 5 5 5 5 5 5 5 5 5 5 5 5 5 5 5 5 3 3 5 5 5 5 5 5 3 5 5 5 5 5 3 5 5 5 5 5 3 5 5 5 5 5 5 5 5 5 5 3 5 3 5 5 5 5 5 3 5 5 5 5 5 3 5 3 5 5 5 5 5 3 5 5 5 5 5 5 5 5 5 5 5 5 5 5 5 5 5 5 3 5 5 5 3 3 5 5 5 5 5 5 5 5 3 5 5 5 5 5 5 5 5 5 5 5 5 5 3 5 5 5 5 5 5 5 5 5 5 5 5 5 5 5 5 5 5 5 5 5 5 5 5 5 5 5 5 5 5 5 5 5 5 5 5 5 5 5 5 5 5 5 5 5 5 5 5 5 5 5 5 3 5 5 5 5 5 5 5 3 5 5 5 3 5 5 5 5 5 5 5 5 5 5 5 5 5 5 5 3 5 5 5 3 5 5 5 5 5 5 5 3 5 5 5 5 5 5 3 5 5 3 5 5 5 5 5 5 5 5 5 5 3 5 5 5 3 5 5 5 5 3 5 5 5 5 5 5 5 5 5 5 3 5 5 5 5 5 5 5 3 5 5 5 5 5 5 5 5 5 5 5 5 5 3 5 3 5 5 5 5 5 5 3 5 3 5 5 5 5 5 5 5 5 5 3 5 5 5 5 5 5 5 5 5 5 5 5 5 5 5 5 5 5 5 5 5 5 5 5 5 5 5 5 5 5 5 5 5 5 5 3 5 5 5 5 5 5 3 5 5 5 5 3 5 5 5 3 5 5 5 3 5 5 5 5 5 5 5 5 5 5 5 5 5 5 5 5 5 5 5 5 5 3 5 5 5 5 5 5 5 5 5 5 3 5 5 3 5 5 5 5 5 5 5 5 5 5 5 5 5 5 5 5 5 5 5 5 5 5 5 5 3 3 5 5 3 3 5 5 5 5 5 5 5 5 5 5 5 5 5 5 3 5 5 5 5 3 5 5 5 5 5 5 5 5 5 5 5 5 5 3 5 5 5 5 5 5 5 5 5 5 3 5 5 5 5 5 3 5 5 5 5 5 5 5 5 5 5 5 5 5 5 5 3 5 5 5 3 3 5 5 5 3 3 5 5 3 5 5 5 5 3 5 5 5 5 5 5 5 5 3 5 5 5 5 3 3 5 3 5 5 5 5 3 5 3 5 5 5 5 3 5 3 5 5 5 5 5 5 5 5 5 5 5 5 5 3 5 5 5 5 5 3 5 5 5 5 5 3 5 3 5 5 5 5 5 5 5 5 3 5 5 5 5 5 5 5 5 5 5 5 5 5 3 5 5 5 5 3 5 5 5 5 5 5 5 5 5 5 5 5 3 5 5 5 5 5 5 5 5 5 5 5 5 5 5 5 5 5 5 5 5 5 5 5 5 5 5 5 5 5 5 5 3 5 5 5 5 5 5 5 3 5 5 5 5 3 5 5 5 5 5 3 5 5 5 5 5 5 5 5 3 5 5 5 5 5 5 5 5 5 5 5 5 5 5 5 3 5 5 5 5 5 5 5 5 5 5 5 3 5 5 3 5 5 5 5 5 5 5 5 5 5 5 5 5 5 5 5 3 5 5 5 5 5 5 5 5 5 5 5 5 5 3 5 5 5 5 5 5 5 5 5 5 5 5 5 5 5 5 5 5 5 3 5 5 5 5 5 3 5 5 5 5 3 5 5 5 5 5 5 3 3 5 5 5 5 5 5 5 5 5 5 5 5 5 5 5 5 5 5 5 5 5 3 5 5 5 5 5 5 5 5 5 5 5 5 5 5 5 5 5 5 5 5 5 5 5 5 5 5 5 5 5 5 5 5 5 5 5 5 5 3 5 5 5 3 5 5 3 5 5 5 5 5 5 5 5 5 5 3 5 5 5 5 3 5 5 5 5 5 5 5 5 5 5 3 5 5 5 3 5 5 3 3 5 5 5 5 5 5 5 5 5 5 5 5 5 5 5 5 3 5 5 5 3 5 3 5 5 5 5 3 5 5 5 5 5 3 5 5 5 5 3 3 5 3 5 5 3 5 3 5 5 5 5 3 5 5 5 5 5 5 3 5 5 3 3 5 5 5 5 5 5 5 5 5 5 5 5 5 5 5 5 3 5 3 5 3 5 5 5 5 5 5 5 5 5 5 5 5 5 5 5 5 5 5 5 5 3 5 5 5 5 5 5 3 5 3 5 5 3 5 5 3 5 5 5 5 5 5 5 3 5 5 5 5 3 5 5 5 5 5 5 3 5 5 5 5 3 5 5 5 5 5 5 5 5 5 3 5 5 5 5 5 5 5 5 5 5 5 5 5 3 5 5 3 5 5 5 3 3 5 3 5 5 5 3 5 5 5 5 3 5 5 3 5 3 5 5 5 5 5 3 3 5 5 5 5 5 5 5 5 5 5 5 5 5 5 5 5 3 5 5 5 5 5 5 5 5 5 5 5 5 5 5 5 5 5 5 5 5 5 5 5 5 5 5 5 5 5 5 5 5 5 5 5 5 5 5 5 5 5 5 5 5 5 5 3 5 5 5 5 5 5 3 5 5 5 5 5 5 5 5 3 3 5 5 5 5 5 5 5 5 5 5 5 5 5 5 5 5 5 5 5 5 5 5 3 3 5 5 5 5 5 5 5 5 5 5 5 5 5 5 5 3 5 5 5 5 5 5 5 5 5 5 5 5 5 5 3 5 5 5 5 5 5 5 5 5 5 5 5 5 5 5 5 5 5 5 5 5 5 5 5 5 5 5 5 5 5 5 5 5 5 5 5 5 5 5 5 5 5 5 5 5 5 5 5 5 5 5 5 5 5 5 5 5 5 5 5 5 5 5 5 5 5 5 5 5 3 5 5 5 5 5 5 5 5 5 5 5 5 5 5 5 5 3 5 5 5 5 3 5 5 5 5 5 5 3 5 5 5 5 3 5 3 5 3 5 5 5 5 3 5 5 3 5 3 5 5 5 5 5 5 5 5 5 5 5 5 5 5 5 5 5 5 5 5 5 5 5 5 5 5 5 5 3 5 5 3 5 5 5 5 5 5 5 5 5 5 5 5 3 5 5 5 5 5 5 5 5 5 5 5 5 5 5 3 5 5 5 5 5 5 5 3 5 3 5 5 3 5 3 5 3 5 5 5 5 5 5 5 5 5 5 3 5 5 5 5 5 5 5 5 5 5 3 5 5 5 3 5 3 3 5 5 3 5 5 5 5 3 5 5 5 5 3 5 5 3 5 5 5 5 5 5 5 3 5 5 5 3 5 5 5 5 5 5 5 5 5 5 5 5 5 5 3 5 5 5 3 5 5 5 5 5 5 5 5 5 3 5 5 5 5 3 5 5 5 3 5 5 3 5 5 5 5 5 5 5 5 5 5 5 5 5 5 3 5 5 5 5 5 5 5 5 5 5 5 5 5 5 5 5 5 5 5 5 5 5 5 5 5 3 5 5 5 5 5 5 3 5 5 5 5 5 5 5 5 5 5 5 5 5 5 5 5 5 5 5 5 5 5 5 3 5 5 5 5 5 5 5 3 5 5 5 5 5 5 5 3 5 5 3 5 5 5 5 5 5 5 5 5 5 5 5 5 5 5 5 5 5 5 5 5 5 5 5 5 5 5 5 5 5 5 5 5 5 5 5 5 5 5 5 5 5 5 5 5 3 5 5 3 5 5 5 5 3 3 5 5 5 5 5 5 3 5 5 5 3 5 5 5 5 3 5 5 5 5 5 3 5 5 5 5 5 5 3 5 5 5 5 5 5 5 5 5 3 5 5 5 5 5 3 5 5 3 3 5 5 5 5 5 5 5 5 5 5 5 5 3 5 5 5 5 5 5 5 5 5 5 5 5 5 5 5 5 5 5 5 5 5 5 3 5 5 5 5 5 5 5 5 3 5 5 5 5 3 5 5 3 3 5 5 5 5 5 5 5 5 5 5 5 5 5 5 5 5 5 5 5 5 5 5 5 5 5 5 5 5 5 5 5 5 5 5 5 5 5 5 5 5 5 5 5 5 3 5 3 5 5 5 5 5 5 5 5 5 5 5 5 5 5 5 5 5 5 3 5 5 5 3 5 5 5 5 5 5 5 5 5 5 5 5 5 3 5 5 5 5 5 5 5 5 5 5 5 5 5 5 5 5 3 5 3 5 5 5 5 5 5 5 5 5 5 5 3 5 5 5 3 5 5 5 5 3 5 5 3 3 5 3 5 5 5 5 5 5 5 5 5 5 5 5 5 5 5 5 5 5 5 5 5 5 5 5 5 5 3 5 3 5 5 5 3 5 5 5 5 5 5 3 5 5 5 5 5 5 5 3 3 5 5 3 3 5 3 5 5 3 3 5 5 3 5 5 3 5 5 5 5 5 3 5 5 5 5 3 5 5 5 5 5 5 5 5 5 5 5 3 5 5 5 3 5 3 3 5 5 5 5 3 5 5 5 3 5 5 5 3 5 5 5 5 5 5 3 5 5 5 5 5 5 5 5 5 3 3 5 5 5 5 5 5 5 5 5 5 5 5 5 5 5 5 5 3 5 5 5 5 5 5 5 5 5 5 5 5 5 5 3 5 5 5 3 5 5 5 5 5 5 5 5 5 5 5 5 5 5 5 5 5 5 3 5 5 5 5 5 5 3 5 5 5 5 5 5 5 3 5 5 5 5 5 5 5 5 5 5 5 5 3 5 5 5 5 5 5 5 3 5 5 5 5 5 5 5 5 5 5 5 5 5 5 5 5 5 5 5 5 5 5 5 5 5 5 5 5 5 5 5 5 5 5 3 5 5 5 3 5 5 5 5 5 5 5 5 5 5 5 3 5 5 5 5 3 5 5 5 5 5 5 5 5 5 3 3 5 3 5 5 5 5 5 5 5 5 5 5 3 5 5 5 5 5 3 5 3 5 5 5 5 5 5 5 5 5 5 5 5 5 5 3 5 5 5 5 5 5 5 5 5 3 5 5 5 5 5 3 5 5 5 5 5 3 3 5 5 3 5 5 5 3 3 3 5 5 5 3 5 3 5 5 5 5 5 5 5 5 3 5 5 5 3 5 5 3 3 5 5 5 5 5 5 5 5 5 5 5 5 5 5 5 5 5 5 5 5 3 5 5 5 5 5 5 5 5 3 5 5 3 5 5 3 3 3 5 5 5 5 5 5 5 5 5 5 5 5 5 5 5 5 3 5 3 5 3 5 5 3 5 5 5 3 5 3 5 3 5 5 5 5 5 5 5 3 5 5 5 5 5 5 5 5 5 5 5 5 5 5 5 5 5 5 5 5 5 5 5 5 5 5 5 5 5 5 5 5 5 3 5 3 5 5 5 5 5 5 5 5 5 5 5 5 5 5 5 5 5 5 5 5 5 5 3 3 5 5 5 3 3 5 5 3 5 5 5 3 5 3 5 5 5 5 3 5 3 5 5 3 3 5 5 5 5 5 5 5 5 5 5 3 5 5 5 5 5 5 5 5 5 5 5 5 5 5 5 3 5 5 5 5 5 5 3 5 5 5 5 5 5 5 5 3 5 5 3 3 3 5 5 5 5 3 3 5 5 3 5 5 5 5 5 5 5 3 5 5 5 5 5 3 3 5 5 5 3 5 5 5 3 5 3 5 5 5 5 5 5 5 5 5 5 5 5 5 5 5 5 5 5 5 5 5 5 5 5 3 5 5 5 5 5 5 5 5 3 5 5 5 5 5 3 5 3 5 3 5 5 5 5 3 5 5 5 5 5 3 5 5 3 5 3 5 5 5 5 3 3 5 5 5 5 3 5 5 5 5 3 5 5 3 5 5 3 5 5 5 3 5 3 5 5 5 3 5 5 3 5 5 5 3 5 5 5 5 5 5 5 5 5 5 5 5 5 5 5 3 5 5 5 5 5 3 5 5 3 5 5 5 3 5 5 5 5 5 5 3 5 5 5 5 5 5 5 5 5 5 5 5 5 5 5 5 5 5 5 5 5 5 5 5 5 5 5 5 5 3 5 5 5 5 3 5 5 5 5 5 5 5 5 5 5 5 5 3 5 5 3 5 5 5 3 5 5 3 5 5 5 3 5 5 3 5 5 3 5 3 5 5 5 3 3 5 5 5 5 5 5 5 3 5 3 3 5 5 3 5 3 5 5 5 5 5 5 5 3 5 5 3 3 5 5 5 5 5 3 5 5 5 5 5 5 5 5 5 5 5 5 5 5 5 5 5 3 5 5 5 5 3 5 5 5 3 5 3 3 5 5 5 5 5 5 5 5 5 5 3 5 5 3 5 5 5 5 5 5 3 5 5 5 5 5 5 5 5 5 5 5 5 5 5 5 5 5 3 5 5 5 3 5 3 5 5 5 5 5 5 5 5 3 5 5 5 3 5 3 5 5 5 3 5 5 5 5 5 5 5 5 5 3 5 5 5 5 3 5 5 5 5 5 5 5 3 5 3 5 3 5 5 5 5 5 5 5 5 5 5 5 5 5 5 5 5 5 3 5 3 5 5 5 3 5 5 5 5 5 5 5 3 3 5 5 5 3 5 3 5 3 5 5 5 3 5 5 5 3 5 5 5 3 5 5 5 5 5 3 5 5 5 5 3 5 5 5 5 3 5 5 5 5 5 5 5 5 3 5 5 5 5 3 5 5 5 5 5 5 5 3 5 5 5 5 5 5 5 5 5 5 5 3 3 5 5 5 5 5 5 5 3 5 5 5 5 5 5 5 5 3 5 5 5 5 5 5 5 5 5 5 5 3 5 5 5 5 3 5 3 3 5 5 5 3 5 5 5 5 5 5 3 5 5 5 5 5 5 5 5 5 3 3 5 3 5 5 3 5 5 5 3 5 3 3 3 5 3 5 3 5 5 5 5 3 3 3 3 5 3 5 5 5 5 3 5 5 5 5 3 5 3 5 5 5 5 5 5 5 5 3 5 5 3 5 5 5 3 5 5 5 5 5 5 5 5 5 5 5 5 3 5 5 5 5 5 3 5 3 3 5 3 5 5 5 5 5 5 5 5 3 5 5 3 5 5 5 3 5 5 5 5 5 5 5 5 5 5 5 5 5 5 5 5 5 5 5 5 5 5 5 3 3 5 5 5 5 5 3 5 5 5 5 5 5 3 5 5 5 5 5 5 5 5 5 5 5 5 5 5 5 3 5 5 5 5 3 5 5 5 5 5 5 5 5 3 5 5 5 3 3 5 5 5 3 5 5 5 5 5 5 5 3 5 5 5 5 5 5 5 5 5 5 5 5 3 5 5 5 5 5 5 3 5 5 5 5 3 5 5 5 5 5 3 5 5 5 5 3 5 5 5 5 5 5 5 5 5 5 5 5 5 5 5 5 3 5 3 5 5 5 3 5 3 5 5 5 5 5 5 3 5 5 5 5 5 5 5 5 5 5 5 5 5 5 5 5 5 5 5 5 5 5 5 5 5 5 5 5 5 5 5 5 5 5 5 5 3 5 5 3 5 5 5 5 5 5 5 5 3 5 5 5 5 5 5 5 5 5 5 5 5 5 5 3 5 3 5 5 5 5 5 5 3 5 5 5 5 5 5 5 5 5 5 5 5 5 5 3 5 5 3 5 5 5 5 5 5 3 3 5 3 5 5 5 5 5 3 5 5 5 5 3 5 5 5 5 5 3 5 5 5 5 5 5 5 3 5 5 5 5 5 5 5 5 5 5 5 5 5 5 3 5 3 5 5 5 5 5 5 3 5 5 5 5 5 5 5 5 5 5 5 3 5 5 5 5 5 5 5 3 5 5 5 5 5 5 5 3 5 5 3 5 5 3 3 5 5 5 5 5 5 5 5 5 5 5 5 5 5 5 3 5 5 5 5 5 5 3 5 3 5 5 5 5 5 5 5 5 5 5 3 5 5 5 5 5 5 5 5 5 5 5 5 5 5 5 5 5 5 5 5 5 3 5 5 5 5 5 5 3 5 5 5 5 5 3 5 5 5 5 5 3 5 5 3 5 5 5 5 5 5 5 5 3 5 5 5 3 5 5 5 5 5 5 5 5 5 5 3 5 5 5 5 5 5 5 5 5 5 5 5 5 5 5 5 5 5 5 5 5 5 5 5 3 5 3 5 5 5 5 5 5 5 5 5 3 5 3 5 5 5 5 3 5 5 5 3 5 3 5 5 3 5 5 5 5 5 5 5 5 3 5 5 5 5 3 5 5 5 3 5 5 5 3 5 5 5 5 5 5 5 5 3 5 5 5 5 5 5 5 5 5 5 5 5 5 5 3 5 5 5 3 5 5 3 5 5 5 5 5 5 3 5 5 5 5 5 5 5 5 5 5 5 5 5 5 5 5 5 5 5 5 5 5 3 5 5 5 5 5 5 5 5 5 5 5 5 5 5 5 5 5 5 5 5 5 3 5 3 5 5 5 5 5 5 5 5 5 5 5 5 5 5 5 5 5 3 5 5 5 5 5 5 5 5 5 5 5 5 3 5 5 5 5 5 5 5 5 5 5 3 5 5 5 3 5 5 5 5 5 3 5 5 5 5 5 3 5 5 5 5 5 5 3 5 5 3 5 5 5 5 5 3 5 5 5 5 5 5 5 5 5 5 5 5 5 5 5 5 5 5 5 5 5 5 5 5 3 5 5 5 5 5 5 3 5 5 3 3 5 5 5 5 5 5 5 5 5 5 5 5 5 5 5 5 5 5 5 3 5 5 3 5 5 3 5 5 5 5 5 5 5 5 3 3 5 5 5 5 5 5 3 5 5 5 5 5 3 5 5 5 5 5 5 5 5 5 5 5 5 5 5 5 5 5 5 5 5 5 5 5 5 5 5 5 5 5 5 5 5 5 5 5 5 5 5 5 5 5 5 5 5 5 5 5 5 5 5 5 5 5 5 5 5 5 5 5 5 5 5 3 5 5 5 5 5 5 5 3 5 5 5 5 5 5 5 5 5 5 3 5 5 5 5 3 5 5 5 5 3 5 5 5 5 5 5 3 5 5 5 5 5 5 5 5 5 5 3 5 5 5 5 5 5 5 3 5 5 5 5 5 5 5 5 3 5 5 3 5 5 5 5 5 5 5 5 3 5 5 5 5 5 3 5 3 5 5 5 5 5 3 5 5 5 3 5 5 5 5 5 5 5 5 5 3 5 5 5 5 3 5 5 5 5 5 5 5 5 5 5 5 5 5 3 5 5 5 5 5 5 5 5 5 3 5 5 5 5 5 5 5 5 5 5 5 5 5 5 5 5 5 5 3 3 5 5 5 5 5 5 5 5 5 5 5 5 3 5 5 5 5 5 5 5 5 5 5 5 5 5 5 5 3 5 5 5 5 5 3 5 5 3 5 5 5 5 5 5 3 5 5 5 5 5 5 5 5 5 5 5 5 5 5 5 5 5 5 5 5 5 5 5 5 5 5 5 5 5 5 5 5 5 5 3 5 5 5 5 3 5 5 5 5 5 3 5 5 5 5 5 5 5 5 5 5 5 5 5 5 5 5 5 5 5 5 5 5 5 5 5 5 5 5 5 5 5 3 5 5 3 5 5 5 5 5 5 3 5 5 5 5 3 5 5 5 5 5 5 5 5 5 5 5 5 3 5 5 5 5 3 5 5 5 5 5 5 5 5 5 5 5 5 5 5 5 5 5 5 3 5 5 5 5 5 5 5 5 5 5 5 5 5 5 5 5 5 5 5 5 5 5 5 5 5 5 5 5 5 5 5 5 5 5 5 5 5 5 5 5 5 3 5 5 5 5 5 5 3 3 3 3 5 5 5 5 3 5 5 5 5 3 5 5 5 5 5 5 5 5 5 5 5 5 5 3 5 5 5 5 5 5 5 5 3 5 5 5 5 5 5 5 3 5 5 5 3 5 3 5 5 5 3 3 5 5 5 5 5 5 5 5 5 5 5 5 5 5 5 5 5 5 5 5 5 5 5 5 5 3 5 5 5 5 5 5 5 3 5 5 5 5 5 5 5 5 5 5 5 5 5 5 5 5 5 5 5 5 5 5 5 5 3 5 5 5 5 5 5 3 5 5 5 5 5 5 5 5 5 3 5 5 5 5 5 5 5 5 5 5 5 5 5 5 5 5 5 5 5 5 5 5 5 5 5 5 5 5 3 5 5 5 5 5 5 5 5 5 5 5 5 5 5 3 5 5 5 5 5 3 5 5 5 3 5 5 5 5 3 5 5 3 5 5 3 5 5 5 5 5 5 3 5 5 3 3 5 3 5 5 3 5 5 5 3 5 5 5 5 5 5 5 5 5 5 5 5 5 3 5 3 5 5 3 3 5 3 5 5 3 5 5 5 5 5 5 5 5 5 3 5 5 3 5 5 5 5 5 5 5 5 3 5 5 5 3 5 5 5 5 5 5 5 5 5 5 5 3 5 3 5 5 5 5 3 5 5 5 5 5 5 5 5 5 5 3 5 3 5 5 5 5 5 5 3 5 5 5 3 5 5 5 5 5 5 5 5 5 5 5 5 3 5 5 5 5 5 5 5 5 5 5 5 5 5 5 5 3 5 5 5 5 5 5 3 5 5 3 5 5 5 5 3 5 5 5 5 5 5 5 
</DataArray>
</Cells>
<PointData Scalars="" Vectors="displacement," Tensors="">
<DataArray type="Float64" Name="displacement" NumberOfComponents="3" format="ascii">
-8.5363432373942552e-07 -0.054997492994362893 0 -0.00017010422591635227 -0.054690192543794217 0 -1.0019466259772636e-06 -0.054995554180970116 0 -8.5363432373942552e-07 -0.054997492994362893 0 -6.5171775493775265e-05 -0.054242229895159394 0 -0.00017010422591635227 -0.054690192543794217 0 -8.5363432373942552e-07 -0.054997492994362893 0 -6.5171775493775265e-05 -0.054242229895159394 0 1.4657264982816774e-06 -0.050991567064788142 0 -0.00027186447678967932 -0.052938625627225143 0 -2.0348201825534696e-07 -0.050986578506593223 0 -0.00051274340220492038 -0.051510718974467337 0 -0.00029351670265981061 -0.052838752935828313 0 -5.5986402959919544e-05 -0.050416675501789951 0 -0.00027186447678967932 -0.052938625627225143 0 -0.00021479610398636957 -0.054372559601404219 0 -0.00029351670265981061 -0.052838752935828313 0 -0.00040652163937579549 -0.053585106523117508 0 6.8247137922266868e-05 -0.052505043747714503 0 -0.00051274340220492038 -0.051510718974467337 0 -0.00017010422591635227 -0.054690192543794217 0 -0.00029351670265981061 -0.052838752935828313 0 -0.00017010422591635227 -0.054690192543794217 0 -0.00029351670265981061 -0.052838752935828313 0 -0.00040652163937579549 -0.053585106523117508 0 -0.00026693434745232123 -0.054726208247531792 0 0.0010474570487570287 -0.048223857609491758 0 -0.00017010422591635227 -0.054690192543794217 0 -0.00040652163937579549 -0.053585106523117508 0 -1.0019466259772636e-06 -0.054995554180970116 0 -0.00026693434745232123 -0.054726208247531792 0 -3.8010444595286368e-07 -0.054999456767988016 0 -5.5752292625790621e-05 -0.05493815282306793 0 -7.3604592342353769e-08 -0.055000188994243589 0 1.1502744733851317e-07 -0.05499963176193521 0 0.00019458815035362543 -0.05349543380159686 0 6.8247137922266868e-05 -0.052505043747714503 0 0.00077874332132554141 -0.051650068325202358 0 0.0010474570487570287 -0.048223857609491758 0 0.00038646058439314063 -0.049289587722889605 0 0.00065417834937175348 -0.04607856041156811 0 0.00060735480777443724 -0.046234945306113509 0 0.00048510356589295085 -0.046020367699814768 0 -0.00040652163937579549 -0.053585106523117508 0 0.00019458815035362543 -0.05349543380159686 0 6.8247137922266868e-05 -0.052505043747714503 0 -0.00029351670265981061 -0.052838752935828313 0 6.8247137922266868e-05 -0.052505043747714503 0 -5.5986402959919544e-05 -0.050416675501789951 0 6.8247137922266868e-05 -0.052505043747714503 0 0.00077874332132554141 -0.051650068325202358 0 -5.5986402959919544e-05 -0.050416675501789951 0 0.00077874332132554141 -0.051650068325202358 0 0.00023001266490145988 -0.049222381331718128 0 -5.5986402959919544e-05 -0.050416675501789951 0 -0.00051274340220492038 -0.051510718974467337 0 -5.5986402959919544e-05 -0.050416675501789951 0 -1.0503602076292497e-06 -0.050981204754829874 0 0.00023001266490145988 -0.049222381331718128 0 -5.5986402959919544e-05 -0.050416675501789951 0 5.0007425862271056e-07 -0.048579886265767043 0 -5.5986402959919544e-05 -0.050416675501789951 0 -1.0503602076292497e-06 -0.050981204754829874 0 5.0007425862271056e-07 -0.048579886265767043 0 5.0007425862271056e-07 -0.048579886265767043 0 0.00030520649329133685 -0.047176297645411938 0 -1.0566708102254561e-07 -0.046169141146857412 0 0.00023001266490145988 -0.049222381331718128 0 5.0007425862271056e-07 -0.048579886265767043 0 0.00030520649329133685 -0.047176297645411938 0 0.00030520649329133685 -0.047176297645411938 0 -1.0566708102254561e-07 -0.046169141146857412 0 2.803750888334284e-05 -0.045872169252302204 0 -1.0566708102254561e-07 -0.046169141146857412 0 2.803750888334284e-05 -0.045872169252302204 0 1.4073710987495943e-06 -0.043768491250880483 0 0.00030520649329133685 -0.047176297645411938 0 2.803750888334284e-05 -0.045872169252302204 0 1.244327057776646e-05 -0.045962534052339375 0 0.00030520649329133685 -0.047176297645411938 0 1.244327057776646e-05 -0.045962534052339375 0 0.00019294555626376433 -0.046246652985678219 0 0.00077874332132554141 -0.051650068325202358 0 0.00023001266490145988 -0.049222381331718128 0 0.00030520649329133685 -0.047176297645411938 0 0.00038646058439314063 -0.049289587722889605 0 0.00044808417310646017 -0.047330003904779677 0 0.00060735480777443724 -0.046234945306113509 0 0.00030520649329133685 -0.047176297645411938 0 0.00019294555626376433 -0.046246652985678219 0 -4.3503974924759473e-05 -0.040446943132180072 0 1.2257357785475549e-06 -0.043760009078613195 0 -1.2266199961454507e-06 -0.040995752939777093 0 0.0004923438214521536 -0.043274235607947832 0 -7.1932330864501008e-07 -0.043761304719035249 0 2.803750888334284e-05 -0.045872169252302204 0 1.4073710987495943e-06 -0.043768491250880483 0 1.244327057776646e-05 -0.045962534052339375 0 0.0010113457831573398 -0.045413897119617193 0 1.4073710987495943e-06 -0.043768491250880483 0 1.244327057776646e-05 -0.045962534052339375 0 0.0010113457831573398 -0.045413897119617193 0 1.244327057776646e-05 -0.045962534052339375 0 0.0007309556029161128 -0.04593813568009926 0 0.0007309556029161128 -0.04593813568009926 0 0.00027039155634527316 -0.04611371997097214 0 0.00061474450224154314 -0.046119421029657735 0 1.244327057776646e-05 -0.045962534052339375 0 0.0007309556029161128 -0.04593813568009926 0 0.00027039155634527316 -0.04611371997097214 0 0.00027039155634527316 -0.04611371997097214 0 0.00035627592157647011 -0.046135697094422536 0 0.00061474450224154314 -0.046119421029657735 0 0.00035627592157647011 -0.046135697094422536 0 0.00061474450224154314 -0.046119421029657735 0 0.00051910351894082502 -0.046182548691780088 0 0.00060735480777443724 -0.046234945306113509 0 0.00019294555626376433 -0.046246652985678219 0 0.00031453937951769382 -0.046115059210117999 0 1.244327057776646e-05 -0.045962534052339375 0 0.00027039155634527316 -0.04611371997097214 0 0.00019294555626376433 -0.046246652985678219 0 0.00027039155634527316 -0.04611371997097214 0 0.00019294555626376433 -0.046246652985678219 0 0.00031453937951769382 -0.046115059210117999 0 0.00027039155634527316 -0.04611371997097214 0 0.00035627592157647011 -0.046135697094422536 0 0.00031453937951769382 -0.046115059210117999 0 0.00060735480777443724 -0.046234945306113509 0 0.00031453937951769382 -0.046115059210117999 0 0.00048510356589295085 -0.046020367699814768 0 -2.7180845051015438e-05 -0.038258111079074467 0 7.0621039439067369e-05 -0.037969159507665731 0 0.000803780787069052 -0.038633101241241544 0 0.0003159717536613071 -0.042390879285492809 0 0.00044466445725745152 -0.041903899793671144 0 0.00031453937951769382 -0.046115059210117999 0 0.00032907890409065673 -0.046087584316006687 0 0.00048510356589295085 -0.046020367699814768 0 0.0003159717536613071 -0.042390879285492809 0 -0.00037366826049136206 -0.039941427567396125 0 0.00035627592157647011 -0.046135697094422536 0 0.00031453937951769382 -0.046115059210117999 0 0.00032907890409065673 -0.046087584316006687 0 -2.7180845051015438e-05 -0.038258111079074467 0 7.0621039439067369e-05 -0.037969159507665731 0 -0.00088527728300696223 -0.038059101144737685 0 -0.00014088572694233469 -0.037637884250854063 0 -0.00037366826049136206 -0.039941427567396125 0 7.0621039439067369e-05 -0.037969159507665731 0 -0.00035869493654622171 -0.037432184256997396 0 -0.00075637048863920529 -0.037818539642553994 0 7.0621039439067369e-05 -0.037969159507665731 0 -0.00035869493654622171 -0.037432184256997396 0 9.1684785268212013e-05 -0.037319619648055469 0 7.0621039439067369e-05 -0.037969159507665731 0 0.00072284358476242178 -0.037795087134084443 0 0.000803780787069052 -0.038633101241241544 0 7.0621039439067369e-05 -0.037969159507665731 0 0.00072284358476242178 -0.037795087134084443 0 9.1684785268212013e-05 -0.037319619648055469 0 0.00051910351894082502 -0.046182548691780088 0 0.00061331800184964876 -0.046270491787331787 0 0.00072652891036793061 -0.04617693250698101 0 0.00061474450224154314 -0.046119421029657735 0 0.00051910351894082502 -0.046182548691780088 0 0.00072652891036793061 -0.04617693250698101 0 0.00051910351894082502 -0.046182548691780088 0 0.00040975355887910202 -0.046221102172431368 0 0.00061331800184964876 -0.046270491787331787 0 0.00035627592157647011 -0.046135697094422536 0 0.00051910351894082502 -0.046182548691780088 0 0.00040975355887910202 -0.046221102172431368 0 0.00035627592157647011 -0.046135697094422536 0 0.00032907890409065673 -0.046087584316006687 0 0.00040975355887910202 -0.046221102172431368 0 -0.00035869493654622171 -0.037432184256997396 0 -0.00093236971963061199 -0.037174483509397227 0 -0.00075637048863920529 -0.037818539642553994 0 -0.00093236971963061199 -0.037174483509397227 0 -0.00075637048863920529 -0.037818539642553994 0 -0.0011473901911821368 -0.037707953076165202 0 -0.00037366826049136206 -0.039941427567396125 0 -0.0013104599390728301 -0.038474677853347322 0 -0.00037366826049136206 -0.039941427567396125 0 -0.00040066655490639225 -0.042186603300442119 0 -0.00062329482235391005 -0.037848603600819895 0 -0.0011473901911821368 -0.037707953076165202 0 -0.0016291323844480807 -0.037912892310926739 0 -0.00093236971963061199 -0.037174483509397227 0 -0.0011473901911821368 -0.037707953076165202 0 -0.0014855887305417592 -0.037422459563695547 0 -0.00093236971963061199 -0.037174483509397227 0 -0.0014855887305417592 -0.037422459563695547 0 -0.0016680518224523348 -0.036818410476286034 0 -0.0014855887305417592 -0.037422459563695547 0 -0.0016680518224523348 -0.036818410476286034 0 -0.0022034844820969252 -0.037544538465248897 0 -0.0014855887305417592 -0.037422459563695547 0 -0.0016291323844480807 -0.037912892310926739 0 -0.0022034844820969252 -0.037544538465248897 0 -0.0011473901911821368 -0.037707953076165202 0 -0.0014855887305417592 -0.037422459563695547 0 -0.0016291323844480807 -0.037912892310926739 0 -0.00093236971963061199 -0.037174483509397227 0 -0.0016680518224523348 -0.036818410476286034 0 -0.0010181756259130899 -0.036152008414450001 0 -0.0016680518224523348 -0.036818410476286034 0 -0.0010181756259130899 -0.036152008414450001 0 -0.0024114879244083883 -0.035579861835105073 0 -0.00035869493654622171 -0.037432184256997396 0 -0.00093236971963061199 -0.037174483509397227 0 -0.00039595529066371242 -0.036820729716058376 0 -0.00093236971963061199 -0.037174483509397227 0 -0.0010181756259130899 -0.036152008414450001 0 -0.00039595529066371242 -0.036820729716058376 0 -0.0010181756259130899 -0.036152008414450001 0 -0.00039595529066371242 -0.036820729716058376 0 -0.00037739219952856516 -0.036198007868653868 0 -0.0010181756259130899 -0.036152008414450001 0 -0.0024114879244083883 -0.035579861835105073 0 -0.0019572359908744895 -0.034939513909731108 0 -0.00082123814347710635 -0.036444508013804326 0 -0.0019489006675315979 -0.034577264997172161 0 0.00056350116006227105 -0.037015840281666379 0 9.1684785268212013e-05 -0.037319619648055469 0 5.2533324723571512e-05 -0.036677848979741599 0 0.00072284358476242178 -0.037795087134084443 0 0.00056350116006227105 -0.037015840281666379 0 9.1684785268212013e-05 -0.037319619648055469 0 9.1684785268212013e-05 -0.037319619648055469 0 -0.00039595529066371242 -0.036820729716058376 0 5.2533324723571512e-05 -0.036677848979741599 0 -0.00035869493654622171 -0.037432184256997396 0 9.1684785268212013e-05 -0.037319619648055469 0 -0.00039595529066371242 -0.036820729716058376 0 5.2533324723571512e-05 -0.036677848979741599 0 -0.00037739219952856516 -0.036198007868653868 0 0.00053546486601311976 -0.036215839889291078 0 -0.00039595529066371242 -0.036820729716058376 0 5.2533324723571512e-05 -0.036677848979741599 0 -0.00037739219952856516 -0.036198007868653868 0 0.00056350116006227105 -0.037015840281666379 0 5.2533324723571512e-05 -0.036677848979741599 0 0.00053546486601311976 -0.036215839889291078 0 0.00061087936242348591 -0.045406706411810757 0 -5.2434748606850961e-05 -0.045270857267864312 0 -0.00029733724669932975 -0.054602252520004696 0 -0.00013619316230065298 -0.05398920041765029 0 -0.00080005732963521448 -0.053947114386995371 0 0.00056350116006227105 -0.037015840281666379 0 0.0015079292267487744 -0.03704420138491115 0 0.00053546486601311976 -0.036215839889291078 0 0.00072284358476242178 -0.037795087134084443 0 0.00056350116006227105 -0.037015840281666379 0 0.0015079292267487744 -0.03704420138491115 0 -0.00029733724669932975 -0.054602252520004696 0 3.1370145106389476e-05 -0.054770103484897074 0 6.7053531473381807e-05 -0.054919355989391183 0 0.00061087936242348591 -0.045406706411810757 0 0.00051224281769935267 -0.048852520496666295 0 -0.00029733724669932975 -0.054602252520004696 0 0.00017008693953934651 -0.054677902865960512 0 -0.00013619316230065298 -0.05398920041765029 0 0.00017008693953934651 -0.054677902865960512 0 3.4198443086777498e-08 -0.054999638021230451 0 8.4836158794820784e-05 -0.054850755814506394 0 0.00017008693953934651 -0.054677902865960512 0 3.4198443086777498e-08 -0.054999638021230451 0 2.4262803451838995e-05 -0.054947878725876316 0 3.4198443086777498e-08 -0.054999638021230451 0 8.4836158794820784e-05 -0.054850755814506394 0 1.0903306734040461e-07 -0.054999851171807487 0 -0.00029733724669932975 -0.054602252520004696 0 0.00017008693953934651 -0.054677902865960512 0 3.1370145106389476e-05 -0.054770103484897074 0 0.00017008693953934651 -0.054677902865960512 0 8.4836158794820784e-05 -0.054850755814506394 0 3.1370145106389476e-05 -0.054770103484897074 0 8.4836158794820784e-05 -0.054850755814506394 0 3.1370145106389476e-05 -0.054770103484897074 0 6.7053531473381807e-05 -0.054919355989391183 0 -0.00089135009191203577 -0.056425470926587507 0 0.00051224281769935267 -0.048852520496666295 0 8.4836158794820784e-05 -0.054850755814506394 0 -2.8880072654569757e-05 -0.054936851585378588 0 3.2399461270511295e-05 -0.054945207647239605 0 -2.8880072654569757e-05 -0.054936851585378588 0 3.2399461270511295e-05 -0.054945207647239605 0 2.0637371975158397e-05 -0.054983796373416771 0 0.00051224281769935267 -0.048852520496666295 0 0.00047094384848337371 -0.055242928753481205 0 8.4836158794820784e-05 -0.054850755814506394 0 1.0903306734040461e-07 -0.054999851171807487 0 3.2399461270511295e-05 -0.054945207647239605 0 1.0903306734040461e-07 -0.054999851171807487 0 3.2399461270511295e-05 -0.054945207647239605 0 2.0637371975158397e-05 -0.054983796373416771 0 -5.5752292625790621e-05 -0.05493815282306793 0 -2.0718704034018063e-05 -0.054838671395523182 0 1.1502744733851317e-07 -0.05499963176193521 0 1.0903306734040461e-07 -0.054999851171807487 0 2.0637371975158397e-05 -0.054983796373416771 0 -3.5271394468909001e-08 -0.055000031847685996 0 0.00047094384848337371 -0.055242928753481205 0 -3.2830832292977611e-07 -0.054999634874713758 0 -5.5752292625790621e-05 -0.05493815282306793 0 -7.4461489735623464e-05 -0.054720401730323241 0 -2.0718704034018063e-05 -0.054838671395523182 0 -5.5752292625790621e-05 -0.05493815282306793 0 -0.00016208540878123387 -0.054835982142810477 0 -7.4461489735623464e-05 -0.054720401730323241 0 0.0016640968269132897 -0.038993189284499165 0 0.0024116106338180421 -0.037975848778558141 0 0.001470180957764638 -0.038002128760115612 0 0.0010474570487570287 -0.048223857609491758 0 0.00051224281769935267 -0.048852520496666295 0 0.0010474570487570287 -0.048223857609491758 0 0.00044466445725745152 -0.041903899793671144 0 0.0016640968269132897 -0.038993189284499165 0 0.000803780787069052 -0.038633101241241544 0 0.001470180957764638 -0.038002128760115612 0 0.00072284358476242178 -0.037795087134084443 0 0.0015079292267487744 -0.03704420138491115 0 0.001470180957764638 -0.038002128760115612 0 0.00072284358476242178 -0.037795087134084443 0 0.000803780787069052 -0.038633101241241544 0 0.001470180957764638 -0.038002128760115612 0 0.0015079292267487744 -0.03704420138491115 0 0.0024116106338180421 -0.037975848778558141 0 0.001470180957764638 -0.038002128760115612 0 -0.00096015108353902782 -0.02609027295973846 0 -0.001228314034058937 -0.026328717849442053 0 -0.0011806626884250998 -0.02659364434801886 0 1.0773553474520513e-05 -0.026204358521792061 0 -0.00096015108353902782 -0.02609027295973846 0 -0.001228314034058937 -0.026328717849442053 0 -0.0021911933774638364 -0.028921255497880043 0 -0.0021072737011123672 -0.028560385903245274 0 -0.0023674334894406919 -0.028364806661656899 0 -0.0012336280231757353 -0.027053273593257241 0 -0.001677563208519871 -0.027570610879179541 0 -0.00096015108353902782 -0.02609027295973846 0 -0.00046655570535946187 -0.026705784617358001 0 -0.00057035643777986786 -0.025408333639443718 0 1.0773553474520513e-05 -0.026204358521792061 0 -0.00096015108353902782 -0.02609027295973846 0 -0.00046655570535946187 -0.026705784617358001 0 2.0612492679743826e-06 -0.030163944480729479 0 -0.00013382774648744655 -0.027923607667355865 0 -1.9434634148079883e-06 -0.027081879616645849 0 -0.00046655570535946187 -0.026705784617358001 0 -0.00013382774648744655 -0.027923607667355865 0 -1.9434634148079883e-06 -0.027081879616645849 0 -1.9043593248127064e-07 -0.03017027357173328 0 0.00059331068104226186 -0.029939311823619554 0 2.0612492679743826e-06 -0.030163944480729479 0 -0.00013382774648744655 -0.027923607667355865 0 0.0010482175387623047 -0.028251749114234111 0 1.0773553474520513e-05 -0.026204358521792061 0 -0.00046655570535946187 -0.026705784617358001 0 0.00035153396315885693 -0.027181238408289503 0 -0.00046655570535946187 -0.026705784617358001 0 -0.00013382774648744655 -0.027923607667355865 0 0.00035153396315885693 -0.027181238408289503 0 -0.00013382774648744655 -0.027923607667355865 0 0.00035153396315885693 -0.027181238408289503 0 0.0010482175387623047 -0.028251749114234111 0 0.00035153396315885693 -0.027181238408289503 0 0.0015681141553525728 -0.027289074165152711 0 0.0010482175387623047 -0.028251749114234111 0 1.0773553474520513e-05 -0.026204358521792061 0 0.00035153396315885693 -0.027181238408289503 0 0.0015681141553525728 -0.027289074165152711 0 -0.00012009978241724918 -0.03151187541851571 0 0.00059331068104226186 -0.029939311823619554 0 7.8478726425974334e-07 -0.030171224624894941 0 -4.6793789544376307e-05 -0.031977866281547973 0 -7.8992753381748196e-07 -0.032336031331743932 0 3.6768643919035799e-05 -0.032071329554658648 0 -4.6793789544376307e-05 -0.031977866281547973 0 -7.8992753381748196e-07 -0.032336031331743932 0 3.6768643919035799e-05 -0.032071329554658648 0 -7.8992753381748196e-07 -0.032336031331743932 0 7.9959467434819596e-07 -0.034494661693208445 0 0.0009843717434442872 -0.036101726427053477 0 6.3877046104770946e-05 -0.035980505800056725 0 1.3066006086992331e-06 -0.034502583179288275 0 -0.00012009978241724918 -0.03151187541851571 0 1.9445967188891988e-06 -0.034502385835420896 0 0.0009843717434442872 -0.036101726427053477 0 0.00023023402960362639 -0.036424553421600711 0 6.3877046104770946e-05 -0.035980505800056725 0 -0.00012009978241724918 -0.03151187541851571 0 -0.00054070154150688489 -0.032683790027006207 0 -0.0015252394408493727 -0.029134137967574653 0 -0.0017628061392957958 -0.028847764707946328 0 -0.0012183185411712794 -0.028845672885075672 0 -0.0015252394408493727 -0.029134137967574653 0 -0.0018276996462574108 -0.029089991369026794 0 -0.0017628061392957958 -0.028847764707946328 0 -0.0018322524661196519 -0.029462912181088732 0 -0.0015252394408493727 -0.029134137967574653 0 -0.0018276996462574108 -0.029089991369026794 0 -0.0021911933774638364 -0.028921255497880043 0 -0.0018322524661196519 -0.029462912181088732 0 -0.0018276996462574108 -0.029089991369026794 0 -0.0012336280231757353 -0.027053273593257241 0 -0.00012009978241724918 -0.03151187541851571 0 -0.0021911933774638364 -0.028921255497880043 0 -0.0018276996462574108 -0.029089991369026794 0 -0.0017628061392957958 -0.028847764707946328 0 -0.0021072737011123672 -0.028560385903245274 0 -0.0017628061392957958 -0.028847764707946328 0 -0.0017020502102675001 -0.028485877803096919 0 -0.0021911933774638364 -0.028921255497880043 0 -0.0021072737011123672 -0.028560385903245274 0 -0.0017628061392957958 -0.028847764707946328 0 -0.0017628061392957958 -0.028847764707946328 0 -0.0012183185411712794 -0.028845672885075672 0 -0.0017020502102675001 -0.028485877803096919 0 -0.0022940554570374146 -0.034225246227462612 0 -0.0023036652552337095 -0.034194607425622692 0 -0.0023401592641287502 -0.034185815579904001 0 -0.0022940554570374146 -0.034225246227462612 0 -0.0022789379110672563 -0.034212792306478654 0 -0.0023036652552337095 -0.034194607425622692 0 -0.0013141137486426724 -0.034388797375491616 0 -0.0022573371086578686 -0.030926562592571028 0 -0.0013141137486426724 -0.034388797375491616 0 -0.0018698080373800714 -0.036868586020614706 0 -0.001435110157871863 -0.039196428151283963 0 -0.0010425063053683444 -0.039489286969144811 0 -0.00105219651606627 -0.038827573359707483 0 -4.5562207723570639e-05 -0.036449451025827445 0 -8.1439351207890587e-05 -0.036270950095893997 0 -8.6855398477402653e-05 -0.036292264926093672 0 -8.1439351207890587e-05 -0.036270950095893997 0 -8.6855398477402653e-05 -0.036292264926093672 0 -3.9901017658674222e-05 -0.036255630013901557 0 -0.0013141137486426724 -0.034388797375491616 0 -0.00048526364105814845 -0.037926984569518818 0 0.00023023402960362639 -0.036424553421600711 0 -4.5562207723570639e-05 -0.036449451025827445 0 -8.6855398477402653e-05 -0.036292264926093672 0 -0.00054070154150688489 -0.032683790027006207 0 -0.0013141137486426724 -0.034388797375491616 0 0.00023023402960362639 -0.036424553421600711 0 -8.6855398477402653e-05 -0.036292264926093672 0 6.3877046104770946e-05 -0.035980505800056725 0 -8.6855398477402653e-05 -0.036292264926093672 0 6.3877046104770946e-05 -0.035980505800056725 0 -0.00017879267557342407 -0.036193946133985445 0 6.3877046104770946e-05 -0.035980505800056725 0 -0.00018760812061760797 -0.035873671195030835 0 -0.00017879267557342407 -0.036193946133985445 0 6.3877046104770946e-05 -0.035980505800056725 0 1.3066006086992331e-06 -0.034502583179288275 0 -0.00018760812061760797 -0.035873671195030835 0 1.3066006086992331e-06 -0.034502583179288275 0 -0.00018760812061760797 -0.035873671195030835 0 -1.4041176861153534e-06 -0.036364398084722964 0 -1.4041176861153534e-06 -0.036364398084722964 0 -0.00019436045353675514 -0.036516214108931931 0 1.4786317455076442e-06 -0.038227027073403391 0 -0.00018760812061760797 -0.035873671195030835 0 -1.4041176861153534e-06 -0.036364398084722964 0 -0.00019436045353675514 -0.036516214108931931 0 -0.00018760812061760797 -0.035873671195030835 0 -0.00019436045353675514 -0.036516214108931931 0 -0.00017879267557342407 -0.036193946133985445 0 -0.00019436045353675514 -0.036516214108931931 0 -3.9901017658674222e-05 -0.036255630013901557 0 0.00032905480541963378 -0.036516137525243374 0 -0.00019436045353675514 -0.036516214108931931 0 -0.00017879267557342407 -0.036193946133985445 0 -3.9901017658674222e-05 -0.036255630013901557 0 -8.6855398477402653e-05 -0.036292264926093672 0 -0.00017879267557342407 -0.036193946133985445 0 -3.9901017658674222e-05 -0.036255630013901557 0 4.8007965438127246e-05 -0.040310739415261788 0 0.00021259191656862938 -0.040060287570258153 0 -0.00013827525373309832 -0.04008793945999304 0 -3.9901017658674222e-05 -0.036255630013901557 0 0.00015170663461018364 -0.03621115116856103 0 0.00032905480541963378 -0.036516137525243374 0 0.00022818769933635399 -0.040887462029621485 0 0.00026333352308731623 -0.037925851201742272 0 -0.00019436045353675514 -0.036516214108931931 0 0.00032905480541963378 -0.036516137525243374 0 1.4786317455076442e-06 -0.038227027073403391 0 0.00021259191656862938 -0.040060287570258153 0 1.250895491495387e-06 -0.038233392328010339 0 -0.00013827525373309832 -0.04008793945999304 0 0.00026333352308731623 -0.037925851201742272 0 1.0867052027716005e-07 -0.038230437028417372 0 1.250895491495387e-06 -0.038233392328010339 0 -1.2266199961454507e-06 -0.040995752939777093 0 -0.00013827525373309832 -0.04008793945999304 0 -4.3503974924759473e-05 -0.040446943132180072 0 -1.2266199961454507e-06 -0.040995752939777093 0 -0.00013827525373309832 -0.04008793945999304 0 -4.3503974924759473e-05 -0.040446943132180072 0 4.8007965438127246e-05 -0.040310739415261788 0 -0.00013827525373309832 -0.04008793945999304 0 0.0010113457831573398 -0.045413897119617193 0 0.0007309556029161128 -0.04593813568009926 0 0.0011208653120387379 -0.045759616987161987 0 0.0004923438214521536 -0.043274235607947832 0 0.00022818769933635399 -0.040887462029621485 0 0.0007309556029161128 -0.04593813568009926 0 0.0011208653120387379 -0.045759616987161987 0 0.00092542701890868868 -0.046071712883169226 0 0.00022818769933635399 -0.040887462029621485 0 0.00028131621126081569 -0.043553580973920897 0 -0.0010425063053683444 -0.039489286969144811 0 -0.00063901586188853455 -0.039780278669186153 0 -0.00054595589294785074 -0.039113777794381514 0 -8.1439351207890587e-05 -0.036270950095893997 0 -3.9901017658674222e-05 -0.036255630013901557 0 0.00015170663461018364 -0.03621115116856103 0 -0.00048526364105814845 -0.037926984569518818 0 0.00022818769933635399 -0.040887462029621485 0 -0.0010425063053683444 -0.039489286969144811 0 -0.00054595589294785074 -0.039113777794381514 0 -0.00105219651606627 -0.038827573359707483 0 0.0007309556029161128 -0.04593813568009926 0 0.00061474450224154314 -0.046119421029657735 0 0.00092542701890868868 -0.046071712883169226 0 0.00061474450224154314 -0.046119421029657735 0 0.00092542701890868868 -0.046071712883169226 0 0.00072652891036793061 -0.04617693250698101 0 0.00092542701890868868 -0.046071712883169226 0 0.00072652891036793061 -0.04617693250698101 0 0.00079756951751345693 -0.046254008432627149 0 0.00061331800184964876 -0.046270491787331787 0 0.00072652891036793061 -0.04617693250698101 0 0.00079756951751345693 -0.046254008432627149 0 0.00028131621126081569 -0.043553580973920897 0 -0.0014463425967768579 -0.039339908407730696 0 -0.00054595589294785074 -0.039113777794381514 0 -0.00067674799247447088 -0.0384503404179974 0 -0.00045538788882892156 -0.038453454876585906 0 -0.00054595589294785074 -0.039113777794381514 0 -0.00067674799247447088 -0.0384503404179974 0 -0.00105219651606627 -0.038827573359707483 0 -0.0019864815307017126 -0.035757650327982844 0 -0.0018698080373800714 -0.036868586020614706 0 -0.0019864815307017126 -0.035757650327982844 0 -0.0014463425967768579 -0.039339908407730696 0 -0.0024451843039922979 -0.034714967101555687 0 -0.0024837911710782388 -0.034749582558828519 0 -0.0025558345068144397 -0.034720110109375521 0 -0.0019864815307017126 -0.035757650327982844 0 -0.0019755641751814761 -0.035511594650372187 0 -0.00246200365928339 -0.034722469141814913 0 -0.0024837911710782388 -0.034749582558828519 0 -0.0024377094830332459 -0.034754034415907228 0 -0.0024544271869610763 -0.034850840521539327 0 -0.0024377094830332459 -0.034754034415907228 0 -0.0023951436603232186 -0.034753866281764592 0 -0.0024837911710782388 -0.034749582558828519 0 -0.0024544271869610763 -0.034850840521539327 0 -0.0024377094830332459 -0.034754034415907228 0 -0.0024837911710782388 -0.034749582558828519 0 -0.0024544271869610763 -0.034850840521539327 0 -0.0025531621553116497 -0.034972744383832154 0 -0.0027711848504105123 -0.037981008194830808 0 -0.0022034844820969252 -0.037544538465248897 0 -0.002655199229377301 -0.036934320725117591 0 -0.0024837911710782388 -0.034749582558828519 0 -0.0025558345068144397 -0.034720110109375521 0 -0.0025531621553116497 -0.034972744383832154 0 -0.00040066655490639225 -0.042186603300442119 0 -0.0014463425967768579 -0.039339908407730696 0 -0.0014463425967768579 -0.039339908407730696 0 -0.0024687710985797557 -0.035493958899899411 0 -0.0016291323844480807 -0.037912892310926739 0 -0.0027711848504105123 -0.037981008194830808 0 -0.0022034844820969252 -0.037544538465248897 0 -0.0016680518224523348 -0.036818410476286034 0 -0.0022034844820969252 -0.037544538465248897 0 -0.002655199229377301 -0.036934320725117591 0 -0.0024687710985797557 -0.035493958899899411 0 -0.0024839082041105943 -0.035747497863063707 0 -0.0025531621553116497 -0.034972744383832154 0 -0.0024114879244083883 -0.035579861835105073 0 -0.0024196280426970183 -0.035253806601033361 0 -0.0016680518224523348 -0.036818410476286034 0 -0.002655199229377301 -0.036934320725117591 0 -0.0024114879244083883 -0.035579861835105073 0 -0.0024114879244083883 -0.035579861835105073 0 -0.0024156922562996249 -0.035042305443135517 0 -0.0019572359908744895 -0.034939513909731108 0 -0.0024541672264045576 -0.034997570501683117 0 -0.0024718909035910588 -0.034912549171380133 0 -0.0024156922562996249 -0.035042305443135517 0 -0.0024114879244083883 -0.035579861835105073 0 -0.0024196280426970183 -0.035253806601033361 0 -0.0024156922562996249 -0.035042305443135517 0 -0.0024196280426970183 -0.035253806601033361 0 -0.0024541672264045576 -0.034997570501683117 0 -0.0024156922562996249 -0.035042305443135517 0 -0.0024196280426970183 -0.035253806601033361 0 -0.0024082229810731643 -0.034970960355979033 0 -0.0024541672264045576 -0.034997570501683117 0 -0.0024544271869610763 -0.034850840521539327 0 -0.0025531621553116497 -0.034972744383832154 0 -0.0024082229810731643 -0.034970960355979033 0 -0.0025531621553116497 -0.034972744383832154 0 -0.0024196280426970183 -0.035253806601033361 0 -0.0024082229810731643 -0.034970960355979033 0 -0.0024544271869610763 -0.034850840521539327 0 -0.0024082229810731643 -0.034970960355979033 0 -0.0023951436603232186 -0.034753866281764592 0 -0.0024021881574515058 -0.034778622158887523 0 -0.002363480574849005 -0.03457055855867032 0 -0.0023951436603232186 -0.034753866281764592 0 -0.0024082229810731643 -0.034970960355979033 0 -0.0024021881574515058 -0.034778622158887523 0 -0.0023951436603232186 -0.034753866281764592 0 -0.0024082229810731643 -0.034970960355979033 0 -0.0024021881574515058 -0.034778622158887523 0 -0.0024541672264045576 -0.034997570501683117 0 -0.0024021881574515058 -0.034778622158887523 0 -0.0024541672264045576 -0.034997570501683117 0 -0.0024282487458614772 -0.034770829681233323 0 -0.0024541672264045576 -0.034997570501683117 0 -0.0024282487458614772 -0.034770829681233323 0 -0.0024718909035910588 -0.034912549171380133 0 -0.0024282487458614772 -0.034770829681233323 0 -0.0024113955317010246 -0.034843029850664065 0 -0.0024718909035910588 -0.034912549171380133 0 -0.0024282487458614772 -0.034770829681233323 0 -0.0023701740701880464 -0.034564742109416326 0 -0.0024113955317010246 -0.034843029850664065 0 -0.0024282487458614772 -0.034770829681233323 0 -0.0023701740701880464 -0.034564742109416326 0 -0.0023780874614826486 -0.03459461497765997 0 -0.0023701740701880464 -0.034564742109416326 0 -0.0023780874614826486 -0.03459461497765997 0 -0.0023487548874254103 -0.034426180317980913 0 -0.0024021881574515058 -0.034778622158887523 0 -0.0024282487458614772 -0.034770829681233323 0 -0.0023780874614826486 -0.03459461497765997 0 -0.0024021881574515058 -0.034778622158887523 0 -0.0023780874614826486 -0.03459461497765997 0 -0.002363480574849005 -0.03457055855867032 0 -0.0023780874614826486 -0.03459461497765997 0 -0.002363480574849005 -0.03457055855867032 0 -0.0023477765008003823 -0.034418924477265883 0 -0.0023780874614826486 -0.03459461497765997 0 -0.0023477765008003823 -0.034418924477265883 0 -0.0023487548874254103 -0.034426180317980913 0 -0.002391498668611968 -0.03429140668556846 0 -0.0023082195326083986 -0.034265917150892687 0 -0.002363480574849005 -0.03457055855867032 0 -0.0023364296591553042 -0.034363594785551781 0 -0.0023477765008003823 -0.034418924477265883 0 -0.002363480574849005 -0.03457055855867032 0 -0.0023655728603144662 -0.034582153014155508 0 -0.0023364296591553042 -0.034363594785551781 0 -0.002363480574849005 -0.03457055855867032 0 -0.0023655728603144662 -0.034582153014155508 0 -0.0023951436603232186 -0.034753866281764592 0 -0.0019864815307017126 -0.035757650327982844 0 -0.002391498668611968 -0.03429140668556846 0 -0.0024377094830332459 -0.034754034415907228 0 -0.0023655728603144662 -0.034582153014155508 0 -0.0023951436603232186 -0.034753866281764592 0 -0.00246200365928339 -0.034722469141814913 0 -0.0024377094830332459 -0.034754034415907228 0 -0.0023655728603144662 -0.034582153014155508 0 -0.0022652682738144247 -0.034212490855269624 0 -0.0022882099348543734 -0.034188485068697892 0 -0.0022789379110672563 -0.034212792306478654 0 -0.0022882099348543734 -0.034188485068697892 0 -0.0022789379110672563 -0.034212792306478654 0 -0.0023036652552337095 -0.034194607425622692 0 -0.0022882099348543734 -0.034188485068697892 0 -0.0023036652552337095 -0.034194607425622692 0 -0.0023278645197762999 -0.034159680480730592 0 -0.0023036652552337095 -0.034194607425622692 0 -0.0023401592641287502 -0.034185815579904001 0 -0.0023278645197762999 -0.034159680480730592 0 -0.0023401592641287502 -0.034185815579904001 0 -0.0023895879704030109 -0.034140147196283936 0 -0.0023278645197762999 -0.034159680480730592 0 -0.0017020502102675001 -0.028485877803096919 0 -0.0020763237484046544 -0.028414440579207247 0 -0.0022075692565104187 -0.028254036605862554 0 -0.0023401592641287502 -0.034185815579904001 0 -0.0023895879704030109 -0.034140147196283936 0 -0.0024065249445643999 -0.034137874272812486 0 -0.0022573371086578686 -0.030926562592571028 0 -0.0022194743638362618 -0.031269401666992554 0 -0.0021072737011123672 -0.028560385903245274 0 -0.0017020502102675001 -0.028485877803096919 0 -0.0020763237484046544 -0.028414440579207247 0 -0.0021072737011123672 -0.028560385903245274 0 -0.0020763237484046544 -0.028414440579207247 0 -0.0022383522846217297 -0.028359633883505691 0 -0.0020763237484046544 -0.028414440579207247 0 -0.0022075692565104187 -0.028254036605862554 0 -0.0022383522846217297 -0.028359633883505691 0 -0.0023895879704030109 -0.034140147196283936 0 -0.002372964287040424 -0.034171818950030936 0 -0.0023364296591553042 -0.034363594785551781 0 -0.002372964287040424 -0.034171818950030936 0 -0.0023802923381270316 -0.034116531105017361 0 -0.0023590782821693436 -0.034220926976501378 0 -0.002372964287040424 -0.034171818950030936 0 -0.0023971597347182275 -0.034028628296058329 0 -0.0023802923381270316 -0.034116531105017361 0 -0.002372964287040424 -0.034171818950030936 0 -0.0023869371181695865 -0.034119350544564983 0 -0.0023971597347182275 -0.034028628296058329 0 -0.0024065249445643999 -0.034137874272812486 0 -0.0023869371181695865 -0.034119350544564983 0 -0.0023971597347182275 -0.034028628296058329 0 -0.0023895879704030109 -0.034140147196283936 0 -0.002372964287040424 -0.034171818950030936 0 -0.0023869371181695865 -0.034119350544564983 0 -0.0023895879704030109 -0.034140147196283936 0 -0.0024065249445643999 -0.034137874272812486 0 -0.0023869371181695865 -0.034119350544564983 0 -0.0023802923381270316 -0.034116531105017361 0 -0.0024089964116481635 -0.033983756778181294 0 -0.0023757991126157228 -0.03414619578522092 0 -0.0023971597347182275 -0.034028628296058329 0 -0.0023802923381270316 -0.034116531105017361 0 -0.0024089964116481635 -0.033983756778181294 0 -0.0023802923381270316 -0.034116531105017361 0 -0.0023590782821693436 -0.034220926976501378 0 -0.0023757991126157228 -0.03414619578522092 0 -0.0023757991126157228 -0.03414619578522092 0 -0.0023556809312850276 -0.034232117193381199 0 -0.0023538059422089802 -0.03423728752439803 0 -0.0023590782821693436 -0.034220926976501378 0 -0.0023757991126157228 -0.03414619578522092 0 -0.0023556809312850276 -0.034232117193381199 0 -0.002372964287040424 -0.034171818950030936 0 -0.0023590782821693436 -0.034220926976501378 0 -0.0023364296591553042 -0.034363594785551781 0 -0.0023779939171750344 -0.034168832843644428 0 -0.0023082195326083986 -0.034265917150892687 0 -0.0023556809312850276 -0.034232117193381199 0 -0.0023466812964662753 -0.034308750686214196 0 -0.0023456607541264959 -0.034316493932843153 0 -0.0023590782821693436 -0.034220926976501378 0 -0.0023556809312850276 -0.034232117193381199 0 -0.0023466812964662753 -0.034308750686214196 0 -0.0023590782821693436 -0.034220926976501378 0 -0.0023466812964662753 -0.034308750686214196 0 -0.0023364296591553042 -0.034363594785551781 0 -0.0023466812964662753 -0.034308750686214196 0 -0.0023477765008003823 -0.034418924477265883 0 -0.0023456607541264959 -0.034316493932843153 0 -0.0023466812964662753 -0.034308750686214196 0 -0.0023364296591553042 -0.034363594785551781 0 -0.0023477765008003823 -0.034418924477265883 0 -0.0023477765008003823 -0.034418924477265883 0 -0.0023456607541264959 -0.034316493932843153 0 -0.0023487548874254103 -0.034426180317980913 0 -0.0023456607541264959 -0.034316493932843153 0 -0.0023434408966873732 -0.034308668928294039 0 -0.0023487548874254103 -0.034426180317980913 0 -0.0023556809312850276 -0.034232117193381199 0 -0.0023538059422089802 -0.03423728752439803 0 -0.0023456607541264959 -0.034316493932843153 0 -0.0023538059422089802 -0.03423728752439803 0 -0.0023456607541264959 -0.034316493932843153 0 -0.0023434408966873732 -0.034308668928294039 0 -0.0023538059422089802 -0.03423728752439803 0 -0.0023434408966873732 -0.034308668928294039 0 -0.0023556211578746392 -0.034232800426145897 0 -0.0023434408966873732 -0.034308668928294039 0 -0.0023504896694647799 -0.034241511636945429 0 -0.0023556211578746392 -0.034232800426145897 0 -0.0023434408966873732 -0.034308668928294039 0 -0.0023292689070374276 -0.034366897723415675 0 -0.0023504896694647799 -0.034241511636945429 0 -0.0023434408966873732 -0.034308668928294039 0 -0.0023487548874254103 -0.034426180317980913 0 -0.0023292689070374276 -0.034366897723415675 0 -0.0023701740701880464 -0.034564742109416326 0 -0.0023487548874254103 -0.034426180317980913 0 -0.0023292689070374276 -0.034366897723415675 0 -0.0023701740701880464 -0.034564742109416326 0 -0.0022631575189919211 -0.03450981534798217 0 -0.0024113955317010246 -0.034843029850664065 0 -0.0023701740701880464 -0.034564742109416326 0 -0.0023292689070374276 -0.034366897723415675 0 -0.0022894281392224301 -0.034398343815388546 0 -0.0023292689070374276 -0.034366897723415675 0 -0.0023242629510413317 -0.034300572377147211 0 -0.0023504896694647799 -0.034241511636945429 0 -0.0023292689070374276 -0.034366897723415675 0 -0.0023242629510413317 -0.034300572377147211 0 -0.0022894281392224301 -0.034398343815388546 0 -0.0023701740701880464 -0.034564742109416326 0 -0.0022894281392224301 -0.034398343815388546 0 -0.0022631575189919211 -0.03450981534798217 0 -0.0023242629510413317 -0.034300572377147211 0 -0.0022894281392224301 -0.034398343815388546 0 -0.0022865371730518675 -0.034336166076120861 0 -0.0020935175167764658 -0.035412932164453577 0 -0.0013707895816095414 -0.037306374724098444 0 -0.003778157686500585 -0.034110337046612184 0 -0.0026031912943042051 -0.033805627557147007 0 -0.0030612208381870032 -0.034424674315860472 0 -0.0013707895816095414 -0.037306374724098444 0 -0.0030728459792087816 -0.033243067208096173 0 -0.0022865371730518675 -0.034336166076120861 0 -0.002399554045217822 -0.034134757584074554 0 -0.0026031912943042051 -0.033805627557147007 0 -0.0023242629510413317 -0.034300572377147211 0 -0.0022865371730518675 -0.034336166076120861 0 -0.002399554045217822 -0.034134757584074554 0 -0.0023242629510413317 -0.034300572377147211 0 -0.002399554045217822 -0.034134757584074554 0 -0.0023504896694647799 -0.034241511636945429 0 -0.002399554045217822 -0.034134757584074554 0 -0.0024011465138252743 -0.034092730465092973 0 -0.0026031912943042051 -0.033805627557147007 0 -0.002399554045217822 -0.034134757584074554 0 -0.0024011465138252743 -0.034092730465092973 0 -0.0023504896694647799 -0.034241511636945429 0 -0.0024011465138252743 -0.034092730465092973 0 -0.0023504896694647799 -0.034241511636945429 0 -0.0023556211578746392 -0.034232800426145897 0 -0.0023757991126157228 -0.03414619578522092 0 -0.0023538059422089802 -0.03423728752439803 0 -0.0024011465138252743 -0.034092730465092973 0 -0.0023538059422089802 -0.03423728752439803 0 -0.0024011465138252743 -0.034092730465092973 0 -0.0023556211578746392 -0.034232800426145897 0 -0.0024089964116481635 -0.033983756778181294 0 -0.0023757991126157228 -0.03414619578522092 0 -0.0024011465138252743 -0.034092730465092973 0 -0.0024553508403402165 -0.033785071838534998 0 -0.0026031912943042051 -0.033805627557147007 0 -0.0021482998042868596 -0.033561895630299619 0 -0.0024089964116481635 -0.033983756778181294 0 -0.0024553508403402165 -0.033785071838534998 0 -0.0023578199250733674 -0.033628018280267361 0 -0.0024089964116481635 -0.033983756778181294 0 -0.0024011465138252743 -0.034092730465092973 0 -0.0024553508403402165 -0.033785071838534998 0 -0.0024011465138252743 -0.034092730465092973 0 -0.0024553508403402165 -0.033785071838534998 0 -0.0026031912943042051 -0.033805627557147007 0 -0.0026031912943042051 -0.033805627557147007 0 -0.0021482998042868596 -0.033561895630299619 0 -0.0021489626873256095 -0.034286663977930246 0 -0.0021482998042868596 -0.033561895630299619 0 -0.0021489626873256095 -0.034286663977930246 0 -0.0014130114886764815 -0.033493337841243746 0 -0.0024553508403402165 -0.033785071838534998 0 -0.0021482998042868596 -0.033561895630299619 0 -0.0023578199250733674 -0.033628018280267361 0 -0.0023303031133022067 -0.031140984106663196 0 -0.0015655035441703388 -0.031664301878336111 0 -0.0021482998042868596 -0.033561895630299619 0 -0.0023578199250733674 -0.033628018280267361 0 -0.0016314281255566396 -0.033121889132762677 0 -0.0018525355925209899 -0.028117157119361198 0 -0.0023987714567314999 -0.02857383433832952 0 -0.0017782123907317377 -0.03004799205995411 0 -0.0018525355925209899 -0.028117157119361198 0 -0.0023987714567314999 -0.02857383433832952 0 -0.0023065742807774265 -0.028309422583575338 0 -0.0022194743638362618 -0.031269401666992554 0 -0.0023303031133022067 -0.031140984106663196 0 -0.0022075692565104187 -0.028254036605862554 0 -0.0023987714567314999 -0.02857383433832952 0 -0.0023065742807774265 -0.028309422583575338 0 -0.0024065249445643999 -0.034137874272812486 0 -0.0023971597347182275 -0.034028628296058329 0 -0.0023578199250733674 -0.033628018280267361 0 -0.0023971597347182275 -0.034028628296058329 0 -0.0024089964116481635 -0.033983756778181294 0 -0.0023578199250733674 -0.033628018280267361 0 -0.0021072737011123672 -0.028560385903245274 0 -0.0022383522846217297 -0.028359633883505691 0 -0.0023674334894406919 -0.028364806661656899 0 -0.0022075692565104187 -0.028254036605862554 0 -0.0023065742807774265 -0.028309422583575338 0 -0.0022383522846217297 -0.028359633883505691 0 -0.0023065742807774265 -0.028309422583575338 0 -0.0022383522846217297 -0.028359633883505691 0 -0.0023674334894406919 -0.028364806661656899 0 -0.0018525355925209899 -0.028117157119361198 0 -0.0023065742807774265 -0.028309422583575338 0 -0.0023674334894406919 -0.028364806661656899 0 -0.0017615862506782042 -0.028063611934081478 0 -0.001677563208519871 -0.027570610879179541 0 -0.0018525355925209899 -0.028117157119361198 0 -0.001228314034058937 -0.026328717849442053 0 -0.0011806626884250998 -0.02659364434801886 0 -0.0018856844490610328 -0.037405387080443268 0 -0.003332072039035499 -0.036952205179152459 0 -0.002208835727761082 -0.039459354507525905 0 -0.0024094286904660671 -0.039764305128275126 0 -0.0022544421836631517 -0.039586684273088417 0 -0.003332072039035499 -0.036952205179152459 0 -0.0020718080625028606 -0.036005267680061313 0 -0.0026966721855556934 -0.03513918527892234 0 -0.0018856844490610328 -0.037405387080443268 0 -0.003332072039035499 -0.036952205179152459 0 -0.0020718080625028606 -0.036005267680061313 0 -0.0020718080625028606 -0.036005267680061313 0 -0.0021489626873256095 -0.034286663977930246 0 -0.0026966721855556934 -0.03513918527892234 0 -0.0026031912943042051 -0.033805627557147007 0 -0.0021489626873256095 -0.034286663977930246 0 -0.0030612208381870032 -0.034424674315860472 0 -0.0021489626873256095 -0.034286663977930246 0 -0.0026966721855556934 -0.03513918527892234 0 -0.0030612208381870032 -0.034424674315860472 0 -0.003332072039035499 -0.036952205179152459 0 -0.0026966721855556934 -0.03513918527892234 0 -0.0035554834175229558 -0.035290438737822054 0 -0.0026966721855556934 -0.03513918527892234 0 -0.0035554834175229558 -0.035290438737822054 0 -0.0030612208381870032 -0.034424674315860472 0 -0.0013707895816095414 -0.037306374724098444 0 -0.0020471182274259736 -0.040371571105253024 0 -0.003778157686500585 -0.034110337046612184 0 -0.0035554834175229558 -0.035290438737822054 0 -0.0030612208381870032 -0.034424674315860472 0 0.00010314504435244286 -0.045225769234474626 0 0.00032815908817945784 -0.04468066051061606 0 0.00082618451848557564 -0.044810283096607846 0 -0.0013707895816095414 -0.037306374724098444 0 -0.00089318614488777877 -0.040067785862826825 0 0.00010314504435244286 -0.045225769234474626 0 -0.00052111488383197705 -0.044476094288037664 0 0.00032815908817945784 -0.04468066051061606 0 0.00032815908817945784 -0.04468066051061606 0 0.00054085763490067972 -0.04425772191682284 0 0.00093125480021821782 -0.044389200037009552 0 -0.00052111488383197705 -0.044476094288037664 0 0.00032815908817945784 -0.04468066051061606 0 0.00054085763490067972 -0.04425772191682284 0 0.00054085763490067972 -0.04425772191682284 0 0.0003630486149277058 -0.043497469417793304 0 0.0011414737674697326 -0.04414065774770598 0 -0.00052111488383197705 -0.044476094288037664 0 0.00054085763490067972 -0.04425772191682284 0 0.0003630486149277058 -0.043497469417793304 0 -0.0024094286904660671 -0.039764305128275126 0 -0.0020471182274259736 -0.040371571105253024 0 -0.0016000862472338642 -0.042832565680182004 0 -0.00052111488383197705 -0.044476094288037664 0 0.0003630486149277058 -0.043497469417793304 0 -0.0016000862472338642 -0.042832565680182004 0 0.0003630486149277058 -0.043497469417793304 0 -8.1309591657164969e-05 -0.041827588970992056 0 -0.0016000862472338642 -0.042832565680182004 0 -8.1309591657164969e-05 -0.041827588970992056 0 -0.0011279270786660211 -0.040875036275438134 0 0.0003630486149277058 -0.043497469417793304 0 0.00075268327278049175 -0.042199301162441416 0 -8.1309591657164969e-05 -0.041827588970992056 0 0.0003630486149277058 -0.043497469417793304 0 0.0015893071184187801 -0.044151822910475147 0 0.00075268327278049175 -0.042199301162441416 0 0.0015893071184187801 -0.044151822910475147 0 0.00090989139871598549 -0.045487884091653281 0 0.0015413394357880039 -0.046083497863483133 0 0.00090989139871598549 -0.045487884091653281 0 0.0011913541159712362 -0.044321455424988464 0 0.00086087160162241034 -0.044232757284418972 0 0.00076052866941263698 -0.045275227392661439 0 0.0016534156370463457 -0.046670068871718581 0 0.0015893071184187801 -0.044151822910475147 0 0.00090989139871598549 -0.045487884091653281 0 0.0011913541159712362 -0.044321455424988464 0 0.0011913541159712362 -0.044321455424988464 0 0.0011124797755545943 -0.044227675066873313 0 0.00086087160162241034 -0.044232757284418972 0 0.0011913541159712362 -0.044321455424988464 0 0.0011124797755545943 -0.044227675066873313 0 0.0011414737674697326 -0.04414065774770598 0 0.0003630486149277058 -0.043497469417793304 0 0.0015893071184187801 -0.044151822910475147 0 0.0011414737674697326 -0.04414065774770598 0 0.0015893071184187801 -0.044151822910475147 0 0.0011913541159712362 -0.044321455424988464 0 0.0011414737674697326 -0.04414065774770598 0 0.00054085763490067972 -0.04425772191682284 0 0.0011414737674697326 -0.04414065774770598 0 0.00093125480021821782 -0.044389200037009552 0 0.0011124797755545943 -0.044227675066873313 0 0.0011414737674697326 -0.04414065774770598 0 0.00093125480021821782 -0.044389200037009552 0 0.00032815908817945784 -0.04468066051061606 0 0.00093125480021821782 -0.044389200037009552 0 0.00082618451848557564 -0.044810283096607846 0 0.00093125480021821782 -0.044389200037009552 0 0.00082618451848557564 -0.044810283096607846 0 0.0010990336099449521 -0.044316274058480952 0 -0.00089318614488777877 -0.040067785862826825 0 -0.00070113605958081694 -0.039541492305160839 0 -0.0024113955317010246 -0.034843029850664065 0 -0.0024897567180141847 -0.03492092921824258 0 -0.0024718909035910588 -0.034912549171380133 0 0.0011124797755545943 -0.044227675066873313 0 0.0010990336099449521 -0.044316274058480952 0 0.00086087160162241034 -0.044232757284418972 0 0.0011124797755545943 -0.044227675066873313 0 0.00093125480021821782 -0.044389200037009552 0 0.0010990336099449521 -0.044316274058480952 0 0.0010990336099449521 -0.044316274058480952 0 0.00095357931044959298 -0.04424358810961012 0 0.00086087160162241034 -0.044232757284418972 0 -0.00070113605958081694 -0.039541492305160839 0 -0.00037586882641865396 -0.040233027660037723 0 -0.0024897567180141847 -0.03492092921824258 0 -0.0024718909035910588 -0.034912549171380133 0 -0.0024156922562996249 -0.035042305443135517 0 -0.0024897567180141847 -0.03492092921824258 0 -0.0024156922562996249 -0.035042305443135517 0 -0.0022713416156251399 -0.034745649114209014 0 -0.0024156922562996249 -0.035042305443135517 0 -0.0019572359908744895 -0.034939513909731108 0 -0.0022713416156251399 -0.034745649114209014 0 -0.0019489006675315979 -0.034577264997172161 0 -0.00037586882641865396 -0.040233027660037723 0 -0.00099653923893393477 -0.035982592134605765 0 -0.0011099299619949017 -0.035823911019477656 0 -0.0009468955774691181 -0.035730538486497716 0 -0.00037586882641865396 -0.040233027660037723 0 0.00027571828439205075 -0.041181716157224227 0 0.0013077062141320533 -0.04740493368098915 0 0.00072610720577826859 -0.046930459319704222 0 0.0006317162408307625 -0.048358946895094415 0 0.0013243611238482264 -0.046870786163374742 0 0.0013077062141320533 -0.04740493368098915 0 0.00072610720577826859 -0.046930459319704222 0 -0.00037586882641865396 -0.040233027660037723 0 0.0016534156370463457 -0.046670068871718581 0 0.0013077062141320533 -0.04740493368098915 0 0.0013192718431815709 -0.047284577464809963 0 0.0014029871831728652 -0.047035747378105987 0 0.0013243611238482264 -0.046870786163374742 0 0.0013077062141320533 -0.04740493368098915 0 0.0013192718431815709 -0.047284577464809963 0 0.00090989139871598549 -0.045487884091653281 0 0.0014029871831728652 -0.047035747378105987 0 0.0011005096368106558 -0.046276107608348126 0 0.00090989139871598549 -0.045487884091653281 0 0.0013192718431815709 -0.047284577464809963 0 0.0014029871831728652 -0.047035747378105987 0 0.0014029871831728652 -0.047035747378105987 0 0.0013239090495183931 -0.046885052911300205 0 0.0011005096368106558 -0.046276107608348126 0 0.0014029871831728652 -0.047035747378105987 0 0.0013239090495183931 -0.046885052911300205 0 0.0015096595183509665 -0.047586475068163742 0 0.0013239090495183931 -0.046885052911300205 0 0.0015096595183509665 -0.047586475068163742 0 0.0015123744115068294 -0.046525306495098007 0 0.0014029871831728652 -0.047035747378105987 0 0.0015096595183509665 -0.047586475068163742 0 0.0012292161340711704 -0.047785238825891106 0 0.00087489693002871757 -0.048618017295332668 0 0.0012292161340711704 -0.047785238825891106 0 0.0006317162408307625 -0.048358946895094415 0 0.0015096595183509665 -0.047586475068163742 0 0.00087489693002871757 -0.048618017295332668 0 0.0012292161340711704 -0.047785238825891106 0 0.0013077062141320533 -0.04740493368098915 0 0.0012292161340711704 -0.047785238825891106 0 0.0006317162408307625 -0.048358946895094415 0 0.0013077062141320533 -0.04740493368098915 0 0.0014029871831728652 -0.047035747378105987 0 0.0012292161340711704 -0.047785238825891106 0 0.0015096595183509665 -0.047586475068163742 0 0.0015123744115068294 -0.046525306495098007 0 0.0034680908215659668 -0.044844421734791536 0 0.0015598172136129147 -0.047667623301072097 0 0.0019830849382322462 -0.04778860928075223 0 0.0015096595183509665 -0.047586475068163742 0 0.00087489693002871757 -0.048618017295332668 0 0.00067863413602656394 -0.050494840128937062 0 0.0015123744115068294 -0.046525306495098007 0 0.0020550680694738093 -0.044745981542978035 0 0.0034680908215659668 -0.044844421734791536 0 0.0015123744115068294 -0.046525306495098007 0 0.00071058993796513977 -0.044453332583745689 0 0.0020550680694738093 -0.044745981542978035 0 0.0013239090495183931 -0.046885052911300205 0 0.0015123744115068294 -0.046525306495098007 0 0.0011005096368106558 -0.046276107608348126 0 0.0013677864773987915 -0.046304474708824692 0 4.4128225944424386e-05 -0.045528530695317981 0 0.0015123744115068294 -0.046525306495098007 0 0.0011005096368106558 -0.046276107608348126 0 0.0010101346615755482 -0.046083810041331101 0 0.0015123744115068294 -0.046525306495098007 0 0.00071058993796513977 -0.044453332583745689 0 -0.0012749373811236139 -0.044123385793462373 0 0.00071058993796513977 -0.044453332583745689 0 6.9072340988708344e-05 -0.042974518948044875 0 -0.0012749373811236139 -0.044123385793462373 0 0.00071058993796513977 -0.044453332583745689 0 6.9072340988708344e-05 -0.042974518948044875 0 0.0014792379361412817 -0.043487845826100102 0 6.9072340988708344e-05 -0.042974518948044875 0 0.0014792379361412817 -0.043487845826100102 0 0.0016278428291030896 -0.042163724973058508 0 0.0014792379361412817 -0.043487845826100102 0 0.0029241931854628281 -0.043128758373914264 0 0.0016278428291030896 -0.042163724973058508 0 0.00071058993796513977 -0.044453332583745689 0 0.0014792379361412817 -0.043487845826100102 0 0.0020550680694738093 -0.044745981542978035 0 0.0020550680694738093 -0.044745981542978035 0 0.0029241931854628281 -0.043128758373914264 0 0.0034680908215659668 -0.044844421734791536 0 0.0014792379361412817 -0.043487845826100102 0 0.0020550680694738093 -0.044745981542978035 0 0.0029241931854628281 -0.043128758373914264 0 0.0029241931854628281 -0.043128758373914264 0 0.0016278428291030896 -0.042163724973058508 0 0.0030061379483799252 -0.041845200474409434 0 0.0016278428291030896 -0.042163724973058508 0 0.0024674929029083323 -0.040682764250005124 0 0.0009691127225651511 -0.040607109443867299 0 0.0016278428291030896 -0.042163724973058508 0 0.0024674929029083323 -0.040682764250005124 0 0.0030061379483799252 -0.041845200474409434 0 0.0024674929029083323 -0.040682764250005124 0 0.0036098981296889552 -0.039032300881558665 0 0.001403827753160266 -0.038792440344765776 0 0.0024674929029083323 -0.040682764250005124 0 0.0009691127225651511 -0.040607109443867299 0 0.001403827753160266 -0.038792440344765776 0 -0.00043304435027048948 -0.039862073961516066 0 0.0009691127225651511 -0.040607109443867299 0 0.001403827753160266 -0.038792440344765776 0 -0.00043304435027048948 -0.039862073961516066 0 0.0009691127225651511 -0.040607109443867299 0 0.00010896730691313663 -0.041471688550005589 0 -0.00043304435027048948 -0.039862073961516066 0 0.00010896730691313663 -0.041471688550005589 0 -0.0016838733931220779 -0.041751418292345542 0 0.0016278428291030896 -0.042163724973058508 0 0.0009691127225651511 -0.040607109443867299 0 0.00010896730691313663 -0.041471688550005589 0 6.9072340988708344e-05 -0.042974518948044875 0 0.0016278428291030896 -0.042163724973058508 0 0.00010896730691313663 -0.041471688550005589 0 6.9072340988708344e-05 -0.042974518948044875 0 0.00010896730691313663 -0.041471688550005589 0 -0.0016838733931220779 -0.041751418292345542 0 -0.0016838733931220779 -0.041751418292345542 0 -0.0039842674018015596 -0.041968270068584418 0 -0.0012749373811236139 -0.044123385793462373 0 -0.00043304435027048948 -0.039862073961516066 0 -0.0026326276160711795 -0.040451878308568827 0 -0.0024504359368281818 -0.038783433465743429 0 -0.00043304435027048948 -0.039862073961516066 0 -0.0016838733931220779 -0.041751418292345542 0 -0.0026326276160711795 -0.040451878308568827 0 -0.0026326276160711795 -0.040451878308568827 0 -0.0043050725995643756 -0.040065649297177569 0 -0.0024504359368281818 -0.038783433465743429 0 -0.0026326276160711795 -0.040451878308568827 0 -0.0039842674018015596 -0.041968270068584418 0 -0.0043050725995643756 -0.040065649297177569 0 -0.0043050725995643756 -0.040065649297177569 0 -0.0024504359368281818 -0.038783433465743429 0 -0.0045475313375692543 -0.038104550249185284 0 -0.0014470800692048275 -0.042130961234425932 0 -0.0042431951138608478 -0.039572230541121758 0 -0.0016838733931220779 -0.041751418292345542 0 -0.0026326276160711795 -0.040451878308568827 0 -0.0039842674018015596 -0.041968270068584418 0 -0.0014470800692048275 -0.042130961234425932 0 4.4128225944424386e-05 -0.045528530695317981 0 0.0015568373836041638 -0.046477604575327056 0 0.0010101346615755482 -0.046083810041331101 0 0.0015413394357880039 -0.046083497863483133 0 0.00079776200464276505 -0.038967976107870235 0 0.0015426216655732472 -0.04085939361278481 0 0.00039285095601247988 -0.040092926477378839 0 -0.0014470800692048275 -0.042130961234425932 0 0.0018181157376054855 -0.04366230876800406 0 6.9072340988708344e-05 -0.042974518948044875 0 -0.0016838733931220779 -0.041751418292345542 0 -0.0012749373811236139 -0.044123385793462373 0 0.0011005096368106558 -0.046276107608348126 0 0.0010101346615755482 -0.046083810041331101 0 0.0010080635043154325 -0.046032385487098308 0 0.00090989139871598549 -0.045487884091653281 0 0.0010080635043154325 -0.046032385487098308 0 0.0015413394357880039 -0.046083497863483133 0 0.0010101346615755482 -0.046083810041331101 0 0.0010080635043154325 -0.046032385487098308 0 0.0015413394357880039 -0.046083497863483133 0 0.00090989139871598549 -0.045487884091653281 0 0.0011005096368106558 -0.046276107608348126 0 0.0010080635043154325 -0.046032385487098308 0 0.0015893071184187801 -0.044151822910475147 0 0.0015426216655732472 -0.04085939361278481 0 0.00075268327278049175 -0.042199301162441416 0 0.0015168623916942594 -0.043954408948239904 0 0.0018181157376054855 -0.04366230876800406 0 0.0015426216655732472 -0.04085939361278481 0 0.00075268327278049175 -0.042199301162441416 0 0.00039285095601247988 -0.040092926477378839 0 0.00075268327278049175 -0.042199301162441416 0 -8.1309591657164969e-05 -0.041827588970992056 0 0.00039285095601247988 -0.040092926477378839 0 -8.1309591657164969e-05 -0.041827588970992056 0 -0.00076940574737778544 -0.039747383154666409 0 0.00039285095601247988 -0.040092926477378839 0 -8.1309591657164969e-05 -0.041827588970992056 0 -0.0011279270786660211 -0.040875036275438134 0 -0.00076940574737778544 -0.039747383154666409 0 -0.00076940574737778544 -0.039747383154666409 0 0.00039285095601247988 -0.040092926477378839 0 -0.00032974468806992431 -0.039159667019728714 0 0.00079776200464276505 -0.038967976107870235 0 0.00039285095601247988 -0.040092926477378839 0 -0.00032974468806992431 -0.039159667019728714 0 -0.0014470800692048275 -0.042130961234425932 0 -0.0033541782125720231 -0.038678662528410256 0 0.00079776200464276505 -0.038967976107870235 0 -0.00032974468806992431 -0.039159667019728714 0 -0.00057865611046017083 -0.038482909947404179 0 -0.0042495254294287379 -0.039511101067680084 0 -0.0057454677548395804 -0.039637413778439504 0 -0.0045475313375692543 -0.038104550249185284 0 -0.0039453926141000857 -0.040979828851559021 0 -0.0042495254294287379 -0.039511101067680084 0 -0.0057454677548395804 -0.039637413778439504 0 -0.0042431951138608478 -0.039572230541121758 0 -0.0045062235494352657 -0.038401049260560038 0 -0.00057865611046017083 -0.038482909947404179 0 -0.0012740856612741428 -0.038676716310311048 0 -0.0012738931886323984 -0.038497479504280063 0 -0.0033541782125720231 -0.038678662528410256 0 -0.0040149763057823603 -0.039130257337676139 0 -0.00057865611046017083 -0.038482909947404179 0 -0.0012616284297319665 -0.038982230760106061 0 -0.0012740856612741428 -0.038676716310311048 0 -0.00032974468806992431 -0.039159667019728714 0 -0.00057865611046017083 -0.038482909947404179 0 -0.0012616284297319665 -0.038982230760106061 0 -0.00076940574737778544 -0.039747383154666409 0 -0.00032974468806992431 -0.039159667019728714 0 -0.0012616284297319665 -0.038982230760106061 0 -0.0012616284297319665 -0.038982230760106061 0 -0.001479002102429787 -0.038767356701130344 0 -0.0016770705586834651 -0.03905659601051089 0 -0.0012616284297319665 -0.038982230760106061 0 -0.0012740856612741428 -0.038676716310311048 0 -0.001479002102429787 -0.038767356701130344 0 -0.0012740856612741428 -0.038676716310311048 0 -0.0014003060813640891 -0.038631554739275896 0 -0.0012738931886323984 -0.038497479504280063 0 -0.0012740856612741428 -0.038676716310311048 0 -0.0014003060813640891 -0.038631554739275896 0 -0.001479002102429787 -0.038767356701130344 0 -0.001479002102429787 -0.038767356701130344 0 -0.0013966365942482701 -0.038868270664492166 0 -0.0013908076845894747 -0.038744892850374267 0 -0.001479002102429787 -0.038767356701130344 0 -0.0014386400810173837 -0.03867521825210378 0 -0.0013908076845894747 -0.038744892850374267 0 -0.0014003060813640891 -0.038631554739275896 0 -0.001479002102429787 -0.038767356701130344 0 -0.0014386400810173837 -0.03867521825210378 0 -0.001479002102429787 -0.038767356701130344 0 -0.0016770705586834651 -0.03905659601051089 0 -0.0013966365942482701 -0.038868270664492166 0 -0.0016770705586834651 -0.03905659601051089 0 -0.002208835727761082 -0.039459354507525905 0 -0.0013415926367189098 -0.038873228143490791 0 -0.0012616284297319665 -0.038982230760106061 0 -0.0016770705586834651 -0.03905659601051089 0 -0.002208835727761082 -0.039459354507525905 0 -0.00076940574737778544 -0.039747383154666409 0 -0.0012616284297319665 -0.038982230760106061 0 -0.002208835727761082 -0.039459354507525905 0 -0.0016000862472338642 -0.042832565680182004 0 -0.0011279270786660211 -0.040875036275438134 0 -0.002208835727761082 -0.039459354507525905 0 -0.0011279270786660211 -0.040875036275438134 0 -0.00076940574737778544 -0.039747383154666409 0 -0.002208835727761082 -0.039459354507525905 0 -0.0018856844490610328 -0.037405387080443268 0 -0.002208835727761082 -0.039459354507525905 0 -0.00117082065665989 -0.038051861998114223 0 0.00010086207018538155 -0.052956769380317278 0 -9.8325400757355555e-05 -0.05292679781509145 0 0.00011162530819573727 -0.05284848153287916 0 0.00010086207018538155 -0.052956769380317278 0 -9.8325400757355555e-05 -0.05292679781509145 0 4.8081493311635515e-05 -0.053190086049059476 0 -9.8325400757355555e-05 -0.05292679781509145 0 -0.00014630555359320728 -0.052315742515617505 0 -0.00070291276212031616 -0.052839277155501643 0 -9.8325400757355555e-05 -0.05292679781509145 0 -0.00014630555359320728 -0.052315742515617505 0 0.00011162530819573727 -0.05284848153287916 0 -0.00014630555359320728 -0.052315742515617505 0 0.00016898649176702387 -0.05286156621915615 0 0.00017782439787162392 -0.052484405641245291 0 -0.00014630555359320728 -0.052315742515617505 0 0.00016898649176702387 -0.05286156621915615 0 0.00011162530819573727 -0.05284848153287916 0 0.00010086207018538155 -0.052956769380317278 0 0.00011162530819573727 -0.05284848153287916 0 0.00010902277418888172 -0.053336823276673571 0 0.00016898649176702387 -0.05286156621915615 0 0.00011162530819573727 -0.05284848153287916 0 0.00010902277418888172 -0.053336823276673571 0 -2.4313097152077188e-05 -0.054020829145616289 0 -0.000177130778630959 -0.05412907392903607 0 -6.8074375147479324e-06 -0.05476638706847959 0 -0.00013251508841105789 -0.055050901022308321 0 -0.00020816174634481112 -0.054136692014584598 0 0.00010902277418888172 -0.053336823276673571 0 6.9557968163811896e-05 -0.052943088016022884 0 -0.00020816174634481112 -0.054136692014584598 0 -6.8074375147479324e-06 -0.05476638706847959 0 1.259362557054823e-07 -0.054999974788999602 0 -5.865313207845532e-08 -0.054998811035555199 0 -6.8074375147479324e-06 -0.05476638706847959 0 -5.865313207845532e-08 -0.054998811035555199 0 -0.00020816174634481112 -0.054136692014584598 0 1.259362557054823e-07 -0.054999974788999602 0 -0.00013251508841105789 -0.055050901022308321 0 -2.5851336386373645e-05 -0.055034441068046662 0 -6.8074375147479324e-06 -0.05476638706847959 0 1.259362557054823e-07 -0.054999974788999602 0 -0.00013251508841105789 -0.055050901022308321 0 0.00010086207018538155 -0.052956769380317278 0 0.00010902277418888172 -0.053336823276673571 0 6.9557968163811896e-05 -0.052943088016022884 0 0.00010086207018538155 -0.052956769380317278 0 6.9557968163811896e-05 -0.052943088016022884 0 4.8081493311635515e-05 -0.053190086049059476 0 -2.4313097152077188e-05 -0.054020829145616289 0 0.00018587868272267592 -0.054310809427679907 0 6.9557968163811896e-05 -0.052943088016022884 0 0.00037465778902356006 -0.05359219563304659 0 4.8081493311635515e-05 -0.053190086049059476 0 -0.00013251508841105789 -0.055050901022308321 0 -2.5851336386373645e-05 -0.055034441068046662 0 5.6476401211571283e-05 -0.055030665066328227 0 -2.5851336386373645e-05 -0.055034441068046662 0 -8.6215233666915474e-08 -0.055000133912625752 0 5.6476401211571283e-05 -0.055030665066328227 0 1.259362557054823e-07 -0.054999974788999602 0 -2.5851336386373645e-05 -0.055034441068046662 0 -8.6215233666915474e-08 -0.055000133912625752 0 2.4262803451838995e-05 -0.054947878725876316 0 -8.6215233666915474e-08 -0.055000133912625752 0 5.6476401211571283e-05 -0.055030665066328227 0 3.4198443086777498e-08 -0.054999638021230451 0 2.4262803451838995e-05 -0.054947878725876316 0 -8.6215233666915474e-08 -0.055000133912625752 0 0.00037465778902356006 -0.05359219563304659 0 -0.00013619316230065298 -0.05398920041765029 0 4.8081493311635515e-05 -0.053190086049059476 0 0.0001841018706721818 -0.054639093542622613 0 0.00018587868272267592 -0.054310809427679907 0 0.00017008693953934651 -0.054677902865960512 0 0.00037465778902356006 -0.05359219563304659 0 -0.00013619316230065298 -0.05398920041765029 0 0.00017008693953934651 -0.054677902865960512 0 2.4262803451838995e-05 -0.054947878725876316 0 5.6476401211571283e-05 -0.055030665066328227 0 -0.00013619316230065298 -0.05398920041765029 0 4.8081493311635515e-05 -0.053190086049059476 0 -0.00035542888915448921 -0.053422770429215227 0 -0.00035542888915448921 -0.053422770429215227 0 -0.00080005732963521448 -0.053947114386995371 0 -0.00070291276212031616 -0.052839277155501643 0 -9.8325400757355555e-05 -0.05292679781509145 0 4.8081493311635515e-05 -0.053190086049059476 0 -0.00035542888915448921 -0.053422770429215227 0 -9.8325400757355555e-05 -0.05292679781509145 0 -0.00035542888915448921 -0.053422770429215227 0 -0.00070291276212031616 -0.052839277155501643 0 -0.00013619316230065298 -0.05398920041765029 0 -0.00035542888915448921 -0.053422770429215227 0 -0.00080005732963521448 -0.053947114386995371 0 -5.2434748606850961e-05 -0.045270857267864312 0 -0.0011247246292252905 -0.044002385235932563 0 -0.00080005732963521448 -0.053947114386995371 0 -0.0015263114741015443 -0.053266322163296007 0 -0.00070291276212031616 -0.052839277155501643 0 -0.00037739219952856516 -0.036198007868653868 0 0.00053546486601311976 -0.036215839889291078 0 -0.00029391465358035091 -0.035780972531618542 0 -0.0010181756259130899 -0.036152008414450001 0 -0.00099653923893393477 -0.035982592134605765 0 -0.00075821306045713223 -0.035871267185972278 0 -0.0010181756259130899 -0.036152008414450001 0 -0.00037739219952856516 -0.036198007868653868 0 -0.00075821306045713223 -0.035871267185972278 0 -0.00037739219952856516 -0.036198007868653868 0 -0.00029391465358035091 -0.035780972531618542 0 -0.00075821306045713223 -0.035871267185972278 0 -0.0011247246292252905 -0.044002385235932563 0 -0.0011427044258690822 -0.046740179385130268 0 -0.00029391465358035091 -0.035780972531618542 0 -0.00075821306045713223 -0.035871267185972278 0 -0.00074359185360004529 -0.03562820154886738 0 -0.00099653923893393477 -0.035982592134605765 0 -0.00075821306045713223 -0.035871267185972278 0 -0.0009468955774691181 -0.035730538486497716 0 -0.00075821306045713223 -0.035871267185972278 0 -0.0009468955774691181 -0.035730538486497716 0 -0.00074359185360004529 -0.03562820154886738 0 0.00072610720577826859 -0.046930459319704222 0 -0.00037442677930844159 -0.047403570178274505 0 0.0006317162408307625 -0.048358946895094415 0 0.00027571828439205075 -0.041181716157224227 0 -0.0011427044258690822 -0.046740179385130268 0 -0.0011427044258690822 -0.046740179385130268 0 0.00098679462502530954 -0.048912758412734715 0 -7.271799841985832e-05 -0.048968334296805062 0 -0.00025322680941600851 -0.049497397803636066 0 -0.00064041532541618713 -0.049830156861985629 0 -0.0015263114741015443 -0.053266322163296007 0 -0.0025359030296683701 -0.052309878981163939 0 -0.0017772462772992028 -0.052016973994668675 0 -0.0011427044258690822 -0.046740179385130268 0 -0.001381477925596969 -0.051106625740132562 0 -0.00025322680941600851 -0.049497397803636066 0 -0.00077985892071714264 -0.050740661626490588 0 -0.00045520374027210685 -0.050291805884303389 0 -8.1540112835046735e-05 -0.04966523868956204 0 -0.00025322680941600851 -0.049497397803636066 0 -0.00045520374027210685 -0.050291805884303389 0 -7.271799841985832e-05 -0.048968334296805062 0 -0.00025322680941600851 -0.049497397803636066 0 0.0006317162408307625 -0.048358946895094415 0 -8.1540112835046735e-05 -0.04966523868956204 0 -0.00025322680941600851 -0.049497397803636066 0 0.0006317162408307625 -0.048358946895094415 0 -8.1540112835046735e-05 -0.04966523868956204 0 0.0006317162408307625 -0.048358946895094415 0 0.00038089357820950869 -0.049385690516444633 0 0.00087489693002871757 -0.048618017295332668 0 0.0006317162408307625 -0.048358946895094415 0 0.00038089357820950869 -0.049385690516444633 0 -0.00070291276212031616 -0.052839277155501643 0 -0.0017772462772992028 -0.052016973994668675 0 -0.00090618365800417282 -0.051568020683809689 0 -0.00014630555359320728 -0.052315742515617505 0 -0.00070291276212031616 -0.052839277155501643 0 -0.00090618365800417282 -0.051568020683809689 0 -0.0015263114741015443 -0.053266322163296007 0 -0.00070291276212031616 -0.052839277155501643 0 -0.0017772462772992028 -0.052016973994668675 0 -0.001381477925596969 -0.051106625740132562 0 -0.00079587122364528575 -0.051266781712850783 0 -0.00025322680941600851 -0.049497397803636066 0 -0.00064041532541618713 -0.049830156861985629 0 -0.00077985892071714264 -0.050740661626490588 0 -0.00064041532541618713 -0.049830156861985629 0 -0.00090618365800417282 -0.051568020683809689 0 -0.00077985892071714264 -0.050740661626490588 0 -0.00090618365800417282 -0.051568020683809689 0 -0.00080370318801199683 -0.051198266016740684 0 -0.00077985892071714264 -0.050740661626490588 0 -0.00090618365800417282 -0.051568020683809689 0 -0.00056498659865237665 -0.05156375509921645 0 -0.00080370318801199683 -0.051198266016740684 0 -0.00014630555359320728 -0.052315742515617505 0 -0.00090618365800417282 -0.051568020683809689 0 -0.00056498659865237665 -0.05156375509921645 0 -0.00056498659865237665 -0.05156375509921645 0 -0.00076841232514373897 -0.051162806204848942 0 -0.00058630550529226578 -0.051062662172808061 0 -0.00056498659865237665 -0.05156375509921645 0 -0.00058630550529226578 -0.051062662172808061 0 -0.00022998548921941169 -0.051841023591064163 0 -0.00076841232514373897 -0.051162806204848942 0 -0.00080370318801199683 -0.051198266016740684 0 -0.00080717914295783317 -0.050990393277945245 0 -0.00056498659865237665 -0.05156375509921645 0 -0.00076841232514373897 -0.051162806204848942 0 -0.00080370318801199683 -0.051198266016740684 0 -0.00077985892071714264 -0.050740661626490588 0 -0.00071734228843541438 -0.05077785360889206 0 -0.00080717914295783317 -0.050990393277945245 0 -0.00080370318801199683 -0.051198266016740684 0 -0.00077985892071714264 -0.050740661626490588 0 -0.00080717914295783317 -0.050990393277945245 0 -0.00077985892071714264 -0.050740661626490588 0 -0.00071734228843541438 -0.05077785360889206 0 -0.00045520374027210685 -0.050291805884303389 0 -0.00071734228843541438 -0.05077785360889206 0 -0.00084075014877277635 -0.051028887392044274 0 -0.00051554299963695819 -0.050677618914834202 0 -0.00071734228843541438 -0.05077785360889206 0 -0.00080717914295783317 -0.050990393277945245 0 -0.00084075014877277635 -0.051028887392044274 0 -0.00076841232514373897 -0.051162806204848942 0 -0.00080717914295783317 -0.050990393277945245 0 -0.00084075014877277635 -0.051028887392044274 0 0.0002975022851715661 -0.050149163148452899 0 0.002298713816145723 -0.046058121429430124 0 -0.0009706467373402838 -0.050781216594167726 0 -0.00088926399613609879 -0.050815395916407886 0 -0.00095154715559303516 -0.050925688284892433 0 -0.00034433421700775764 -0.050917299640819785 0 0.0002975022851715661 -0.050149163148452899 0 -0.0009706467373402838 -0.050781216594167726 0 -0.00088926399613609879 -0.050815395916407886 0 -0.00051554299963695819 -0.050677618914834202 0 -0.00094659440892509467 -0.050919623894895134 0 -0.00057757057162348738 -0.05075332165157468 0 -0.00088926399613609879 -0.050815395916407886 0 -0.00097762411139017645 -0.0510315427003823 0 -0.00051554299963695819 -0.050677618914834202 0 0.0002975022851715661 -0.050149163148452899 0 -0.00034661357477437286 -0.051627492140663089 0 0.00043619160701041827 -0.051385962169893794 0 0.00058644990094806307 -0.051115411248566944 0 0.00078698399022032902 -0.051670962106218583 0 -0.0009706467373402838 -0.050781216594167726 0 -0.00095154715559303516 -0.050925688284892433 0 -0.0012010713810383716 -0.050825002268954859 0 0.00010026520044687721 -0.051528290271698279 0 0.00043619160701041827 -0.051385962169893794 0 0.00052957899940292484 -0.051702552172156788 0 0.00043619160701041827 -0.051385962169893794 0 0.00052957899940292484 -0.051702552172156788 0 0.00078698399022032902 -0.051670962106218583 0 -0.00076841232514373897 -0.051162806204848942 0 -0.00084075014877277635 -0.051028887392044274 0 -0.00058630550529226578 -0.051062662172808061 0 -0.00094659440892509467 -0.050919623894895134 0 -0.00034661357477437286 -0.051627492140663089 0 0.00087489693002871757 -0.048618017295332668 0 0.00067863413602656394 -0.050494840128937062 0 0.00038089357820950869 -0.049385690516444633 0 -8.1540112835046735e-05 -0.04966523868956204 0 0.00038089357820950869 -0.049385690516444633 0 -0.00011788317241977412 -0.050247581404281684 0 0.00067863413602656394 -0.050494840128937062 0 -0.00011788317241977412 -0.050247581404281684 0 -8.0250044922354992e-05 -0.050759790436829412 0 0.00067863413602656394 -0.050494840128937062 0 0.00038089357820950869 -0.049385690516444633 0 -0.00011788317241977412 -0.050247581404281684 0 -0.00011788317241977412 -0.050247581404281684 0 -0.00051554299963695819 -0.050677618914834202 0 -8.0250044922354992e-05 -0.050759790436829412 0 -8.1540112835046735e-05 -0.04966523868956204 0 -0.00011788317241977412 -0.050247581404281684 0 -0.00045520374027210685 -0.050291805884303389 0 -0.00011788317241977412 -0.050247581404281684 0 -0.00045520374027210685 -0.050291805884303389 0 -0.00051554299963695819 -0.050677618914834202 0 -0.00071734228843541438 -0.05077785360889206 0 -0.00045520374027210685 -0.050291805884303389 0 -0.00051554299963695819 -0.050677618914834202 0 -0.00051554299963695819 -0.050677618914834202 0 -8.0250044922354992e-05 -0.050759790436829412 0 -0.00020760280485488831 -0.051371113453397184 0 -0.00097762411139017645 -0.0510315427003823 0 -0.00051554299963695819 -0.050677618914834202 0 -0.00020760280485488831 -0.051371113453397184 0 0.0029241931854628281 -0.043128758373914264 0 0.0034680908215659668 -0.044844421734791536 0 0.004267283740683258 -0.0421465825292014 0 0.0034680908215659668 -0.044844421734791536 0 0.004267283740683258 -0.0421465825292014 0 0.0052131406726006442 -0.042524221923546379 0 0.0019830849382322462 -0.04778860928075223 0 0.002298713816145723 -0.046058121429430124 0 0.00067863413602656394 -0.050494840128937062 0 -8.0250044922354992e-05 -0.050759790436829412 0 -0.00020760280485488831 -0.051371113453397184 0 0.0036657256382511497 -0.041118366382916584 0 0.0030061379483799252 -0.041845200474409434 0 0.004267283740683258 -0.0421465825292014 0 0.0024674929029083323 -0.040682764250005124 0 0.0036657256382511497 -0.041118366382916584 0 0.0030061379483799252 -0.041845200474409434 0 0.0029241931854628281 -0.043128758373914264 0 0.0030061379483799252 -0.041845200474409434 0 0.004267283740683258 -0.0421465825292014 0 0.0036657256382511497 -0.041118366382916584 0 0.004267283740683258 -0.0421465825292014 0 0.0046929008359946969 -0.041465355708309774 0 0.0046929008359946969 -0.041465355708309774 0 0.0048813536011845723 -0.042299745658119677 0 0.0055101410450396886 -0.041395441369008891 0 0.004267283740683258 -0.0421465825292014 0 0.0046929008359946969 -0.041465355708309774 0 0.0048813536011845723 -0.042299745658119677 0 0.0037447754493174371 -0.04425941118336997 0 0.002298713816145723 -0.046058121429430124 0 0.002298713816145723 -0.046058121429430124 0 0.0040236193542944184 -0.043788623131715054 0 0.0046929008359946969 -0.041465355708309774 0 0.0055101410450396886 -0.041395441369008891 0 0.0050543401661483191 -0.041055686788094466 0 0.0055101410450396886 -0.041395441369008891 0 0.0050543401661483191 -0.041055686788094466 0 0.0053739207135893516 -0.040667226603179008 0 0.0050543401661483191 -0.041055686788094466 0 0.0053739207135893516 -0.040667226603179008 0 0.0047175291462051381 -0.040515886195074034 0 0.0046929008359946969 -0.041465355708309774 0 0.0050543401661483191 -0.041055686788094466 0 0.0047175291462051381 -0.040515886195074034 0 0.0024674929029083323 -0.040682764250005124 0 0.0036657256382511497 -0.041118366382916584 0 0.0036098981296889552 -0.039032300881558665 0 0.0036657256382511497 -0.041118366382916584 0 0.0046929008359946969 -0.041465355708309774 0 0.0036098981296889552 -0.039032300881558665 0 0.0045983774744140157 -0.041295229538542248 0 0.0035887844812475755 -0.039638887108659267 0 0.0046929008359946969 -0.041465355708309774 0 0.0047175291462051381 -0.040515886195074034 0 0.0035898289561227788 -0.040242757134956252 0 0.00010026520044687721 -0.051528290271698279 0 0.00043619160701041827 -0.051385962169893794 0 0.00034138568818409748 -0.050881777534928258 0 0.00043619160701041827 -0.051385962169893794 0 0.00058644990094806307 -0.051115411248566944 0 0.00034138568818409748 -0.050881777534928258 0 0.0002975022851715661 -0.050149163148452899 0 0.00078115893581023194 -0.04936798544576973 0 0.00043196729375028154 -0.053096791067672476 0 0.00078115893581023194 -0.04936798544576973 0 0.00043196729375028154 -0.053096791067672476 0 0.00054020922904390596 -0.053507206472760117 0 0.0017409250875795531 -0.047451755512598871 0 0.0015802225068313669 -0.047358988814374163 0 0.0016587836127002309 -0.047262702956752584 0 0.0017409250875795531 -0.047451755512598871 0 0.0016587836127002309 -0.047262702956752584 0 0.0017330906989143553 -0.047255775756603315 0 0.0017409250875795531 -0.047451755512598871 0 0.0017330906989143553 -0.047255775756603315 0 0.001813317531905544 -0.047255541990160493 0 0.0017330906989143553 -0.047255775756603315 0 0.0017319156592668851 -0.047164217841156611 0 0.001813317531905544 -0.047255541990160493 0 0.0011538492910694517 -0.045411879294861568 0 0.00078115893581023194 -0.04936798544576973 0 0.0055101410450396886 -0.041395441369008891 0 0.0053739207135893516 -0.040667226603179008 0 0.0061871065470313936 -0.040611040541224136 0 0.0040236193542944184 -0.043788623131715054 0 0.0011538492910694517 -0.045411879294861568 0 0.0016587836127002309 -0.047262702956752584 0 0.0017330906989143553 -0.047255775756603315 0 0.0017319156592668851 -0.047164217841156611 0 -0.00010773723787033804 -0.054924621740219122 0 -0.00013267788516628463 -0.054874614006876508 0 -0.00010046283971751991 -0.054901039199908831 0 0.00043196729375028154 -0.053096791067672476 0 9.2912223259706127e-05 -0.051661726349593241 0 0.00066554777265618291 -0.052147213299314529 0 0.00015296363121005842 -0.050786205284610635 0 -9.1070432991689656e-05 -0.051452237526947109 0 -1.8284712375215762e-05 -0.048466431479080543 0 0.00052113159477734238 -0.048539173190881801 0 0.00033511544173048637 -0.048050302122075131 0 -1.8284712375215762e-05 -0.048466431479080543 0 0.00052113159477734238 -0.048539173190881801 0 0.00040437417499241481 -0.048864248725614574 0 9.2912223259706127e-05 -0.051661726349593241 0 0.00078115893581023194 -0.04936798544576973 0 -0.00013267788516628463 -0.054874614006876508 0 -0.00010046283971751991 -0.054901039199908831 0 -9.8393067910300746e-05 -0.05487166482027106 0 -6.9874628013957978e-05 -0.054905968476619306 0 -0.00010046283971751991 -0.054901039199908831 0 -9.8393067910300746e-05 -0.05487166482027106 0 -6.9874628013957978e-05 -0.054905968476619306 0 -0.00010046283971751991 -0.054901039199908831 0 -7.2996333532706815e-05 -0.054929400537107709 0 -6.9874628013957978e-05 -0.054905968476619306 0 -4.5306601682517458e-05 -0.054940886087636018 0 -7.2996333532706815e-05 -0.054929400537107709 0 -6.9874628013957978e-05 -0.054905968476619306 0 -3.788153271848924e-05 -0.05491333547556064 0 -4.5306601682517458e-05 -0.054940886087636018 0 -3.788153271848924e-05 -0.05491333547556064 0 -4.5306601682517458e-05 -0.054940886087636018 0 -1.8155531388527034e-05 -0.054957161609395712 0 -5.7044915979895033e-05 -0.054956238768682393 0 -2.4980640935506666e-05 -0.054980866924124856 0 -2.8647961100355035e-05 -0.054963227359836331 0 -4.5306601682517458e-05 -0.054940886087636018 0 -5.7044915979895033e-05 -0.054956238768682393 0 -2.8647961100355035e-05 -0.054963227359836331 0 -4.5306601682517458e-05 -0.054940886087636018 0 -5.7044915979895033e-05 -0.054956238768682393 0 -7.2996333532706815e-05 -0.054929400537107709 0 -0.00010493894481569059 -0.054924596256159898 0 -9.807436008362379e-05 -0.054931619446503585 0 -8.1065878085256765e-05 -0.054966771161793514 0 -0.00010046283971751991 -0.054901039199908831 0 -9.1810870444309815e-05 -0.054924515797639281 0 -7.2996333532706815e-05 -0.054929400537107709 0 -0.00010773723787033804 -0.054924621740219122 0 -0.00010046283971751991 -0.054901039199908831 0 -9.1810870444309815e-05 -0.054924515797639281 0 -9.1810870444309815e-05 -0.054924515797639281 0 -8.1109357242471931e-05 -0.054938351658488822 0 -9.807436008362379e-05 -0.054931619446503585 0 -0.00010773723787033804 -0.054924621740219122 0 -9.1810870444309815e-05 -0.054924515797639281 0 -9.807436008362379e-05 -0.054931619446503585 0 -9.1810870444309815e-05 -0.054924515797639281 0 -7.2996333532706815e-05 -0.054929400537107709 0 -8.1109357242471931e-05 -0.054938351658488822 0 -5.7044915979895033e-05 -0.054956238768682393 0 -7.2996333532706815e-05 -0.054929400537107709 0 -8.1109357242471931e-05 -0.054938351658488822 0 -5.7044915979895033e-05 -0.054956238768682393 0 -8.1109357242471931e-05 -0.054938351658488822 0 -7.8704765742517677e-05 -0.054951481980704431 0 -8.1109357242471931e-05 -0.054938351658488822 0 -9.807436008362379e-05 -0.054931619446503585 0 -7.8704765742517677e-05 -0.054951481980704431 0 -9.807436008362379e-05 -0.054931619446503585 0 -8.1065878085256765e-05 -0.054966771161793514 0 -7.8704765742517677e-05 -0.054951481980704431 0 0.00043196729375028154 -0.053096791067672476 0 0.00045983424705722771 -0.053110663155756056 0 -0.00034661357477437286 -0.051627492140663089 0 0.00032936376908173222 -0.052630319846024669 0 -0.00034661357477437286 -0.051627492140663089 0 0.00045983424705722771 -0.053110663155756056 0 -0.00020481792067602228 -0.052273659103657555 0 0.00036243811792054667 -0.052193180683930876 0 0.00049283467056734605 -0.052541188860235996 0 0.00045983424705722771 -0.053110663155756056 0 0.00032936376908173222 -0.052630319846024669 0 -5.7044915979895033e-05 -0.054956238768682393 0 -8.1065878085256765e-05 -0.054966771161793514 0 -7.8704765742517677e-05 -0.054951481980704431 0 0.000166486470519962 -0.053419378654830957 0 0.0010274828917689574 -0.053766607904112904 0 -0.00012121795325937049 -0.054390220112777728 0 0.0011254104389247744 -0.054031051699550602 0 0.0010274828917689574 -0.053766607904112904 0 -0.00012121795325937049 -0.054390220112777728 0 0.00045983424705722771 -0.053110663155756056 0 -8.302630078122843e-05 -0.054892592755503913 0 -5.7044915979895033e-05 -0.054956238768682393 0 -8.1065878085256765e-05 -0.054966771161793514 0 -2.4980640935506666e-05 -0.054980866924124856 0 0.00034006514869977322 -0.053384603086377672 0 0.00032936376908173222 -0.052630319846024669 0 0.00010902277418888172 -0.053336823276673571 0 0.000166486470519962 -0.053419378654830957 0 -8.6559712912642598e-05 -0.054037564443165473 0 0.00016898649176702387 -0.05286156621915615 0 0.00010902277418888172 -0.053336823276673571 0 0.000166486470519962 -0.053419378654830957 0 0.00016898649176702387 -0.05286156621915615 0 0.000166486470519962 -0.053419378654830957 0 0.00017782439787162392 -0.052484405641245291 0 0.000166486470519962 -0.053419378654830957 0 0.00017782439787162392 -0.052484405641245291 0 0.00026362473950557538 -0.05271143343345866 0 -0.00014630555359320728 -0.052315742515617505 0 0.00017782439787162392 -0.052484405641245291 0 -0.00022998548921941169 -0.051841023591064163 0 -0.00014630555359320728 -0.052315742515617505 0 -0.00056498659865237665 -0.05156375509921645 0 -0.00022998548921941169 -0.051841023591064163 0 -0.00058630550529226578 -0.051062662172808061 0 -0.00022998548921941169 -0.051841023591064163 0 2.7442914677793517e-05 -0.05135764309327738 0 0.00014931912760502095 -0.052246235851498152 0 0.00032936376908173222 -0.052630319846024669 0 0.00017782439787162392 -0.052484405641245291 0 -0.00022998548921941169 -0.051841023591064163 0 2.7442914677793517e-05 -0.05135764309327738 0 -5.865313207845532e-08 -0.054998811035555199 0 -0.00014394691687814087 -0.054511109651183075 0 -0.00020816174634481112 -0.054136692014584598 0 0.000166486470519962 -0.053419378654830957 0 -8.6559712912642598e-05 -0.054037564443165473 0 -0.00012121795325937049 -0.054390220112777728 0 0.00010902277418888172 -0.053336823276673571 0 -0.00020816174634481112 -0.054136692014584598 0 -8.6559712912642598e-05 -0.054037564443165473 0 -0.00014394691687814087 -0.054511109651183075 0 -0.00020816174634481112 -0.054136692014584598 0 -8.6559712912642598e-05 -0.054037564443165473 0 -0.00014394691687814087 -0.054511109651183075 0 -8.6559712912642598e-05 -0.054037564443165473 0 -0.00012121795325937049 -0.054390220112777728 0 -5.865313207845532e-08 -0.054998811035555199 0 -0.00014394691687814087 -0.054511109651183075 0 -3.2209513706731158e-07 -0.054999464597281965 0 -2.4980640935506666e-05 -0.054980866924124856 0 -1.573471026390571e-08 -0.054999999150623258 0 -7.8119143728882188e-06 -0.054980011502834963 0 -8.302630078122843e-05 -0.054892592755503913 0 -1.1839455601851136e-07 -0.054999778815197735 0 -0.00014394691687814087 -0.054511109651183075 0 -0.00012121795325937049 -0.054390220112777728 0 -3.2209513706731158e-07 -0.054999464597281965 0 -1.573471026390571e-08 -0.054999999150623258 0 -7.8119143728882188e-06 -0.054980011502834963 0 3.6048108342522271e-08 -0.054999914899248596 0 -2.4980640935506666e-05 -0.054980866924124856 0 -7.8119143728882188e-06 -0.054980011502834963 0 -2.8647961100355035e-05 -0.054963227359836331 0 -7.8119143728882188e-06 -0.054980011502834963 0 -2.8647961100355035e-05 -0.054963227359836331 0 -1.8155531388527034e-05 -0.054957161609395712 0 -4.5306601682517458e-05 -0.054940886087636018 0 -2.8647961100355035e-05 -0.054963227359836331 0 -1.8155531388527034e-05 -0.054957161609395712 0 -1.8155531388527034e-05 -0.054957161609395712 0 -1.1632473217461996e-05 -0.054937669496767538 0 -2.9372446131327042e-06 -0.054974347062935094 0 -7.8119143728882188e-06 -0.054980011502834963 0 -1.8155531388527034e-05 -0.054957161609395712 0 -2.9372446131327042e-06 -0.054974347062935094 0 -3.788153271848924e-05 -0.05491333547556064 0 -1.8155531388527034e-05 -0.054957161609395712 0 -1.1632473217461996e-05 -0.054937669496767538 0 -7.8119143728882188e-06 -0.054980011502834963 0 -2.9372446131327042e-06 -0.054974347062935094 0 3.6048108342522271e-08 -0.054999914899248596 0 -1.1632473217461996e-05 -0.054937669496767538 0 -2.9372446131327042e-06 -0.054974347062935094 0 8.4178228265720527e-06 -0.054990234771308467 0 -2.9372446131327042e-06 -0.054974347062935094 0 3.6048108342522271e-08 -0.054999914899248596 0 8.4178228265720527e-06 -0.054990234771308467 0 8.4178228265720527e-06 -0.054990234771308467 0 -4.6819180051306051e-08 -0.055000017228391151 0 1.3091589569717276e-05 -0.054957387717717757 0 3.6048108342522271e-08 -0.054999914899248596 0 8.4178228265720527e-06 -0.054990234771308467 0 -4.6819180051306051e-08 -0.055000017228391151 0 -3.788153271848924e-05 -0.05491333547556064 0 -1.1632473217461996e-05 -0.054937669496767538 0 -1.7674792671741116e-05 -0.05485855925284467 0 -6.1074991368421645e-05 -0.054891975023343156 0 7.9894409904606749e-05 -0.055168722093687943 0 -1.1632473217461996e-05 -0.054937669496767538 0 8.4178228265720527e-06 -0.054990234771308467 0 -1.7674792671741116e-05 -0.05485855925284467 0 8.4178228265720527e-06 -0.054990234771308467 0 -5.3943483071798547e-05 -0.054976889503982482 0 1.3091589569717276e-05 -0.054957387717717757 0 -5.3943483071798547e-05 -0.054976889503982482 0 1.3091589569717276e-05 -0.054957387717717757 0 3.0079076985330245e-05 -0.054702525433285527 0 1.3091589569717276e-05 -0.054957387717717757 0 2.4978053105163002e-05 -0.054908763211019403 0 3.0079076985330245e-05 -0.054702525433285527 0 -4.6819180051306051e-08 -0.055000017228391151 0 1.3091589569717276e-05 -0.054957387717717757 0 2.4978053105163002e-05 -0.054908763211019403 0 -7.1766973761435394e-05 -0.054846905390936652 0 -0.00011307883054919019 -0.054774383701685955 0 -0.00012498742549821697 -0.054835515712481187 0 -6.9874628013957978e-05 -0.054905968476619306 0 -7.1766973761435394e-05 -0.054846905390936652 0 -9.8393067910300746e-05 -0.05487166482027106 0 -7.1766973761435394e-05 -0.054846905390936652 0 -9.8393067910300746e-05 -0.05487166482027106 0 -0.00012498742549821697 -0.054835515712481187 0 -6.9874628013957978e-05 -0.054905968476619306 0 -3.788153271848924e-05 -0.05491333547556064 0 -7.1766973761435394e-05 -0.054846905390936652 0 -3.788153271848924e-05 -0.05491333547556064 0 -1.7674792671741116e-05 -0.05485855925284467 0 -7.1766973761435394e-05 -0.054846905390936652 0 -5.3943483071798547e-05 -0.054976889503982482 0 -0.00017095234818726498 -0.054807174005411075 0 -0.00034600091558805877 -0.05479450582319826 0 -5.3943483071798547e-05 -0.054976889503982482 0 -0.00017095234818726498 -0.054807174005411075 0 3.0079076985330245e-05 -0.054702525433285527 0 7.9894409904606749e-05 -0.055168722093687943 0 -0.00050312820383091692 -0.053345025009111223 0 -1.7674792671741116e-05 -0.05485855925284467 0 -7.1766973761435394e-05 -0.054846905390936652 0 -9.7050328922708936e-05 -0.054754000635627666 0 -7.1766973761435394e-05 -0.054846905390936652 0 -9.7050328922708936e-05 -0.054754000635627666 0 -0.00011307883054919019 -0.054774383701685955 0 -0.00017095234818726498 -0.054807174005411075 0 -0.00034600091558805877 -0.05479450582319826 0 -0.00031250351802638638 -0.054752650142654763 0 -0.00050312820383091692 -0.053345025009111223 0 -9.5698016793398761e-05 -0.050550542512507769 0 -0.0013067601993958684 -0.052332935835869239 0 -0.00017749192097747036 -0.051008232860930404 0 -0.00090280394093980815 -0.05296243973995788 0 -0.00048136072543471909 -0.045568977137650353 0 -0.0003545851980611663 -0.045267318353227406 0 -0.00043107732205596028 -0.045278408838063479 0 -9.5698016793398761e-05 -0.050550542512507769 0 -0.0011906115248063261 -0.051988996198425029 0 -9.5698016793398761e-05 -0.050550542512507769 0 -0.00036976017297617848 -0.053245473100198198 0 -0.001446451470191488 -0.05427354927732559 0 -0.0011256749705880905 -0.054095214305095077 0 -0.0015535661935564208 -0.053695795692084838 0 -0.001446451470191488 -0.05427354927732559 0 -0.0011019833597336519 -0.054409734954605465 0 -0.0011256749705880905 -0.054095214305095077 0 -0.001446451470191488 -0.05427354927732559 0 -0.0013142076383363555 -0.054674747187224981 0 -0.0013056351745807304 -0.054481007048555873 0 -0.00050312820383091692 -0.053345025009111223 0 -0.0011906115248063261 -0.051988996198425029 0 -0.0011906115248063261 -0.051988996198425029 0 -0.0014218670942224962 -0.051836266318806293 0 -0.0012126424755691371 -0.054642889363843976 0 -0.0013142076383363555 -0.054674747187224981 0 -0.0013056351745807304 -0.054481007048555873 0 -0.0012126424755691371 -0.054642889363843976 0 -0.0013056351745807304 -0.054481007048555873 0 -0.0011181182480048963 -0.054520407739244027 0 -0.0013056351745807304 -0.054481007048555873 0 -0.0011019833597336519 -0.054409734954605465 0 -0.0011181182480048963 -0.054520407739244027 0 -0.001446451470191488 -0.05427354927732559 0 -0.0013056351745807304 -0.054481007048555873 0 -0.0011019833597336519 -0.054409734954605465 0 -0.0011019833597336519 -0.054409734954605465 0 -0.001006638335621353 -0.054581719431989133 0 -0.00070574000586011594 -0.054360458779467186 0 -0.0011019833597336519 -0.054409734954605465 0 -0.0011181182480048963 -0.054520407739244027 0 -0.001006638335621353 -0.054581719431989133 0 -0.0011906115248063261 -0.051988996198425029 0 -0.00086870096576462314 -0.053639809878890353 0 -0.0012126424755691371 -0.054642889363843976 0 -0.0011181182480048963 -0.054520407739244027 0 -0.001006638335621353 -0.054581719431989133 0 -0.00041393446073043224 -0.052523325503338138 0 -0.00012451320676620329 -0.052973072583950225 0 -0.00095477983775432631 -0.053159062895409837 0 -0.00050312820383091692 -0.053345025009111223 0 -0.00086870096576462314 -0.053639809878890353 0 -0.00086870096576462314 -0.053639809878890353 0 -0.00099543218912584376 -0.05432761583943177 0 -0.0011256749705880905 -0.054095214305095077 0 -0.00070574000586011594 -0.054360458779467186 0 -0.0009894264893459551 -0.053649289404161249 0 -0.0011019833597336519 -0.054409734954605465 0 -0.0011256749705880905 -0.054095214305095077 0 -0.00070574000586011594 -0.054360458779467186 0 -0.000938875735720875 -0.054557765114356165 0 -0.00070574000586011594 -0.054360458779467186 0 3.0079076985330245e-05 -0.054702525433285527 0 -0.00017095234818726498 -0.054807174005411075 0 -0.00031250351802638638 -0.054752650142654763 0 3.0079076985330245e-05 -0.054702525433285527 0 -0.00086870096576462314 -0.053639809878890353 0 8.2461927895528759e-05 -0.054939538747592519 0 -0.00070574000586011594 -0.054360458779467186 0 -0.00028002049759148464 -0.054211098708538769 0 3.0079076985330245e-05 -0.054702525433285527 0 -0.00028002049759148464 -0.054211098708538769 0 -0.00044030401765336784 -0.053472537718514977 0 -0.0009894264893459551 -0.053649289404161249 0 -0.00070574000586011594 -0.054360458779467186 0 -0.00028002049759148464 -0.054211098708538769 0 -0.0009894264893459551 -0.053649289404161249 0 -0.0009894264893459551 -0.053649289404161249 0 -0.0013285528586358243 -0.052539921940093604 0 -0.0017382558128168448 -0.052973910189224808 0 -0.00044030401765336784 -0.053472537718514977 0 -0.0009894264893459551 -0.053649289404161249 0 -0.0013285528586358243 -0.052539921940093604 0 -0.0009894264893459551 -0.053649289404161249 0 -0.0015535661935564208 -0.053695795692084838 0 -0.0017382558128168448 -0.052973910189224808 0 -0.0011256749705880905 -0.054095214305095077 0 -0.0009894264893459551 -0.053649289404161249 0 -0.0015535661935564208 -0.053695795692084838 0 3.7801371960526849e-07 -0.054999318568237802 0 2.4978053105163002e-05 -0.054908763211019403 0 3.0079076985330245e-05 -0.054702525433285527 0 -4.6819180051306051e-08 -0.055000017228391151 0 3.7801371960526849e-07 -0.054999318568237802 0 2.4978053105163002e-05 -0.054908763211019403 0 -0.00028002049759148464 -0.054211098708538769 0 -0.00044030401765336784 -0.053472537718514977 0 0.00026666095964613355 -0.054437407441214246 0 -0.00028002049759148464 -0.054211098708538769 0 3.0079076985330245e-05 -0.054702525433285527 0 0.00026666095964613355 -0.054437407441214246 0 3.7801371960526849e-07 -0.054999318568237802 0 0.00026666095964613355 -0.054437407441214246 0 -1.0917551656779684e-07 -0.05499951710158936 0 3.7801371960526849e-07 -0.054999318568237802 0 3.0079076985330245e-05 -0.054702525433285527 0 0.00026666095964613355 -0.054437407441214246 0 0.00026666095964613355 -0.054437407441214246 0 -1.0917551656779684e-07 -0.05499951710158936 0 0.00018094820028003285 -0.054959419827145438 0 -1.0917551656779684e-07 -0.05499951710158936 0 0.00018094820028003285 -0.054959419827145438 0 9.4833174964543121e-08 -0.055000108252002147 0 -0.00044030401765336784 -0.053472537718514977 0 0.00026666095964613355 -0.054437407441214246 0 0.00031783557176707101 -0.051987627661251846 0 0.00027872502316352021 -0.054285560093062096 0 0.00022034863649172951 -0.053518308997006131 0 -0.00044030401765336784 -0.053472537718514977 0 0.00031783557176707101 -0.051987627661251846 0 -0.00064266254151825353 -0.052378422807870632 0 -0.00044030401765336784 -0.053472537718514977 0 -0.00064266254151825353 -0.052378422807870632 0 -0.0013285528586358243 -0.052539921940093604 0 -0.0013285528586358243 -0.052539921940093604 0 -0.0010481816035802891 -0.051376741184135877 0 -0.0019331171472400913 -0.051403163656543613 0 -0.00064266254151825353 -0.052378422807870632 0 -0.0013285528586358243 -0.052539921940093604 0 -0.0010481816035802891 -0.051376741184135877 0 0.00031783557176707101 -0.051987627661251846 0 -0.00064266254151825353 -0.052378422807870632 0 -0.0010481816035802891 -0.051376741184135877 0 0.00022034863649172951 -0.053518308997006131 0 -6.6637860756645396e-05 -0.052331266909082338 0 0.00031783557176707101 -0.051987627661251846 0 -0.0010481816035802891 -0.051376741184135877 0 -0.00020927118702189474 -0.050193493008498388 0 -0.0010481816035802891 -0.051376741184135877 0 -0.0013099539006835889 -0.050358750366704605 0 -0.0019395604851031268 -0.050671018588343504 0 -0.0010481816035802891 -0.051376741184135877 0 -0.00020927118702189474 -0.050193493008498388 0 -0.0013099539006835889 -0.050358750366704605 0 -0.00020927118702189474 -0.050193493008498388 0 -0.0013099539006835889 -0.050358750366704605 0 -0.0012635598358524951 -0.049588719582582791 0 -0.00020927118702189474 -0.050193493008498388 0 -0.0012635598358524951 -0.049588719582582791 0 -0.00080275431107707624 -0.048815350599545254 0 9.7460588953578932e-05 -0.054976183718766655 0 8.4431518744417178e-05 -0.054987820517255079 0 7.7527289859814284e-05 -0.054977847443332645 0 -6.6637860756645396e-05 -0.052331266909082338 0 -0.00059558859351587965 -0.053140058092004283 0 8.4431518744417178e-05 -0.054987820517255079 0 7.2630332421959602e-05 -0.05499608327722514 0 7.2090494678086589e-05 -0.055005797420444758 0 9.7460588953578932e-05 -0.054976183718766655 0 8.4431518744417178e-05 -0.054987820517255079 0 7.2630332421959602e-05 -0.05499608327722514 0 7.2630332421959602e-05 -0.05499608327722514 0 4.0429845934286677e-08 -0.055000004883314406 0 7.2090494678086589e-05 -0.055005797420444758 0 7.2630332421959602e-05 -0.05499608327722514 0 4.0429845934286677e-08 -0.055000004883314406 0 9.4833174964543121e-08 -0.055000108252002147 0 0.00018094820028003285 -0.054959419827145438 0 7.2630332421959602e-05 -0.05499608327722514 0 9.4833174964543121e-08 -0.055000108252002147 0 0.00018094820028003285 -0.054959419827145438 0 9.7460588953578932e-05 -0.054976183718766655 0 7.2630332421959602e-05 -0.05499608327722514 0 -0.0032373157702300049 -0.049637562498505046 0 -0.0036128717832009118 -0.050093066578847899 0 -0.0039498690504236418 -0.048942583591409815 0 -0.0032373157702300049 -0.049637562498505046 0 -0.0029625921416826205 -0.049608969215285799 0 -0.0028501510255745377 -0.049839301910826757 0 -0.0032373157702300049 -0.049637562498505046 0 -0.0030363085669268498 -0.050096845078901948 0 -0.0028501510255745377 -0.049839301910826757 0 -0.0032373157702300049 -0.049637562498505046 0 -0.0030363085669268498 -0.050096845078901948 0 -0.0036128717832009118 -0.050093066578847899 0 -0.0030363085669268498 -0.050096845078901948 0 -0.0036128717832009118 -0.050093066578847899 0 -0.0031116363113857367 -0.050657431235878993 0 -0.0030363085669268498 -0.050096845078901948 0 -0.0027762531117491085 -0.050467958465327131 0 -0.0031116363113857367 -0.050657431235878993 0 -0.0036128717832009118 -0.050093066578847899 0 -0.0039498690504236418 -0.048942583591409815 0 -0.0048336158544224125 -0.050344043424822085 0 -0.0012531548960445413 -0.04566999668594058 0 -0.0022795935924852899 -0.042736237413474418 0 -0.00017973564080416739 -0.042552552649906518 0 -0.0012531548960445413 -0.04566999668594058 0 -0.0022795935924852899 -0.042736237413474418 0 -0.0041919150498268025 -0.043989980215635022 0 -0.0032373157702300049 -0.049637562498505046 0 -0.0039498690504236418 -0.048942583591409815 0 -0.0030582106797373424 -0.049431652311418807 0 -0.0012531548960445413 -0.04566999668594058 0 0.0018039174918446635 -0.044178649775478335 0 -0.00017973564080416739 -0.042552552649906518 0 -0.0027638666440201005 -0.047173134167864561 0 -0.00020960246559621908 -0.049117567763803549 0 -0.0032373157702300049 -0.049637562498505046 0 -0.0030582106797373424 -0.049431652311418807 0 -0.0029625921416826205 -0.049608969215285799 0 -0.0030582106797373424 -0.049431652311418807 0 -0.0025651771333887654 -0.049656841254470278 0 -0.0020258865631496009 -0.049245637583957155 0 -9.7260808781110573e-06 -0.054078190301003429 0 -0.00025680924929498221 -0.054275246085116052 0 -0.00013245444224060647 -0.054278069733487262 0 -0.00020960246559621908 -0.049117567763803549 0 -0.0014470722934219356 -0.051935037678742017 0 -0.0025651771333887654 -0.049656841254470278 0 -0.002036007577037157 -0.049968672594843062 0 -0.0025412595347176379 -0.049978398470592954 0 -0.0030582106797373424 -0.049431652311418807 0 -0.0029625921416826205 -0.049608969215285799 0 -0.0025651771333887654 -0.049656841254470278 0 -0.0029625921416826205 -0.049608969215285799 0 -0.0025651771333887654 -0.049656841254470278 0 -0.0028501510255745377 -0.049839301910826757 0 -0.0012635598358524951 -0.049588719582582791 0 -0.002036007577037157 -0.049968672594843062 0 -0.0020258865631496009 -0.049245637583957155 0 -0.0025651771333887654 -0.049656841254470278 0 -0.002036007577037157 -0.049968672594843062 0 -0.0020258865631496009 -0.049245637583957155 0 -0.0013099539006835889 -0.050358750366704605 0 -0.0012635598358524951 -0.049588719582582791 0 -0.002036007577037157 -0.049968672594843062 0 -0.0013099539006835889 -0.050358750366704605 0 -0.002036007577037157 -0.049968672594843062 0 -0.0019395604851031268 -0.050671018588343504 0 -0.002036007577037157 -0.049968672594843062 0 -0.0019395604851031268 -0.050671018588343504 0 -0.0024345616666964815 -0.050369705971904349 0 -0.0030363085669268498 -0.050096845078901948 0 -0.0027366093214209711 -0.050139469810461239 0 -0.0028501510255745377 -0.049839301910826757 0 -0.0027366093214209711 -0.050139469810461239 0 -0.0028501510255745377 -0.049839301910826757 0 -0.0025412595347176379 -0.049978398470592954 0 -0.0025651771333887654 -0.049656841254470278 0 -0.0028501510255745377 -0.049839301910826757 0 -0.0025412595347176379 -0.049978398470592954 0 -0.002036007577037157 -0.049968672594843062 0 -0.0025412595347176379 -0.049978398470592954 0 -0.0024345616666964815 -0.050369705971904349 0 -0.0027366093214209711 -0.050139469810461239 0 -0.0025412595347176379 -0.049978398470592954 0 -0.0024345616666964815 -0.050369705971904349 0 -0.0019395604851031268 -0.050671018588343504 0 -0.0024345616666964815 -0.050369705971904349 0 -0.0025452699503478397 -0.051037427819084387 0 -0.0024345616666964815 -0.050369705971904349 0 -0.0027762531117491085 -0.050467958465327131 0 -0.0025452699503478397 -0.051037427819084387 0 -0.0027366093214209711 -0.050139469810461239 0 -0.0024345616666964815 -0.050369705971904349 0 -0.0027762531117491085 -0.050467958465327131 0 -0.0030363085669268498 -0.050096845078901948 0 -0.0027366093214209711 -0.050139469810461239 0 -0.0027762531117491085 -0.050467958465327131 0 -0.0025452699503478397 -0.051037427819084387 0 -0.0029466760120708509 -0.051334180569740852 0 -0.0031116363113857367 -0.050657431235878993 0 -0.0027762531117491085 -0.050467958465327131 0 -0.0025452699503478397 -0.051037427819084387 0 -0.0031116363113857367 -0.050657431235878993 0 -0.0025452699503478397 -0.051037427819084387 0 -0.0019331171472400913 -0.051403163656543613 0 -0.0025061374309071523 -0.051830811548753575 0 -0.0025452699503478397 -0.051037427819084387 0 -0.0029466760120708509 -0.051334180569740852 0 -0.0025061374309071523 -0.051830811548753575 0 -0.0010481816035802891 -0.051376741184135877 0 -0.0019395604851031268 -0.050671018588343504 0 -0.0019331171472400913 -0.051403163656543613 0 -0.0019395604851031268 -0.050671018588343504 0 -0.0025452699503478397 -0.051037427819084387 0 -0.0019331171472400913 -0.051403163656543613 0 -0.0013285528586358243 -0.052539921940093604 0 -0.0019331171472400913 -0.051403163656543613 0 -0.0019447056300976415 -0.052210877582409727 0 -0.0019331171472400913 -0.051403163656543613 0 -0.0019447056300976415 -0.052210877582409727 0 -0.0025061374309071523 -0.051830811548753575 0 -0.0019447056300976415 -0.052210877582409727 0 -0.0022465324096377168 -0.052561323769266838 0 -0.0025061374309071523 -0.051830811548753575 0 -0.0019447056300976415 -0.052210877582409727 0 -0.0022465324096377168 -0.052561323769266838 0 -0.0017382558128168448 -0.052973910189224808 0 -0.0013285528586358243 -0.052539921940093604 0 -0.0019447056300976415 -0.052210877582409727 0 -0.0017382558128168448 -0.052973910189224808 0 -0.0029466760120708509 -0.051334180569740852 0 -0.0025061374309071523 -0.051830811548753575 0 -0.0032047092460534736 -0.051888572881901497 0 -0.0025061374309071523 -0.051830811548753575 0 -0.0027959604510651333 -0.052480415982210683 0 -0.0032047092460534736 -0.051888572881901497 0 -0.0022465324096377168 -0.052561323769266838 0 -0.0025061374309071523 -0.051830811548753575 0 -0.0027959604510651333 -0.052480415982210683 0 -0.0032047092460534736 -0.051888572881901497 0 -0.0037262835525951506 -0.051058758573900756 0 -0.0041478825099926639 -0.052062305038116485 0 -0.0032047092460534736 -0.051888572881901497 0 -0.0041478825099926639 -0.052062305038116485 0 -0.0033491242544251036 -0.052541029502333317 0 -0.0027959604510651333 -0.052480415982210683 0 -0.0032047092460534736 -0.051888572881901497 0 -0.0033491242544251036 -0.052541029502333317 0 -0.0029466760120708509 -0.051334180569740852 0 -0.0032047092460534736 -0.051888572881901497 0 -0.0037262835525951506 -0.051058758573900756 0 -0.0029466760120708509 -0.051334180569740852 0 -0.0037262835525951506 -0.051058758573900756 0 -0.0031116363113857367 -0.050657431235878993 0 -0.0036128717832009118 -0.050093066578847899 0 -0.0037262835525951506 -0.051058758573900756 0 -0.0031116363113857367 -0.050657431235878993 0 -0.0037262835525951506 -0.051058758573900756 0 -0.0041478825099926639 -0.052062305038116485 0 -0.0048336158544224125 -0.050344043424822085 0 -0.0036128717832009118 -0.050093066578847899 0 -0.0037262835525951506 -0.051058758573900756 0 -0.0048336158544224125 -0.050344043424822085 0 -0.0042710436606360107 -0.046323772112577134 0 -0.0053133008842825681 -0.044860938189411975 0 -0.0044043156470385198 -0.040652179825744449 0 -0.0041735395528177486 -0.042091437443482094 0 -0.0053762594379508097 -0.041762712551506896 0 -0.0044043156470385198 -0.040652179825744449 0 -0.0041735395528177486 -0.042091437443482094 0 -0.0027783752902290565 -0.042658946744294657 0 -0.0041735395528177486 -0.042091437443482094 0 -0.0045357071940125898 -0.042640446635672694 0 -0.0053762594379508097 -0.041762712551506896 0 -0.0045357071940125898 -0.042640446635672694 0 -0.0053762594379508097 -0.041762712551506896 0 -0.0054157678631240967 -0.04254889357150702 0 -0.0041735395528177486 -0.042091437443482094 0 -0.0036675021722719389 -0.0427621998461429 0 -0.0045357071940125898 -0.042640446635672694 0 -0.0041478825099926639 -0.052062305038116485 0 -0.0033491242544251036 -0.052541029502333317 0 -0.0033735331971802606 -0.053174849980122972 0 -0.0042710436606360107 -0.046323772112577134 0 -0.0030490814045025243 -0.048207123547304394 0 -0.0027959604510651333 -0.052480415982210683 0 -0.0033491242544251036 -0.052541029502333317 0 -0.0031922305902534506 -0.052952825433237913 0 -0.0031922305902534506 -0.052952825433237913 0 -0.0033735331971802606 -0.053174849980122972 0 -0.0031634127809033355 -0.053128773642503922 0 -0.0033491242544251036 -0.052541029502333317 0 -0.0031922305902534506 -0.052952825433237913 0 -0.0033735331971802606 -0.053174849980122972 0 -0.0041735395528177486 -0.042091437443482094 0 -0.0036675021722719389 -0.0427621998461429 0 -0.0027783752902290565 -0.042658946744294657 0 -0.0027783752902290565 -0.042658946744294657 0 -0.002550886476287957 -0.044140882241322774 0 -0.0013001595500101392 -0.044849069304228176 0 -0.0036675021722719389 -0.0427621998461429 0 -0.0031285337901891474 -0.043444409161302586 0 -0.0027783752902290565 -0.042658946744294657 0 -0.0036675021722719389 -0.0427621998461429 0 -0.0031285337901891474 -0.043444409161302586 0 -0.0036730217864617419 -0.04344445596082222 0 -0.0031285337901891474 -0.043444409161302586 0 -0.0027783752902290565 -0.042658946744294657 0 -0.002550886476287957 -0.044140882241322774 0 -0.0031285337901891474 -0.043444409161302586 0 -0.0036730217864617419 -0.04344445596082222 0 -0.0034690403249981053 -0.04428874659304656 0 -0.0031285337901891474 -0.043444409161302586 0 -0.002550886476287957 -0.044140882241322774 0 -0.0034690403249981053 -0.04428874659304656 0 -0.0036730217864617419 -0.04344445596082222 0 -0.0046583030735665 -0.043392921315122415 0 -0.0034690403249981053 -0.04428874659304656 0 -0.0046583030735665 -0.043392921315122415 0 -0.0045562766816776212 -0.044587509436186598 0 -0.0034690403249981053 -0.04428874659304656 0 -0.0046583030735665 -0.043392921315122415 0 -0.0045562766816776212 -0.044587509436186598 0 -0.0062459005695393146 -0.04284561009713822 0 -0.0045357071940125898 -0.042640446635672694 0 -0.0046583030735665 -0.043392921315122415 0 -0.0054157678631240967 -0.04254889357150702 0 -0.0036675021722719389 -0.0427621998461429 0 -0.0036730217864617419 -0.04344445596082222 0 -0.0045357071940125898 -0.042640446635672694 0 -0.0036730217864617419 -0.04344445596082222 0 -0.0045357071940125898 -0.042640446635672694 0 -0.0046583030735665 -0.043392921315122415 0 -0.0015535661935564208 -0.053695795692084838 0 -0.0017382558128168448 -0.052973910189224808 0 -0.0022989095613792044 -0.05309598615339365 0 -0.0022465324096377168 -0.052561323769266838 0 -0.0017382558128168448 -0.052973910189224808 0 -0.0022989095613792044 -0.05309598615339365 0 -0.0015535661935564208 -0.053695795692084838 0 -0.0022989095613792044 -0.05309598615339365 0 -0.0022632291146235058 -0.053934593735177914 0 -0.0027959604510651333 -0.052480415982210683 0 -0.0031922305902534506 -0.052952825433237913 0 -0.0022989095613792044 -0.05309598615339365 0 -0.003173068440278831 -0.053002684188435872 0 -0.0024912398331270666 -0.053723953200254734 0 -0.0031922305902534506 -0.052952825433237913 0 -0.0031634127809033355 -0.053128773642503922 0 -0.0028404384524540454 -0.053171867054713447 0 -0.0031922305902534506 -0.052952825433237913 0 -0.0022989095613792044 -0.05309598615339365 0 -0.0022632291146235058 -0.053934593735177914 0 -0.0022465324096377168 -0.052561323769266838 0 -0.0027959604510651333 -0.052480415982210683 0 -0.0022989095613792044 -0.05309598615339365 0 -0.0031634127809033355 -0.053128773642503922 0 -0.0030547457127389683 -0.053220846855825399 0 -0.0028404384524540454 -0.053171867054713447 0 -0.0033735331971802606 -0.053174849980122972 0 -0.0030678160115794385 -0.053326856771731303 0 -0.0030024834663346313 -0.053433501299668493 0 -0.0030490814045025243 -0.048207123547304394 0 -0.001807489397594208 -0.047399862218004379 0 -0.0033735331971802606 -0.053174849980122972 0 -0.0031634127809033355 -0.053128773642503922 0 -0.0030547457127389683 -0.053220846855825399 0 -0.0033735331971802606 -0.053174849980122972 0 -0.0030547457127389683 -0.053220846855825399 0 -0.0030569045345339493 -0.053286785154654966 0 -0.0033735331971802606 -0.053174849980122972 0 -0.0030678160115794385 -0.053326856771731303 0 -0.0030569045345339493 -0.053286785154654966 0 -0.0030678160115794385 -0.053326856771731303 0 -0.0030569045345339493 -0.053286785154654966 0 -0.0029518869443018029 -0.053339027768861014 0 -0.0030547457127389683 -0.053220846855825399 0 -0.0030569045345339493 -0.053286785154654966 0 -0.0029205918014383429 -0.053286587396566013 0 -0.0029518869443018029 -0.053339027768861014 0 -0.0027988997569551796 -0.053322407388148516 0 -0.0029592288761507782 -0.053370474835890788 0 -0.0029518869443018029 -0.053339027768861014 0 -0.0029205918014383429 -0.053286587396566013 0 -0.0027988997569551796 -0.053322407388148516 0 -0.0030678160115794385 -0.053326856771731303 0 -0.0029518869443018029 -0.053339027768861014 0 -0.0029592288761507782 -0.053370474835890788 0 -0.0030569045345339493 -0.053286785154654966 0 -0.0029518869443018029 -0.053339027768861014 0 -0.0029205918014383429 -0.053286587396566013 0 -0.0030547457127389683 -0.053220846855825399 0 -0.0029205918014383429 -0.053286587396566013 0 -0.0028404384524540454 -0.053171867054713447 0 -0.001446451470191488 -0.05427354927732559 0 -0.0015535661935564208 -0.053695795692084838 0 -0.0022632291146235058 -0.053934593735177914 0 -0.0025344924018674041 -0.053329960727699716 0 -0.0028404384524540454 -0.053171867054713447 0 -0.0027988997569551796 -0.053322407388148516 0 -0.001446451470191488 -0.05427354927732559 0 -0.0013142076383363555 -0.054674747187224981 0 -0.0022632291146235058 -0.053934593735177914 0 -0.0014218670942224962 -0.051836266318806293 0 -0.0024912398331270666 -0.053723953200254734 0 -0.0029205918014383429 -0.053286587396566013 0 -0.0028404384524540454 -0.053171867054713447 0 -0.0027988997569551796 -0.053322407388148516 0 -0.00043107732205596028 -0.045278408838063479 0 -0.0013417051765570718 -0.04545994116436531 0 -0.0017990441892913164 -0.045353384983144299 0 -0.0014218670942224962 -0.051836266318806293 0 -0.001807489397594208 -0.047399862218004379 0 -9.5698016793398761e-05 -0.050550542512507769 0 -0.00070976152274651301 -0.048025360610753784 0 -0.00043107732205596028 -0.045278408838063479 0 -0.0010184945529448397 -0.045537826320809285 0 -0.0013417051765570718 -0.04545994116436531 0 -0.00048136072543471909 -0.045568977137650353 0 -0.0013357539654560862 -0.045766835311164926 0 -0.0013214988861648543 -0.046070884109335575 0 -0.00048136072543471909 -0.045568977137650353 0 -0.0010184945529448397 -0.045537826320809285 0 -0.0013357539654560862 -0.045766835311164926 0 -0.0025344924018674041 -0.053329960727699716 0 -0.0027988997569551796 -0.053322407388148516 0 -0.0030024834663346313 -0.053433501299668493 0 -0.00048136072543471909 -0.045568977137650353 0 -0.00043107732205596028 -0.045278408838063479 0 -0.0010184945529448397 -0.045537826320809285 0 -0.0010184945529448397 -0.045537826320809285 0 -0.0013417051765570718 -0.04545994116436531 0 -0.0013355788600820922 -0.045594429866434076 0 -0.0010184945529448397 -0.045537826320809285 0 -0.0013355788600820922 -0.045594429866434076 0 -0.0013357539654560862 -0.045766835311164926 0 -0.0013357539654560862 -0.045766835311164926 0 -0.0017290686959917769 -0.045891975529650748 0 -0.0013214988861648543 -0.046070884109335575 0 -0.0017290686959917769 -0.045891975529650748 0 -0.0016956567520514652 -0.045668503164781472 0 -0.0018526081921263764 -0.045623296658353074 0 -0.0013357539654560862 -0.045766835311164926 0 -0.0017290686959917769 -0.045891975529650748 0 -0.0016956567520514652 -0.045668503164781472 0 -0.0016956567520514652 -0.045668503164781472 0 -0.0017066210090417584 -0.045527231956806011 0 -0.0018526081921263764 -0.045623296658353074 0 -0.0017066210090417584 -0.045527231956806011 0 -0.001808361838502869 -0.045467972173175379 0 -0.0018526081921263764 -0.045623296658353074 0 -0.0016956567520514652 -0.045668503164781472 0 -0.0017066210090417584 -0.045527231956806011 0 -0.0015526093104207437 -0.045566211361353436 0 -0.0013357539654560862 -0.045766835311164926 0 -0.0016956567520514652 -0.045668503164781472 0 -0.0015526093104207437 -0.045566211361353436 0 -0.0013355788600820922 -0.045594429866434076 0 -0.0013357539654560862 -0.045766835311164926 0 -0.0015526093104207437 -0.045566211361353436 0 -0.0013417051765570718 -0.04545994116436531 0 -0.0015526093104207437 -0.045566211361353436 0 -0.0016205081751121168 -0.04543578281802698 0 -0.0027988997569551796 -0.053322407388148516 0 -0.0029592288761507782 -0.053370474835890788 0 -0.0030024834663346313 -0.053433501299668493 0 -0.0013417051765570718 -0.04545994116436531 0 -0.0013355788600820922 -0.045594429866434076 0 -0.0015526093104207437 -0.045566211361353436 0 -0.0013417051765570718 -0.04545994116436531 0 -0.0016205081751121168 -0.04543578281802698 0 -0.0017990441892913164 -0.045353384983144299 0 -0.0017066210090417584 -0.045527231956806011 0 -0.0015526093104207437 -0.045566211361353436 0 -0.0016205081751121168 -0.04543578281802698 0 -0.0016205081751121168 -0.04543578281802698 0 -0.001808361838502869 -0.045467972173175379 0 -0.0017990441892913164 -0.045353384983144299 0 -0.0017066210090417584 -0.045527231956806011 0 -0.0016205081751121168 -0.04543578281802698 0 -0.001808361838502869 -0.045467972173175379 0 -0.001808361838502869 -0.045467972173175379 0 -0.0019316005707645607 -0.04546361477871224 0 -0.0017990441892913164 -0.045353384983144299 0 -0.0019316005707645607 -0.04546361477871224 0 -0.0017990441892913164 -0.045353384983144299 0 -0.0021222114738616562 -0.045477326371193283 0 -0.0030678160115794385 -0.053326856771731303 0 -0.0029592288761507782 -0.053370474835890788 0 -0.0030024834663346313 -0.053433501299668493 0 -0.0019316005707645607 -0.04546361477871224 0 -0.0018526081921263764 -0.045623296658353074 0 -0.0019927840752942115 -0.045585359559841818 0 -0.0019316005707645607 -0.04546361477871224 0 -0.0021222114738616562 -0.045477326371193283 0 -0.0019927840752942115 -0.045585359559841818 0 -0.0021222114738616562 -0.045477326371193283 0 -0.0019927840752942115 -0.045585359559841818 0 -0.0020702607600521575 -0.045780342179890736 0 -0.001808361838502869 -0.045467972173175379 0 -0.0019316005707645607 -0.04546361477871224 0 -0.0018526081921263764 -0.045623296658353074 0 -0.0018526081921263764 -0.045623296658353074 0 -0.0019927840752942115 -0.045585359559841818 0 -0.0020702607600521575 -0.045780342179890736 0 -0.0017290686959917769 -0.045891975529650748 0 -0.0018526081921263764 -0.045623296658353074 0 -0.0020702607600521575 -0.045780342179890736 0 -0.0021222114738616562 -0.045477326371193283 0 -0.0020702607600521575 -0.045780342179890736 0 -0.0025149736278450574 -0.045829288906374194 0 -0.001656705473332964 -0.047198543782915929 0 -0.0021388204309104649 -0.046230120486581532 0 -0.0028559523509969812 -0.046219054454495513 0 0.0053739207135893516 -0.040667226603179008 0 0.0061871065470313936 -0.040611040541224136 0 0.005023668523687237 -0.039431331860890796 0 0.0011538492910694517 -0.045411879294861568 0 0.0011571105661880388 -0.042653436273781674 0 -0.0020702607600521575 -0.045780342179890736 0 -0.0021388204309104649 -0.046230120486581532 0 -0.0025149736278450574 -0.045829288906374194 0 -0.0017290686959917769 -0.045891975529650748 0 -0.0020702607600521575 -0.045780342179890736 0 -0.0021388204309104649 -0.046230120486581532 0 -0.001656705473332964 -0.047198543782915929 0 -0.0015942036387153018 -0.046382570473406881 0 -0.0011258559401295535 -0.046533336002759169 0 0.0011538492910694517 -0.045411879294861568 0 -0.00070976152274651301 -0.048025360610753784 0 -0.001656705473332964 -0.047198543782915929 0 -0.0021388204309104649 -0.046230120486581532 0 -0.0015942036387153018 -0.046382570473406881 0 -0.0015942036387153018 -0.046382570473406881 0 -0.0013214988861648543 -0.046070884109335575 0 -0.0011258559401295535 -0.046533336002759169 0 -0.0017290686959917769 -0.045891975529650748 0 -0.0021388204309104649 -0.046230120486581532 0 -0.0015942036387153018 -0.046382570473406881 0 -0.0017290686959917769 -0.045891975529650748 0 -0.0015942036387153018 -0.046382570473406881 0 -0.0013214988861648543 -0.046070884109335575 0 -0.00018398244492172998 -0.050600751399849778 0 -0.0003077127255136005 -0.05075123575504089 0 -0.00022532542005709099 -0.05072931017666242 0 -0.00048136072543471909 -0.045568977137650353 0 -0.0013214988861648543 -0.046070884109335575 0 -0.0011950141228218522 -0.046413264826159761 0 -0.0012706503421780826 -0.0463881111533243 0 -0.00070976152274651301 -0.048025360610753784 0 9.2912223259706127e-05 -0.051661726349593241 0 -0.00070976152274651301 -0.048025360610753784 0 -0.00013267788516628463 -0.054874614006876508 0 -9.8393067910300746e-05 -0.05487166482027106 0 -0.00012498742549821697 -0.054835515712481187 0 9.2912223259706127e-05 -0.051661726349593241 0 -0.00036976017297617848 -0.053245473100198198 0 -0.00026407784450472319 -0.050862182181356214 0 -0.0003077127255136005 -0.05075123575504089 0 -0.00022532542005709099 -0.05072931017666242 0 -0.00052278022442148598 -0.04129011947789233 0 0.0011571105661880388 -0.042653436273781674 0 0.0035661554561313086 -0.037994586899621624 0 0.005023668523687237 -0.039431331860890796 0 0.0038581700332191785 -0.039220807685563616 0 0.0035661554561313086 -0.037994586899621624 0 0.0038581700332191785 -0.039220807685563616 0 0.0023573008370917337 -0.03866216279942445 0 -0.0045562766816776212 -0.044587509436186598 0 -0.0034690403249981053 -0.04428874659304656 0 -0.0034413256819020369 -0.045299649475392799 0 -0.0017990441892913164 -0.045353384983144299 0 -0.0021222114738616562 -0.045477326371193283 0 -0.0034413256819020369 -0.045299649475392799 0 -0.0013001595500101392 -0.044849069304228176 0 -0.0025434614116371314 -0.044723465987270859 0 -0.0034413256819020369 -0.045299649475392799 0 -0.0045562766816776212 -0.044587509436186598 0 -0.0034413256819020369 -0.045299649475392799 0 -0.0028559523509969812 -0.046219054454495513 0 -0.0021222114738616562 -0.045477326371193283 0 -0.0025149736278450574 -0.045829288906374194 0 -0.0034413256819020369 -0.045299649475392799 0 -0.0028821044545132191 -0.044606853730449113 0 -0.0025434614116371314 -0.044723465987270859 0 -0.0034413256819020369 -0.045299649475392799 0 -0.001807489397594208 -0.047399862218004379 0 -0.0030933410510713337 -0.04500859642456273 0 -0.0034690403249981053 -0.04428874659304656 0 -0.0028821044545132191 -0.044606853730449113 0 -0.0034413256819020369 -0.045299649475392799 0 -0.002550886476287957 -0.044140882241322774 0 -0.0034690403249981053 -0.04428874659304656 0 -0.0028821044545132191 -0.044606853730449113 0 -0.002550886476287957 -0.044140882241322774 0 -0.0013001595500101392 -0.044849069304228176 0 -0.0025434614116371314 -0.044723465987270859 0 -0.002550886476287957 -0.044140882241322774 0 -0.0028821044545132191 -0.044606853730449113 0 -0.0025434614116371314 -0.044723465987270859 0 -0.0025149736278450574 -0.045829288906374194 0 -0.0034413256819020369 -0.045299649475392799 0 -0.0028559523509969812 -0.046219054454495513 0 0.005023668523687237 -0.039431331860890796 0 0.0043041740030872666 -0.039858274499144253 0 0.0038581700332191785 -0.039220807685563616 0 0.0053739207135893516 -0.040667226603179008 0 0.0047175291462051381 -0.040515886195074034 0 0.005023668523687237 -0.039431331860890796 0 -0.0021388204309104649 -0.046230120486581532 0 -0.0025149736278450574 -0.045829288906374194 0 -0.0028559523509969812 -0.046219054454495513 0 0.0047175291462051381 -0.040515886195074034 0 0.005023668523687237 -0.039431331860890796 0 0.0043041740030872666 -0.039858274499144253 0 0.0047175291462051381 -0.040515886195074034 0 0.0043041740030872666 -0.039858274499144253 0 0.0035898289561227788 -0.040242757134956252 0 0.0038581700332191785 -0.039220807685563616 0 0.0035898289561227788 -0.040242757134956252 0 0.0023573008370917337 -0.03866216279942445 0 0.0043041740030872666 -0.039858274499144253 0 0.0038581700332191785 -0.039220807685563616 0 0.0035898289561227788 -0.040242757134956252 0 0.0036098981296889552 -0.039032300881558665 0 0.001403827753160266 -0.038792440344765776 0 0.0022185931329041847 -0.036635485275696586 0 0.0035887844812475755 -0.039638887108659267 0 0.0022601617655128663 -0.037654129338832297 0 0.001403827753160266 -0.038792440344765776 0 0.0022185931329041847 -0.036635485275696586 0 0.00071330207037909759 -0.037265090099793445 0 0.0022601617655128663 -0.037654129338832297 0 0.0011139627612658277 -0.035444650263524134 0 0.0035661554561313086 -0.037994586899621624 0 0.0023573008370917337 -0.03866216279942445 0 0.001811819564047721 -0.036418861088525871 0 0.0022185931329041847 -0.036635485275696586 0 0.00054147777029946718 -0.036003347545828783 0 0.00073962318375844674 -0.034420897132063387 0 0.0022185931329041847 -0.036635485275696586 0 0.00054147777029946718 -0.036003347545828783 0 0.00071330207037909759 -0.037265090099793445 0 0.00054147777029946718 -0.036003347545828783 0 -0.00081622842451463992 -0.036479278261604194 0 -0.00056824997147513455 -0.035140011414810289 0 0.00054147777029946718 -0.036003347545828783 0 0.00071330207037909759 -0.037265090099793445 0 -0.00081622842451463992 -0.036479278261604194 0 0.00071330207037909759 -0.037265090099793445 0 -0.0008583872634820765 -0.038193373317430224 0 -0.00081622842451463992 -0.036479278261604194 0 -0.00043304435027048948 -0.039862073961516066 0 0.001403827753160266 -0.038792440344765776 0 -0.0008583872634820765 -0.038193373317430224 0 0.001403827753160266 -0.038792440344765776 0 0.00071330207037909759 -0.037265090099793445 0 -0.0008583872634820765 -0.038193373317430224 0 -0.0008583872634820765 -0.038193373317430224 0 -0.0030432237850385509 -0.037103247307597328 0 -0.00081622842451463992 -0.036479278261604194 0 -0.00043304435027048948 -0.039862073961516066 0 -0.0024504359368281818 -0.038783433465743429 0 -0.0008583872634820765 -0.038193373317430224 0 -0.0024504359368281818 -0.038783433465743429 0 -0.0008583872634820765 -0.038193373317430224 0 -0.0030432237850385509 -0.037103247307597328 0 -0.0024504359368281818 -0.038783433465743429 0 -0.0030432237850385509 -0.037103247307597328 0 -0.0045475313375692543 -0.038104550249185284 0 -0.0030432237850385509 -0.037103247307597328 0 -0.0024367406062693079 -0.035286561027513458 0 -0.0050706222805638823 -0.036078114733624461 0 -0.0025788020786488971 -0.035266842618326966 0 -0.0043077482029841383 -0.035401506102675874 0 -0.0024367406062693079 -0.035286561027513458 0 -0.00081622842451463992 -0.036479278261604194 0 -0.00056824997147513455 -0.035140011414810289 0 -0.0030432237850385509 -0.037103247307597328 0 -0.0024367406062693079 -0.035286561027513458 0 -0.00081622842451463992 -0.036479278261604194 0 -0.0024367406062693079 -0.035286561027513458 0 -0.001681694114532363 -0.034232374167227866 0 -0.00056824997147513455 -0.035140011414810289 0 -0.001681694114532363 -0.034232374167227866 0 -0.00056824997147513455 -0.035140011414810289 0 -0.00053193641747281424 -0.034305460835443717 0 -0.001681694114532363 -0.034232374167227866 0 -0.00080371340678243202 -0.033566826493904328 0 -0.00053193641747281424 -0.034305460835443717 0 -0.001681694114532363 -0.034232374167227866 0 -0.0032931821703340814 -0.034195220804269767 0 -0.0026733584376201708 -0.03312484135785989 0 -0.0024367406062693079 -0.035286561027513458 0 -0.0032931821703340814 -0.034195220804269767 0 -0.0039476007430676533 -0.034811469845604279 0 -0.0024367406062693079 -0.035286561027513458 0 -0.001681694114532363 -0.034232374167227866 0 -0.0032931821703340814 -0.034195220804269767 0 -0.0032931821703340814 -0.034195220804269767 0 -0.0026733584376201708 -0.03312484135785989 0 -0.0040678998914486482 -0.033609305520331506 0 -0.0042185866081745401 -0.032772493851978619 0 -0.0046102299847299187 -0.033342482309622119 0 -0.0058605543227060412 -0.032825955549422733 0 -0.0064825910728615252 -0.033118480639313434 0 -0.00640615342671539 -0.033188203964933112 0 -0.0058605543227060412 -0.032825955549422733 0 -0.0065769576960363349 -0.032958447748170937 0 -0.0064825910728615252 -0.033118480639313434 0 -0.0042185866081745401 -0.032772493851978619 0 -0.003329129378965933 -0.035621191722605916 0 -0.0026733584376201708 -0.03312484135785989 0 -0.00080371340678243202 -0.033566826493904328 0 -0.00062768353272933306 -0.032528762458801666 0 -0.001681694114532363 -0.034232374167227866 0 -0.0026733584376201708 -0.03312484135785989 0 -0.00080371340678243202 -0.033566826493904328 0 -0.003329129378965933 -0.035621191722605916 0 -0.005723560038643518 -0.035888445184751774 0 -0.003329129378965933 -0.035621191722605916 0 0.0011139627612658277 -0.035444650263524134 0 -9.7633551990838731e-05 -0.03474796517178546 0 0.001811819564047721 -0.036418861088525871 0 0.001044974840583682 -0.036802458146616666 0 -0.0078680495286490328 -0.041222584932339872 0 -0.006245505994570846 -0.041851526198242353 0 -0.0063663525025222743 -0.040894847834181798 0 -0.0046815667250153705 -0.037668246828555255 0 -0.0020838365101139207 -0.039728474862941017 0 -0.0039528627267324335 -0.03762073069159895 0 -0.0046466755652226945 -0.037776773093748953 0 -0.0057813885391303837 -0.035944801431307766 0 -0.0046815667250153705 -0.037668246828555255 0 -0.005723560038643518 -0.035888445184751774 0 -0.00080371340678243202 -0.033566826493904328 0 -0.00062768353272933306 -0.032528762458801666 0 0.00073962318375844674 -0.034420897132063387 0 -9.7633551990838731e-05 -0.03474796517178546 0 -0.00030893557508065756 -0.034795783196954005 0 0.001044974840583682 -0.036802458146616666 0 -0.0078680495286490328 -0.041222584932339872 0 -0.006245505994570846 -0.041851526198242353 0 -0.0062459005695393146 -0.04284561009713822 0 -0.0046815667250153705 -0.037668246828555255 0 -0.003329129378965933 -0.035621191722605916 0 -0.0046815667250153705 -0.037668246828555255 0 -0.0075458386592198515 -0.040919246208357581 0 -0.0053762594379508097 -0.041762712551506896 0 -0.006245505994570846 -0.041851526198242353 0 -0.0063663525025222743 -0.040894847834181798 0 -0.0044043156470385198 -0.040652179825744449 0 -0.0053762594379508097 -0.041762712551506896 0 -0.0063663525025222743 -0.040894847834181798 0 -0.0053762594379508097 -0.041762712551506896 0 -0.0054157678631240967 -0.04254889357150702 0 -0.006245505994570846 -0.041851526198242353 0 -0.0054157678631240967 -0.04254889357150702 0 -0.006245505994570846 -0.041851526198242353 0 -0.0062459005695393146 -0.04284561009713822 0 0.0023573008370917337 -0.03866216279942445 0 0.001811819564047721 -0.036418861088525871 0 0.001044974840583682 -0.036802458146616666 0 -0.00052278022442148598 -0.04129011947789233 0 -0.0020838365101139207 -0.039728474862941017 0 -0.0046583030735665 -0.043392921315122415 0 -0.0054157678631240967 -0.04254889357150702 0 -0.0062459005695393146 -0.04284561009713822 0 0.00054147777029946718 -0.036003347545828783 0 -0.00056824997147513455 -0.035140011414810289 0 0.00073962318375844674 -0.034420897132063387 0 -0.00056824997147513455 -0.035140011414810289 0 -0.00053193641747281424 -0.034305460835443717 0 0.00073962318375844674 -0.034420897132063387 0 -0.00080371340678243202 -0.033566826493904328 0 -0.00053193641747281424 -0.034305460835443717 0 0.00073962318375844674 -0.034420897132063387 0 -0.0054124630864369203 -0.034369193159636227 0 -0.0055565273124069834 -0.034562065761410764 0 -0.0055276476955502555 -0.03406991946667369 0 -0.0054854791137759276 -0.032916260810276404 0 -0.0075857553355428336 -0.028920031460751203 0 -0.0054854791137759276 -0.032916260810276404 0 -0.010338626890006428 -0.025188575080312952 0 -0.0015234583218159429 -0.038561895462478533 0 -0.0014552242081429397 -0.038593829206310964 0 -0.0012738931886323984 -0.038497479504280063 0 -0.0014606310468439083 -0.038676718734831722 0 -0.001437393313110501 -0.038651113174589906 0 -0.0013891915765956522 -0.038698682882751405 0 -0.001437393313110501 -0.038651113174589906 0 -0.0014386400810173837 -0.03867521825210378 0 -0.0014552242081429397 -0.038593829206310964 0 -0.0014386400810173837 -0.03867521825210378 0 -0.0013891915765956522 -0.038698682882751405 0 -0.0013908076845894747 -0.038744892850374267 0 -0.001437393313110501 -0.038651113174589906 0 -0.0014386400810173837 -0.03867521825210378 0 -0.0013891915765956522 -0.038698682882751405 0 -0.0014003060813640891 -0.038631554739275896 0 -0.0014386400810173837 -0.03867521825210378 0 -0.0014552242081429397 -0.038593829206310964 0 -0.0014606310468439083 -0.038676718734831722 0 -0.001437393313110501 -0.038651113174589906 0 -0.0014552242081429397 -0.038593829206310964 0 -0.0054854791137759276 -0.032916260810276404 0 -0.0017247444055091808 -0.038999137139817841 0 -0.0091604321356769745 -0.037000344588921111 0 -0.0074778883644989894 -0.038274052639946037 0 -0.0071429026622257885 -0.036629291594085935 0 -0.0014003060813640891 -0.038631554739275896 0 -0.0014552242081429397 -0.038593829206310964 0 -0.0012738931886323984 -0.038497479504280063 0 -0.0054854791137759276 -0.032916260810276404 0 -0.0040149763057823603 -0.039130257337676139 0 -0.0054124630864369203 -0.034369193159636227 0 -0.0048718595660172748 -0.03460295635877976 0 -0.0052391091577069912 -0.034028362913346884 0 -0.0054124630864369203 -0.034369193159636227 0 -0.0055565273124069834 -0.034562065761410764 0 -0.0048718595660172748 -0.03460295635877976 0 -0.0054854791137759276 -0.032916260810276404 0 -0.0064549887368203643 -0.035952998543285333 0 -0.0064549887368203643 -0.035952998543285333 0 -0.0043077482029841383 -0.035401506102675874 0 -0.0071429026622257885 -0.036629291594085935 0 -0.0060283974241046303 -0.037874225951482557 0 -0.0050706222805638823 -0.036078114733624461 0 -0.0048718595660172748 -0.03460295635877976 0 -0.0039476007430676533 -0.034811469845604279 0 -0.0044751714473986537 -0.034206417539292724 0 -0.0057454677548395804 -0.039637413778439504 0 -0.0074778883644989894 -0.038274052639946037 0 -0.0060283974241046303 -0.037874225951482557 0 -0.0074778883644989894 -0.038274052639946037 0 -0.0071429026622257885 -0.036629291594085935 0 -0.0060283974241046303 -0.037874225951482557 0 -0.0057454677548395804 -0.039637413778439504 0 -0.0060283974241046303 -0.037874225951482557 0 -0.0045475313375692543 -0.038104550249185284 0 -0.0060283974241046303 -0.037874225951482557 0 -0.0045475313375692543 -0.038104550249185284 0 -0.0050706222805638823 -0.036078114733624461 0 -0.0030432237850385509 -0.037103247307597328 0 -0.0045475313375692543 -0.038104550249185284 0 -0.0050706222805638823 -0.036078114733624461 0 -0.0039476007430676533 -0.034811469845604279 0 -0.0040678998914486482 -0.033609305520331506 0 -0.0044751714473986537 -0.034206417539292724 0 -0.0032931821703340814 -0.034195220804269767 0 -0.0039476007430676533 -0.034811469845604279 0 -0.0040678998914486482 -0.033609305520331506 0 -0.0058605543227060412 -0.032825955549422733 0 -0.0050500932797025279 -0.033011926000473833 0 -0.005246084881954988 -0.033127182948931931 0 -0.0050500932797025279 -0.033011926000473833 0 -0.004790908015188073 -0.033229370263500362 0 -0.005246084881954988 -0.033127182948931931 0 -0.0050500932797025279 -0.033011926000473833 0 -0.0048983025706425699 -0.033667987402321908 0 -0.004790908015188073 -0.033229370263500362 0 -0.0046102299847299187 -0.033342482309622119 0 -0.004924382345556904 -0.033604507188479502 0 -0.0040678998914486482 -0.033609305520331506 0 -0.0044751714473986537 -0.034206417539292724 0 -0.0048983025706425699 -0.033667987402321908 0 -0.0048718595660172748 -0.03460295635877976 0 -0.0044751714473986537 -0.034206417539292724 0 -0.0048983025706425699 -0.033667987402321908 0 -0.0048718595660172748 -0.03460295635877976 0 -0.0048983025706425699 -0.033667987402321908 0 -0.0052391091577069912 -0.034028362913346884 0 -0.0048983025706425699 -0.033667987402321908 0 -0.0052391091577069912 -0.034028362913346884 0 -0.0053179343669780901 -0.033580775888890531 0 -0.0048983025706425699 -0.033667987402321908 0 -0.0053179343669780901 -0.033580775888890531 0 -0.004790908015188073 -0.033229370263500362 0 -0.0053179343669780901 -0.033580775888890531 0 -0.0055741612296171337 -0.033237151061909428 0 -0.0058651417223112368 -0.033882996001198658 0 -0.0053179343669780901 -0.033580775888890531 0 -0.0055276476955502555 -0.03406991946667369 0 -0.0058651417223112368 -0.033882996001198658 0 -0.0055565273124069834 -0.034562065761410764 0 -0.0055276476955502555 -0.03406991946667369 0 -0.0058651417223112368 -0.033882996001198658 0 -0.0052391091577069912 -0.034028362913346884 0 -0.0053179343669780901 -0.033580775888890531 0 -0.0055276476955502555 -0.03406991946667369 0 -0.0054124630864369203 -0.034369193159636227 0 -0.0052391091577069912 -0.034028362913346884 0 -0.0055276476955502555 -0.03406991946667369 0 -0.0050258451925691066 -0.033063701697848134 0 -0.0048682887649237885 -0.032565591169877416 0 -0.0056885891049302832 -0.032611447618059203 0 -0.0048682887649237885 -0.032565591169877416 0 -0.0057495566610523564 -0.03146397494759369 0 -0.0056885891049302832 -0.032611447618059203 0 -0.0055741612296171337 -0.033237151061909428 0 -0.0050258451925691066 -0.033063701697848134 0 -0.0056885891049302832 -0.032611447618059203 0 -0.0053179343669780901 -0.033580775888890531 0 -0.0055741612296171337 -0.033237151061909428 0 -0.0050258451925691066 -0.033063701697848134 0 -0.0050258451925691066 -0.033063701697848134 0 -0.0045780808457415003 -0.033210867962444074 0 -0.004790908015188073 -0.033229370263500362 0 -0.0053179343669780901 -0.033580775888890531 0 -0.0050258451925691066 -0.033063701697848134 0 -0.004790908015188073 -0.033229370263500362 0 -0.0045780808457415003 -0.033210867962444074 0 -0.0041183582701615085 -0.033742038486073642 0 -0.0048682887649237885 -0.032565591169877416 0 -0.0050258451925691066 -0.033063701697848134 0 -0.0045780808457415003 -0.033210867962444074 0 -0.0048682887649237885 -0.032565591169877416 0 -0.0045780808457415003 -0.033210867962444074 0 -0.0050686648907589879 -0.033291222272365174 0 -0.0041183582701615085 -0.033742038486073642 0 -0.0045780808457415003 -0.033210867962444074 0 -0.004790908015188073 -0.033229370263500362 0 -0.0050686648907589879 -0.033291222272365174 0 -0.005246084881954988 -0.033127182948931931 0 -0.0050686648907589879 -0.033291222272365174 0 -0.0058618928967856193 -0.033291913987455658 0 -0.004790908015188073 -0.033229370263500362 0 -0.005246084881954988 -0.033127182948931931 0 -0.0050686648907589879 -0.033291222272365174 0 -0.0050686648907589879 -0.033291222272365174 0 -0.0058618928967856193 -0.033291913987455658 0 -0.005793087950971559 -0.033695115187340238 0 -0.0050686648907589879 -0.033291222272365174 0 -0.0041183582701615085 -0.033742038486073642 0 -0.005793087950971559 -0.033695115187340238 0 -0.0041183582701615085 -0.033742038486073642 0 -0.005793087950971559 -0.033695115187340238 0 -0.0066214051583328758 -0.03481056324860405 0 -0.0059213624658025973 -0.038028026869804249 0 -0.0041183582701615085 -0.033742038486073642 0 -0.0066214051583328758 -0.03481056324860405 0 -0.0036927027730470703 -0.038190352762624981 0 -0.0041183582701615085 -0.033742038486073642 0 -0.0013788218181165482 -0.036852082952643118 0 -0.0059213624658025973 -0.038028026869804249 0 -0.0036927027730470703 -0.038190352762624981 0 -0.0041183582701615085 -0.033742038486073642 0 -0.0041989991826223896 -0.033470598578834096 0 -0.0026840055146129705 -0.034485119936601957 0 -0.0041183582701615085 -0.033742038486073642 0 -0.0048682887649237885 -0.032565591169877416 0 -0.0045170724905263682 -0.031328742202501585 0 -0.0045170724905263682 -0.031328742202501585 0 -0.0057495566610523564 -0.03146397494759369 0 -0.0058582917733623159 -0.030358419664383428 0 -0.0045170724905263682 -0.031328742202501585 0 -0.0052844112277677067 -0.029878714019417021 0 -0.0058582917733623159 -0.030358419664383428 0 -0.0048682887649237885 -0.032565591169877416 0 -0.0045170724905263682 -0.031328742202501585 0 -0.0057495566610523564 -0.03146397494759369 0 -0.0068735172820925654 -0.039784319690878936 0 -0.0067491718766907287 -0.039410188461443701 0 -0.0062467543814986714 -0.03997229499763727 0 -0.0068735172820925654 -0.039784319690878936 0 -0.0071170459324635654 -0.039409551078146407 0 -0.0067491718766907287 -0.039410188461443701 0 -0.0068735172820925654 -0.039784319690878936 0 -0.0071170459324635654 -0.039409551078146407 0 -0.0072083278808407064 -0.039817691365653517 0 -0.0071170459324635654 -0.039409551078146407 0 -0.0067491718766907287 -0.039410188461443701 0 -0.0070732562664460605 -0.039124312163905793 0 -0.0067491718766907287 -0.039410188461443701 0 -0.0058671030233425929 -0.039294153607219877 0 -0.0068853675310612877 -0.039104849716894589 0 -0.0067491718766907287 -0.039410188461443701 0 -0.0058671030233425929 -0.039294153607219877 0 -0.0062467543814986714 -0.03997229499763727 0 -0.0044043156470385198 -0.040652179825744449 0 -0.0058671030233425929 -0.039294153607219877 0 -0.0062467543814986714 -0.03997229499763727 0 -0.0044043156470385198 -0.040652179825744449 0 -0.0062467543814986714 -0.03997229499763727 0 -0.0063663525025222743 -0.040894847834181798 0 -0.0062467543814986714 -0.03997229499763727 0 -0.0063663525025222743 -0.040894847834181798 0 -0.0067566286961435428 -0.040261953552769347 0 -0.0063663525025222743 -0.040894847834181798 0 -0.0067566286961435428 -0.040261953552769347 0 -0.0069472944767438793 -0.040488789633171547 0 -0.0070717621095306707 -0.040735243145798974 0 -0.0063663525025222743 -0.040894847834181798 0 -0.0069472944767438793 -0.040488789633171547 0 -0.0068735172820925654 -0.039784319690878936 0 -0.0062467543814986714 -0.03997229499763727 0 -0.0067566286961435428 -0.040261953552769347 0 -0.0068735172820925654 -0.039784319690878936 0 -0.0067566286961435428 -0.040261953552769347 0 -0.0070177767195144843 -0.040156977813161174 0 -0.0068735172820925654 -0.039784319690878936 0 -0.0070177767195144843 -0.040156977813161174 0 -0.0072083278808407064 -0.039817691365653517 0 -0.0070177767195144843 -0.040156977813161174 0 -0.0069472944767438793 -0.040488789633171547 0 -0.0072963617830499412 -0.04046789589845317 0 -0.0070717621095306707 -0.040735243145798974 0 -0.0069472944767438793 -0.040488789633171547 0 -0.0072963617830499412 -0.04046789589845317 0 -0.0067566286961435428 -0.040261953552769347 0 -0.0070177767195144843 -0.040156977813161174 0 -0.0069472944767438793 -0.040488789633171547 0 -0.00640615342671539 -0.033188203964933112 0 -0.0058618928967856193 -0.033291913987455658 0 -0.0063469010237967756 -0.03361618627431151 0 -0.005723560038643518 -0.035888445184751774 0 -0.0069473246685565907 -0.03666611155162014 0 -0.0064393089939476207 -0.033122430315821606 0 -0.00640615342671539 -0.033188203964933112 0 -0.0063469010237967756 -0.03361618627431151 0 -0.0072963617830499412 -0.04046789589845317 0 -0.0072083278808407064 -0.039817691365653517 0 -0.0074296793127441828 -0.039396174442372457 0 -0.005723560038643518 -0.035888445184751774 0 -0.0062884540002651158 -0.035113416482645238 0 -0.0070177767195144843 -0.040156977813161174 0 -0.0072963617830499412 -0.04046789589845317 0 -0.0072083278808407064 -0.039817691365653517 0 -0.0058605543227060412 -0.032825955549422733 0 -0.00640615342671539 -0.033188203964933112 0 -0.0058618928967856193 -0.033291913987455658 0 -0.0058605543227060412 -0.032825955549422733 0 -0.005246084881954988 -0.033127182948931931 0 -0.0058618928967856193 -0.033291913987455658 0 -0.0069473246685565907 -0.03666611155162014 0 -0.0066754663138550527 -0.03692080800860148 0 -0.005793087950971559 -0.033695115187340238 0 -0.0063469010237967756 -0.03361618627431151 0 -0.0066214051583328758 -0.03481056324860405 0 -0.0058618928967856193 -0.033291913987455658 0 -0.005793087950971559 -0.033695115187340238 0 -0.0063469010237967756 -0.03361618627431151 0 -0.0074296793127441828 -0.039396174442372457 0 -0.0072043041166968622 -0.039093753854033395 0 -0.0069666536990232531 -0.038762628758731162 0 -0.0071170459324635654 -0.039409551078146407 0 -0.0072083278808407064 -0.039817691365653517 0 -0.0074296793127441828 -0.039396174442372457 0 -0.0071170459324635654 -0.039409551078146407 0 -0.0072043041166968622 -0.039093753854033395 0 -0.0070732562664460605 -0.039124312163905793 0 -0.0071170459324635654 -0.039409551078146407 0 -0.0074296793127441828 -0.039396174442372457 0 -0.0072043041166968622 -0.039093753854033395 0 -0.0072043041166968622 -0.039093753854033395 0 -0.0071748852727440545 -0.039007872875383431 0 -0.0069666536990232531 -0.038762628758731162 0 -0.0072043041166968622 -0.039093753854033395 0 -0.0071748852727440545 -0.039007872875383431 0 -0.0070732562664460605 -0.039124312163905793 0 -0.0059213624658025973 -0.038028026869804249 0 -0.0069666536990232531 -0.038762628758731162 0 -0.0069310567311432246 -0.038951181699548081 0 -0.0059213624658025973 -0.038028026869804249 0 -0.0069310567311432246 -0.038951181699548081 0 -0.0066360820153709265 -0.039515980799129061 0 -0.0071748852727440545 -0.039007872875383431 0 -0.0069666536990232531 -0.038762628758731162 0 -0.0069310567311432246 -0.038951181699548081 0 -0.0059374920048810269 -0.038049503307310308 0 -0.0066754663138550527 -0.03692080800860148 0 -0.0071748852727440545 -0.039007872875383431 0 -0.0072781150483627972 -0.039304725549147108 0 -0.0073480332404406642 -0.039332552783181457 0 -0.0071748852727440545 -0.039007872875383431 0 -0.0069310567311432246 -0.038951181699548081 0 -0.0072781150483627972 -0.039304725549147108 0 -0.0069310567311432246 -0.038951181699548081 0 -0.0072781150483627972 -0.039304725549147108 0 -0.0070832817291729567 -0.03968829346910395 0 -0.0072781150483627972 -0.039304725549147108 0 -0.0074836718467007138 -0.039714653425477336 0 -0.0075518966530759542 -0.039981582699856098 0 -0.0072781150483627972 -0.039304725549147108 0 -0.0074836718467007138 -0.039714653425477336 0 -0.0073480332404406642 -0.039332552783181457 0 -0.0073480332404406642 -0.039332552783181457 0 -0.0071384495604226465 -0.038868783282293352 0 -0.0077804126642597423 -0.040275226506631297 0 -0.0060796013103799028 -0.042559896724792011 0 -0.0063423348767253579 -0.046232497100124829 0 -0.0077804126642597423 -0.040275226506631297 0 -0.0074836718467007138 -0.039714653425477336 0 -0.0073480332404406642 -0.039332552783181457 0 -0.0077804126642597423 -0.040275226506631297 0 -0.0066485769832992838 -0.042622205662035735 0 -0.007664665108356835 -0.040600816918235451 0 -0.0071748852727440545 -0.039007872875383431 0 -0.0073480332404406642 -0.039332552783181457 0 -0.0071905919874003226 -0.039023401345038823 0 -0.0073480332404406642 -0.039332552783181457 0 -0.0071905919874003226 -0.039023401345038823 0 -0.0071384495604226465 -0.038868783282293352 0 -0.0071748852727440545 -0.039007872875383431 0 -0.0071905919874003226 -0.039023401345038823 0 -0.0070732562664460605 -0.039124312163905793 0 -0.0071905919874003226 -0.039023401345038823 0 -0.0071384495604226465 -0.038868783282293352 0 -0.0068853675310612877 -0.039104849716894589 0 -0.0067491718766907287 -0.039410188461443701 0 -0.0068853675310612877 -0.039104849716894589 0 -0.0070732562664460605 -0.039124312163905793 0 -0.0071905919874003226 -0.039023401345038823 0 -0.0068853675310612877 -0.039104849716894589 0 -0.0070732562664460605 -0.039124312163905793 0 -0.0058671030233425929 -0.039294153607219877 0 -0.0071384495604226465 -0.038868783282293352 0 -0.0068853675310612877 -0.039104849716894589 0 -0.0039498690504236418 -0.048942583591409815 0 -0.0048336158544224125 -0.050344043424822085 0 -0.0055482912058175526 -0.047880816972677466 0 -0.0012531548960445413 -0.04566999668594058 0 -0.0055482912058175526 -0.047880816972677466 0 -0.0048812539324964207 -0.045935540900205976 0 -0.0053133008842825681 -0.044860938189411975 0 -0.0066485769832992838 -0.042622205662035735 0 -0.0027638666440201005 -0.047173134167864561 0 -0.0054028038411879 -0.047986439102837376 0 -0.0048336158544224125 -0.050344043424822085 0 -0.0063423348767253579 -0.046232497100124829 0 -0.0055482912058175526 -0.047880816972677466 0 -0.0063423348767253579 -0.046232497100124829 0 -0.0055482912058175526 -0.047880816972677466 0 -0.0048812539324964207 -0.045935540900205976 0 -0.0012531548960445413 -0.04566999668594058 0 -0.0048812539324964207 -0.045935540900205976 0 -0.0041919150498268025 -0.043989980215635022 0 -0.0063423348767253579 -0.046232497100124829 0 -0.0048812539324964207 -0.045935540900205976 0 -0.0041919150498268025 -0.043989980215635022 0 -0.0060796013103799028 -0.042559896724792011 0 -0.0063423348767253579 -0.046232497100124829 0 -0.0041919150498268025 -0.043989980215635022 0 -0.0060796013103799028 -0.042559896724792011 0 -0.0041919150498268025 -0.043989980215635022 0 -0.0040465937414229285 -0.041347564458436042 0 -0.0022795935924852899 -0.042736237413474418 0 -0.0041919150498268025 -0.043989980215635022 0 -0.0040465937414229285 -0.041347564458436042 0 -0.0040465937414229285 -0.041347564458436042 0 -0.0033243582608285189 -0.039153797282265555 0 -0.0013972068849728034 -0.040522817951899943 0 -0.0060796013103799028 -0.042559896724792011 0 -0.0040465937414229285 -0.041347564458436042 0 -0.0055242809444587329 -0.040974768932837559 0 -0.0040465937414229285 -0.041347564458436042 0 -0.0049319345533372456 -0.040125805244934004 0 -0.0055242809444587329 -0.040974768932837559 0 -0.0040465937414229285 -0.041347564458436042 0 -0.0049319345533372456 -0.040125805244934004 0 -0.0033243582608285189 -0.039153797282265555 0 -0.0049319345533372456 -0.040125805244934004 0 -0.0033243582608285189 -0.039153797282265555 0 -0.0055690758473822197 -0.038982867707368044 0 -0.0033243582608285189 -0.039153797282265555 0 -0.0055690758473822197 -0.038982867707368044 0 -0.0047372249821259092 -0.037585983585407406 0 -0.0033243582608285189 -0.039153797282265555 0 -0.0030098929163989846 -0.037828116408278434 0 -0.0047372249821259092 -0.037585983585407406 0 -0.0072444306950275343 -0.03786741405561677 0 -0.0062865016020002742 -0.037670375375857386 0 -0.0069475328083481863 -0.038805061010406906 0 -0.0062865016020002742 -0.037670375375857386 0 -0.0055690758473822197 -0.038982867707368044 0 -0.0069475328083481863 -0.038805061010406906 0 -0.0062865016020002742 -0.037670375375857386 0 -0.0055690758473822197 -0.038982867707368044 0 -0.0047372249821259092 -0.037585983585407406 0 -0.0055690758473822197 -0.038982867707368044 0 -0.006579353861310892 -0.039492836490434502 0 -0.0069475328083481863 -0.038805061010406906 0 -0.0055690758473822197 -0.038982867707368044 0 -0.006579353861310892 -0.039492836490434502 0 -0.0061024143114699076 -0.040228294101697371 0 -0.006579353861310892 -0.039492836490434502 0 -0.0069475328083481863 -0.038805061010406906 0 -0.0073219103418231089 -0.039635566783674053 0 -0.0069475328083481863 -0.038805061010406906 0 -0.0073219103418231089 -0.039635566783674053 0 -0.007704003073831526 -0.039151630552203942 0 -0.006579353861310892 -0.039492836490434502 0 -0.0073219103418231089 -0.039635566783674053 0 -0.0070884757417342802 -0.040174256652342158 0 -0.006579353861310892 -0.039492836490434502 0 -0.0070884757417342802 -0.040174256652342158 0 -0.0061024143114699076 -0.040228294101697371 0 -0.0070884757417342802 -0.040174256652342158 0 -0.0077804126642597423 -0.040275226506631297 0 -0.0075879679562583825 -0.039903604742486214 0 -0.0073219103418231089 -0.039635566783674053 0 -0.0070884757417342802 -0.040174256652342158 0 -0.0075879679562583825 -0.039903604742486214 0 -0.0049319345533372456 -0.040125805244934004 0 -0.0055690758473822197 -0.038982867707368044 0 -0.0061024143114699076 -0.040228294101697371 0 -0.0061024143114699076 -0.040228294101697371 0 -0.0055242809444587329 -0.040974768932837559 0 -0.006591266535645934 -0.040906684411783766 0 -0.0070884757417342802 -0.040174256652342158 0 -0.0061024143114699076 -0.040228294101697371 0 -0.006591266535645934 -0.040906684411783766 0 -0.0049319345533372456 -0.040125805244934004 0 -0.0061024143114699076 -0.040228294101697371 0 -0.0055242809444587329 -0.040974768932837559 0 -0.0060796013103799028 -0.042559896724792011 0 -0.0055242809444587329 -0.040974768932837559 0 -0.006591266535645934 -0.040906684411783766 0 -0.0070884757417342802 -0.040174256652342158 0 -0.006591266535645934 -0.040906684411783766 0 -0.0077804126642597423 -0.040275226506631297 0 -0.0060796013103799028 -0.042559896724792011 0 -0.006591266535645934 -0.040906684411783766 0 -0.0077804126642597423 -0.040275226506631297 0 -0.0075518966530759542 -0.039981582699856098 0 -0.0070832817291729567 -0.03968829346910395 0 -0.0069485167755810855 -0.040542060924879345 0 -0.0075518966530759542 -0.039981582699856098 0 -0.0080169937649996383 -0.039456299409377768 0 -0.0092286115090306868 -0.038724382892525284 0 -0.0076336226338758594 -0.040924043087259686 0 -0.0072846292320647328 -0.036759724347272267 0 -0.0074836718467007138 -0.039714653425477336 0 -0.0075518966530759542 -0.039981582699856098 0 -0.0077804126642597423 -0.040275226506631297 0 -0.0077804126642597423 -0.040275226506631297 0 -0.00772161526121807 -0.039902831539723065 0 -0.0075879679562583825 -0.039903604742486214 0 -0.0075518966530759542 -0.039981582699856098 0 -0.0077804126642597423 -0.040275226506631297 0 -0.00772161526121807 -0.039902831539723065 0 -0.0072781150483627972 -0.039304725549147108 0 -0.0075518966530759542 -0.039981582699856098 0 -0.0070832817291729567 -0.03968829346910395 0 -0.0080169937649996383 -0.039456299409377768 0 -0.0076722414749445062 -0.039600043656929221 0 -0.0077590101351771136 -0.039730228614522627 0 -0.0075518966530759542 -0.039981582699856098 0 -0.00772161526121807 -0.039902831539723065 0 -0.0080169937649996383 -0.039456299409377768 0 -0.0080169937649996383 -0.039456299409377768 0 -0.0076722414749445062 -0.039600043656929221 0 -0.007704003073831526 -0.039151630552203942 0 -0.0073219103418231089 -0.039635566783674053 0 -0.0076722414749445062 -0.039600043656929221 0 -0.007704003073831526 -0.039151630552203942 0 -0.0073219103418231089 -0.039635566783674053 0 -0.0076722414749445062 -0.039600043656929221 0 -0.0075879679562583825 -0.039903604742486214 0 -0.0076722414749445062 -0.039600043656929221 0 -0.0077590101351771136 -0.039730228614522627 0 -0.0075879679562583825 -0.039903604742486214 0 -0.00772161526121807 -0.039902831539723065 0 -0.0077590101351771136 -0.039730228614522627 0 -0.0075879679562583825 -0.039903604742486214 0 -0.00772161526121807 -0.039902831539723065 0 -0.0080169937649996383 -0.039456299409377768 0 -0.0077590101351771136 -0.039730228614522627 0 -0.0070832817291729567 -0.03968829346910395 0 -0.0066360820153709265 -0.039515980799129061 0 -0.0069485167755810855 -0.040542060924879345 0 -0.0069310567311432246 -0.038951181699548081 0 -0.0070832817291729567 -0.03968829346910395 0 -0.0066360820153709265 -0.039515980799129061 0 -0.0072846292320647328 -0.036759724347272267 0 -0.0046201825450403536 -0.036108773922840454 0 -0.0066360820153709265 -0.039515980799129061 0 -0.0069485167755810855 -0.040542060924879345 0 -0.0052558788793962566 -0.040520026622056983 0 -0.0072846292320647328 -0.036759724347272267 0 -0.008779918132585305 -0.037590692790295428 0 -0.0069475328083481863 -0.038805061010406906 0 -0.007704003073831526 -0.039151630552203942 0 -0.007806383869728077 -0.038540827752540141 0 -0.007704003073831526 -0.039151630552203942 0 -0.0082813525886134744 -0.038851249550942643 0 -0.007806383869728077 -0.038540827752540141 0 -0.0080169937649996383 -0.039456299409377768 0 -0.007704003073831526 -0.039151630552203942 0 -0.0082813525886134744 -0.038851249550942643 0 -0.0080169937649996383 -0.039456299409377768 0 -0.0092286115090306868 -0.038724382892525284 0 -0.0082813525886134744 -0.038851249550942643 0 -0.0096467268904154579 -0.038546310663457151 0 -0.0086721947701274386 -0.038366581465593776 0 -0.0090460579095098664 -0.037128217830532419 0 -0.0086721947701274386 -0.038366581465593776 0 -0.0079868952357122752 -0.037566266575135551 0 -0.0090460579095098664 -0.037128217830532419 0 -0.0082813525886134744 -0.038851249550942643 0 -0.0086721947701274386 -0.038366581465593776 0 -0.007806383869728077 -0.038540827752540141 0 -0.0092286115090306868 -0.038724382892525284 0 -0.0082813525886134744 -0.038851249550942643 0 -0.0086721947701274386 -0.038366581465593776 0 -0.0072444306950275343 -0.03786741405561677 0 -0.007806383869728077 -0.038540827752540141 0 -0.0079868952357122752 -0.037566266575135551 0 -0.0072444306950275343 -0.03786741405561677 0 -0.0069475328083481863 -0.038805061010406906 0 -0.007806383869728077 -0.038540827752540141 0 -0.0086721947701274386 -0.038366581465593776 0 -0.007806383869728077 -0.038540827752540141 0 -0.0079868952357122752 -0.037566266575135551 0 -0.0072444306950275343 -0.03786741405561677 0 -0.0079868952357122752 -0.037566266575135551 0 -0.0071747641383157505 -0.036664277880099162 0 -0.0079868952357122752 -0.037566266575135551 0 -0.0082970106476689676 -0.036584228284669701 0 -0.0071747641383157505 -0.036664277880099162 0 -0.0079868952357122752 -0.037566266575135551 0 -0.0090460579095098664 -0.037128217830532419 0 -0.0082970106476689676 -0.036584228284669701 0 -0.0082970106476689676 -0.036584228284669701 0 -0.0080647002722371713 -0.035531489942851074 0 -0.0092202104090050967 -0.036018934498651768 0 -0.0090460579095098664 -0.037128217830532419 0 -0.0082970106476689676 -0.036584228284669701 0 -0.0092202104090050967 -0.036018934498651768 0 -0.0082970106476689676 -0.036584228284669701 0 -0.0080647002722371713 -0.035531489942851074 0 -0.0071747641383157505 -0.036664277880099162 0 -0.0080647002722371713 -0.035531489942851074 0 -0.0063515600111982637 -0.03543637849073468 0 -0.0071747641383157505 -0.036664277880099162 0 -0.0096467268904154579 -0.038546310663457151 0 -0.010044097706977513 -0.036281169289621086 0 -0.011872498312843649 -0.035311190495006285 0 -0.0096467268904154579 -0.038546310663457151 0 -0.0090460579095098664 -0.037128217830532419 0 -0.010044097706977513 -0.036281169289621086 0 -0.0072846292320647328 -0.036759724347272267 0 -0.006720622392111659 -0.033110510106310762 0 -0.0090460579095098664 -0.037128217830532419 0 -0.010044097706977513 -0.036281169289621086 0 -0.0092202104090050967 -0.036018934498651768 0 -0.010044097706977513 -0.036281169289621086 0 -0.0092202104090050967 -0.036018934498651768 0 -0.010433182166329867 -0.034438396646212559 0 -0.0080647002722371713 -0.035531489942851074 0 -0.0092202104090050967 -0.036018934498651768 0 -0.010433182166329867 -0.034438396646212559 0 -0.0076433592398373277 -0.032508426094249157 0 -0.006720622392111659 -0.033110510106310762 0 -0.010044097706977513 -0.036281169289621086 0 -0.010433182166329867 -0.034438396646212559 0 -0.011872498312843649 -0.035311190495006285 0 -0.0076433592398373277 -0.032508426094249157 0 -0.0049158156503748976 -0.030395958892591134 0 -0.0076433592398373277 -0.032508426094249157 0 -0.0082102469641576192 -0.034635059510983134 0 -0.010420916417377728 -0.034239452135608917 0 -0.0068430560726088661 -0.034138330293660354 0 -0.0078412545026556174 -0.032651138302438092 0 -0.0080647002722371713 -0.035531489942851074 0 -0.010433182166329867 -0.034438396646212559 0 -0.0068430560726088661 -0.034138330293660354 0 -0.0080647002722371713 -0.035531489942851074 0 -0.0068430560726088661 -0.034138330293660354 0 -0.0063515600111982637 -0.03543637849073468 0 -0.0068430560726088661 -0.034138330293660354 0 -0.0063515600111982637 -0.03543637849073468 0 -0.0049520803607382416 -0.033915994502518705 0 -0.0063515600111982637 -0.03543637849073468 0 -0.0049520803607382416 -0.033915994502518705 0 -0.0048506948559646325 -0.035839925158293727 0 -0.0068430560726088661 -0.034138330293660354 0 -0.0049520803607382416 -0.033915994502518705 0 -0.0057049912053084555 -0.032623730220335496 0 -0.0049520803607382416 -0.033915994502518705 0 -0.0031145853416606551 -0.033658857204307148 0 -0.0038739576866322198 -0.032416220708172051 0 -0.0049520803607382416 -0.033915994502518705 0 -0.0031145853416606551 -0.033658857204307148 0 -0.00360529411683031 -0.035014396738975079 0 -0.0031145853416606551 -0.033658857204307148 0 -0.00360529411683031 -0.035014396738975079 0 -0.0017603711236391913 -0.034821038728294861 0 -0.0049520803607382416 -0.033915994502518705 0 -0.00360529411683031 -0.035014396738975079 0 -0.0048506948559646325 -0.035839925158293727 0 -0.00360529411683031 -0.035014396738975079 0 -0.0048506948559646325 -0.035839925158293727 0 -0.0028786017173560523 -0.036388475105201205 0 -0.0030098929163989846 -0.037828116408278434 0 -0.0028786017173560523 -0.036388475105201205 0 -0.0047372249821259092 -0.037585983585407406 0 -0.0048506948559646325 -0.035839925158293727 0 -0.0028786017173560523 -0.036388475105201205 0 -0.0047372249821259092 -0.037585983585407406 0 -0.0048506948559646325 -0.035839925158293727 0 -0.0047372249821259092 -0.037585983585407406 0 -0.0058937793408318654 -0.036640527488487874 0 -0.0062865016020002742 -0.037670375375857386 0 -0.0047372249821259092 -0.037585983585407406 0 -0.0058937793408318654 -0.036640527488487874 0 -0.0062865016020002742 -0.037670375375857386 0 -0.0058937793408318654 -0.036640527488487874 0 -0.0071747641383157505 -0.036664277880099162 0 -0.0072444306950275343 -0.03786741405561677 0 -0.0062865016020002742 -0.037670375375857386 0 -0.0071747641383157505 -0.036664277880099162 0 -0.0063515600111982637 -0.03543637849073468 0 -0.0058937793408318654 -0.036640527488487874 0 -0.0071747641383157505 -0.036664277880099162 0 -0.0063515600111982637 -0.03543637849073468 0 -0.0048506948559646325 -0.035839925158293727 0 -0.0058937793408318654 -0.036640527488487874 0 -0.0034456115046293603 -0.032115122196024061 0 -0.0032744868163296225 -0.0316001430585185 0 -0.002831183830589216 -0.032008455355203316 0 -0.0026840055146129705 -0.034485119936601957 0 -0.0036368825763771094 -0.032554937865052959 0 -0.0013788218181165482 -0.036852082952643118 0 0.00087016788444436706 -0.039212240086450446 0 -0.0022667193282795905 -0.040014436385885269 0 -0.0036368825763771094 -0.032554937865052959 0 -0.0026931480812384082 -0.036090380018754198 0 -0.0036927027730470703 -0.038190352762624981 0 -0.0013788218181165482 -0.036852082952643118 0 -0.0022667193282795905 -0.040014436385885269 0 -0.0034456115046293603 -0.032115122196024061 0 -0.0038455551021579627 -0.0317464831881107 0 -0.00406524840369439 -0.032240535787691371 0 -0.0034456115046293603 -0.032115122196024061 0 -0.0032744868163296225 -0.0316001430585185 0 -0.0038455551021579627 -0.0317464831881107 0 -0.0026931480812384082 -0.036090380018754198 0 -0.0046201825450403536 -0.036108773922840454 0 -0.0038455551021579627 -0.0317464831881107 0 -0.0044562567903532841 -0.031904741861248601 0 -0.00406524840369439 -0.032240535787691371 0 -0.0036927027730470703 -0.038190352762624981 0 -0.0022667193282795905 -0.040014436385885269 0 -0.0052558788793962566 -0.040520026622056983 0 -0.0059213624658025973 -0.038028026869804249 0 -0.0036927027730470703 -0.038190352762624981 0 -0.0052558788793962566 -0.040520026622056983 0 -0.0059213624658025973 -0.038028026869804249 0 -0.0066360820153709265 -0.039515980799129061 0 -0.0052558788793962566 -0.040520026622056983 0 -0.0044562567903532841 -0.031904741861248601 0 -0.0044784152836631818 -0.032328299471843548 0 -0.00406524840369439 -0.032240535787691371 0 -0.0050697973059146556 -0.032075237275634098 0 -0.0044562567903532841 -0.031904741861248601 0 -0.0044784152836631818 -0.032328299471843548 0 -0.0050697973059146556 -0.032075237275634098 0 -0.0044784152836631818 -0.032328299471843548 0 -0.0046136064786073076 -0.0326408266803037 0 -0.0044784152836631818 -0.032328299471843548 0 -0.0044989281273983012 -0.032568224260501918 0 -0.0042306374162326774 -0.032533753335642075 0 -0.0044784152836631818 -0.032328299471843548 0 -0.0044989281273983012 -0.032568224260501918 0 -0.0046136064786073076 -0.0326408266803037 0 -0.0040488576613933328 -0.030756172629235936 0 -0.0016601274442477301 -0.027731661683723693 0 -0.0044989281273983012 -0.032568224260501918 0 -0.0046099157439109979 -0.032633921505922515 0 -0.0044982504234139182 -0.032780416624310811 0 -0.0073356610212532225 -0.032169427979105235 0 -0.0058606447957066368 -0.031268349233986754 0 -0.005298188215983015 -0.032055402300276883 0 -0.005543285662999756 -0.032566257903978976 0 -0.006720622392111659 -0.033110510106310762 0 -0.006720622392111659 -0.033110510106310762 0 -0.0040488576613933328 -0.030756172629235936 0 -0.0028570753312812404 -0.028830150761950269 0 -0.0031868647259947801 -0.028848071079805623 0 -0.0030109714288241839 -0.028598579019222067 0 -0.0076433592398373277 -0.032508426094249157 0 -0.0040488576613933328 -0.030756172629235936 0 -0.0044989281273983012 -0.032568224260501918 0 -0.0044982504234139182 -0.032780416624310811 0 -0.0042306374162326774 -0.032533753335642075 0 -0.0040488576613933328 -0.030756172629235936 0 -0.0027837490635004469 -0.030763456978000165 0 -0.0029879956540227754 -0.028903530025354549 0 -0.0019451661154065458 -0.028836590713748507 0 -0.0024601973274820102 -0.029623061624393841 0 -0.0044982504234139182 -0.032780416624310811 0 -0.0039108783956970268 -0.032721260087149394 0 -0.0042306374162326774 -0.032533753335642075 0 -0.0039108783956970268 -0.032721260087149394 0 -0.0042306374162326774 -0.032533753335642075 0 -0.00406524840369439 -0.032240535787691371 0 -0.0044784152836631818 -0.032328299471843548 0 -0.0042306374162326774 -0.032533753335642075 0 -0.00406524840369439 -0.032240535787691371 0 -0.0034456115046293603 -0.032115122196024061 0 -0.0039108783956970268 -0.032721260087149394 0 -0.00406524840369439 -0.032240535787691371 0 -0.0034456115046293603 -0.032115122196024061 0 -0.0039108783956970268 -0.032721260087149394 0 -0.0033390298196731894 -0.0326487889368599 0 -0.0027837490635004469 -0.030763456978000165 0 -0.0025481599411078617 -0.030925351070937579 0 -0.0019451661154065458 -0.028836590713748507 0 -0.0011514073819386412 -0.029170602461625596 0 -0.00088778060435559737 -0.028768154354189186 0 -0.0019451661154065458 -0.028836590713748507 0 -0.0011514073819386412 -0.029170602461625596 0 -0.0024601973274820102 -0.029623061624393841 0 -0.0011514073819386412 -0.029170602461625596 0 -0.00088778060435559737 -0.028768154354189186 0 0.00019007260088774408 -0.028707226555171633 0 0.00019737954203644337 -0.027311084410167399 0 0.00066923853814712891 -0.027934808305260111 0 -0.0034456115046293603 -0.032115122196024061 0 -0.0030936678194414357 -0.032330175351268697 0 -0.002831183830589216 -0.032008455355203316 0 -0.0034456115046293603 -0.032115122196024061 0 -0.0033390298196731894 -0.0326487889368599 0 -0.0030936678194414357 -0.032330175351268697 0 0.001127197883384386 -0.026827735946785693 0 0.0018796303741034663 -0.027536066799682089 0 0.0021493967182713396 -0.026847194940943855 0 0.001127197883384386 -0.026827735946785693 0 0.0018796303741034663 -0.027536066799682089 0 0.0010364277493455322 -0.027749003203091725 0 0.0011324027776741202 -0.025712394174332149 0 0.001127197883384386 -0.026827735946785693 0 0.0021493967182713396 -0.026847194940943855 0 0.0011324027776741202 -0.025712394174332149 0 0.0025207183725029355 -0.026062534639309385 0 0.0021493967182713396 -0.026847194940943855 0 0.0011324027776741202 -0.025712394174332149 0 0.001127197883384386 -0.026827735946785693 0 -0.00058985054900334989 -0.026319502181325775 0 0.00019737954203644337 -0.027311084410167399 0 -0.0016601274442477301 -0.027731661683723693 0 0.001127197883384386 -0.026827735946785693 0 0.00013749105272591373 -0.027372188411700412 0 0.0010364277493455322 -0.027749003203091725 0 0.001127197883384386 -0.026827735946785693 0 0.00013749105272591373 -0.027372188411700412 0 -0.00058985054900334989 -0.026319502181325775 0 0.00013749105272591373 -0.027372188411700412 0 0.00049248411968935669 -0.028003562626462558 0 0.0010364277493455322 -0.027749003203091725 0 0.00013749105272591373 -0.027372188411700412 0 -0.00063757752370444218 -0.027481851572453399 0 -0.00053664593178864546 -0.028092648774943305 0 0.00013749105272591373 -0.027372188411700412 0 -0.00063757752370444218 -0.027481851572453399 0 -0.00045311918041400918 -0.026867912924589628 0 0.0001419526736901386 -0.02716088723730109 0 -0.0016601274442477301 -0.027731661683723693 0 -0.0016601274442477301 -0.027731661683723693 0 -0.0021877657810078911 -0.027865985354698742 0 -0.0034170091998477906 -0.028487764661659695 0 -0.0030109714288241839 -0.028598579019222067 0 -0.0028845491223935104 -0.028302658400633573 0 -0.0031868647259947801 -0.028848071079805623 0 -0.0034170091998477906 -0.028487764661659695 0 -0.0030109714288241839 -0.028598579019222067 0 -0.00063757752370444218 -0.027481851572453399 0 -0.00045311918041400918 -0.026867912924589628 0 -0.0014102287186548582 -0.027388361116998345 0 -0.00063757752370444218 -0.027481851572453399 0 -0.0010535309571130618 -0.027859346824394279 0 -0.0014102287186548582 -0.027388361116998345 0 -0.00063757752370444218 -0.027481851572453399 0 -0.0010535309571130618 -0.027859346824394279 0 -0.00053664593178864546 -0.028092648774943305 0 -0.0010535309571130618 -0.027859346824394279 0 -0.0011060437088462789 -0.028354865963266394 0 -0.00053664593178864546 -0.028092648774943305 0 -0.00080395451870204167 -0.028410500563197678 0 -0.0011060437088462789 -0.028354865963266394 0 -0.00053664593178864546 -0.028092648774943305 0 -0.0011060437088462789 -0.028354865963266394 0 -0.00092342376176270927 -0.028680033620994288 0 -0.0012079679169078525 -0.02870832523112694 0 -0.00092342376176270927 -0.028680033620994288 0 -0.00107903705589224 -0.028906325126281617 0 -0.00093083564019406386 -0.028816291720513768 0 -0.00092342376176270927 -0.028680033620994288 0 -0.0012079679169078525 -0.02870832523112694 0 -0.00107903705589224 -0.028906325126281617 0 -0.00092342376176270927 -0.028680033620994288 0 -0.00071811818777772361 -0.028694715885564749 0 -0.00093083564019406386 -0.028816291720513768 0 -0.00080395451870204167 -0.028410500563197678 0 -0.0011060437088462789 -0.028354865963266394 0 -0.00092342376176270927 -0.028680033620994288 0 -0.00080395451870204167 -0.028410500563197678 0 -0.00092342376176270927 -0.028680033620994288 0 -0.00065433983243693079 -0.028481658478821986 0 -0.00092342376176270927 -0.028680033620994288 0 -0.00065433983243693079 -0.028481658478821986 0 -0.00071811818777772361 -0.028694715885564749 0 -0.00065433983243693079 -0.028481658478821986 0 -0.00071811818777772361 -0.028694715885564749 0 -0.00054346781787707103 -0.028530121025625809 0 -0.00071811818777772361 -0.028694715885564749 0 -0.00040009482636141379 -0.02857749771870172 0 -0.00033195365845205054 -0.028699874640994209 0 -0.00071811818777772361 -0.028694715885564749 0 -0.00054346781787707103 -0.028530121025625809 0 -0.00040009482636141379 -0.02857749771870172 0 -0.00065433983243693079 -0.028481658478821986 0 -0.00054346781787707103 -0.028530121025625809 0 -0.00033416210507678185 -0.028290458656893391 0 -0.00054346781787707103 -0.028530121025625809 0 -0.00033416210507678185 -0.028290458656893391 0 -0.00040009482636141379 -0.02857749771870172 0 -0.00053664593178864546 -0.028092648774943305 0 0.00049248411968935669 -0.028003562626462558 0 0.00029442040686420253 -0.028527814094803185 0 0.00013749105272591373 -0.027372188411700412 0 -0.00053664593178864546 -0.028092648774943305 0 0.00049248411968935669 -0.028003562626462558 0 -0.00065433983243693079 -0.028481658478821986 0 -0.00053664593178864546 -0.028092648774943305 0 -0.00033416210507678185 -0.028290458656893391 0 -0.00053623546520059542 -0.028068744935325747 0 0.00026623047965657672 -0.028371935257221401 0 -0.00080395451870204167 -0.028410500563197678 0 -0.00065433983243693079 -0.028481658478821986 0 -0.00053664593178864546 -0.028092648774943305 0 0.00049248411968935669 -0.028003562626462558 0 0.0010364277493455322 -0.027749003203091725 0 0.0009643409211636246 -0.028404925717515277 0 0.00049248411968935669 -0.028003562626462558 0 0.0009643409211636246 -0.028404925717515277 0 0.00029442040686420253 -0.028527814094803185 0 -0.00033416210507678185 -0.028290458656893391 0 -0.00040009482636141379 -0.02857749771870172 0 5.9740243914810788e-05 -0.028427838835423994 0 -0.00040009482636141379 -0.02857749771870172 0 5.9740243914810788e-05 -0.028427838835423994 0 -0.00027604854312128892 -0.028688566719680696 0 0.0035128613677944754 -0.024608402198574551 0 0.0032683040512251015 -0.019320496141927029 0 0.0083351230146525308 -0.015587774242440785 0 0.0032683040512251015 -0.019320496141927029 0 0.00026623047965657672 -0.028371935257221401 0 0.0083351230146525308 -0.015587774242440785 0 0.0009643409211636246 -0.028404925717515277 0 0.00029442040686420253 -0.028527814094803185 0 0.0011300014422057794 -0.028983106932337271 0 0.0009643409211636246 -0.028404925717515277 0 0.0011300014422057794 -0.028983106932337271 0 0.0014410293362026973 -0.028184555791854242 0 0.01707451538846283 -0.0049405362148744877 0 0.014761479024472231 -0.0051560774816959134 0 0.013355856576139627 -0.0021396657395214838 0 0.01707451538846283 -0.0049405362148744877 0 0.014761479024472231 -0.0051560774816959134 0 0.013920248161676304 -0.0075068846223591435 0 0.0083351230146525308 -0.015587774242440785 0 0.0081713420992305143 -0.017896383395280119 0 0.0011300014422057794 -0.028983106932337271 0 0.0014410293362026973 -0.028184555791854242 0 0.002232887253802177 -0.028142296162850043 0 0.0010364277493455322 -0.027749003203091725 0 0.0009643409211636246 -0.028404925717515277 0 0.0014410293362026973 -0.028184555791854242 0 0.0018796303741034663 -0.027536066799682089 0 0.0010364277493455322 -0.027749003203091725 0 0.0014410293362026973 -0.028184555791854242 0 0.0018796303741034663 -0.027536066799682089 0 0.0014410293362026973 -0.028184555791854242 0 0.002232887253802177 -0.028142296162850043 0 -0.0024715088323344421 -0.02836215005333146 0 -0.0023978938267738615 -0.028333525238646105 0 -0.0024470510595002138 -0.028460718899743623 0 -0.0023978938267738615 -0.028333525238646105 0 -0.0024470510595002138 -0.028460718899743623 0 -0.0023372096662113589 -0.028183278378599602 0 -0.0024470510595002138 -0.028460718899743623 0 -0.0023372096662113589 -0.028183278378599602 0 -0.0024339670344563887 -0.028530837933859573 0 -0.0024470510595002138 -0.028460718899743623 0 -0.002542426511683276 -0.028667794505750212 0 -0.0025930785638433964 -0.028703750294214684 0 -0.0024715088323344421 -0.02836215005333146 0 -0.0024470510595002138 -0.028460718899743623 0 -0.002542426511683276 -0.028667794505750212 0 -0.003749675965946339 -0.029649803256931079 0 -0.0026430906833160208 -0.029089254419613957 0 -0.0024715088323344421 -0.02836215005333146 0 -0.002542426511683276 -0.028667794505750212 0 -0.002619432910050725 -0.029129746325556833 0 -0.0049895592603040927 -0.030823222635434917 0 -0.0040698766791024696 -0.030384957443758093 0 -0.002619432910050725 -0.029129746325556833 0 -0.002542426511683276 -0.028667794505750212 0 -0.0025930785638433964 -0.028703750294214684 0 -0.002619432910050725 -0.029129746325556833 0 -0.0049895592603040927 -0.030823222635434917 0 -0.0040698766791024696 -0.030384957443758093 0 -0.0042833444918949307 -0.031305168109451401 0 -0.0040698766791024696 -0.030384957443758093 0 -0.0042833444918949307 -0.031305168109451401 0 -0.0034524385442928924 -0.031563983273731569 0 -0.0049895592603040927 -0.030823222635434917 0 -0.0042833444918949307 -0.031305168109451401 0 -0.004798233801075468 -0.032123838188821294 0 -0.0042833444918949307 -0.031305168109451401 0 -0.004798233801075468 -0.032123838188821294 0 -0.0038739576866322198 -0.032416220708172051 0 -0.0042833444918949307 -0.031305168109451401 0 -0.0034524385442928924 -0.031563983273731569 0 -0.0038739576866322198 -0.032416220708172051 0 -0.0040698766791024696 -0.030384957443758093 0 -0.0034524385442928924 -0.031563983273731569 0 -0.0022898422356126065 -0.031382865484959221 0 -0.0034524385442928924 -0.031563983273731569 0 -0.0028107292069813532 -0.032369656719623781 0 -0.0022898422356126065 -0.031382865484959221 0 -0.0034524385442928924 -0.031563983273731569 0 -0.0028107292069813532 -0.032369656719623781 0 -0.0038739576866322198 -0.032416220708172051 0 -0.0031145853416606551 -0.033658857204307148 0 -0.0028107292069813532 -0.032369656719623781 0 -0.0038739576866322198 -0.032416220708172051 0 -0.0049520803607382416 -0.033915994502518705 0 -0.004798233801075468 -0.032123838188821294 0 -0.0038739576866322198 -0.032416220708172051 0 -0.003749675965946339 -0.029649803256931079 0 -0.0049158156503748976 -0.030395958892591134 0 -0.0049520803607382416 -0.033915994502518705 0 -0.004798233801075468 -0.032123838188821294 0 -0.0057049912053084555 -0.032623730220335496 0 -0.0024715088323344421 -0.02836215005333146 0 -0.0023978938267738615 -0.028333525238646105 0 -0.0024241007625203067 -0.028495893387743606 0 -0.0049895592603040927 -0.030823222635434917 0 -0.0057049912053084555 -0.032623730220335496 0 -0.0078412545026556174 -0.032651138302438092 0 -0.0049895592603040927 -0.030823222635434917 0 -0.004798233801075468 -0.032123838188821294 0 -0.0057049912053084555 -0.032623730220335496 0 -0.0068430560726088661 -0.034138330293660354 0 -0.0057049912053084555 -0.032623730220335496 0 -0.0078412545026556174 -0.032651138302438092 0 -0.0024241007625203067 -0.028495893387743606 0 -0.0027063267615228051 -0.028528362399228964 0 -0.0023372096662113589 -0.028183278378599602 0 -0.0027063267615228051 -0.028528362399228964 0 -0.0028845491223935104 -0.028302658400633573 0 -0.0023372096662113589 -0.028183278378599602 0 -0.0028570753312812404 -0.028830150761950269 0 -0.0024241007625203067 -0.028495893387743606 0 -0.0027063267615228051 -0.028528362399228964 0 -0.0028570753312812404 -0.028830150761950269 0 -0.0030109714288241839 -0.028598579019222067 0 -0.0027063267615228051 -0.028528362399228964 0 -0.0030109714288241839 -0.028598579019222067 0 -0.0027063267615228051 -0.028528362399228964 0 -0.0028845491223935104 -0.028302658400633573 0 -0.0010535309571130618 -0.027859346824394279 0 -0.0014102287186548582 -0.027388361116998345 0 -0.0016155227100065484 -0.028152360213094231 0 -0.0014102287186548582 -0.027388361116998345 0 -0.0023372096662113589 -0.028183278378599602 0 -0.0016155227100065484 -0.028152360213094231 0 -0.0023978938267738615 -0.028333525238646105 0 -0.0024241007625203067 -0.028495893387743606 0 -0.0023372096662113589 -0.028183278378599602 0 -0.0021877657810078911 -0.027865985354698742 0 -0.0022959645347424987 -0.028116085412689767 0 -0.0023372096662113589 -0.028183278378599602 0 -0.0020990229915039084 -0.028462820653307838 0 -0.0016155227100065484 -0.028152360213094231 0 -0.0023372096662113589 -0.028183278378599602 0 -0.0020990229915039084 -0.028462820653307838 0 -0.0024339670344563887 -0.028530837933859573 0 -0.0020990229915039084 -0.028462820653307838 0 -0.0023939587802589931 -0.028685564621105778 0 -0.0024339670344563887 -0.028530837933859573 0 -0.0010535309571130618 -0.027859346824394279 0 -0.0011060437088462789 -0.028354865963266394 0 -0.0016155227100065484 -0.028152360213094231 0 -0.0020990229915039084 -0.028462820653307838 0 -0.0016155227100065484 -0.028152360213094231 0 -0.001580542078125252 -0.02855233785145796 0 -0.0011060437088462789 -0.028354865963266394 0 -0.0016155227100065484 -0.028152360213094231 0 -0.001580542078125252 -0.02855233785145796 0 -0.0011060437088462789 -0.028354865963266394 0 -0.001580542078125252 -0.02855233785145796 0 -0.0012079679169078525 -0.02870832523112694 0 -0.001580542078125252 -0.02855233785145796 0 -0.0012079679169078525 -0.02870832523112694 0 -0.0014168402601352078 -0.028886708757921979 0 -0.001580542078125252 -0.02855233785145796 0 -0.0014168402601352078 -0.028886708757921979 0 -0.0019120124789949221 -0.028818488110133371 0 -0.0014168402601352078 -0.028886708757921979 0 -0.0019120124789949221 -0.028818488110133371 0 -0.0017425025166184565 -0.029069608362022704 0 -0.0012079679169078525 -0.02870832523112694 0 -0.0014168402601352078 -0.028886708757921979 0 -0.00107903705589224 -0.028906325126281617 0 -0.0020990229915039084 -0.028462820653307838 0 -0.0019120124789949221 -0.028818488110133371 0 -0.0023939587802589931 -0.028685564621105778 0 -0.0019120124789949221 -0.028818488110133371 0 -0.0021465901106592967 -0.029042716743416994 0 -0.0023939587802589931 -0.028685564621105778 0 -0.0020990229915039084 -0.028462820653307838 0 -0.001580542078125252 -0.02855233785145796 0 -0.0019120124789949221 -0.028818488110133371 0 -0.0019120124789949221 -0.028818488110133371 0 -0.0017425025166184565 -0.029069608362022704 0 -0.0021465901106592967 -0.029042716743416994 0 -0.0021465901106592967 -0.029042716743416994 0 -0.0026034373943431871 -0.029093766354006838 0 -0.0023939587802589931 -0.028685564621105778 0 -0.0041368491390588458 -0.034123687037708329 0 -0.0019656424663756591 -0.027458802147833611 0 -0.0024946516328533288 -0.028862548694518882 0 -0.0023939587802589931 -0.028685564621105778 0 -0.0025423507400360382 -0.0286816077352978 0 -0.0023939587802589931 -0.028685564621105778 0 -0.0025423507400360382 -0.0286816077352978 0 -0.0024339670344563887 -0.028530837933859573 0 -0.0025423507400360382 -0.0286816077352978 0 -0.0024339670344563887 -0.028530837933859573 0 -0.0025930785638433964 -0.028703750294214684 0 -0.0024470510595002138 -0.028460718899743623 0 -0.0024339670344563887 -0.028530837933859573 0 -0.0025930785638433964 -0.028703750294214684 0 -0.0025423507400360382 -0.0286816077352978 0 -0.0025930785638433964 -0.028703750294214684 0 -0.002635014505188253 -0.028624526577305291 0 -0.0025930785638433964 -0.028703750294214684 0 -0.002635014505188253 -0.028624526577305291 0 -0.002619432910050725 -0.029129746325556833 0 -0.0024946516328533288 -0.028862548694518882 0 -0.0025423507400360382 -0.0286816077352978 0 -0.002635014505188253 -0.028624526577305291 0 -0.010396147117884809 -0.045758904128308339 0 -0.0076671011539463851 -0.047128927603724266 0 -0.0083911111726229573 -0.04513497702404104 0 -0.0041368491390588458 -0.034123687037708329 0 -0.0054502384976447583 -0.038283224141678958 0 -0.0076671011539463851 -0.047128927603724266 0 -0.0066943024714922706 -0.045323287422585526 0 -0.0083911111726229573 -0.04513497702404104 0 -0.0076671011539463851 -0.047128927603724266 0 -0.0057353382985381876 -0.046543799780860394 0 -0.0050902680109572484 -0.048338892114658805 0 -0.0076671011539463851 -0.047128927603724266 0 -0.0057353382985381876 -0.046543799780860394 0 -0.0066943024714922706 -0.045323287422585526 0 -0.0057353382985381876 -0.046543799780860394 0 -0.0044222284746217987 -0.047153740977336309 0 -0.0050902680109572484 -0.048338892114658805 0 -0.0044222284746217987 -0.047153740977336309 0 -0.0036680347096951197 -0.046187079687867089 0 -0.0046935809871818408 -0.045771756334669067 0 -0.0057353382985381876 -0.046543799780860394 0 -0.0044222284746217987 -0.047153740977336309 0 -0.0046935809871818408 -0.045771756334669067 0 -0.0057353382985381876 -0.046543799780860394 0 -0.0046935809871818408 -0.045771756334669067 0 -0.0056373401504297505 -0.045224075386326605 0 -0.0044222284746217987 -0.047153740977336309 0 -0.0050902680109572484 -0.048338892114658805 0 -0.0036719931296420021 -0.048032653347545876 0 -0.0054502384976447583 -0.038283224141678958 0 -0.0030822456995451518 -0.037892619784563472 0 -0.002635014505188253 -0.028624526577305291 0 -0.0015279981828211669 -0.028855787145835556 0 -0.002619432910050725 -0.029129746325556833 0 -0.0015279981828211669 -0.028855787145835556 0 -0.002619432910050725 -0.029129746325556833 0 -0.0015926584401755905 -0.03005031611917219 0 -0.0040698766791024696 -0.030384957443758093 0 -0.00036292233719204491 -0.030670733948151493 0 -0.0022898422356126065 -0.031382865484959221 0 -0.004065778684899499 -0.030663661079591148 0 -0.00067243584813058864 -0.029041289534984211 0 -0.0040698766791024696 -0.030384957443758093 0 -0.002619432910050725 -0.029129746325556833 0 -0.0015926584401755905 -0.03005031611917219 0 -0.00067243584813058864 -0.029041289534984211 0 -0.00026861897534107514 -0.042214328107982632 0 -0.0015279981828211669 -0.028855787145835556 0 -0.00083825441923541307 -0.029758738955673138 0 -0.0015926584401755905 -0.03005031611917219 0 -0.00083825441923541307 -0.029758738955673138 0 -0.0015926584401755905 -0.03005031611917219 0 -0.00013532668405661375 -0.030291316693312548 0 -0.00036292233719204491 -0.030670733948151493 0 0.00090232884851410196 -0.032576827075649947 0 -0.0013124975790017276 -0.032823679186409445 0 -0.00036292233719204491 -0.030670733948151493 0 0.00090232884851410196 -0.032576827075649947 0 0.0032135129468163588 -0.030950049696611491 0 0.00090232884851410196 -0.032576827075649947 0 -0.0013124975790017276 -0.032823679186409445 0 0.0002545807375971276 -0.034178506836738162 0 -0.0031145853416606551 -0.033658857204307148 0 -0.0028107292069813532 -0.032369656719623781 0 -0.0013124975790017276 -0.032823679186409445 0 -0.0028107292069813532 -0.032369656719623781 0 -0.0013124975790017276 -0.032823679186409445 0 -0.0022898422356126065 -0.031382865484959221 0 -0.00036292233719204491 -0.030670733948151493 0 -0.0013124975790017276 -0.032823679186409445 0 -0.0022898422356126065 -0.031382865484959221 0 -0.00032764493638787282 -0.054526967367279584 0 -0.00033200291280585111 -0.054441077855245032 0 -0.0003526736874932216 -0.054542569707716891 0 -0.00032764493638787282 -0.054526967367279584 0 -0.0003526736874932216 -0.054542569707716891 0 -0.00035828602780860457 -0.054557613310437347 0 -0.00032764493638787282 -0.054526967367279584 0 -0.00033200291280585111 -0.054441077855245032 0 -0.00030576165444875342 -0.054491510612211407 0 -0.00026861897534107514 -0.042214328107982632 0 0.0013791352205061755 -0.04431056876939049 0 0.00090232884851410196 -0.032576827075649947 0 0.0032135129468163588 -0.030950049696611491 0 0.0027785452820031416 -0.033994704760601763 0 -0.00026861897534107514 -0.042214328107982632 0 -0.0038170539043325858 -0.045318614713844137 0 -0.0041827929797750027 -0.054731183613956062 0 -0.0037130371837254044 -0.054048830898837247 0 -0.0040542157192088512 -0.053410159450601243 0 -0.0015279981828211669 -0.028855787145835556 0 -0.00083825441923541307 -0.029758738955673138 0 -1.2774327590220148e-06 -0.029728282700539337 0 -0.00083825441923541307 -0.029758738955673138 0 -0.00013532668405661375 -0.030291316693312548 0 -1.2774327590220148e-06 -0.029728282700539337 0 -0.0037130371837254044 -0.054048830898837247 0 -0.0040542157192088512 -0.053410159450601243 0 -0.0037368226342084972 -0.053615271149752383 0 -0.0038170539043325858 -0.045318614713844137 0 -0.0032382646002906811 -0.046254669715087363 0 -0.0045081694176505307 -0.05344798664698884 0 -0.0037698261528352241 -0.053211344733739015 0 -0.0034741798900451157 -0.052404024701637214 0 -0.0045081694176505307 -0.05344798664698884 0 -0.0037698261528352241 -0.053211344733739015 0 -0.0037368226342084972 -0.053615271149752383 0 -0.0041827929797750027 -0.054731183613956062 0 -0.0029457461667804748 -0.054100908234652856 0 -0.0011607633392100873 -0.054571224318574335 0 -0.0033336599560230148 -0.053330483560659232 0 -0.0037698261528352241 -0.053211344733739015 0 -0.0034741798900451157 -0.052404024701637214 0 -0.00026861897534107514 -0.042214328107982632 0 -0.0011709978698100859 -0.055334554245269778 0 -0.0033336599560230148 -0.053330483560659232 0 -0.0027906386733371575 -0.053062334749780178 0 -0.0034741798900451157 -0.052404024701637214 0 -0.0033336599560230148 -0.053330483560659232 0 -0.0037698261528352241 -0.053211344733739015 0 -0.0037368226342084972 -0.053615271149752383 0 -0.0033336599560230148 -0.053330483560659232 0 -0.0027906386733371575 -0.053062334749780178 0 -0.0029457461667804748 -0.054100908234652856 0 -0.0027906386733371575 -0.053062334749780178 0 -0.0029457461667804748 -0.054100908234652856 0 -0.0018514574314509461 -0.053525554652413189 0 -0.0033336599560230148 -0.053330483560659232 0 -0.0037368226342084972 -0.053615271149752383 0 -0.0029457461667804748 -0.054100908234652856 0 -0.0037130371837254044 -0.054048830898837247 0 -0.0037368226342084972 -0.053615271149752383 0 -0.0029457461667804748 -0.054100908234652856 0 -0.0041827929797750027 -0.054731183613956062 0 -0.0037130371837254044 -0.054048830898837247 0 -0.0029457461667804748 -0.054100908234652856 0 -0.0029457461667804748 -0.054100908234652856 0 -0.0018514574314509461 -0.053525554652413189 0 -0.0011607633392100873 -0.054571224318574335 0 -0.0018514574314509461 -0.053525554652413189 0 -0.0017954011309428578 -0.052575538617233686 0 -0.00084016075098285409 -0.053811026317559484 0 -0.0018514574314509461 -0.053525554652413189 0 -0.0017954011309428578 -0.052575538617233686 0 -0.0022701159420326512 -0.052636657634755828 0 -0.0027906386733371575 -0.053062334749780178 0 -0.0018514574314509461 -0.053525554652413189 0 -0.0022701159420326512 -0.052636657634755828 0 -0.0045081694176505307 -0.05344798664698884 0 -0.003018817914524758 -0.050875015724161171 0 -0.0027630540281548422 -0.047413611426979418 0 -0.001811364321812142 -0.051255638680000347 0 -0.0014071078096742707 -0.04873450044869581 0 -0.00084016075098285409 -0.053811026317559484 0 -0.0017954011309428578 -0.052575538617233686 0 -0.001811364321812142 -0.051255638680000347 0 -0.00084016075098285409 -0.053811026317559484 0 -0.0017954011309428578 -0.052575538617233686 0 -0.001811364321812142 -0.051255638680000347 0 -0.0022861203817756272 -0.051832989264303804 0 -0.001811364321812142 -0.051255638680000347 0 -0.0022861203817756272 -0.051832989264303804 0 -0.0023953129646431546 -0.050914267670230037 0 -0.0017954011309428578 -0.052575538617233686 0 -0.0022861203817756272 -0.051832989264303804 0 -0.0022701159420326512 -0.052636657634755828 0 -0.0027329489333221412 -0.052240389533824205 0 -0.0034741798900451157 -0.052404024701637214 0 -0.0027990297358477523 -0.051430630112702443 0 -0.0045081694176505307 -0.05344798664698884 0 -0.0034741798900451157 -0.052404024701637214 0 -0.003018817914524758 -0.050875015724161171 0 -0.0027906386733371575 -0.053062334749780178 0 -0.0022701159420326512 -0.052636657634755828 0 -0.0027329489333221412 -0.052240389533824205 0 -0.0027906386733371575 -0.053062334749780178 0 -0.0027329489333221412 -0.052240389533824205 0 -0.0034741798900451157 -0.052404024701637214 0 -0.0022861203817756272 -0.051832989264303804 0 -0.0022701159420326512 -0.052636657634755828 0 -0.0027329489333221412 -0.052240389533824205 0 -0.0034741798900451157 -0.052404024701637214 0 -0.0027990297358477523 -0.051430630112702443 0 -0.003018817914524758 -0.050875015724161171 0 -0.0022861203817756272 -0.051832989264303804 0 -0.0027329489333221412 -0.052240389533824205 0 -0.0027990297358477523 -0.051430630112702443 0 -0.0027990297358477523 -0.051430630112702443 0 -0.0023953129646431546 -0.050914267670230037 0 -0.003018817914524758 -0.050875015724161171 0 -0.0022861203817756272 -0.051832989264303804 0 -0.0027990297358477523 -0.051430630112702443 0 -0.0023953129646431546 -0.050914267670230037 0 -0.0023953129646431546 -0.050914267670230037 0 -0.003018817914524758 -0.050875015724161171 0 -0.0022392656334051502 -0.049683792398352092 0 -0.003018817914524758 -0.050875015724161171 0 -0.0022392656334051502 -0.049683792398352092 0 -0.0027630540281548422 -0.047413611426979418 0 -0.001811364321812142 -0.051255638680000347 0 -0.0022392656334051502 -0.049683792398352092 0 -0.0014071078096742707 -0.04873450044869581 0 -0.001811364321812142 -0.051255638680000347 0 -0.0023953129646431546 -0.050914267670230037 0 -0.0022392656334051502 -0.049683792398352092 0 -0.0038170539043325858 -0.045318614713844137 0 -0.0030430597058352842 -0.050153607386945971 0 -0.0050902680109572484 -0.048338892114658805 0 -0.0031652486757019998 -0.049082317206119434 0 -0.0036719931296420021 -0.048032653347545876 0 -0.0030822456995451518 -0.037892619784563472 0 -0.0038170539043325858 -0.045318614713844137 0 -0.0031652486757019998 -0.049082317206119434 0 -0.0036719931296420021 -0.048032653347545876 0 -0.0027630540281548422 -0.047413611426979418 0 -0.0044222284746217987 -0.047153740977336309 0 -0.0036719931296420021 -0.048032653347545876 0 -0.0036151118528063098 -0.04722807880975588 0 -0.0036719931296420021 -0.048032653347545876 0 -0.0036151118528063098 -0.04722807880975588 0 -0.0027630540281548422 -0.047413611426979418 0 -0.0036680347096951197 -0.046187079687867089 0 -0.0027630540281548422 -0.047413611426979418 0 -0.0026578393701785965 -0.045282239302918491 0 -0.0036151118528063098 -0.04722807880975588 0 -0.0036680347096951197 -0.046187079687867089 0 -0.0027630540281548422 -0.047413611426979418 0 -0.0044222284746217987 -0.047153740977336309 0 -0.0036151118528063098 -0.04722807880975588 0 -0.0036680347096951197 -0.046187079687867089 0 -0.0017209723837325437 -0.051239927763459106 0 -0.0036327258041124891 -0.050914027419091394 0 -0.0020487673221233934 -0.054101734899042617 0 -0.0018725150966983906 -0.054257226294348121 0 -0.0028246788316476372 -0.053663241274466346 0 -0.0014071078096742707 -0.04873450044869581 0 -0.0027630540281548422 -0.047413611426979418 0 -0.0026578393701785965 -0.045282239302918491 0 -0.0018725150966983906 -0.054257226294348121 0 -0.0016947932536670457 -0.054124490285535391 0 -0.0013806481953006157 -0.054134268621553516 0 -0.0020487673221233934 -0.054101734899042617 0 -0.0018725150966983906 -0.054257226294348121 0 -0.0016947932536670457 -0.054124490285535391 0 -0.0020487673221233934 -0.054101734899042617 0 -0.0018839360227671199 -0.05395765207516106 0 -0.0016947932536670457 -0.054124490285535391 0 -0.0022392656334051502 -0.049683792398352092 0 -0.0014071078096742707 -0.04873450044869581 0 -0.0027630540281548422 -0.047413611426979418 0 -0.0020487673221233934 -0.054101734899042617 0 -0.0024578768732075314 -0.053707900420354157 0 -0.0035991463175652147 -0.053558554841841764 0 -0.0018400209689466633 -0.054717726009019946 0 -0.0036327258041124891 -0.050914027419091394 0 -0.0020487673221233934 -0.054101734899042617 0 -0.0018839360227671199 -0.05395765207516106 0 -0.0024578768732075314 -0.053707900420354157 0 -0.0018839360227671199 -0.05395765207516106 0 -0.0024578768732075314 -0.053707900420354157 0 -0.001926124673039881 -0.053663854734029716 0 -0.0018839360227671199 -0.05395765207516106 0 -0.0013815859602970646 -0.054073302684698114 0 -0.001926124673039881 -0.053663854734029716 0 -0.0013815859602970646 -0.054073302684698114 0 -0.00086332013370958322 -0.054091433901356338 0 -0.0010733976382107267 -0.053794239404678292 0 -0.0018839360227671199 -0.05395765207516106 0 -0.0016947932536670457 -0.054124490285535391 0 -0.0013815859602970646 -0.054073302684698114 0 -0.0016947932536670457 -0.054124490285535391 0 -0.0013815859602970646 -0.054073302684698114 0 -0.0013806481953006157 -0.054134268621553516 0 -0.0013815859602970646 -0.054073302684698114 0 -0.00086332013370958322 -0.054091433901356338 0 -0.001033504554609008 -0.054107889298619344 0 -0.0013815859602970646 -0.054073302684698114 0 -0.001926124673039881 -0.053663854734029716 0 -0.0010733976382107267 -0.053794239404678292 0 -0.00057185399191919109 -0.05399032060101782 0 -0.00086332013370958322 -0.054091433901356338 0 -0.0010733976382107267 -0.053794239404678292 0 -0.00057185399191919109 -0.05399032060101782 0 -0.00086332013370958322 -0.054091433901356338 0 -0.00054795902885140628 -0.054095484294274208 0 -0.00086332013370958322 -0.054091433901356338 0 -0.0007074520735314856 -0.054169536208618099 0 -0.001033504554609008 -0.054107889298619344 0 -0.00086332013370958322 -0.054091433901356338 0 -0.0007074520735314856 -0.054169536208618099 0 -0.00054795902885140628 -0.054095484294274208 0 -0.0018725150966983906 -0.054257226294348121 0 -0.0013806481953006157 -0.054134268621553516 0 -0.00084016075098285409 -0.053811026317559484 0 -0.0017209723837325437 -0.051239927763459106 0 -0.00091224507906006341 -0.053494244036094991 0 -0.0007074520735314856 -0.054169536208618099 0 -0.001033504554609008 -0.054107889298619344 0 -0.00084016075098285409 -0.053811026317559484 0 -0.0013806481953006157 -0.054134268621553516 0 -0.001033504554609008 -0.054107889298619344 0 -0.00084016075098285409 -0.053811026317559484 0 -0.0013815859602970646 -0.054073302684698114 0 -0.0013806481953006157 -0.054134268621553516 0 -0.001033504554609008 -0.054107889298619344 0 -0.00010313174403830869 -0.055029298593380592 0 8.9600988451189707e-08 -0.055000027319779446 0 -5.3569613257856274e-07 -0.055000350799361469 0 -0.00057185399191919109 -0.05399032060101782 0 -0.00040951713487627625 -0.053967164310194389 0 -0.00054795902885140628 -0.054095484294274208 0 -0.00057185399191919109 -0.05399032060101782 0 -0.00040951713487627625 -0.053967164310194389 0 -0.00035047828872813926 -0.053957106717973005 0 -0.00040951713487627625 -0.053967164310194389 0 -0.00054795902885140628 -0.054095484294274208 0 -0.00023305475079636956 -0.054323888397152478 0 -0.0007074520735314856 -0.054169536208618099 0 -0.00054795902885140628 -0.054095484294274208 0 -0.00023305475079636956 -0.054323888397152478 0 -0.00024250226318202686 -0.054496965135128472 0 -0.00013415281150761757 -0.054672556414297684 0 -0.00010313174403830869 -0.055029298593380592 0 8.9600988451189707e-08 -0.055000027319779446 0 -1.7053630777206771e-05 -0.054999931496001075 0 -1.7053630777206771e-05 -0.054999931496001075 0 -8.3158483063642139e-05 -0.054827304572835724 0 -1.4120841203006264e-07 -0.054999798111781975 0 8.9600988451189707e-08 -0.055000027319779446 0 -1.7053630777206771e-05 -0.054999931496001075 0 -1.4120841203006264e-07 -0.054999798111781975 0 -0.00023305475079636956 -0.054323888397152478 0 -8.3158483063642139e-05 -0.054827304572835724 0 -0.00046472778011294653 -0.054505664713398655 0 -0.00013415281150761757 -0.054672556414297684 0 -8.8990820380417923e-05 -0.054829270733061056 0 -8.3158483063642139e-05 -0.054827304572835724 0 -0.00046472778011294653 -0.054505664713398655 0 -0.00026733419258351927 -0.054730658839520538 0 -8.3158483063642139e-05 -0.054827304572835724 0 -1.4120841203006264e-07 -0.054999798111781975 0 -3.3777554070520558e-08 -0.054999770694705019 0 -0.0011709978698100859 -0.055334554245269778 0 -0.00033970414833390454 -0.054425453117507273 0 -0.0011607633392100873 -0.054571224318574335 0 -0.00084016075098285409 -0.053811026317559484 0 -0.00046472778011294653 -0.054505664713398655 0 -0.0018514574314509461 -0.053525554652413189 0 -0.0011607633392100873 -0.054571224318574335 0 -0.00084016075098285409 -0.053811026317559484 0 -0.0007074520735314856 -0.054169536208618099 0 -0.00023305475079636956 -0.054323888397152478 0 -0.00046472778011294653 -0.054505664713398655 0 -0.0007074520735314856 -0.054169536208618099 0 -0.00084016075098285409 -0.053811026317559484 0 -0.00046472778011294653 -0.054505664713398655 0 -0.00046472778011294653 -0.054505664713398655 0 -0.0003540256892470866 -0.054624432123013128 0 -0.00026733419258351927 -0.054730658839520538 0 -0.00046472778011294653 -0.054505664713398655 0 -0.00035828602780860457 -0.054557613310437347 0 -0.0003540256892470866 -0.054624432123013128 0 -0.0003526736874932216 -0.054542569707716891 0 -0.00046472778011294653 -0.054505664713398655 0 -0.00035828602780860457 -0.054557613310437347 0 -0.00035828602780860457 -0.054557613310437347 0 -0.00033158918782305531 -0.054605669784798916 0 -0.0003540256892470866 -0.054624432123013128 0 -0.00033158918782305531 -0.054605669784798916 0 -0.0003540256892470866 -0.054624432123013128 0 -0.00031130488439669009 -0.054681470216968127 0 -0.00026733419258351927 -0.054730658839520538 0 -0.00031130488439669009 -0.054681470216968127 0 -0.00023352628439327774 -0.054771871361942968 0 -0.0003540256892470866 -0.054624432123013128 0 -0.00026733419258351927 -0.054730658839520538 0 -0.00031130488439669009 -0.054681470216968127 0 -0.00031130488439669009 -0.054681470216968127 0 -0.00023352628439327774 -0.054771871361942968 0 -0.00027311096365755866 -0.054741046570061277 0 -0.00023352628439327774 -0.054771871361942968 0 -0.00020016800362465467 -0.054812143401826136 0 -0.00027311096365755866 -0.054741046570061277 0 -0.00027311096365755866 -0.054741046570061277 0 -0.00032383291974978363 -0.05465723865387128 0 -0.00033141078197762515 -0.054687889132333752 0 -0.00032383291974978363 -0.05465723865387128 0 -0.00033578812429546596 -0.054627558338664194 0 -0.00031597727851841227 -0.054606438555941939 0 -0.00033158918782305531 -0.054605669784798916 0 -0.00032383291974978363 -0.05465723865387128 0 -0.00031597727851841227 -0.054606438555941939 0 -0.00033158918782305531 -0.054605669784798916 0 -0.00031130488439669009 -0.054681470216968127 0 -0.00032383291974978363 -0.05465723865387128 0 -0.00031130488439669009 -0.054681470216968127 0 -0.00027311096365755866 -0.054741046570061277 0 -0.00032383291974978363 -0.05465723865387128 0 -8.3158483063642139e-05 -0.054827304572835724 0 -3.3777554070520558e-08 -0.054999770694705019 0 -0.00010880503024181463 -0.054879696573710585 0 -0.00026733419258351927 -0.054730658839520538 0 -0.00023352628439327774 -0.054771871361942968 0 -0.00010880503024181463 -0.054879696573710585 0 -8.3158483063642139e-05 -0.054827304572835724 0 -0.00026733419258351927 -0.054730658839520538 0 -0.00010880503024181463 -0.054879696573710585 0 -0.00020016800362465467 -0.054812143401826136 0 -0.00010880503024181463 -0.054879696573710585 0 -0.00012204462676573458 -0.054885792489559632 0 -0.00023352628439327774 -0.054771871361942968 0 -0.00020016800362465467 -0.054812143401826136 0 -0.00010880503024181463 -0.054879696573710585 0 -0.00010880503024181463 -0.054879696573710585 0 -5.4953817704864841e-08 -0.054999885457671392 0 -0.00012204462676573458 -0.054885792489559632 0 -3.3777554070520558e-08 -0.054999770694705019 0 -0.00010880503024181463 -0.054879696573710585 0 -5.4953817704864841e-08 -0.054999885457671392 0 -5.4953817704864841e-08 -0.054999885457671392 0 -0.00012204462676573458 -0.054885792489559632 0 -5.6891225143326001e-05 -0.054966191881774901 0 -0.00012204462676573458 -0.054885792489559632 0 -0.00013389617597240155 -0.054911520448733514 0 -5.6891225143326001e-05 -0.054966191881774901 0 -0.00020016800362465467 -0.054812143401826136 0 -0.00012204462676573458 -0.054885792489559632 0 -0.00019295485319051117 -0.054842658309435688 0 -0.00012204462676573458 -0.054885792489559632 0 -0.00013389617597240155 -0.054911520448733514 0 -0.00019295485319051117 -0.054842658309435688 0 -0.00013389617597240155 -0.054911520448733514 0 -9.2663275063614223e-05 -0.055000151715807015 0 -0.00022668688109678665 -0.054882880214741497 0 -0.00013389617597240155 -0.054911520448733514 0 -9.2663275063614223e-05 -0.055000151715807015 0 -5.6891225143326001e-05 -0.054966191881774901 0 -6.4480293530727535e-08 -0.054999973637195394 0 2.4001688029246711e-05 -0.055035746411659654 0 -1.2657321195395787e-08 -0.055000096596324217 0 -5.4953817704864841e-08 -0.054999885457671392 0 -5.6891225143326001e-05 -0.054966191881774901 0 -1.2657321195395787e-08 -0.055000096596324217 0 -9.2663275063614223e-05 -0.055000151715807015 0 -5.6891225143326001e-05 -0.054966191881774901 0 -0.00038741363795112002 -0.054650682918954377 0 -0.00031760124811240815 -0.054730093554307024 0 -0.00033141078197762515 -0.054687889132333752 0 -0.00038741363795112002 -0.054650682918954377 0 -0.00031760124811240815 -0.054730093554307024 0 -0.0003242865908073622 -0.054806700135282237 0 -0.00038741363795112002 -0.054650682918954377 0 -0.00032562755451926535 -0.054564774011564468 0 -0.00033578812429546596 -0.054627558338664194 0 -0.00038741363795112002 -0.054650682918954377 0 -0.00032562755451926535 -0.054564774011564468 0 -0.000343487960214146 -0.05447889279084997 0 -0.00032383291974978363 -0.05465723865387128 0 -0.00033578812429546596 -0.054627558338664194 0 -0.00033141078197762515 -0.054687889132333752 0 -0.00038741363795112002 -0.054650682918954377 0 -0.00033578812429546596 -0.054627558338664194 0 -0.00033141078197762515 -0.054687889132333752 0 -0.00031760124811240815 -0.054730093554307024 0 -0.00033141078197762515 -0.054687889132333752 0 -0.00027384540505991887 -0.054763350393402424 0 -0.00027311096365755866 -0.054741046570061277 0 -0.00033141078197762515 -0.054687889132333752 0 -0.00027384540505991887 -0.054763350393402424 0 -0.00020016800362465467 -0.054812143401826136 0 -0.00027311096365755866 -0.054741046570061277 0 -0.00027384540505991887 -0.054763350393402424 0 -0.00020016800362465467 -0.054812143401826136 0 -0.00027384540505991887 -0.054763350393402424 0 -0.00019295485319051117 -0.054842658309435688 0 -0.00027384540505991887 -0.054763350393402424 0 -0.00019295485319051117 -0.054842658309435688 0 -0.00024246747961216688 -0.054823936363007912 0 -0.00013389617597240155 -0.054911520448733514 0 -0.00019295485319051117 -0.054842658309435688 0 -0.00022668688109678665 -0.054882880214741497 0 -0.00019295485319051117 -0.054842658309435688 0 -0.00024246747961216688 -0.054823936363007912 0 -0.00022668688109678665 -0.054882880214741497 0 -0.00031760124811240815 -0.054730093554307024 0 -0.00027384540505991887 -0.054763350393402424 0 -0.00027313508387825404 -0.054809410293288952 0 -0.00027384540505991887 -0.054763350393402424 0 -0.00024246747961216688 -0.054823936363007912 0 -0.00027313508387825404 -0.054809410293288952 0 -0.00024246747961216688 -0.054823936363007912 0 -0.00027313508387825404 -0.054809410293288952 0 -0.00022668688109678665 -0.054882880214741497 0 -0.00031760124811240815 -0.054730093554307024 0 -0.00027313508387825404 -0.054809410293288952 0 -0.0003242865908073622 -0.054806700135282237 0 -9.2663275063614223e-05 -0.055000151715807015 0 -0.00026855054913165974 -0.054894136084102527 0 -0.00022668688109678665 -0.054882880214741497 0 8.4431518744417178e-05 -0.054987820517255079 0 7.2090494678086589e-05 -0.055005797420444758 0 8.1644154410299942e-05 -0.054980724157388257 0 -0.00027313508387825404 -0.054809410293288952 0 -0.00026983638066780969 -0.054864791355389533 0 -0.0003242865908073622 -0.054806700135282237 0 2.4001688029246711e-05 -0.055035746411659654 0 -0.00021842392901345051 -0.054570269235233081 0 -0.00021842392901345051 -0.054570269235233081 0 -0.00022910843201847633 -0.054655747878753831 0 -0.00018420312877332688 -0.054855708938250626 0 -0.00034708357948423283 -0.054916312556765434 0 -0.0003242865908073622 -0.054806700135282237 0 -0.00021842392901345051 -0.054570269235233081 0 -0.00026873296073057267 -0.054658894609348772 0 -0.00027313508387825404 -0.054809410293288952 0 -0.00026983638066780969 -0.054864791355389533 0 -0.00022668688109678665 -0.054882880214741497 0 -0.00021842392901345051 -0.054570269235233081 0 -0.00059558859351587965 -0.053140058092004283 0 8.4431518744417178e-05 -0.054987820517255079 0 8.1644154410299942e-05 -0.054980724157388257 0 7.7527289859814284e-05 -0.054977847443332645 0 -0.0012635598358524951 -0.049588719582582791 0 -0.00080275431107707624 -0.048815350599545254 0 -0.0020258865631496009 -0.049245637583957155 0 -0.00047166598738179451 -0.054456681531129585 0 -0.000343487960214146 -0.05447889279084997 0 -0.00025680924929498221 -0.054275246085116052 0 -0.00059558859351587965 -0.053140058092004283 0 -0.0014470722934219356 -0.051935037678742017 0 -0.00019274422687149244 -0.054829773256894997 0 -0.00059558859351587965 -0.053140058092004283 0 -0.00038741363795112002 -0.054650682918954377 0 -0.00034708357948423283 -0.054916312556765434 0 -0.0003242865908073622 -0.054806700135282237 0 -0.00038741363795112002 -0.054650682918954377 0 -0.00047166598738179451 -0.054456681531129585 0 -0.000343487960214146 -0.05447889279084997 0 -0.00025680924929498221 -0.054275246085116052 0 -0.0002870077165616757 -0.054474217143233139 0 -0.00020310006684793472 -0.054447915421981082 0 -0.000343487960214146 -0.05447889279084997 0 -0.00025680924929498221 -0.054275246085116052 0 -0.0002870077165616757 -0.054474217143233139 0 -0.00032562755451926535 -0.054564774011564468 0 -0.000343487960214146 -0.05447889279084997 0 -0.0002870077165616757 -0.054474217143233139 0 -0.00032562755451926535 -0.054564774011564468 0 -0.0002870077165616757 -0.054474217143233139 0 -0.00028166203921663256 -0.054556724180379733 0 -0.0002870077165616757 -0.054474217143233139 0 -0.00028166203921663256 -0.054556724180379733 0 -0.00020310006684793472 -0.054447915421981082 0 -0.00032562755451926535 -0.054564774011564468 0 -0.00033578812429546596 -0.054627558338664194 0 -0.00028166203921663256 -0.054556724180379733 0 -0.00033578812429546596 -0.054627558338664194 0 -0.00028166203921663256 -0.054556724180379733 0 -0.00031597727851841227 -0.054606438555941939 0 -0.00028166203921663256 -0.054556724180379733 0 -0.00020310006684793472 -0.054447915421981082 0 -0.00020817441384356086 -0.054511613796115306 0 -0.00020310006684793472 -0.054447915421981082 0 -7.2820295412745993e-05 -0.054368862136880559 0 -0.00020817441384356086 -0.054511613796115306 0 0.0011167633125456758 -0.047424228158062361 0 0.0010923757468137762 -0.045832058236771285 0 -0.00025680924929498221 -0.054275246085116052 0 -0.00020310006684793472 -0.054447915421981082 0 -0.00013245444224060647 -0.054278069733487262 0 -9.7260808781110573e-06 -0.054078190301003429 0 -7.2820295412745993e-05 -0.054368862136880559 0 -0.00013245444224060647 -0.054278069733487262 0 -0.00020310006684793472 -0.054447915421981082 0 -7.2820295412745993e-05 -0.054368862136880559 0 -0.00013245444224060647 -0.054278069733487262 0 0.0021357525409554262 -0.040481063962760869 0 -0.00017973564080416739 -0.042552552649906518 0 -0.0013972068849728034 -0.040522817951899943 0 -0.00020960246559621908 -0.049117567763803549 0 0.0011167633125456758 -0.047424228158062361 0 0.0018039174918446635 -0.044178649775478335 0 0.0021357525409554262 -0.040481063962760869 0 -0.00017973564080416739 -0.042552552649906518 0 -0.0022795935924852899 -0.042736237413474418 0 -0.0040465937414229285 -0.041347564458436042 0 -0.0013972068849728034 -0.040522817951899943 0 -0.0022795935924852899 -0.042736237413474418 0 -0.00017973564080416739 -0.042552552649906518 0 -0.0013972068849728034 -0.040522817951899943 0 -0.0033243582608285189 -0.039153797282265555 0 -0.0013972068849728034 -0.040522817951899943 0 -0.0010645514648215074 -0.038187469971332808 0 -0.0033243582608285189 -0.039153797282265555 0 -0.0030098929163989846 -0.037828116408278434 0 -0.0010645514648215074 -0.038187469971332808 0 0.0021357525409554262 -0.040481063962760869 0 -0.0013972068849728034 -0.040522817951899943 0 -0.0010645514648215074 -0.038187469971332808 0 0.0021357525409554262 -0.040481063962760869 0 0.000331690489217061 -0.036617694316317888 0 0.0024176116875934003 -0.037155061565900184 0 0.0021357525409554262 -0.040481063962760869 0 -0.0010645514648215074 -0.038187469971332808 0 0.000331690489217061 -0.036617694316317888 0 -0.0028786017173560523 -0.036388475105201205 0 0.000331690489217061 -0.036617694316317888 0 -0.0017603711236391913 -0.034821038728294861 0 -0.0028786017173560523 -0.036388475105201205 0 -0.0010645514648215074 -0.038187469971332808 0 0.000331690489217061 -0.036617694316317888 0 -0.0030098929163989846 -0.037828116408278434 0 -0.0028786017173560523 -0.036388475105201205 0 -0.0010645514648215074 -0.038187469971332808 0 -0.00360529411683031 -0.035014396738975079 0 -0.0028786017173560523 -0.036388475105201205 0 -0.0017603711236391913 -0.034821038728294861 0 -0.0013124975790017276 -0.032823679186409445 0 -0.0017603711236391913 -0.034821038728294861 0 0.0002545807375971276 -0.034178506836738162 0 -0.0031145853416606551 -0.033658857204307148 0 -0.0013124975790017276 -0.032823679186409445 0 -0.0017603711236391913 -0.034821038728294861 0 0.000331690489217061 -0.036617694316317888 0 -0.0017603711236391913 -0.034821038728294861 0 0.0002545807375971276 -0.034178506836738162 0 0.000331690489217061 -0.036617694316317888 0 0.0002545807375971276 -0.034178506836738162 0 0.0027785452820031416 -0.033994704760601763 0 0.00090232884851410196 -0.032576827075649947 0 0.0002545807375971276 -0.034178506836738162 0 0.0027785452820031416 -0.033994704760601763 0 0.0013791352205061755 -0.04431056876939049 0 0.0010923757468137762 -0.045832058236771285 0 -0.00032764493638787282 -0.054526967367279584 0 -0.00030576165444875342 -0.054491510612211407 0 -0.00029630565610426225 -0.054566100551834619 0 -0.00032764493638787282 -0.054526967367279584 0 -0.00033158918782305531 -0.054605669784798916 0 -0.00029630565610426225 -0.054566100551834619 0 -0.00032764493638787282 -0.054526967367279584 0 -0.00035828602780860457 -0.054557613310437347 0 -0.00033158918782305531 -0.054605669784798916 0 -0.00028166203921663256 -0.054556724180379733 0 -0.00029630565610426225 -0.054566100551834619 0 -0.00020817441384356086 -0.054511613796115306 0 -0.00028166203921663256 -0.054556724180379733 0 -0.00029630565610426225 -0.054566100551834619 0 -0.00031597727851841227 -0.054606438555941939 0 -0.00033158918782305531 -0.054605669784798916 0 -0.00029630565610426225 -0.054566100551834619 0 -0.00031597727851841227 -0.054606438555941939 0 0.000331690489217061 -0.036617694316317888 0 0.0027785452820031416 -0.033994704760601763 0 0.0024176116875934003 -0.037155061565900184 0 -0.00030576165444875342 -0.054491510612211407 0 -0.00029630565610426225 -0.054566100551834619 0 -0.00020817441384356086 -0.054511613796115306 0 -0.00053608747605978261 -0.0088875089496383095 0 -0.0001997963624285918 -0.0069611562774048027 0 0.00058161785733789142 -0.0085825408665112148 0 -0.00053608747605978261 -0.0088875089496383095 0 -0.0012052135153963076 -0.0074309678338952447 0 -0.0021288338922015593 -0.0079408533279084446 0 -0.00045173438024806629 -0.0094503474498124785 0 -0.00059549170026367471 -0.0039390894770453648 0 -0.00029478486786449514 -0.0089942896039733929 0 -0.0018815729249588406 -0.0095126722408919676 0 -0.0016712283934057046 -0.008156938658411517 0 -0.0012052135153963076 -0.0074309678338952447 0 -0.0001997963624285918 -0.0069611562774048027 0 -0.0018470991153822518 -0.006252871438857029 0 -0.0012052135153963076 -0.0074309678338952447 0 -0.0021288338922015593 -0.0079408533279084446 0 -0.0018470991153822518 -0.006252871438857029 0 -0.00053608747605978261 -0.0088875089496383095 0 -0.0012052135153963076 -0.0074309678338952447 0 -0.0001997963624285918 -0.0069611562774048027 0 0.0012853134505415881 -0.0074201051440162995 0 0.001588104965934123 -0.0071947911408552908 0 0.00092744080116715407 -0.0062701765279619508 0 0.0015190410250722872 -0.0073597555800968429 0 0.00092740975085272366 -0.0063598102035936971 0 -0.00027391629923758612 -0.0072229220403308729 0 0.0015190410250722872 -0.0073597555800968429 0 -0.0001997963624285918 -0.0069611562774048027 0 0.0015062679851681382 -0.0076351809141784336 0 0.0011919981982645162 -0.0082646075240126807 0 0.00016604638995105998 -0.0067859195522892574 0 0.0014443586306027783 -0.0072437027036746969 0 0.00092744080116715407 -0.0062701765279619508 0 0.001588104965934123 -0.0071947911408552908 0 0.0021177330718869167 -0.006714571113869949 0 0.0021566859741617614 -0.00752680528396349 0 0.001588104965934123 -0.0071947911408552908 0 0.0021177330718869167 -0.006714571113869949 0 0.0015860377833892254 -0.0064654360562602878 0 0.0012853134505415881 -0.0074201051440162995 0 0.001588104965934123 -0.0071947911408552908 0 0.0015021001618920179 -0.0079711826879796405 0 0.001588104965934123 -0.0071947911408552908 0 0.0015021001618920179 -0.0079711826879796405 0 0.0021566859741617614 -0.00752680528396349 0 0.0015021001618920179 -0.0079711826879796405 0 0.0025006807476379432 -0.0084532854032204549 0 0.0021566859741617614 -0.00752680528396349 0 0.001832752640322077 -0.008282057640688319 0 0.0016541592510232377 -0.0092425782454719461 0 0.0020759177952096837 -0.0096832867937571513 0 0.0015062679851681382 -0.0076351809141784336 0 0.001832752640322077 -0.008282057640688319 0 0.0011919981982645162 -0.0082646075240126807 0 0.0015190410250722872 -0.0073597555800968429 0 0.0017492853568566468 -0.0066538531951655516 0 0.001832752640322077 -0.008282057640688319 0 0.0012626132557615006 -0.0088435480014967798 0 0.0016541592510232377 -0.0092425782454719461 0 -0.0001997963624285918 -0.0069611562774048027 0 0.0011919981982645162 -0.0082646075240126807 0 0.00058161785733789142 -0.0085825408665112148 0 0.001832752640322077 -0.008282057640688319 0 0.0011919981982645162 -0.0082646075240126807 0 0.0012626132557615006 -0.0088435480014967798 0 0.0011919981982645162 -0.0082646075240126807 0 0.0012626132557615006 -0.0088435480014967798 0 0.00058161785733789142 -0.0085825408665112148 0 0.0012626132557615006 -0.0088435480014967798 0 0.00058161785733789142 -0.0085825408665112148 0 0.0010660956061884046 -0.0098275951198881096 0 0.0012626132557615006 -0.0088435480014967798 0 0.0010660956061884046 -0.0098275951198881096 0 0.0016541592510232377 -0.0092425782454719461 0 0.001832752640322077 -0.008282057640688319 0 0.0020759177952096837 -0.0096832867937571513 0 0.002745515147654904 -0.010263920999397396 0 0.0010660956061884046 -0.0098275951198881096 0 0.0020759177952096837 -0.0096832867937571513 0 0.0025493604491741611 -0.010400180650763853 0 0.0017492853568566468 -0.0066538531951655516 0 0.0005505833245422751 -0.01565736102284521 0 0.0015021001618920179 -0.0079711826879796405 0 0.0025006807476379432 -0.0084532854032204549 0 0.0022554554882269115 -0.0096193731840600837 0 0.0010660956061884046 -0.0098275951198881096 0 0.0016541592510232377 -0.0092425782454719461 0 0.0020759177952096837 -0.0096832867937571513 0 0.0020759177952096837 -0.0096832867937571513 0 0.002745515147654904 -0.010263920999397396 0 0.0025493604491741611 -0.010400180650763853 0 0.0010660956061884046 -0.0098275951198881096 0 0.0025493604491741611 -0.010400180650763853 0 0.0013529167785825799 -0.011615964110032174 0 0.0025493604491741611 -0.010400180650763853 0 0.0032892009747544151 -0.011465388747515503 0 0.0013529167785825799 -0.011615964110032174 0 0.0010660956061884046 -0.0098275951198881096 0 0.0003616005660719087 -0.010816399282575931 0 0.0013529167785825799 -0.011615964110032174 0 0.0003616005660719087 -0.010816399282575931 0 -0.00073718615907363396 -0.010338985443058609 0 -0.00047727161629650805 -0.011723512320173598 0 -0.00053608747605978261 -0.0088875089496383095 0 0.00058161785733789142 -0.0085825408665112148 0 0.0010660956061884046 -0.0098275951198881096 0 -0.00045173438024806629 -0.0094503474498124785 0 0.00095540531534171779 -0.009640663985545566 0 -0.00029478486786449514 -0.0089942896039733929 0 0.0010660956061884046 -0.0098275951198881096 0 0.0003616005660719087 -0.010816399282575931 0 -0.00029478486786449514 -0.0089942896039733929 0 0.0003616005660719087 -0.010816399282575931 0 -0.00073718615907363396 -0.010338985443058609 0 -0.00029478486786449514 -0.0089942896039733929 0 -0.00073718615907363396 -0.010338985443058609 0 -0.0018815729249588406 -0.0095126722408919676 0 -0.00073718615907363396 -0.010338985443058609 0 -0.0015576078540900937 -0.010502974227840493 0 -0.0018815729249588406 -0.0095126722408919676 0 -0.00073718615907363396 -0.010338985443058609 0 -0.0011731746384905264 -0.010991479490657858 0 -0.00047727161629650805 -0.011723512320173598 0 -0.00073718615907363396 -0.010338985443058609 0 -0.0011731746384905264 -0.010991479490657858 0 -0.0015576078540900937 -0.010502974227840493 0 -0.0011731746384905264 -0.010991479490657858 0 -0.0015576078540900937 -0.010502974227840493 0 -0.0019366783259999742 -0.010857266929214952 0 0.00019316097125171894 -0.0012119760406270259 0 -0.0007938095719719439 -0.0050630200849799021 0 -0.0015576078540900937 -0.010502974227840493 0 -0.0019366783259999742 -0.010857266929214952 0 -0.0020465359809868585 -0.010805923096337707 0 -0.0015576078540900937 -0.010502974227840493 0 -0.0020465359809868585 -0.010805923096337707 0 -0.0018815729249588406 -0.0095126722408919676 0 0.00027414184879671357 -0.0016289351786201651 0 0.00019316097125171894 -0.0012119760406270259 0 0.00019316097125171894 -0.0012119760406270259 0 0.0027149792778501554 0.0049927774027121825 0 0.0006265978784332336 0.001179124059943338 0 0.00055447676821213392 0.00076709052429797917 0 0.0011031410217549702 0.0010354999273163828 0 0.0039674672978741408 0.007413001206537719 0 0.0038778809956914535 0.0076129630697064138 0 0.0038907582679439936 0.0074735422709916264 0 0.00055447676821213392 0.00076709052429797917 0 0.0011031410217549702 0.0010354999273163828 0 0.00099332727102492018 0.00060210097070815085 0 0.0037442772030177756 0.0076282372509159212 0 0.0038778809956914535 0.0076129630697064138 0 0.0037223988305271033 0.0078272107665178954 0 0.0037442772030177756 0.0076282372509159212 0 0.0037223988305271033 0.0078272107665178954 0 0.0036238513096757017 0.0078118913134201133 0 0.0037442772030177756 0.0076282372509159212 0 0.0038778809956914535 0.0076129630697064138 0 0.0038907582679439936 0.0074735422709916264 0 0.0027149792778501554 0.0049927774027121825 0 0.0025585213730227666 0.0040912046277488383 0 0.0011031410217549702 0.0010354999273163828 0 0.0012721929136733153 0.00075084434509427691 0 0.0015864691070217873 0.00089319631906866208 0 0.0011031410217549702 0.0010354999273163828 0 0.0012721929136733153 0.00075084434509427691 0 0.00099332727102492018 0.00060210097070815085 0 0.0015864691070217873 0.00089319631906866208 0 0.0014092738532137633 0.00046850231350554469 0 0.0017562846481955596 0.00056249018871950575 0 0.0014092738532137633 0.00046850231350554469 0 0.0017562846481955596 0.00056249018871950575 0 0.0016848511568348754 0.00029286389840247219 0 0.0012721929136733153 0.00075084434509427691 0 0.0015864691070217873 0.00089319631906866208 0 0.0014092738532137633 0.00046850231350554469 0 0.0012721929136733153 0.00075084434509427691 0 0.0014092738532137633 0.00046850231350554469 0 0.00099332727102492018 0.00060210097070815085 0 0.0014092738532137633 0.00046850231350554469 0 0.0012005120887777934 0.00024636481875900526 0 0.00099332727102492018 0.00060210097070815085 0 0.0012005120887777934 0.00024636481875900526 0 0.00089813848747773747 0.00017060523585372367 0 0.0013329679799132439 -5.3537578365258679e-05 0 0.0012005120887777934 0.00024636481875900526 0 0.0014305816138612095 0.00018848466843299672 0 0.0013329679799132439 -5.3537578365258679e-05 0 0.0014092738532137633 0.00046850231350554469 0 0.0012005120887777934 0.00024636481875900526 0 0.0014305816138612095 0.00018848466843299672 0 0.0014092738532137633 0.00046850231350554469 0 0.0014305816138612095 0.00018848466843299672 0 0.0016848511568348754 0.00029286389840247219 0 0.0014305816138612095 0.00018848466843299672 0 0.001521667840961687 -2.3573472207165776e-06 0 0.0016848511568348754 0.00029286389840247219 0 -0.0007938095719719439 -0.0050630200849799021 0 -0.00059549170026367471 -0.0039390894770453648 0 0.00055447676821213392 0.00076709052429797917 0 0.00048563296625271434 0.00035494480151524691 0 0.00076991395732752422 0.00040608491831604151 0 0.00099332727102492018 0.00060210097070815085 0 0.00076991395732752422 0.00040608491831604151 0 0.00089813848747773747 0.00017060523585372367 0 0.00055447676821213392 0.00076709052429797917 0 0.00099332727102492018 0.00060210097070815085 0 0.00076991395732752422 0.00040608491831604151 0 0.0012005120887777934 0.00024636481875900526 0 0.00099332727102492018 0.00060210097070815085 0 0.00089813848747773747 0.00017060523585372367 0 -0.00059549170026367471 -0.0039390894770453648 0 0.00037518850301892516 -0.0026527323427761739 0 0.0008983390996928377 -3.5453283233777409e-05 0 0.00094979568202623835 -9.5577940298879853e-05 0 0.0008823671725961662 -0.00015149833192523883 0 0.0008983390996928377 -3.5453283233777409e-05 0 0.0010419201925784853 -4.0604156837147903e-05 0 0.00094979568202623835 -9.5577940298879853e-05 0 -0.00059549170026367471 -0.0039390894770453648 0 0.0010073700516745607 0.00050199150736032988 0 0.00048563296625271434 0.00035494480151524691 0 0.00076991395732752422 0.00040608491831604151 0 0.00089813848747773747 0.00017060523585372367 0 0.0028853051748622066 0.0027159012807189261 0 0.003008499188370446 0.0032345340296476123 0 0.0032958926347540344 0.0023555946640444582 0 0.0028853051748622066 0.0027159012807189261 0 0.0025640844691673221 0.0026666523191910224 0 0.0032958926347540344 0.0023555946640444582 0 0.0019482984132926857 0.0020211757384155579 0 0.00037518850301892516 -0.0026527323427761739 0 0.0028853051748622066 0.0027159012807189261 0 0.0025844107013640663 0.0026919011902377908 0 0.0026712232606186299 0.0031529707633060127 0 0.0026297153161006061 0.0022987165653816717 0 0.0019482984132926857 0.0020211757384155579 0 0.00094979568202623835 -9.5577940298879853e-05 0 0.00097443616216011907 -0.00017877694902103253 0 0.0008823671725961662 -0.00015149833192523883 0 0.0019482984132926857 0.0020211757384155579 0 0.001264894599258884 0.0013947941651367426 0 0.0010419201925784853 -4.0604156837147903e-05 0 0.00094979568202623835 -9.5577940298879853e-05 0 0.00097443616216011907 -0.00017877694902103253 0 0.0010419201925784853 -4.0604156837147903e-05 0 0.00097443616216011907 -0.00017877694902103253 0 0.0011704936271731302 -0.00013166736902973523 0 0.0020514656804334775 0.0030463384267005087 0 0.0016209003967909673 0.0032295314148496138 0 0.0014341433613086518 0.002967553481780598 0 0.0019482984132926857 0.0020211757384155579 0 0.0017360190928004727 0.0031076240861934367 0 0.0025844107013640663 0.0026919011902377908 0 0.002220599863536587 0.0033605514444417723 0 0.0026712232606186299 0.0031529707633060127 0 0.0025844107013640663 0.0026919011902377908 0 0.0018735323606917558 0.0030343914092106168 0 0.002220599863536587 0.0033605514444417723 0 0.0018735323606917558 0.0030343914092106168 0 0.002220599863536587 0.0033605514444417723 0 0.0016148912007945731 0.0034921892020181732 0 0.002220599863536587 0.0033605514444417723 0 0.0016148912007945731 0.0034921892020181732 0 0.0016739406061998471 0.0039413590839697619 0 0.002220599863536587 0.0033605514444417723 0 0.0026105142030593601 0.0036379764136996407 0 0.0023417165045919227 0.0040394504593130763 0 0.002220599863536587 0.0033605514444417723 0 0.0026105142030593601 0.0036379764136996407 0 0.0026712232606186299 0.0031529707633060127 0 0.003008499188370446 0.0032345340296476123 0 0.0035332052946676277 0.0037502956661188635 0 0.0032958926347540344 0.0023555946640444582 0 0.0026105142030593601 0.0036379764136996407 0 0.003008499188370446 0.0032345340296476123 0 0.0029993619746895056 0.0037913299322245744 0 0.0026105142030593601 0.0036379764136996407 0 0.003008499188370446 0.0032345340296476123 0 0.0026712232606186299 0.0031529707633060127 0 0.003008499188370446 0.0032345340296476123 0 0.0029993619746895056 0.0037913299322245744 0 0.0035332052946676277 0.0037502956661188635 0 0.0028853051748622066 0.0027159012807189261 0 0.003008499188370446 0.0032345340296476123 0 0.0026712232606186299 0.0031529707633060127 0 0.00084710804847585913 0.0028526685603872661 0 0.00060922187984357589 0.0029703177340092467 0 0.0008640730361680303 0.0032449286014306984 0 0.0014305816138612095 0.00018848466843299672 0 0.001521667840961687 -2.3573472207165776e-06 0 0.0013329679799132439 -5.3537578365258679e-05 0 0.00084710804847585913 0.0028526685603872661 0 0.0011964478915213754 0.0031405279633900012 0 0.0008640730361680303 0.0032449286014306984 0 0.00091056562575433627 0.0011601234607577762 0 0.001264894599258884 0.0013947941651367426 0 0.0010419201925784853 -4.0604156837147903e-05 0 0.0013329679799132439 -5.3537578365258679e-05 0 0.0011704936271731302 -0.00013166736902973523 0 0.001521667840961687 -2.3573472207165776e-06 0 0.0013329679799132439 -5.3537578365258679e-05 0 0.0011704936271731302 -0.00013166736902973523 0 0.00084710804847585913 0.0028526685603872661 0 0.0011964478915213754 0.0031405279633900012 0 0.0014341433613086518 0.002967553481780598 0 0.0010073700516745607 0.00050199150736032988 0 0.0013404234323292337 -0.00015984800220376932 0 0.0016209003967909673 0.0032295314148496138 0 0.0011964478915213754 0.0031405279633900012 0 0.0014341433613086518 0.002967553481780598 0 0.0017360190928004727 0.0031076240861934367 0 0.0012690438009668045 0.0033575293869190837 0 0.0018735323606917558 0.0030343914092106168 0 0.0016148912007945731 0.0034921892020181732 0 0.0011931188729944445 0.0034126087931011396 0 0.0016209003967909673 0.0032295314148496138 0 0.0011964478915213754 0.0031405279633900012 0 0.0011931188729944445 0.0034126087931011396 0 0.0016148912007945731 0.0034921892020181732 0 0.0011931188729944445 0.0034126087931011396 0 0.0011123219686263394 0.0038326841706496436 0 0.0011931188729944445 0.0034126087931011396 0 0.00092561976723431691 0.0035708582950559351 0 0.0011123219686263394 0.0038326841706496436 0 0.0011964478915213754 0.0031405279633900012 0 0.0011931188729944445 0.0034126087931011396 0 0.0008640730361680303 0.0032449286014306984 0 0.0008640730361680303 0.0032449286014306984 0 0.00092561976723431691 0.0035708582950559351 0 0.00055199489992329592 0.0038236692107016992 0 0.00060922187984357589 0.0029703177340092467 0 0.0008640730361680303 0.0032449286014306984 0 0.00055199489992329592 0.0038236692107016992 0 0.00061713613724770182 0.0030608655054916172 0 0.00067906568055060954 0.0043606767758754012 0 0.0011931188729944445 0.0034126087931011396 0 0.0008640730361680303 0.0032449286014306984 0 0.00092561976723431691 0.0035708582950559351 0 0.00092561976723431691 0.0035708582950559351 0 0.00055199489992329592 0.0038236692107016992 0 0.0011123219686263394 0.0038326841706496436 0 0.00055199489992329592 0.0038236692107016992 0 0.00083100661613937153 0.0043371675078140489 0 0.00046403521091902228 0.0050580167339309319 0 0.00067906568055060954 0.0043606767758754012 0 0.00071824674485403714 0.0060157588472289341 0 0.00055199489992329592 0.0038236692107016992 0 0.00083100661613937153 0.0043371675078140489 0 0.0011123219686263394 0.0038326841706496436 0 0.00083100661613937153 0.0043371675078140489 0 0.0012078674939533746 0.0043938568388447322 0 0.0011123219686263394 0.0038326841706496436 0 0.0012078674939533746 0.0043938568388447322 0 0.0011123219686263394 0.0038326841706496436 0 0.0016739406061998471 0.0039413590839697619 0 0.0016148912007945731 0.0034921892020181732 0 0.0011123219686263394 0.0038326841706496436 0 0.0016739406061998471 0.0039413590839697619 0 0.0012078674939533746 0.0043938568388447322 0 0.0016739406061998471 0.0039413590839697619 0 0.001776136939293359 0.0044107498759304829 0 0.0012078674939533746 0.0043938568388447322 0 0.0010558338929996436 0.0051755414183496237 0 0.00085140653003274456 0.0047578014401033798 0 0.0012078674939533746 0.0043938568388447322 0 0.0016258783231241185 0.0050215539486048177 0 0.0010558338929996436 0.0051755414183496237 0 0.0012078674939533746 0.0043938568388447322 0 0.0016258783231241185 0.0050215539486048177 0 0.001776136939293359 0.0044107498759304829 0 0.00082022578228837433 0.0049016651002227393 0 0.00095833522142161601 0.0069386816337939543 0 0.00021686806125987331 0.0068032110817829216 0 0.00083100661613937153 0.0043371675078140489 0 0.0012078674939533746 0.0043938568388447322 0 0.00085140653003274456 0.0047578014401033798 0 0.00083100661613937153 0.0043371675078140489 0 0.00085140653003274456 0.0047578014401033798 0 0.00046403521091902228 0.0050580167339309319 0 0.0010558338929996436 0.0051755414183496237 0 0.00085140653003274456 0.0047578014401033798 0 0.00077278875162666624 0.0051732667700123422 0 0.00085140653003274456 0.0047578014401033798 0 0.00077278875162666624 0.0051732667700123422 0 0.00046403521091902228 0.0050580167339309319 0 0.0029993619746895056 0.0037913299322245744 0 0.0023417165045919227 0.0040394504593130763 0 0.0029704196981918574 0.0044579675056726853 0 0.0029993619746895056 0.0037913299322245744 0 0.0029704196981918574 0.0044579675056726853 0 0.0035332052946676277 0.0037502956661188635 0 0.0026105142030593601 0.0036379764136996407 0 0.0029993619746895056 0.0037913299322245744 0 0.0023417165045919227 0.0040394504593130763 0 0.0023417165045919227 0.0040394504593130763 0 0.0021696457077616726 0.0047401175050301959 0 0.0029704196981918574 0.0044579675056726853 0 0.002220599863536587 0.0033605514444417723 0 0.0016739406061998471 0.0039413590839697619 0 0.0023417165045919227 0.0040394504593130763 0 0.0016739406061998471 0.0039413590839697619 0 0.0023417165045919227 0.0040394504593130763 0 0.001776136939293359 0.0044107498759304829 0 0.0023417165045919227 0.0040394504593130763 0 0.001776136939293359 0.0044107498759304829 0 0.0021696457077616726 0.0047401175050301959 0 0.0021696457077616726 0.0047401175050301959 0 0.0028331476659895446 0.0051890365607129155 0 0.0021661299239836064 0.0056317323491872281 0 0.0016258783231241185 0.0050215539486048177 0 0.0021696457077616726 0.0047401175050301959 0 0.0021661299239836064 0.0056317323491872281 0 0.0016258783231241185 0.0050215539486048177 0 0.001776136939293359 0.0044107498759304829 0 0.0021696457077616726 0.0047401175050301959 0 0.0028331476659895446 0.0051890365607129155 0 0.0029704196981918574 0.0044579675056726853 0 0.0037910613783686126 0.005120431759987735 0 0.0021696457077616726 0.0047401175050301959 0 0.0028331476659895446 0.0051890365607129155 0 0.0029704196981918574 0.0044579675056726853 0 -0.0006204139416230521 -0.00097867779455209475 0 0.00059106425638934409 -0.0023689199552351424 0 -0.001224626402172054 -0.0042168700765799708 0 -0.0006204139416230521 -0.00097867779455209475 0 0.00059106425638934409 -0.0023689199552351424 0 0.0018526307577000809 0.00012254824245823561 0 0.00013392471653825397 -0.0043517033136358605 0 0.002007844501977679 -0.0034540202597865334 0 0.00059106425638934409 -0.0023689199552351424 0 6.011107414420537e-05 -0.004383517608354274 0 0.0029087535688839513 -0.0026133642557739779 0 0.00059106425638934409 -0.0023689199552351424 0 6.011107414420537e-05 -0.004383517608354274 0 -0.001224626402172054 -0.0042168700765799708 0 0.0029704196981918574 0.0044579675056726853 0 0.0037910613783686126 0.005120431759987735 0 0.0035332052946676277 0.0037502956661188635 0 0.0015771838555319899 0.0020199931381778501 0 0.00126173771495796 -4.9305877715128764e-05 0 0.00126173771495796 -4.9305877715128764e-05 0 0.00037518850301892516 -0.0026527323427761739 0 -0.001224626402172054 -0.0042168700765799708 0 -0.00063209872274238449 -0.005173346374500367 0 -0.0013221050456533208 -0.0062861755151670078 0 6.011107414420537e-05 -0.004383517608354274 0 -0.001224626402172054 -0.0042168700765799708 0 -0.00063209872274238449 -0.005173346374500367 0 6.011107414420537e-05 -0.004383517608354274 0 1.3856933571553418e-05 -0.0056943822501019361 0 0.00082589255169514058 -0.0051918943364261663 0 6.011107414420537e-05 -0.004383517608354274 0 -0.00063209872274238449 -0.005173346374500367 0 1.3856933571553418e-05 -0.0056943822501019361 0 1.3856933571553418e-05 -0.0056943822501019361 0 0.00092744080116715407 -0.0062701765279619508 0 0.00082589255169514058 -0.0051918943364261663 0 0.00016604638995105998 -0.0067859195522892574 0 1.3856933571553418e-05 -0.0056943822501019361 0 0.00092744080116715407 -0.0062701765279619508 0 -0.00063209872274238449 -0.005173346374500367 0 1.3856933571553418e-05 -0.0056943822501019361 0 -0.0013221050456533208 -0.0062861755151670078 0 0.00016604638995105998 -0.0067859195522892574 0 1.3856933571553418e-05 -0.0056943822501019361 0 -0.0013221050456533208 -0.0062861755151670078 0 -0.00027391629923758612 -0.0072229220403308729 0 0.00037518850301892516 -0.0026527323427761739 0 0.0015860377833892254 -0.0064654360562602878 0 0.00092744080116715407 -0.0062701765279619508 0 0.0017254668459658091 -0.0056983748424375615 0 0.0021177330718869167 -0.006714571113869949 0 0.0015860377833892254 -0.0064654360562602878 0 0.0017254668459658091 -0.0056983748424375615 0 0.00092744080116715407 -0.0062701765279619508 0 0.00082589255169514058 -0.0051918943364261663 0 0.0017254668459658091 -0.0056983748424375615 0 0.001588104965934123 -0.0071947911408552908 0 0.0015860377833892254 -0.0064654360562602878 0 0.00092744080116715407 -0.0062701765279619508 0 0.00082589255169514058 -0.0051918943364261663 0 0.0017254668459658091 -0.0056983748424375615 0 0.0012331577820456747 -0.004269899716661695 0 0.0012331577820456747 -0.004269899716661695 0 0.0024765952371850718 -0.0037923058041965073 0 0.0026623322100272394 -0.004941255795402829 0 0.0017254668459658091 -0.0056983748424375615 0 0.0012331577820456747 -0.004269899716661695 0 0.0026623322100272394 -0.004941255795402829 0 6.011107414420537e-05 -0.004383517608354274 0 0.00082589255169514058 -0.0051918943364261663 0 0.0012331577820456747 -0.004269899716661695 0 0.0029087535688839513 -0.0026133642557739779 0 0.0039511169442736924 0.00034578307685621703 0 0.0018526307577000809 0.00012254824245823561 0 0.00059106425638934409 -0.0023689199552351424 0 0.0029087535688839513 -0.0026133642557739779 0 0.0018526307577000809 0.00012254824245823561 0 0.002007844501977679 -0.0034540202597865334 0 0.0037327764830006305 -0.0024257138301792256 0 0.0029087535688839513 -0.0026133642557739779 0 0.0050544945605433631 -0.0010584954825207484 0 0.0039511169442736924 0.00034578307685621703 0 0.0024765952371850718 -0.0037923058041965073 0 0.0026623322100272394 -0.004941255795402829 0 0.0037792124382498519 -0.0042508857199220641 0 0.0026623322100272394 -0.004941255795402829 0 0.0037792124382498519 -0.0042508857199220641 0 0.0035471646690690118 -0.005252349860813417 0 0.0037327764830006305 -0.0024257138301792256 0 0.0052250834965898033 -0.0015119021278152409 0 0.0024765952371850718 -0.0037923058041965073 0 0.0037792124382498519 -0.0042508857199220641 0 0.0037695111001803698 -0.0032038199563198437 0 0.0037792124382498519 -0.0042508857199220641 0 0.0048615698747012303 -0.0039809644700137207 0 0.0045296357508187368 -0.0033079236474598248 0 0.0037792124382498519 -0.0042508857199220641 0 0.0045296357508187368 -0.0033079236474598248 0 0.0037695111001803698 -0.0032038199563198437 0 0.0052447904060803864 -0.0034406509616301982 0 0.0054519977122531732 -0.0040406297768528819 0 0.0056599737209616701 -0.0036281370287561099 0 0.0052447904060803864 -0.0034406509616301982 0 0.0048615698747012303 -0.0039809644700137207 0 0.0054519977122531732 -0.0040406297768528819 0 0.0052447904060803864 -0.0034406509616301982 0 0.0048615698747012303 -0.0039809644700137207 0 0.0045296357508187368 -0.0033079236474598248 0 0.0048615698747012303 -0.0039809644700137207 0 0.0054519977122531732 -0.0040406297768528819 0 0.0052754081208407138 -0.0047864076786631824 0 0.0048615698747012303 -0.0039809644700137207 0 0.0052754081208407138 -0.0047864076786631824 0 0.0044915938874085064 -0.0052509638363588563 0 0.0037792124382498519 -0.0042508857199220641 0 0.0048615698747012303 -0.0039809644700137207 0 0.0044915938874085064 -0.0052509638363588563 0 0.0037792124382498519 -0.0042508857199220641 0 0.0044915938874085064 -0.0052509638363588563 0 0.0035471646690690118 -0.005252349860813417 0 0.0044915938874085064 -0.0052509638363588563 0 0.0038813065178106673 -0.0059795404669735703 0 0.0046140259355130497 -0.006428481114778545 0 0.0044915938874085064 -0.0052509638363588563 0 0.0038813065178106673 -0.0059795404669735703 0 0.0035471646690690118 -0.005252349860813417 0 0.0052754081208407138 -0.0047864076786631824 0 0.0044915938874085064 -0.0052509638363588563 0 0.0052187643459777481 -0.0058077464940047407 0 0.0052754081208407138 -0.0047864076786631824 0 0.0052187643459777481 -0.0058077464940047407 0 0.0059513588224975383 -0.0055734433737674987 0 0.0044915938874085064 -0.0052509638363588563 0 0.0052187643459777481 -0.0058077464940047407 0 0.0046140259355130497 -0.006428481114778545 0 0.0053082577499695069 -0.0066409201342975841 0 0.0046140259355130497 -0.006428481114778545 0 0.0047706640841328127 -0.0076317194490659497 0 0.0052187643459777481 -0.0058077464940047407 0 0.0053082577499695069 -0.0066409201342975841 0 0.005677834957749108 -0.0061822518378479366 0 0.0052187643459777481 -0.0058077464940047407 0 0.0053082577499695069 -0.0066409201342975841 0 0.0046140259355130497 -0.006428481114778545 0 0.0038813065178106673 -0.0059795404669735703 0 0.0046140259355130497 -0.006428481114778545 0 0.0038299164369645739 -0.0070067464691966281 0 0.0038813065178106673 -0.0059795404669735703 0 0.0029356395512956769 -0.0060880729577663393 0 0.0038299164369645739 -0.0070067464691966281 0 0.0029356395512956769 -0.0060880729577663393 0 0.0028914715335504769 -0.0073461584860772177 0 0.0038299164369645739 -0.0070067464691966281 0 0.0021177330718869167 -0.006714571113869949 0 0.0017254668459658091 -0.0056983748424375615 0 0.0029356395512956769 -0.0060880729577663393 0 0.0021177330718869167 -0.006714571113869949 0 0.0029356395512956769 -0.0060880729577663393 0 0.0028914715335504769 -0.0073461584860772177 0 0.0017254668459658091 -0.0056983748424375615 0 0.0026623322100272394 -0.004941255795402829 0 0.0029356395512956769 -0.0060880729577663393 0 0.0038813065178106673 -0.0059795404669735703 0 0.0029356395512956769 -0.0060880729577663393 0 0.0035471646690690118 -0.005252349860813417 0 0.0026623322100272394 -0.004941255795402829 0 0.0029356395512956769 -0.0060880729577663393 0 0.0035471646690690118 -0.005252349860813417 0 0.012715138211258095 -0.0064922547583048471 0 0.013920248161676304 -0.0075068846223591435 0 0.0098365385142464637 -0.010774196883612929 0 0.0081713420992305143 -0.017896383395280119 0 0.0063363258357586995 -0.019602115196574101 0 0.0018796303741034663 -0.027536066799682089 0 0.002232887253802177 -0.028142296162850043 0 0.0032897028994570685 -0.027255096693671328 0 0.012715138211258095 -0.0064922547583048471 0 0.013920248161676304 -0.0075068846223591435 0 0.013628473636004078 -0.0061161642299081692 0 0.014761479024472231 -0.0051560774816959134 0 0.013628473636004078 -0.0061161642299081692 0 0.013253291495046034 -0.0054397445067732109 0 0.014761479024472231 -0.0051560774816959134 0 0.013920248161676304 -0.0075068846223591435 0 0.013628473636004078 -0.0061161642299081692 0 0.014761479024472231 -0.0051560774816959134 0 0.012497224632843076 -0.0043486500413279002 0 0.013355856576139627 -0.0021396657395214838 0 0.012715138211258095 -0.0064922547583048471 0 0.013628473636004078 -0.0061161642299081692 0 0.013253291495046034 -0.0054397445067732109 0 0.014761479024472231 -0.0051560774816959134 0 0.013253291495046034 -0.0054397445067732109 0 0.012497224632843076 -0.0043486500413279002 0 0.012715138211258095 -0.0064922547583048471 0 0.013253291495046034 -0.0054397445067732109 0 0.012497224632843076 -0.0043486500413279002 0 0.012579849446077941 -0.0063913698110463603 0 0.0083680922754040109 -0.0039171020301021885 0 0.012715138211258095 -0.0064922547583048471 0 0.012497224632843076 -0.0043486500413279002 0 0.0092718842320436042 -0.0041202211005372403 0 0.012715138211258095 -0.0064922547583048471 0 0.0085604422018213059 -0.0071708155934081365 0 0.0076107694630626185 -0.0038988086007820796 0 0.012497224632843076 -0.0043486500413279002 0 0.0092718842320436042 -0.0041202211005372403 0 0.01201673263346475 -0.0028446895841665637 0 0.012715138211258095 -0.0064922547583048471 0 0.0085604422018213059 -0.0071708155934081365 0 0.0098365385142464637 -0.010774196883612929 0 0.0085604422018213059 -0.0071708155934081365 0 0.0041143231195017171 -0.0075256771815663363 0 0.0098365385142464637 -0.010774196883612929 0 0.0085604422018213059 -0.0071708155934081365 0 0.0076107694630626185 -0.0038988086007820796 0 0.0041143231195017171 -0.0075256771815663363 0 0.0076107694630626185 -0.0038988086007820796 0 0.0041143231195017171 -0.0075256771815663363 0 0.0026189128258984561 -0.0012885588702057434 0 0.0052091428397551837 -0.0047925908684321485 0 0.0046823615523692973 -0.0025394093455637359 0 0.0056599737209616701 -0.0036281370287561099 0 0.0062420224401270822 -0.0045995138212683679 0 0.0058431282336077854 -0.0029540622967007195 0 0.0054519977122531732 -0.0040406297768528819 0 0.0056599737209616701 -0.0036281370287561099 0 0.0062420224401270822 -0.0045995138212683679 0 0.0054519977122531732 -0.0040406297768528819 0 0.0052754081208407138 -0.0047864076786631824 0 0.0062420224401270822 -0.0045995138212683679 0 0.0052754081208407138 -0.0047864076786631824 0 0.0062420224401270822 -0.0045995138212683679 0 0.0059513588224975383 -0.0055734433737674987 0 0.0062420224401270822 -0.0045995138212683679 0 0.0059513588224975383 -0.0055734433737674987 0 0.0066288002436460259 -0.0063419423495427365 0 0.0059513588224975383 -0.0055734433737674987 0 0.0060430451376373697 -0.006288845380106072 0 0.0066288002436460259 -0.0063419423495427365 0 0.0052187643459777481 -0.0058077464940047407 0 0.0059513588224975383 -0.0055734433737674987 0 0.005677834957749108 -0.0061822518378479366 0 0.0059513588224975383 -0.0055734433737674987 0 0.005677834957749108 -0.0061822518378479366 0 0.0060430451376373697 -0.006288845380106072 0 0.0053082577499695069 -0.0066409201342975841 0 0.005677834957749108 -0.0061822518378479366 0 0.0058807535267786674 -0.0065904476192443764 0 0.005677834957749108 -0.0061822518378479366 0 0.0058807535267786674 -0.0065904476192443764 0 0.0060430451376373697 -0.006288845380106072 0 0.0053082577499695069 -0.0066409201342975841 0 0.0058807535267786674 -0.0065904476192443764 0 0.0060146626075445282 -0.0067460372008457435 0 0.0015083155642533991 -0.014266025030469396 0 0.0017470282461098238 -0.016331130455624156 0 0.0060314739536787712 -0.0067664129350224513 0 0.0060430451376373697 -0.006288845380106072 0 0.0066288002436460259 -0.0063419423495427365 0 0.0017470282461098238 -0.016331130455624156 0 0.0047435100852763193 -0.015705281102951059 0 0.0058807535267786674 -0.0065904476192443764 0 0.0060314739536787712 -0.0067664129350224513 0 0.0060430451376373697 -0.006288845380106072 0 -0.00037543912858645077 -0.019223456774806223 0 0.0027103875499651835 -0.016917992182789814 0 0.004463309385742042 -0.024171034736490744 0 0.0047435100852763193 -0.015705281102951059 0 0.00077158494759008839 -0.027643198025937413 0 0.0042660214274415154 -0.026408521815406285 0 0.0035583804048788092 -0.02588493119544668 0 0.003906257583498835 -0.025242802801998164 0 0.0052091428397551837 -0.0047925908684321485 0 0.0047435100852763193 -0.015705281102951059 0 0.0047435100852763193 -0.015705281102951059 0 0.0063363258357586995 -0.019602115196574101 0 0.0041143231195017171 -0.0075256771815663363 0 0.0056423095899174446 -0.013929806790893666 0 0.0098365385142464637 -0.010774196883612929 0 0.0042660214274415154 -0.026408521815406285 0 0.0032897028994570685 -0.027255096693671328 0 0.0031194718208654324 -0.026465788395515225 0 0.0042660214274415154 -0.026408521815406285 0 0.0035583804048788092 -0.02588493119544668 0 0.0031194718208654324 -0.026465788395515225 0 0.0031194718208654324 -0.026465788395515225 0 0.0025207183725029355 -0.026062534639309385 0 0.0029921356722715396 -0.025703366620544888 0 0.0035583804048788092 -0.02588493119544668 0 0.0031194718208654324 -0.026465788395515225 0 0.0029921356722715396 -0.025703366620544888 0 0.0031194718208654324 -0.026465788395515225 0 0.0025207183725029355 -0.026062534639309385 0 0.0021493967182713396 -0.026847194940943855 0 0.0032897028994570685 -0.027255096693671328 0 0.0031194718208654324 -0.026465788395515225 0 0.0021493967182713396 -0.026847194940943855 0 0.0018796303741034663 -0.027536066799682089 0 0.0032897028994570685 -0.027255096693671328 0 0.0021493967182713396 -0.026847194940943855 0 -0.0030936678194414357 -0.032330175351268697 0 -0.0027800688659935539 -0.032572377751130595 0 -0.002831183830589216 -0.032008455355203316 0 -0.0025481599411078617 -0.030925351070937579 0 0.00066923853814712891 -0.027934808305260111 0 0.0011324027776741202 -0.025712394174332149 0 0.0025207183725029355 -0.026062534639309385 0 0.0026864948276376782 -0.025192944272305454 0 -0.0033390298196731894 -0.0326487889368599 0 -0.0030936678194414357 -0.032330175351268697 0 -0.0027800688659935539 -0.032572377751130595 0 0.0025207183725029355 -0.026062534639309385 0 0.0026864948276376782 -0.025192944272305454 0 0.0029921356722715396 -0.025703366620544888 0 0.00066923853814712891 -0.027934808305260111 0 0.0030146014181983852 -0.026527896449065308 0 0.0026652143164932495 -0.025212296444571999 0 0.0031214976498362859 -0.025184744887314054 0 0.0035550853337558814 -0.024906304734862255 0 0.0026864948276376782 -0.025192944272305454 0 0.0031214976498362859 -0.025184744887314054 0 0.0029921356722715396 -0.025703366620544888 0 0.00066923853814712891 -0.027934808305260111 0 -0.0016119890237812496 -0.029212529505114788 0 0.0031214976498362859 -0.025184744887314054 0 0.0029921356722715396 -0.025703366620544888 0 0.0034499744534500416 -0.025421357030113934 0 0.0035583804048788092 -0.02588493119544668 0 0.0034499744534500416 -0.025421357030113934 0 0.003906257583498835 -0.025242802801998164 0 0.0035583804048788092 -0.02588493119544668 0 0.0029921356722715396 -0.025703366620544888 0 0.0034499744534500416 -0.025421357030113934 0 0.0031214976498362859 -0.025184744887314054 0 0.0034499744534500416 -0.025421357030113934 0 0.0035550853337558814 -0.024906304734862255 0 0.0034499744534500416 -0.025421357030113934 0 0.0035550853337558814 -0.024906304734862255 0 0.003906257583498835 -0.025242802801998164 0 -0.0057567817781485706 -0.029117685577081057 0 -0.0057761415938436568 -0.028770702610404222 0 -0.0061152366962249514 -0.028659036767983401 0 -0.0016119890237812496 -0.029212529505114788 0 -0.0049614867908804611 -0.030083393228793952 0 -0.0027800688659935539 -0.032572377751130595 0 -0.0023772256380461473 -0.032408586285197438 0 -0.002831183830589216 -0.032008455355203316 0 -0.0057567817781485706 -0.029117685577081057 0 -0.0056630962448129566 -0.029086111015200405 0 -0.0057761415938436568 -0.028770702610404222 0 -0.0055171724938066456 -0.029563148407354391 0 -0.0045479041988199581 -0.029158916908678577 0 -0.0050693586930054216 -0.028690105469620822 0 -0.0029054514317157689 -0.028341664078146419 0 -0.0026811803701781872 -0.028389247418316874 0 -0.0030651239350894637 -0.028496600721104312 0 -0.0031828621029501608 -0.028996964770406045 0 -0.0056552135309888389 -0.028728983147614271 0 -0.0055171724938066456 -0.029563148407354391 0 -0.0050693586930054216 -0.028690105469620822 0 -0.0057761415938436568 -0.028770702610404222 0 -0.0031828621029501608 -0.028996964770406045 0 -0.0039606743118595833 -0.02884371425340846 0 -0.0014240397374853655 -0.02823358098450901 0 -0.0011529082080629918 -0.028138354140819374 0 -0.0010234556624428405 -0.028626962341264463 0 -0.0029054514317157689 -0.028341664078146419 0 -0.0026811803701781872 -0.028389247418316874 0 -0.0027204638850404782 -0.02820283207345425 0 -0.0016119890237812496 -0.029212529505114788 0 -0.0031828621029501608 -0.028996964770406045 0 0.0017470282461098238 -0.016331130455624156 0 0.00077158494759008839 -0.027643198025937413 0 -0.0016119890237812496 -0.029212529505114788 0 0.00077158494759008839 -0.027643198025937413 0 -0.0031828621029501608 -0.028996964770406045 0 0.00077158494759008839 -0.027643198025937413 0 -0.0030403392148097303 -0.02784282463433007 0 -0.0027204638850404782 -0.02820283207345425 0 -0.0030535943875825118 -0.028194121573035344 0 -0.0029054514317157689 -0.028341664078146419 0 -0.0027204638850404782 -0.02820283207345425 0 -0.0030535943875825118 -0.028194121573035344 0 -0.0030403392148097303 -0.02784282463433007 0 -0.0030535943875825118 -0.028194121573035344 0 -0.0033383469639794877 -0.028409338920964942 0 -0.0032657962147044626 -0.028382350521666988 0 -0.0030651239350894637 -0.028496600721104312 0 -0.0035020882470194756 -0.028467949415996355 0 -0.0030535943875825118 -0.028194121573035344 0 -0.0032657962147044626 -0.028382350521666988 0 -0.0030651239350894637 -0.028496600721104312 0 -0.0039606743118595833 -0.02884371425340846 0 -0.0034797836277569525 -0.028541526197599892 0 -0.0029054514317157689 -0.028341664078146419 0 -0.0030535943875825118 -0.028194121573035344 0 -0.0030651239350894637 -0.028496600721104312 0 -0.0045479041988199581 -0.029158916908678577 0 -0.0043166985062269769 -0.02818602397824688 0 -0.0035020882470194756 -0.028467949415996355 0 -0.0045479041988199581 -0.029158916908678577 0 -0.0043166985062269769 -0.02818602397824688 0 -0.0050693586930054216 -0.028690105469620822 0 -0.0043166985062269769 -0.02818602397824688 0 -0.0051273138561485215 -0.027813062837976677 0 -0.0037958221012342158 -0.027426203955091828 0 -0.0074341133844880725 -0.029473850297653349 0 -0.0066332742692677051 -0.029506441430289611 0 -0.00676944188507363 -0.028838495692257285 0 -0.006224609628777346 -0.028656000722088522 0 -0.005111275322415636 -0.028409498026469967 0 -0.0051273138561485215 -0.027813062837976677 0 -0.0050693586930054216 -0.028690105469620822 0 -0.0057761415938436568 -0.028770702610404222 0 -0.0043166985062269769 -0.02818602397824688 0 -0.0051273138561485215 -0.027813062837976677 0 -0.0050693586930054216 -0.028690105469620822 0 -0.0057761415938436568 -0.028770702610404222 0 -0.0062997198555633507 -0.028796487894520245 0 -0.0061152366962249514 -0.028659036767983401 0 -0.0051273138561485215 -0.027813062837976677 0 -0.0057761415938436568 -0.028770702610404222 0 -0.0062997198555633507 -0.028796487894520245 0 -0.006224609628777346 -0.028656000722088522 0 -0.0062296405553515502 -0.028751047542686366 0 -0.0074341133844880725 -0.029473850297653349 0 -0.0066764037096062124 -0.029567519835348135 0 -0.0062997198555633507 -0.028796487894520245 0 -0.0036368825763771094 -0.032554937865052959 0 -0.0072717058573741966 -0.028739862170192428 0 -0.0052844112277677067 -0.029878714019417021 0 -0.0066764037096062124 -0.029567519835348135 0 -0.0058582917733623159 -0.030358419664383428 0 -0.005283218479649061 -0.029015122673963504 0 -0.0066764037096062124 -0.029567519835348135 0 -0.0062997198555633507 -0.028796487894520245 0 -0.0036368825763771094 -0.032554937865052959 0 -0.0049614867908804611 -0.030083393228793952 0 -0.005283218479649061 -0.029015122673963504 0 -0.0062997198555633507 -0.028796487894520245 0 -0.0061152366962249514 -0.028659036767983401 0 0.0025006807476379432 -0.0084532854032204549 0 0.0028914715335504769 -0.0073461584860772177 0 0.0021566859741617614 -0.00752680528396349 0 0.0035616398805481033 -0.0085761917783184673 0 0.0025006807476379432 -0.0084532854032204549 0 0.0028914715335504769 -0.0073461584860772177 0 0.0021177330718869167 -0.006714571113869949 0 0.0028914715335504769 -0.0073461584860772177 0 0.0021566859741617614 -0.00752680528396349 0 0.0035616398805481033 -0.0085761917783184673 0 0.0028914715335504769 -0.0073461584860772177 0 0.0038299164369645739 -0.0070067464691966281 0 0.0046140259355130497 -0.006428481114778545 0 0.0038299164369645739 -0.0070067464691966281 0 0.0047706640841328127 -0.0076317194490659497 0 0.0035616398805481033 -0.0085761917783184673 0 0.0038299164369645739 -0.0070067464691966281 0 0.0047706640841328127 -0.0076317194490659497 0 0.0017470282461098238 -0.016331130455624156 0 0.00070501491028757113 -0.018090274963576354 0 -0.0030535943875825118 -0.028194121573035344 0 -0.0032657962147044626 -0.028382350521666988 0 -0.0033383469639794877 -0.028409338920964942 0 0.0053082577499695069 -0.0066409201342975841 0 0.0060146626075445282 -0.0067460372008457435 0 0.0047706640841328127 -0.0076317194490659497 0 -0.0032657962147044626 -0.028382350521666988 0 -0.0033383469639794877 -0.028409338920964942 0 -0.0035020882470194756 -0.028467949415996355 0 0.00031957462287366577 -0.018879504588569955 0 0.00070501491028757113 -0.018090274963576354 0 -0.002606790139774641 -0.028242205612336181 0 -0.0033383469639794877 -0.028409338920964942 0 -0.0035020882470194756 -0.028467949415996355 0 -0.002606790139774641 -0.028242205612336181 0 -0.0035020882470194756 -0.028467949415996355 0 -0.0031710389843908004 -0.027865644089400142 0 -0.002606790139774641 -0.028242205612336181 0 -0.0031710389843908004 -0.027865644089400142 0 -0.0024553514710753299 -0.027596034144599869 0 -0.0043166985062269769 -0.02818602397824688 0 -0.0035020882470194756 -0.028467949415996355 0 -0.0031710389843908004 -0.027865644089400142 0 -0.005111275322415636 -0.028409498026469967 0 -0.0045747426121266399 -0.028750578368786039 0 -0.0043166985062269769 -0.02818602397824688 0 -0.0031710389843908004 -0.027865644089400142 0 -0.0037958221012342158 -0.027426203955091828 0 -0.0031710389843908004 -0.027865644089400142 0 -0.0037958221012342158 -0.027426203955091828 0 -0.0028435475003261586 -0.027244536718059511 0 -0.0031710389843908004 -0.027865644089400142 0 -0.0028435475003261586 -0.027244536718059511 0 -0.0024553514710753299 -0.027596034144599869 0 -0.0045747426121266399 -0.028750578368786039 0 -0.0011269422471242032 -0.023463175530449718 0 -0.0028435475003261586 -0.027244536718059511 0 -0.0024553514710753299 -0.027596034144599869 0 -0.0020251600702104731 -0.027014204335271328 0 -0.002606790139774641 -0.028242205612336181 0 -0.0024553514710753299 -0.027596034144599869 0 -0.0016852862842310281 -0.027569249937028147 0 0.0035616398805481033 -0.0085761917783184673 0 0.0025006807476379432 -0.0084532854032204549 0 0.0022554554882269115 -0.0096193731840600837 0 0.00031957462287366577 -0.018879504588569955 0 0.0005505833245422751 -0.01565736102284521 0 0.0027250012615211735 -0.010276947322021109 0 0.0025493604491741611 -0.010400180650763853 0 0.0032892009747544151 -0.011465388747515503 0 -0.0024553514710753299 -0.027596034144599869 0 -0.0016852862842310281 -0.027569249937028147 0 -0.0020251600702104731 -0.027014204335271328 0 0.0005505833245422751 -0.01565736102284521 0 0.0016736409303799808 -0.01443533792378099 0 0.0005505833245422751 -0.01565736102284521 0 -0.0011269422471242032 -0.023463175530449718 0 -0.0039450438243355023 -0.02892041449298759 0 -0.0031916437273004205 -0.027668316526855471 0 -0.0045287714130782825 -0.027903952014654482 0 -0.0031916437273004205 -0.027668316526855471 0 -0.0045287714130782825 -0.027903952014654482 0 -0.0040238377553457917 -0.026903632691679263 0 -0.0031916437273004205 -0.027668316526855471 0 -0.0040238377553457917 -0.026903632691679263 0 -0.0029296557593797559 -0.02625334892321177 0 -0.0045287714130782825 -0.027903952014654482 0 -0.0052074742942549946 -0.027266219138604882 0 -0.0040238377553457917 -0.026903632691679263 0 -0.0011269422471242032 -0.023463175530449718 0 -0.0042405721264797917 -0.029360847678845056 0 -0.0053871371609407661 -0.029308700706273165 0 -0.003883626603035891 -0.029017861041322136 0 -0.0045287714130782825 -0.027903952014654482 0 -0.0066332742692677051 -0.029506441430289611 0 -0.0053871371609407661 -0.029308700706273165 0 -0.0057958368845815499 -0.02841242482303686 0 -0.0053871371609407661 -0.029308700706273165 0 -0.0045287714130782825 -0.027903952014654482 0 -0.0057958368845815499 -0.02841242482303686 0 -0.0066332742692677051 -0.029506441430289611 0 -0.0057958368845815499 -0.02841242482303686 0 -0.00676944188507363 -0.028838495692257285 0 -0.0057958368845815499 -0.02841242482303686 0 -0.0063036930104896569 -0.027445911845511133 0 -0.00676944188507363 -0.028838495692257285 0 -0.0045287714130782825 -0.027903952014654482 0 -0.0057958368845815499 -0.02841242482303686 0 -0.0052074742942549946 -0.027266219138604882 0 -0.0057958368845815499 -0.02841242482303686 0 -0.0052074742942549946 -0.027266219138604882 0 -0.0063036930104896569 -0.027445911845511133 0 -0.0052074742942549946 -0.027266219138604882 0 -0.0056979320787228383 -0.026337969907814583 0 -0.0047654789093940211 -0.026338395321682827 0 -0.0052074742942549946 -0.027266219138604882 0 -0.0063036930104896569 -0.027445911845511133 0 -0.0056979320787228383 -0.026337969907814583 0 -0.0063036930104896569 -0.027445911845511133 0 -0.0056979320787228383 -0.026337969907814583 0 -0.0068481943315518955 -0.026227663085245437 0 -0.0056979320787228383 -0.026337969907814583 0 -0.0068481943315518955 -0.026227663085245437 0 -0.0060715776108568997 -0.025403373765961756 0 -0.0056979320787228383 -0.026337969907814583 0 -0.0049063052880669016 -0.025471446530860295 0 -0.0060715776108568997 -0.025403373765961756 0 -0.0049063052880669016 -0.025471446530860295 0 -0.0039485090717572254 -0.025710029760043912 0 -0.0047654789093940211 -0.026338395321682827 0 -0.0056979320787228383 -0.026337969907814583 0 -0.0049063052880669016 -0.025471446530860295 0 -0.0047654789093940211 -0.026338395321682827 0 -0.0049063052880669016 -0.025471446530860295 0 -0.0039485090717572254 -0.025710029760043912 0 -0.0040181319149072232 -0.02459387563581393 0 -0.0039485090717572254 -0.025710029760043912 0 -0.0030862757317506378 -0.024746202871262342 0 -0.0029296557593797559 -0.02625334892321177 0 -0.0039485090717572254 -0.025710029760043912 0 -0.0040181319149072232 -0.02459387563581393 0 -0.0030862757317506378 -0.024746202871262342 0 -0.0039485090717572254 -0.025710029760043912 0 -0.0040238377553457917 -0.026903632691679263 0 -0.0029296557593797559 -0.02625334892321177 0 -0.0052074742942549946 -0.027266219138604882 0 -0.0040238377553457917 -0.026903632691679263 0 -0.0047654789093940211 -0.026338395321682827 0 -0.0039485090717572254 -0.025710029760043912 0 -0.0040238377553457917 -0.026903632691679263 0 -0.0047654789093940211 -0.026338395321682827 0 -0.0057495566610523564 -0.03146397494759369 0 -0.0058582917733623159 -0.030358419664383428 0 -0.006666059557768114 -0.030477917477180736 0 -0.0066764037096062124 -0.029567519835348135 0 -0.006666059557768114 -0.030477917477180736 0 -0.0076079901817824964 -0.029438573728224875 0 -0.0066764037096062124 -0.029567519835348135 0 -0.0058582917733623159 -0.030358419664383428 0 -0.006666059557768114 -0.030477917477180736 0 -0.0057495566610523564 -0.03146397494759369 0 -0.006666059557768114 -0.030477917477180736 0 -0.0070722988398984948 -0.031975758409395073 0 -0.0076119651737291336 -0.029531818025365187 0 -0.0076795307808398524 -0.029625966818317338 0 -0.006666059557768114 -0.030477917477180736 0 -0.0076079901817824964 -0.029438573728224875 0 -0.0070722988398984948 -0.031975758409395073 0 -0.0076079901817824964 -0.029438573728224875 0 -0.0072230668946947352 -0.027493515419347539 0 -0.0083659576784178413 -0.027331253261590249 0 -0.0074341133844880725 -0.029473850297653349 0 -0.0066764037096062124 -0.029567519835348135 0 -0.0076079901817824964 -0.029438573728224875 0 -0.0074341133844880725 -0.029473850297653349 0 -0.0076079901817824964 -0.029438573728224875 0 -0.00676944188507363 -0.028838495692257285 0 -0.0063036930104896569 -0.027445911845511133 0 -0.00676944188507363 -0.028838495692257285 0 -0.0072230668946947352 -0.027493515419347539 0 -0.0076079901817824964 -0.029438573728224875 0 -0.00676944188507363 -0.028838495692257285 0 -0.0072230668946947352 -0.027493515419347539 0 -0.0063036930104896569 -0.027445911845511133 0 -0.0072230668946947352 -0.027493515419347539 0 -0.0068481943315518955 -0.026227663085245437 0 -0.0072230668946947352 -0.027493515419347539 0 -0.0068481943315518955 -0.026227663085245437 0 -0.0077902525411116114 -0.026198377554357066 0 -0.0072230668946947352 -0.027493515419347539 0 -0.0077902525411116114 -0.026198377554357066 0 -0.0083659576784178413 -0.027331253261590249 0 -0.0076795307808398524 -0.029625966818317338 0 -0.0073352936733792279 -0.029849388806645168 0 -0.0077902525411116114 -0.026198377554357066 0 -0.0083659576784178413 -0.027331253261590249 0 -0.0084921349098335559 -0.026104515841427468 0 -0.0070722988398984948 -0.031975758409395073 0 -0.0063380016228710666 -0.03325672107107773 0 -0.0056885891049302832 -0.032611447618059203 0 -0.0055741612296171337 -0.033237151061909428 0 -0.0063380016228710666 -0.03325672107107773 0 -0.0056885891049302832 -0.032611447618059203 0 -0.0057495566610523564 -0.03146397494759369 0 -0.0070722988398984948 -0.031975758409395073 0 -0.0056885891049302832 -0.032611447618059203 0 -0.008544446193129409 -0.025363646469027008 0 -0.0082577791330087861 -0.025080967667589726 0 -0.0085381393016069149 -0.025048395150453224 0 -0.008544446193129409 -0.025363646469027008 0 -0.0082475702093264582 -0.02545227343502434 0 -0.0082577791330087861 -0.025080967667589726 0 -0.0055741612296171337 -0.033237151061909428 0 -0.0063380016228710666 -0.03325672107107773 0 -0.0058651417223112368 -0.033882996001198658 0 -0.0073352936733792279 -0.029849388806645168 0 -0.0075857553355428336 -0.028920031460751203 0 -0.0084921349098335559 -0.026104515841427468 0 -0.008544446193129409 -0.025363646469027008 0 -0.0082475702093264582 -0.02545227343502434 0 -0.0084921349098335559 -0.026104515841427468 0 -0.0080015344263380198 -0.025644891155227743 0 -0.0082475702093264582 -0.02545227343502434 0 -0.0077902525411116114 -0.026198377554357066 0 -0.0084921349098335559 -0.026104515841427468 0 -0.0080015344263380198 -0.025644891155227743 0 -0.0080015344263380198 -0.025644891155227743 0 -0.0082475702093264582 -0.02545227343502434 0 -0.0079389051710210858 -0.02519647345731095 0 -0.0082475702093264582 -0.02545227343502434 0 -0.0079389051710210858 -0.02519647345731095 0 -0.0082577791330087861 -0.025080967667589726 0 -0.0079389051710210858 -0.02519647345731095 0 -0.0074774364346028438 -0.025441159622427385 0 -0.0075637693040726929 -0.024883708508590917 0 -0.0074774364346028438 -0.025441159622427385 0 -0.0071664248065621931 -0.025000829770105239 0 -0.0075637693040726929 -0.024883708508590917 0 -0.0080015344263380198 -0.025644891155227743 0 -0.0079389051710210858 -0.02519647345731095 0 -0.0074774364346028438 -0.025441159622427385 0 -0.0077902525411116114 -0.026198377554357066 0 -0.0080015344263380198 -0.025644891155227743 0 -0.0074774364346028438 -0.025441159622427385 0 -0.0068481943315518955 -0.026227663085245437 0 -0.0074774364346028438 -0.025441159622427385 0 -0.0067144572654815587 -0.025349441472881384 0 -0.0068481943315518955 -0.026227663085245437 0 -0.0077902525411116114 -0.026198377554357066 0 -0.0074774364346028438 -0.025441159622427385 0 -0.0074774364346028438 -0.025441159622427385 0 -0.0071664248065621931 -0.025000829770105239 0 -0.0067144572654815587 -0.025349441472881384 0 -0.0071664248065621931 -0.025000829770105239 0 -0.0067144572654815587 -0.025349441472881384 0 -0.0067054422557444385 -0.024954335108495627 0 -0.0071664248065621931 -0.025000829770105239 0 -0.0072475349450151251 -0.024589564076066873 0 -0.0068679865496873065 -0.024632929961054675 0 -0.0071664248065621931 -0.025000829770105239 0 -0.0072475349450151251 -0.024589564076066873 0 -0.0075637693040726929 -0.024883708508590917 0 -0.0071664248065621931 -0.025000829770105239 0 -0.0068679865496873065 -0.024632929961054675 0 -0.0067054422557444385 -0.024954335108495627 0 -0.0072475349450151251 -0.024589564076066873 0 -0.0068679865496873065 -0.024632929961054675 0 -0.0069750262284136617 -0.024522823890987609 0 -0.0069606063081876952 -0.024549845327326285 0 -0.0070390001951280631 -0.02409746410531834 0 -0.0068679865496873065 -0.024632929961054675 0 -0.0069750262284136617 -0.024522823890987609 0 -0.0068758765651347822 -0.024429368056316385 0 -0.0072475349450151251 -0.024589564076066873 0 -0.0069750262284136617 -0.024522823890987609 0 -0.0068758765651347822 -0.024429368056316385 0 -0.0072475349450151251 -0.024589564076066873 0 -0.0068758765651347822 -0.024429368056316385 0 -0.0068709399911215602 -0.024250887878435559 0 -0.0072475349450151251 -0.024589564076066873 0 -0.0068709399911215602 -0.024250887878435559 0 -0.0075561566952353056 -0.02441824165954851 0 -0.0009947637724713207 -0.038554024040633558 0 -0.001084931281327739 -0.038692354038920622 0 -0.0010013893771158495 -0.038591491055889146 0 -0.0070021987400885593 -0.026761320698984518 0 -0.0038119856719169929 -0.031939052352410763 0 -0.0070390001951280631 -0.02409746410531834 0 -0.0070021987400885593 -0.026761320698984518 0 -0.0072475349450151251 -0.024589564076066873 0 -0.0075561566952353056 -0.02441824165954851 0 -0.0075637693040726929 -0.024883708508590917 0 -0.0075561566952353056 -0.02441824165954851 0 -0.0075637693040726929 -0.024883708508590917 0 -0.0079160515262376614 -0.024854724125834508 0 -0.0079389051710210858 -0.02519647345731095 0 -0.0075637693040726929 -0.024883708508590917 0 -0.0079160515262376614 -0.024854724125834508 0 -0.0082577791330087861 -0.025080967667589726 0 -0.0079160515262376614 -0.024854724125834508 0 -0.008229622061649889 -0.024691207419766766 0 -0.0079389051710210858 -0.02519647345731095 0 -0.0082577791330087861 -0.025080967667589726 0 -0.0079160515262376614 -0.024854724125834508 0 -0.0038119856719169929 -0.031939052352410763 0 -0.0047397428647549663 -0.03157487651740512 0 -0.0013005922938860149 -0.038748898104495742 0 -0.0012649518207356499 -0.038735939043458199 0 -0.0011166976292504855 -0.038685022740332267 0 -0.001084931281327739 -0.038692354038920622 0 -0.0013005922938860149 -0.038748898104495742 0 -0.0011166976292504855 -0.038685022740332267 0 -0.0075561566952353056 -0.02441824165954851 0 -0.0079160515262376614 -0.024854724125834508 0 -0.008229622061649889 -0.024691207419766766 0 -0.0054854791137759276 -0.032916260810276404 0 -0.0047397428647549663 -0.03157487651740512 0 -0.0014606310468439083 -0.038676718734831722 0 -0.0013005922938860149 -0.038748898104495742 0 -0.0013891915765956522 -0.038698682882751405 0 -0.0013005922938860149 -0.038748898104495742 0 -0.0013891915765956522 -0.038698682882751405 0 -0.0012649518207356499 -0.038735939043458199 0 -0.0082577791330087861 -0.025080967667589726 0 -0.008229622061649889 -0.024691207419766766 0 -0.0085381393016069149 -0.025048395150453224 0 -0.0087143410614021963 -0.024941242020934461 0 -0.008229622061649889 -0.024691207419766766 0 -0.0085381393016069149 -0.025048395150453224 0 -0.0086301411301745613 -0.024942661594585844 0 -0.008544446193129409 -0.025363646469027008 0 -0.0085381393016069149 -0.025048395150453224 0 -0.0042210537900283793 -0.02390242453766887 0 -0.004962213738980612 -0.024492415684813803 0 -0.0051916574420060304 -0.023274975984951821 0 -0.0045872127145957431 -0.022452355818647678 0 -0.0053601214808497357 -0.02238287719337102 0 -0.0060238598826312306 -0.021058559594143652 0 -0.0046768108691456756 -0.01858317162821068 0 -0.0041456652893122952 -0.020272329851560644 0 -0.0060238598826312306 -0.021058559594143652 0 -0.0041456652893122952 -0.020272329851560644 0 -0.0043107517327571248 -0.022187655637586637 0 -0.0045872127145957431 -0.022452355818647678 0 -0.0038164265855937783 -0.022774687090066244 0 -0.0045872127145957431 -0.022452355818647678 0 -0.0039863092158874645 -0.024826958003315608 0 -0.0044404286413693341 -0.022803708744721065 0 -0.0040181319149072232 -0.02459387563581393 0 -0.0031877497066678411 -0.023536053844109926 0 -0.0040181319149072232 -0.02459387563581393 0 -0.0031877497066678411 -0.023536053844109926 0 -0.0030862757317506378 -0.024746202871262342 0 -0.0049063052880669016 -0.025471446530860295 0 -0.0040181319149072232 -0.02459387563581393 0 -0.004962213738980612 -0.024492415684813803 0 -0.0042210537900283793 -0.02390242453766887 0 -0.0040181319149072232 -0.02459387563581393 0 -0.004962213738980612 -0.024492415684813803 0 -0.0049063052880669016 -0.025471446530860295 0 -0.004962213738980612 -0.024492415684813803 0 -0.0060715776108568997 -0.025403373765961756 0 -0.004962213738980612 -0.024492415684813803 0 -0.0060715776108568997 -0.025403373765961756 0 -0.0061947066721884398 -0.023866225708688151 0 -0.0061209720730454817 -0.025270263282399383 0 -0.0062218849560152579 -0.024699692806643133 0 -0.0068481943315518955 -0.026227663085245437 0 -0.0060715776108568997 -0.025403373765961756 0 -0.0067144572654815587 -0.025349441472881384 0 -0.0060715776108568997 -0.025403373765961756 0 -0.0067144572654815587 -0.025349441472881384 0 -0.00635941353139654 -0.025108524766965463 0 -0.0067144572654815587 -0.025349441472881384 0 -0.00635941353139654 -0.025108524766965463 0 -0.0067054422557444385 -0.024954335108495627 0 -0.004962213738980612 -0.024492415684813803 0 -0.0061947066721884398 -0.023866225708688151 0 -0.0051916574420060304 -0.023274975984951821 0 -0.0061947066721884398 -0.023866225708688151 0 -0.0051916574420060304 -0.023274975984951821 0 -0.0063040827252179481 -0.022610707380584124 0 -0.0053601214808497357 -0.02238287719337102 0 -0.0069339476636801284 -0.02271000773107016 0 -0.0056437794245482982 -0.021487846563053425 0 -0.0059888003560890808 -0.020094907390018363 0 -0.0074137463714738705 -0.020472931688303945 0 -0.00635941353139654 -0.025108524766965463 0 -0.0067054422557444385 -0.024954335108495627 0 -0.0064568091469136869 -0.024605807474099295 0 -0.0062218849560152579 -0.024699692806643133 0 -0.0069339476636801284 -0.02271000773107016 0 -0.0068679865496873065 -0.024632929961054675 0 -0.0067054422557444385 -0.024954335108495627 0 -0.0064568091469136869 -0.024605807474099295 0 -0.0068679865496873065 -0.024632929961054675 0 -0.0068644380572757645 -0.024376207567259497 0 -0.0064568091469136869 -0.024605807474099295 0 -0.0074400005850627096 -0.023088135466184215 0 -0.0074444117494324074 -0.023086861470239414 0 -0.0074419715604044012 -0.023078441707314816 0 -0.0074137463714738705 -0.020472931688303945 0 -0.0076224034769077787 -0.018682655914884418 0 -0.0068784497016030812 -0.01939799009479792 0 -0.0069339476636801284 -0.02271000773107016 0 -0.0073358593045041469 -0.020322748346732509 0 -0.0074467393736253242 -0.023092360755417232 0 -0.0074400005850627096 -0.023088135466184215 0 -0.0074444117494324074 -0.023086861470239414 0 -0.0070390001951280631 -0.02409746410531834 0 -0.0069339476636801284 -0.02271000773107016 0 -0.0074467393736253242 -0.023092360755417232 0 -0.0074469718399626595 -0.023093721738910587 0 -0.0074444117494324074 -0.023086861470239414 0 -0.0074153353081197202 -0.018637853829590455 0 -0.0076526328396675173 -0.018678888923802851 0 -0.0067135638812887014 -0.017774618621440572 0 -0.0074153353081197202 -0.018637853829590455 0 -0.0076224034769077787 -0.018682655914884418 0 -0.0068784497016030812 -0.01939799009479792 0 -0.0073255281585499626 -0.020254925769246368 0 -0.0073358593045041469 -0.020322748346732509 0 -0.0095972666038913832 -0.020257257114707317 0 -0.0074274365538643389 -0.019847149728693239 0 -0.0087701128848356614 -0.018357541544317353 0 -0.0074469718399626595 -0.023093721738910587 0 -0.0074444117494324074 -0.023086861470239414 0 -0.0074419715604044012 -0.023078441707314816 0 -0.0070021987400885593 -0.026761320698984518 0 -0.0073358593045041469 -0.020322748346732509 0 -0.0067420400326786822 -0.018977763755447633 0 -0.0054489309137899129 -0.019055166933277915 0 -0.0048113815799983011 -0.017740288744491801 0 -0.0059888003560890808 -0.020094907390018363 0 -0.0061897239487898039 -0.019453969918630055 0 -0.0068784497016030812 -0.01939799009479792 0 -0.0059888003560890808 -0.020094907390018363 0 -0.0061897239487898039 -0.019453969918630055 0 -0.0054489309137899129 -0.019055166933277915 0 -0.0059888003560890808 -0.020094907390018363 0 -0.0074137463714738705 -0.020472931688303945 0 -0.0068784497016030812 -0.01939799009479792 0 -0.0061897239487898039 -0.019453969918630055 0 -0.0068784497016030812 -0.01939799009479792 0 -0.0067420400326786822 -0.018977763755447633 0 -0.0074153353081197202 -0.018637853829590455 0 -0.0067420400326786822 -0.018977763755447633 0 -0.0067135638812887014 -0.017774618621440572 0 -0.0074153353081197202 -0.018637853829590455 0 -0.0068784497016030812 -0.01939799009479792 0 -0.0067420400326786822 -0.018977763755447633 0 -0.0061897239487898039 -0.019453969918630055 0 -0.0067420400326786822 -0.018977763755447633 0 -0.0054489309137899129 -0.019055166933277915 0 -0.0055195715248220166 -0.019105608481133785 0 -0.0052542842786423259 -0.016502544922875177 0 -0.0054489309137899129 -0.019055166933277915 0 -0.0043560725097656922 -0.020141216007851851 0 -0.0048113815799983011 -0.017740288744491801 0 -0.0059888003560890808 -0.020094907390018363 0 -0.0054489309137899129 -0.019055166933277915 0 -0.0043560725097656922 -0.020141216007851851 0 -0.0064630263933571344 -0.018290387744416478 0 -0.0050337675009456241 -0.016660017380411174 0 -0.006910358949110928 -0.0156257000179417 0 -0.003910286630504624 -0.022521807691264259 0 -0.0056437794245482982 -0.021487846563053425 0 -0.0043560725097656922 -0.020141216007851851 0 -0.0056437794245482982 -0.021487846563053425 0 -0.0059888003560890808 -0.020094907390018363 0 -0.0043560725097656922 -0.020141216007851851 0 -0.0045872127145957431 -0.022452355818647678 0 -0.0055195715248220166 -0.019105608481133785 0 -0.0060238598826312306 -0.021058559594143652 0 -0.0064630263933571344 -0.018290387744416478 0 -0.0046768108691456756 -0.01858317162821068 0 -0.0064630263933571344 -0.018290387744416478 0 -0.0046768108691456756 -0.01858317162821068 0 -0.0050337675009456241 -0.016660017380411174 0 -0.0046768108691456756 -0.01858317162821068 0 -0.0050337675009456241 -0.016660017380411174 0 -0.0029698276209021482 -0.016926187468324506 0 -0.0046768108691456756 -0.01858317162821068 0 -0.0029698276209021482 -0.016926187468324506 0 -0.0030909716720315347 -0.018832598779133878 0 -0.0029698276209021482 -0.016926187468324506 0 -0.0012618240522961842 -0.018252776773438593 0 -0.0030909716720315347 -0.018832598779133878 0 -0.0029698276209021482 -0.016926187468324506 0 -0.0012618240522961842 -0.018252776773438593 0 -0.00082371793141999209 -0.015579250508946743 0 -0.0012618240522961842 -0.018252776773438593 0 -0.0030909716720315347 -0.018832598779133878 0 -0.0024937679179175176 -0.020851273593476449 0 -0.0046768108691456756 -0.01858317162821068 0 -0.0030909716720315347 -0.018832598779133878 0 -0.0041456652893122952 -0.020272329851560644 0 0.00097514613918529684 -0.018305184334054269 0 0.0023032281490454123 -0.015840115763782595 0 -0.00082371793141999209 -0.015579250508946743 0 0.00090783958931721386 -0.018242160546326859 0 0.002342056767709451 -0.015663682200122001 0 -0.0012618240522961842 -0.018252776773438593 0 0.00097514613918529684 -0.018305184334054269 0 -0.00082371793141999209 -0.015579250508946743 0 0.00090783958931721386 -0.018242160546326859 0 -0.00046370604351049835 -0.020713803634362031 0 -0.0012618240522961842 -0.018252776773438593 0 0.00097514613918529684 -0.018305184334054269 0 -0.00051701748743806977 -0.020898340117991535 0 -0.00051701748743806977 -0.020898340117991535 0 0.0020344868799388157 -0.022795049500961027 0 0.0027704703315122618 -0.020183465707192077 0 0.00085725192808853881 -0.018108499271566735 0 -0.00051701748743806977 -0.020898340117991535 0 0.0027704703315122618 -0.020183465707192077 0 -0.00051701748743806977 -0.020898340117991535 0 0.0020344868799388157 -0.022795049500961027 0 -0.00022850167836153043 -0.02380555652808496 0 -0.0030909716720315347 -0.018832598779133878 0 -0.0041456652893122952 -0.020272329851560644 0 -0.0024937679179175176 -0.020851273593476449 0 -0.0041456652893122952 -0.020272329851560644 0 -0.0024937679179175176 -0.020851273593476449 0 -0.0043107517327571248 -0.022187655637586637 0 -0.00051701748743806977 -0.020898340117991535 0 -0.0024937679179175176 -0.020851273593476449 0 -0.0023059226042762976 -0.023487216970882106 0 -0.0012618240522961842 -0.018252776773438593 0 -0.00051701748743806977 -0.020898340117991535 0 -0.0024937679179175176 -0.020851273593476449 0 -0.00051701748743806977 -0.020898340117991535 0 -0.0023059226042762976 -0.023487216970882106 0 -0.00022850167836153043 -0.02380555652808496 0 -0.0024937679179175176 -0.020851273593476449 0 -0.0023059226042762976 -0.023487216970882106 0 -0.0043107517327571248 -0.022187655637586637 0 -0.0023059226042762976 -0.023487216970882106 0 -0.0031877497066678411 -0.023536053844109926 0 -0.0030862757317506378 -0.024746202871262342 0 -0.0024088679629055689 -0.023503755995288669 0 -0.0038164265855937783 -0.022774687090066244 0 -0.0030862757317506378 -0.024746202871262342 0 -0.0029296557593797559 -0.02625334892321177 0 -0.0017328592128383513 -0.025118371313257129 0 -0.0023059226042762976 -0.023487216970882106 0 -0.0030862757317506378 -0.024746202871262342 0 -0.0017328592128383513 -0.025118371313257129 0 -0.0029296557593797559 -0.02625334892321177 0 -0.0017328592128383513 -0.025118371313257129 0 -0.0014989721992441196 -0.026980791991871523 0 -0.0017328592128383513 -0.025118371313257129 0 6.8106633577303592e-05 -0.025866314967960633 0 -0.0014989721992441196 -0.026980791991871523 0 -0.0023059226042762976 -0.023487216970882106 0 -0.0017328592128383513 -0.025118371313257129 0 -0.00022850167836153043 -0.02380555652808496 0 -0.00022850167836153043 -0.02380555652808496 0 0.0014376434719578959 -0.024789282280069446 0 6.8106633577303592e-05 -0.025866314967960633 0 -0.0017328592128383513 -0.025118371313257129 0 -0.00022850167836153043 -0.02380555652808496 0 6.8106633577303592e-05 -0.025866314967960633 0 0.0020344868799388157 -0.022795049500961027 0 -0.00022850167836153043 -0.02380555652808496 0 0.0014376434719578959 -0.024789282280069446 0 0.0014376434719578959 -0.024789282280069446 0 6.8106633577303592e-05 -0.025866314967960633 0 0.001957981081762419 -0.026353680130885005 0 6.8106633577303592e-05 -0.025866314967960633 0 0.00071264368627643401 -0.028266073805835949 0 -0.0014989721992441196 -0.026980791991871523 0 6.8106633577303592e-05 -0.025866314967960633 0 0.001957981081762419 -0.026353680130885005 0 0.00071264368627643401 -0.028266073805835949 0 0.001957981081762419 -0.026353680130885005 0 0.00071264368627643401 -0.028266073805835949 0 0.0035347089360101428 -0.027714804390613638 0 -0.00025275032463129303 -0.02197862302169503 0 0.0013419996152942634 -0.0065250516308199072 0 -0.0011731746384905264 -0.010991479490657858 0 -0.00047727161629650805 -0.011723512320173598 0 -0.0021837579400588417 -0.011833544327260375 0 0.0003616005660719087 -0.010816399282575931 0 -0.00047727161629650805 -0.011723512320173598 0 0.0013529167785825799 -0.011615964110032174 0 -0.00025275032463129303 -0.02197862302169503 0 7.8509993013469104e-05 -0.019371146787745732 0 0.00071264368627643401 -0.028266073805835949 0 -0.0018583280232133265 -0.028646319214681335 0 -0.0014989721992441196 -0.026980791991871523 0 -0.0039450438243355023 -0.02892041449298759 0 -0.0031916437273004205 -0.027668316526855471 0 -0.0018583280232133265 -0.028646319214681335 0 -0.0011269422471242032 -0.023463175530449718 0 7.8509993013469104e-05 -0.019371146787745732 0 -0.0031916437273004205 -0.027668316526855471 0 -0.0018583280232133265 -0.028646319214681335 0 -0.0014989721992441196 -0.026980791991871523 0 -0.0031916437273004205 -0.027668316526855471 0 -0.0029296557593797559 -0.02625334892321177 0 -0.0014989721992441196 -0.026980791991871523 0 0.0033421388270191785 0.0067487022374729073 0 0.0029771603296705426 0.0067771703047445984 0 0.0034397151332060285 0.0071053022576784636 0 0.0042382917072357317 0.0089541555338672422 0 0.0033212765669597454 0.0067913261963668198 0 0.0033421388270191785 0.0067487022374729073 0 0.0034397151332060285 0.0071053022576784636 0 0.0036770928542213619 0.0073514253588478993 0 0.0037442772030177756 0.0076282372509159212 0 0.0038576775345342206 0.0074092681803091713 0 0.0036770928542213619 0.0073514253588478993 0 0.0037442772030177756 0.0076282372509159212 0 0.0038576775345342206 0.0074092681803091713 0 0.0038907582679439936 0.0074735422709916264 0 0.0039674672978741408 0.007413001206537719 0 0.0038907582679439936 0.0074735422709916264 0 0.0039495642896550318 0.0073184382471669336 0 0.0038576775345342206 0.0074092681803091713 0 0.0038907582679439936 0.0074735422709916264 0 0.0039495642896550318 0.0073184382471669336 0 0.00019316097125171894 -0.0012119760406270259 0 0.0013419996152942634 -0.0065250516308199072 0 -0.0011731746384905264 -0.010991479490657858 0 -0.0019366783259999742 -0.010857266929214952 0 -0.0021837579400588417 -0.011833544327260375 0 -0.0019366783259999742 -0.010857266929214952 0 -0.0020379686635594659 -0.010806830747497552 0 -0.0021837579400588417 -0.011833544327260375 0 0.0013419996152942634 -0.0065250516308199072 0 0.0036061898995030255 -0.0098929726464577847 0 0.001957981081762419 -0.026353680130885005 0 0.0035347089360101428 -0.027714804390613638 0 0.0041106014323830601 -0.025051067679073041 0 0.002637703394721894 0.0063482508528038854 0 0.0029771603296705426 0.0067771703047445984 0 0.0027384863699811005 0.0070706931200761663 0 0.0033421388270191785 0.0067487022374729073 0 0.002637703394721894 0.0063482508528038854 0 0.0029771603296705426 0.0067771703047445984 0 0.0042382917072357317 0.0089541555338672422 0 0.0013419996152942634 -0.0065250516308199072 0 0.0029771603296705426 0.0067771703047445984 0 0.0027384863699811005 0.0070706931200761663 0 0.0034397151332060285 0.0071053022576784636 0 0.0014376434719578959 -0.024789282280069446 0 0.001957981081762419 -0.026353680130885005 0 0.0041106014323830601 -0.025051067679073041 0 0.0020344868799388157 -0.022795049500961027 0 0.0041106014323830601 -0.025051067679073041 0 0.004747503813229372 -0.022057549856146053 0 0.0020344868799388157 -0.022795049500961027 0 0.0014376434719578959 -0.024789282280069446 0 0.0041106014323830601 -0.025051067679073041 0 0.0036061898995030255 -0.0098929726464577847 0 0.0037267488086910046 -0.0068700414288055244 0 0.0027384863699811005 0.0070706931200761663 0 0.0031815263134979503 0.0074445923442633937 0 0.0027335460348723965 0.0078620018366207817 0 0.0031815263134979503 0.0074445923442633937 0 0.0034397151332060285 0.0071053022576784636 0 0.0037021999783381806 0.0073878922956097694 0 0.0031815263134979503 0.0074445923442633937 0 0.0037021999783381806 0.0073878922956097694 0 0.0035876718378792085 0.0080483681507536944 0 0.0027384863699811005 0.0070706931200761663 0 0.0031815263134979503 0.0074445923442633937 0 0.0034397151332060285 0.0071053022576784636 0 0.0034397151332060285 0.0071053022576784636 0 0.0036770928542213619 0.0073514253588478993 0 0.0036777518057689771 0.007299701014673257 0 0.0034397151332060285 0.0071053022576784636 0 0.0037021999783381806 0.0073878922956097694 0 0.0036777518057689771 0.007299701014673257 0 0.0035876718378792085 0.0080483681507536944 0 0.0041422306272225614 0.0078951235273848671 0 0.0041705262223783136 0.0083853566038398827 0 0.0037021999783381806 0.0073878922956097694 0 0.0035876718378792085 0.0080483681507536944 0 0.0041422306272225614 0.0078951235273848671 0 0.0035876718378792085 0.0080483681507536944 0 0.0032921399201323782 0.0085980251847840583 0 0.0027335460348723965 0.0078620018366207817 0 0.0031815263134979503 0.0074445923442633937 0 0.0035876718378792085 0.0080483681507536944 0 0.0027335460348723965 0.0078620018366207817 0 0.0035876718378792085 0.0080483681507536944 0 0.0032921399201323782 0.0085980251847840583 0 0.003776484124147386 0.0089215951445957668 0 0.0032921399201323782 0.0085980251847840583 0 0.003776484124147386 0.0089215951445957668 0 0.0033246638745471997 0.0091136323144288909 0 0.0033462082956599161 0.0097333819839346587 0 0.0032931381524219736 0.0097284396327773984 0 0.0029948471410443296 0.010552115843836179 0 0.0024523956099180206 0.01102481960744175 0 0.0025914089448499265 0.01039553399417927 0 0.0035876718378792085 0.0080483681507536944 0 0.003776484124147386 0.0089215951445957668 0 0.0041705262223783136 0.0083853566038398827 0 0.0020344868799388157 -0.022795049500961027 0 0.004747503813229372 -0.022057549856146053 0 0.0027704703315122618 -0.020183465707192077 0 0.0037267488086910046 -0.0068700414288055244 0 0.0040863284043054088 -0.0048037882308327277 0 0.0032921399201323782 0.0085980251847840583 0 0.0027335460348723965 0.0078620018366207817 0 0.0029010729128894478 0.0092793863214180664 0 0.004747503813229372 -0.022057549856146053 0 0.0027704703315122618 -0.020183465707192077 0 0.0052583445262861551 -0.018743570134016875 0 0.0027704703315122618 -0.020183465707192077 0 0.0034743203838491794 -0.018583405503325514 0 0.0052583445262861551 -0.018743570134016875 0 0.00085725192808853881 -0.018108499271566735 0 0.0027704703315122618 -0.020183465707192077 0 0.0034743203838491794 -0.018583405503325514 0 0.00085725192808853881 -0.018108499271566735 0 0.0034743203838491794 -0.018583405503325514 0 0.0036002444079368708 -0.016842589543568903 0 0.0034743203838491794 -0.018583405503325514 0 0.0052583445262861551 -0.018743570134016875 0 0.0036002444079368708 -0.016842589543568903 0 0.0040863284043054088 -0.0048037882308327277 0 0.004511886826634841 -0.0028554495997700265 0 0.0029010729128894478 0.0092793863214180664 0 0.0032817046091419408 0.0096604529640085309 0 0.0035589079416009093 0.0098812367515304245 0 0.0052583445262861551 -0.018743570134016875 0 0.0036002444079368708 -0.016842589543568903 0 0.0054681599416666095 -0.015465541246791569 0 0.00085725192808853881 -0.018108499271566735 0 0.0036002444079368708 -0.016842589543568903 0 0.0023888610094769188 -0.015459778055316597 0 0.0029948471410443296 0.010552115843836179 0 0.0030373967014069927 0.010066208152650765 0 0.0025914089448499265 0.01039553399417927 0 0.0030373967014069927 0.010066208152650765 0 0.0025914089448499265 0.01039553399417927 0 0.0025997238416807199 0.010143315386851058 0 0.003776484124147386 0.0089215951445957668 0 0.0033246638745471997 0.0091136323144288909 0 0.0032817046091419408 0.0096604529640085309 0 0.0033462082956599161 0.0097333819839346587 0 0.0032625338483857906 0.0097196119527667053 0 0.0029948471410443296 0.010552115843836179 0 0.0032817046091419408 0.0096604529640085309 0 0.0030373967014069927 0.010066208152650765 0 0.0029010729128894478 0.0092793863214180664 0 0.0033246638745471997 0.0091136323144288909 0 0.0032817046091419408 0.0096604529640085309 0 0.0032921399201323782 0.0085980251847840583 0 0.0029010729128894478 0.0092793863214180664 0 0.0033246638745471997 0.0091136323144288909 0 0.0032817046091419408 0.0096604529640085309 0 0.0032983169856861758 0.0098804768964129829 0 0.0030373967014069927 0.010066208152650765 0 0.0032817046091419408 0.0096604529640085309 0 0.0032983169856861758 0.0098804768964129829 0 0.0035589079416009093 0.0098812367515304245 0 0.0032983169856861758 0.0098804768964129829 0 0.0030533448329569772 0.0099378892479857709 0 0.0033249031604590694 0.0097476751733157826 0 0.0032983169856861758 0.0098804768964129829 0 0.0030533448329569772 0.0099378892479857709 0 0.0030373967014069927 0.010066208152650765 0 0.0030533448329569772 0.0099378892479857709 0 0.0030373967014069927 0.010066208152650765 0 0.0025997238416807199 0.010143315386851058 0 0.0030533448329569772 0.0099378892479857709 0 0.0028128827196849406 0.0098383691898541459 0 0.0025997238416807199 0.010143315386851058 0 0.0030533448329569772 0.0099378892479857709 0 0.0028128827196849406 0.0098383691898541459 0 0.0033249031604590694 0.0097476751733157826 0 0.0033249031604590694 0.0097476751733157826 0 0.0036217498845055409 0.0093580272766485093 0 0.0031018479442246191 0.0093800891343926562 0 0.0028128827196849406 0.0098383691898541459 0 0.0033249031604590694 0.0097476751733157826 0 0.0031018479442246191 0.0093800891343926562 0 0.0028128827196849406 0.0098383691898541459 0 0.0031018479442246191 0.0093800891343926562 0 0.0024389790259810489 0.0096568918894767708 0 0.0032983169856861758 0.0098804768964129829 0 0.0035589079416009093 0.0098812367515304245 0 0.0033249031604590694 0.0097476751733157826 0 0.0035589079416009093 0.0098812367515304245 0 0.0033249031604590694 0.0097476751733157826 0 0.0036217498845055409 0.0093580272766485093 0 0.0035589079416009093 0.0098812367515304245 0 0.0036217498845055409 0.0093580272766485093 0 0.0043969834612828879 0.008714067769533318 0 0.004511886826634841 -0.0028554495997700265 0 0.0049230280394048365 -0.0020599493844805955 0 0.0036217498845055409 0.0093580272766485093 0 0.0043969834612828879 0.008714067769533318 0 0.0035300746797826436 0.0088120957239383058 0 0.0031018479442246191 0.0093800891343926562 0 0.0024389790259810489 0.0096568918894767708 0 0.002673089949922736 0.0087388962081729697 0 0.0036217498845055409 0.0093580272766485093 0 0.0031018479442246191 0.0093800891343926562 0 0.0035300746797826436 0.0088120957239383058 0 0.0031018479442246191 0.0093800891343926562 0 0.0035300746797826436 0.0088120957239383058 0 0.002673089949922736 0.0087388962081729697 0 0.0035300746797826436 0.0088120957239383058 0 0.0036337492574285467 0.0077472455269115342 0 0.002673089949922736 0.0087388962081729697 0 0.0036337492574285467 0.0077472455269115342 0 0.002673089949922736 0.0087388962081729697 0 0.0020090406759429051 0.0074237314355136098 0 0.0049230280394048365 -0.0020599493844805955 0 0.0052717481941451016 -0.0021318636517891026 0 0.0043969834612828879 0.008714067769533318 0 0.0036337492574285467 0.0077472455269115342 0 0.0051443375337038881 0.0059779446913861044 0 0.0043969834612828879 0.008714067769533318 0 0.0035300746797826436 0.0088120957239383058 0 0.0036337492574285467 0.0077472455269115342 0 0.0054582121974656459 -0.012654085460411076 0 0.0054570964465596875 -0.010135022468048991 0 0.0047776469754265156 -0.011231472014677949 0 0.0054570964465596875 -0.010135022468048991 0 0.0041262716601939359 -0.01011830570909068 0 0.0047776469754265156 -0.011231472014677949 0 0.0051443375337038881 0.0059779446913861044 0 0.003303885690495635 0.0064269864584279137 0 0.0023998799610901876 0.0042320699503270607 0 0.0036337492574285467 0.0077472455269115342 0 0.003303885690495635 0.0064269864584279137 0 0.0020090406759429051 0.0074237314355136098 0 0.0036337492574285467 0.0077472455269115342 0 0.0051443375337038881 0.0059779446913861044 0 0.003303885690495635 0.0064269864584279137 0 0.0029940585092187557 -0.011191489905828911 0 0.0016864756779389491 -0.0098836176692843492 0 0.0030905092763205909 -0.0092475001226492697 0 0.0029940585092187557 -0.011191489905828911 0 0.0015947541576225781 -0.011431619015498324 0 0.0016864756779389491 -0.0098836176692843492 0 0.0029940585092187557 -0.011191489905828911 0 0.0041262716601939359 -0.01011830570909068 0 0.0030905092763205909 -0.0092475001226492697 0 0.0029940585092187557 -0.011191489905828911 0 0.0041262716601939359 -0.01011830570909068 0 0.0047776469754265156 -0.011231472014677949 0 0.0029940585092187557 -0.011191489905828911 0 0.0047776469754265156 -0.011231472014677949 0 0.003494130594201133 -0.013552999638967923 0 0.0054582121974656459 -0.012654085460411076 0 0.0047776469754265156 -0.011231472014677949 0 0.0037989226512595061 -0.01319688009923624 0 0.0047469074067120493 -0.01136457728534627 0 0.0036475879409951862 -0.013351601441493917 0 0.0029940585092187557 -0.011191489905828911 0 0.0018635285187563956 -0.012992201290007803 0 0.0015947541576225781 -0.011431619015498324 0 0.0029940585092187557 -0.011191489905828911 0 0.003494130594201133 -0.013552999638967923 0 0.0018635285187563956 -0.012992201290007803 0 0.003494130594201133 -0.013552999638967923 0 0.0023032281490454123 -0.015840115763782595 0 0.0018635285187563956 -0.012992201290007803 0 0.0054582121974656459 -0.012654085460411076 0 0.0037989226512595061 -0.01319688009923624 0 0.0039335114392778422 -0.014816263805745192 0 0.0036002444079368708 -0.016842589543568903 0 0.0054681599416666095 -0.015465541246791569 0 0.0039335114392778422 -0.014816263805745192 0 0.0054681599416666095 -0.015465541246791569 0 0.0054582121974656459 -0.012654085460411076 0 0.0039335114392778422 -0.014816263805745192 0 0.0036002444079368708 -0.016842589543568903 0 0.0039335114392778422 -0.014816263805745192 0 0.0023888610094769188 -0.015459778055316597 0 0.0037989226512595061 -0.01319688009923624 0 0.0039335114392778422 -0.014816263805745192 0 0.0023888610094769188 -0.015459778055316597 0 0.0036475879409951862 -0.013351601441493917 0 0.002342056767709451 -0.015663682200122001 0 0.0023032281490454123 -0.015840115763782595 0 -0.00082371793141999209 -0.015579250508946743 0 0.00037815123067828557 -0.013796000987539131 0 -0.00082371793141999209 -0.015579250508946743 0 0.00037815123067828557 -0.013796000987539131 0 -0.001705424595719391 -0.012515162294178032 0 0.0023032281490454123 -0.015840115763782595 0 0.00037815123067828557 -0.013796000987539131 0 0.0018635285187563956 -0.012992201290007803 0 -0.0029698276209021482 -0.016926187468324506 0 -0.00082371793141999209 -0.015579250508946743 0 -0.0043100567322072389 -0.014036019524959475 0 -0.00082371793141999209 -0.015579250508946743 0 -0.001705424595719391 -0.012515162294178032 0 -0.0043100567322072389 -0.014036019524959475 0 -0.0050337675009456241 -0.016660017380411174 0 -0.0029698276209021482 -0.016926187468324506 0 -0.0043100567322072389 -0.014036019524959475 0 -0.0018144048234246851 -0.012640905373914142 0 -0.0038592942377965902 -0.013679773247105512 0 -0.001705424595719391 -0.012515162294178032 0 -0.0025668034420114443 -0.011321063999982709 0 -0.0032945724700975836 -0.013690947647948292 0 -0.001705424595719391 -0.012515162294178032 0 -0.0025668034420114443 -0.011321063999982709 0 -0.00029942568336924159 -0.010591600031612728 0 -0.0025668034420114443 -0.011321063999982709 0 -0.00029942568336924159 -0.010591600031612728 0 -0.0017745860201992404 -0.0097087524088700049 0 0.00037815123067828557 -0.013796000987539131 0 0.0018635285187563956 -0.012992201290007803 0 0.00022969263096322075 -0.012098209773140708 0 0.0018635285187563956 -0.012992201290007803 0 0.00022969263096322075 -0.012098209773140708 0 0.0015947541576225781 -0.011431619015498324 0 0.00037815123067828557 -0.013796000987539131 0 -0.001705424595719391 -0.012515162294178032 0 0.00022969263096322075 -0.012098209773140708 0 -0.001705424595719391 -0.012515162294178032 0 0.00022969263096322075 -0.012098209773140708 0 -0.00029942568336924159 -0.010591600031612728 0 0.00022969263096322075 -0.012098209773140708 0 -0.00029942568336924159 -0.010591600031612728 0 0.0015947541576225781 -0.011431619015498324 0 -0.00029942568336924159 -0.010591600031612728 0 0.0015947541576225781 -0.011431619015498324 0 0.0016864756779389491 -0.0098836176692843492 0 -0.00029942568336924159 -0.010591600031612728 0 0.0016864756779389491 -0.0098836176692843492 0 0.0007881912588167979 -0.0087384166803937367 0 0.0016864756779389491 -0.0098836176692843492 0 0.0007881912588167979 -0.0087384166803937367 0 0.0021301703331632355 -0.0083927452249139764 0 -0.00029942568336924159 -0.010591600031612728 0 -0.00054887217205167656 -0.0089258397343649192 0 0.0007881912588167979 -0.0087384166803937367 0 -0.00054887217205167656 -0.0089258397343649192 0 0.0007881912588167979 -0.0087384166803937367 0 -6.9160102021499818e-05 -0.0072119805134878154 0 -0.00054887217205167656 -0.0089258397343649192 0 -0.0014058454977377308 -0.0081913643675686869 0 -6.9160102021499818e-05 -0.0072119805134878154 0 0.0007881912588167979 -0.0087384166803937367 0 -6.9160102021499818e-05 -0.0072119805134878154 0 0.0018253427618045753 -0.0067644935755093449 0 0.0007881912588167979 -0.0087384166803937367 0 0.0018253427618045753 -0.0067644935755093449 0 0.0021301703331632355 -0.0083927452249139764 0 -0.0017745860201992404 -0.0097087524088700049 0 -0.0025047461648114409 -0.0086847490506437725 0 -0.003350417566264449 -0.01010288065530628 0 -0.0025668034420114443 -0.011321063999982709 0 -0.0017745860201992404 -0.0097087524088700049 0 -0.003350417566264449 -0.01010288065530628 0 -0.00029942568336924159 -0.010591600031612728 0 -0.00054887217205167656 -0.0089258397343649192 0 -0.0017745860201992404 -0.0097087524088700049 0 -0.00054887217205167656 -0.0089258397343649192 0 -0.0017745860201992404 -0.0097087524088700049 0 -0.0014058454977377308 -0.0081913643675686869 0 -0.0017745860201992404 -0.0097087524088700049 0 -0.0014058454977377308 -0.0081913643675686869 0 -0.0025047461648114409 -0.0086847490506437725 0 -0.0025047461648114409 -0.0086847490506437725 0 -0.0020709491461956622 -0.0073949576989072712 0 -0.004056534287381312 -0.0082289930351658533 0 -0.0014058454977377308 -0.0081913643675686869 0 -0.0025047461648114409 -0.0086847490506437725 0 -0.0020709491461956622 -0.0073949576989072712 0 -0.0014058454977377308 -0.0081913643675686869 0 -0.0011925392678656386 -0.0071399449164962414 0 -6.9160102021499818e-05 -0.0072119805134878154 0 -0.0014058454977377308 -0.0081913643675686869 0 -0.0020709491461956622 -0.0073949576989072712 0 -0.0011925392678656386 -0.0071399449164962414 0 -0.0020709491461956622 -0.0073949576989072712 0 -0.0011925392678656386 -0.0071399449164962414 0 -0.0017364292272992461 -0.0069439239936014089 0 -0.0017364292272992461 -0.0069439239936014089 0 -0.00074647977470783898 -0.0057327033203764402 0 -0.0020661608446173921 -0.0064621698762600084 0 -0.0011925392678656386 -0.0071399449164962414 0 -0.0017364292272992461 -0.0069439239936014089 0 -0.00074647977470783898 -0.0057327033203764402 0 -0.0017364292272992461 -0.0069439239936014089 0 -0.001978810782052534 -0.0078614866566541 0 -0.0020661608446173921 -0.0064621698762600084 0 -0.0020709491461956622 -0.0073949576989072712 0 -0.0017364292272992461 -0.0069439239936014089 0 -0.001978810782052534 -0.0078614866566541 0 -0.0022351034996575124 -0.0080560911181077367 0 -0.00203568348906987 -0.0069771176984483466 0 -6.9160102021499818e-05 -0.0072119805134878154 0 0.0010755624853755672 -0.0050722980161564011 0 0.0018253427618045753 -0.0067644935755093449 0 -6.9160102021499818e-05 -0.0072119805134878154 0 0.0010755624853755672 -0.0050722980161564011 0 -0.00074647977470783898 -0.0057327033203764402 0 -0.0011925392678656386 -0.0071399449164962414 0 -6.9160102021499818e-05 -0.0072119805134878154 0 -0.00074647977470783898 -0.0057327033203764402 0 -0.00016587584236368155 -0.0037883224779495161 0 0.0010222416204169337 -0.003490236474522926 0 0.0010755624853755672 -0.0050722980161564011 0 0.0018253427618045753 -0.0067644935755093449 0 0.003043762794682645 -0.0044841013296188035 0 0.0018253427618045753 -0.0067644935755093449 0 0.0039097690649580481 -0.0053866604295814743 0 0.003301541746385805 -0.0074217110101982408 0 0.0018253427618045753 -0.0067644935755093449 0 0.0039097690649580481 -0.0053866604295814743 0 0.003043762794682645 -0.0044841013296188035 0 0.0010222416204169337 -0.003490236474522926 0 0.0020958039110488698 -0.0032999778914618435 0 0.0039097690649580481 -0.0053866604295814743 0 0.0048348203686541811 -0.0040316407863910239 0 0.0044481340533591898 -0.0034033004406162862 0 0.0039097690649580481 -0.0053866604295814743 0 0.003043762794682645 -0.0044841013296188035 0 0.0048348203686541811 -0.0040316407863910239 0 0.0020958039110488698 -0.0032999778914618435 0 0.0011276314360929526 -0.0028936104227885863 0 0.0044481340533591898 -0.0034033004406162862 0 0.00096586016496706542 -0.0027755672707807598 0 0.0021207121967304916 -0.0020749034779570952 0 0.0048348203686541811 -0.0040316407863910239 0 0.0044481340533591898 -0.0034033004406162862 0 0.00096586016496706542 -0.0027755672707807598 0 0.0044481340533591898 -0.0034033004406162862 0 0.0024797230918475461 -0.00077497908229368139 0 0.0021207121967304916 -0.0020749034779570952 0 0.0044481340533591898 -0.0034033004406162862 0 0.0024797230918475461 -0.00077497908229368139 0 0.0050126608749411182 0.0018826989095048056 0 0.0045572601620761915 -0.0034715261707444823 0 0.0051556220100645875 -0.0027308878822659031 0 0.0024797230918475461 -0.00077497908229368139 0 0.0050126608749411182 0.0018826989095048056 0 0.00082360841671569871 0.0011186380665429351 0 0.0039097690649580481 -0.0053866604295814743 0 0.005451937441603035 -0.0072221202466233722 0 0.003301541746385805 -0.0074217110101982408 0 0.0039097690649580481 -0.0053866604295814743 0 0.0044481340533591898 -0.0034033004406162862 0 0.005451937441603035 -0.0072221202466233722 0 0.005451937441603035 -0.0072221202466233722 0 0.0042814742793964898 -0.0088039507524047388 0 0.003301541746385805 -0.0074217110101982408 0 0.0050126608749411182 0.0018826989095048056 0 0.0023998799610901876 0.0042320699503270607 0 0.00082360841671569871 0.0011186380665429351 0 0.0051443375337038881 0.0059779446913861044 0 0.0050126608749411182 0.0018826989095048056 0 0.0023998799610901876 0.0042320699503270607 0 0.0054570964465596875 -0.010135022468048991 0 0.005451937441603035 -0.0072221202466233722 0 0.0042814742793964898 -0.0088039507524047388 0 0.0052717481941451016 -0.0021318636517891026 0 0.0051556220100645875 -0.0027308878822659031 0 0.0054570964465596875 -0.010135022468048991 0 0.0041262716601939359 -0.01011830570909068 0 0.0042814742793964898 -0.0088039507524047388 0 0.0042814742793964898 -0.0088039507524047388 0 0.0030905092763205909 -0.0092475001226492697 0 0.003301541746385805 -0.0074217110101982408 0 0.0041262716601939359 -0.01011830570909068 0 0.0042814742793964898 -0.0088039507524047388 0 0.0030905092763205909 -0.0092475001226492697 0 0.0016864756779389491 -0.0098836176692843492 0 0.0030905092763205909 -0.0092475001226492697 0 0.0021301703331632355 -0.0083927452249139764 0 0.0018253427618045753 -0.0067644935755093449 0 0.0021301703331632355 -0.0083927452249139764 0 0.003301541746385805 -0.0074217110101982408 0 0.0030905092763205909 -0.0092475001226492697 0 0.0021301703331632355 -0.0083927452249139764 0 0.003301541746385805 -0.0074217110101982408 0 -0.00117082065665989 -0.038051861998114223 0 -0.00061470988522617357 -0.03865146087807983 0 -0.0013415926367189098 -0.038873228143490791 0 -0.002208835727761082 -0.039459354507525905 0 -0.00117082065665989 -0.038051861998114223 0 -0.0013415926367189098 -0.038873228143490791 0 -0.00117082065665989 -0.038051861998114223 0 -0.00061470988522617357 -0.03865146087807983 0 -0.00021465568571818504 -0.03764643200472971 0 -0.00061470988522617357 -0.03865146087807983 0 -0.0013415926367189098 -0.038873228143490791 0 -0.0011272211293574487 -0.038802510215868426 0 -0.0016770705586834651 -0.03905659601051089 0 -0.0013415926367189098 -0.038873228143490791 0 -0.0013966365942482701 -0.038868270664492166 0 -0.0013415926367189098 -0.038873228143490791 0 -0.0013966365942482701 -0.038868270664492166 0 -0.0011272211293574487 -0.038802510215868426 0 -0.0013966365942482701 -0.038868270664492166 0 -0.0012649518207356499 -0.038735939043458199 0 -0.0011272211293574487 -0.038802510215868426 0 -0.0013966365942482701 -0.038868270664492166 0 -0.0013908076845894747 -0.038744892850374267 0 -0.0012649518207356499 -0.038735939043458199 0 -0.0013891915765956522 -0.038698682882751405 0 -0.0013908076845894747 -0.038744892850374267 0 -0.0012649518207356499 -0.038735939043458199 0 -0.0012649518207356499 -0.038735939043458199 0 -0.0010076691427674794 -0.03864990365093094 0 -0.0011166976292504855 -0.038685022740332267 0 -0.00061470988522617357 -0.03865146087807983 0 -0.0011272211293574487 -0.038802510215868426 0 -0.0010076691427674794 -0.03864990365093094 0 -0.0012649518207356499 -0.038735939043458199 0 -0.0011272211293574487 -0.038802510215868426 0 -0.0010076691427674794 -0.03864990365093094 0 -0.00061470988522617357 -0.03865146087807983 0 -0.0010076691427674794 -0.03864990365093094 0 -0.00090835117267845037 -0.038528266224020474 0 -0.0010076691427674794 -0.03864990365093094 0 -0.00095813961855021809 -0.038566082662125405 0 -0.00090835117267845037 -0.038528266224020474 0 -0.0010076691427674794 -0.03864990365093094 0 -0.0011166976292504855 -0.038685022740332267 0 -0.0010013893771158495 -0.038591491055889146 0 -0.001084931281327739 -0.038692354038920622 0 -0.0011166976292504855 -0.038685022740332267 0 -0.0010013893771158495 -0.038591491055889146 0 -0.0010076691427674794 -0.03864990365093094 0 -0.0010013893771158495 -0.038591491055889146 0 -0.00095813961855021809 -0.038566082662125405 0 -0.0009947637724713207 -0.038554024040633558 0 -0.0010013893771158495 -0.038591491055889146 0 -0.00093751554459105431 -0.038502429936522392 0 -0.0070021987400885593 -0.026761320698984518 0 -0.0050006685942364298 -0.027903988651963592 0 -0.0010013893771158495 -0.038591491055889146 0 -0.00095813961855021809 -0.038566082662125405 0 -0.00093751554459105431 -0.038502429936522392 0 -0.00090835117267845037 -0.038528266224020474 0 -0.00085390639169183346 -0.038434743519890721 0 -0.00093751554459105431 -0.038502429936522392 0 -0.00095813961855021809 -0.038566082662125405 0 -0.00090835117267845037 -0.038528266224020474 0 -0.00093751554459105431 -0.038502429936522392 0 -0.00090835117267845037 -0.038528266224020474 0 -0.00084338715553561479 -0.038491736485873042 0 -0.00085390639169183346 -0.038434743519890721 0 -0.00061470988522617357 -0.03865146087807983 0 -0.00090835117267845037 -0.038528266224020474 0 -0.00084338715553561479 -0.038491736485873042 0 -0.0001646050183419971 -0.038383094420434111 0 -0.0006348348254931527 -0.039341595694258234 0 -0.00061470988522617357 -0.03865146087807983 0 0.00098034859055751676 -0.038244031205666842 0 -0.00021465568571818504 -0.03764643200472971 0 -0.0006348348254931527 -0.039341595694258234 0 -0.0010919116954044128 -0.022946741752341772 0 -0.00084338715553561479 -0.038491736485873042 0 -0.00085390639169183346 -0.038434743519890721 0 -0.00078732316017624839 -0.038260957460171767 0 -0.0068461709461936446 -0.011490391825079597 0 -0.0090536319401966804 -0.01323988425412247 0 -0.0087721355381299836 -0.010662579918533636 0 -0.0052726152302751015 -0.026068913093038912 0 -0.0010919116954044128 -0.022946741752341772 0 -0.0068461709461936446 -0.011490391825079597 0 -0.0054760171640492053 -0.012150953008266435 0 -0.004934740681090009 -0.010514085334640936 0 -0.0068461709461936446 -0.011490391825079597 0 -0.0069327814666120466 -0.013672033945430552 0 -0.0054760171640492053 -0.012150953008266435 0 -0.0069327814666120466 -0.013672033945430552 0 -0.004770193259654153 -0.014931132817086882 0 -0.0054760171640492053 -0.012150953008266435 0 -0.0068461709461936446 -0.011490391825079597 0 -0.0069327814666120466 -0.013672033945430552 0 -0.0090536319401966804 -0.01323988425412247 0 -0.0069327814666120466 -0.013672033945430552 0 -0.0090536319401966804 -0.01323988425412247 0 -0.0079637642376280283 -0.014911612820033547 0 -0.0090536319401966804 -0.01323988425412247 0 -0.0079637642376280283 -0.014911612820033547 0 -0.009401032268097801 -0.01630402358202011 0 -0.0052726152302751015 -0.026068913093038912 0 -0.0050006685942364298 -0.027903988651963592 0 -0.0079637642376280283 -0.014911612820033547 0 -0.0079117053624909173 -0.016100013251365838 0 -0.0066421203693581869 -0.015390377731667184 0 -0.0079637642376280283 -0.014911612820033547 0 -0.0079117053624909173 -0.016100013251365838 0 -0.009401032268097801 -0.01630402358202011 0 -0.009401032268097801 -0.01630402358202011 0 -0.0084031220699950608 -0.017641616750090024 0 -0.0087701128848356614 -0.018357541544317353 0 -0.0079117053624909173 -0.016100013251365838 0 -0.009401032268097801 -0.01630402358202011 0 -0.0084031220699950608 -0.017641616750090024 0 -0.0076526328396675173 -0.018678888923802851 0 -0.0079117053624909173 -0.016100013251365838 0 -0.0067135638812887014 -0.017774618621440572 0 -0.0073358593045041469 -0.020322748346732509 0 -0.0079167293857809844 -0.01593098998968941 0 -0.0074274365538643389 -0.019847149728693239 0 -0.0079117053624909173 -0.016100013251365838 0 -0.0084031220699950608 -0.017641616750090024 0 -0.0095972666038913832 -0.020257257114707317 0 -0.009401032268097801 -0.01630402358202011 0 -0.0087701128848356614 -0.018357541544317353 0 -0.0074274365538643389 -0.019847149728693239 0 -0.0084031220699950608 -0.017641616750090024 0 -0.0087701128848356614 -0.018357541544317353 0 -0.0064782721487984998 -0.019074789693955662 0 -0.0052542842786423259 -0.016502544922875177 0 -0.0067420400326786822 -0.018977763755447633 0 -0.0067135638812887014 -0.017774618621440572 0 -0.0043115881736415845 -0.017487853427307798 0 -0.0067135638812887014 -0.017774618621440572 0 -0.0061435355680867073 -0.016767059990907742 0 -0.0043115881736415845 -0.017487853427307798 0 -0.0079117053624909173 -0.016100013251365838 0 -0.0067135638812887014 -0.017774618621440572 0 -0.0061435355680867073 -0.016767059990907742 0 -0.0061435355680867073 -0.016767059990907742 0 -0.0066421203693581869 -0.015390377731667184 0 -0.004770193259654153 -0.014931132817086882 0 -0.0069327814666120466 -0.013672033945430552 0 -0.0066421203693581869 -0.015390377731667184 0 -0.004770193259654153 -0.014931132817086882 0 -0.0079117053624909173 -0.016100013251365838 0 -0.0061435355680867073 -0.016767059990907742 0 -0.0066421203693581869 -0.015390377731667184 0 -0.0069327814666120466 -0.013672033945430552 0 -0.0079637642376280283 -0.014911612820033547 0 -0.0066421203693581869 -0.015390377731667184 0 -0.0049850365505398238 -0.014063739467578853 0 -0.0052542842786423259 -0.016502544922875177 0 -0.0052005963984563244 -0.013363279349264217 0 -0.004932279065579242 -0.014785650782610829 0 -0.0032945724700975836 -0.013690947647948292 0 -0.0061435355680867073 -0.016767059990907742 0 -0.004770193259654153 -0.014931132817086882 0 -0.0043115881736415845 -0.017487853427307798 0 -0.0052542842786423259 -0.016502544922875177 0 -0.0038592942377965902 -0.013679773247105512 0 -0.0050337675009456241 -0.016660017380411174 0 -0.006910358949110928 -0.0156257000179417 0 -0.0043100567322072389 -0.014036019524959475 0 -0.0025668034420114443 -0.011321063999982709 0 -0.0032945724700975836 -0.013690947647948292 0 -0.0041758458998904764 -0.011925259786605443 0 -0.0052005963984563244 -0.013363279349264217 0 -0.0032945724700975836 -0.013690947647948292 0 -0.0041758458998904764 -0.011925259786605443 0 -0.0052005963984563244 -0.013363279349264217 0 -0.0041758458998904764 -0.011925259786605443 0 -0.0054760171640492053 -0.012150953008266435 0 -0.0049850365505398238 -0.014063739467578853 0 -0.0054096419694825062 -0.012355467343552225 0 -0.0041758458998904764 -0.011925259786605443 0 -0.0054760171640492053 -0.012150953008266435 0 -0.004934740681090009 -0.010514085334640936 0 -0.0041758458998904764 -0.011925259786605443 0 -0.003350417566264449 -0.01010288065530628 0 -0.004934740681090009 -0.010514085334640936 0 -0.0025668034420114443 -0.011321063999982709 0 -0.0041758458998904764 -0.011925259786605443 0 -0.003350417566264449 -0.01010288065530628 0 -0.003350417566264449 -0.01010288065530628 0 -0.004934740681090009 -0.010514085334640936 0 -0.004056534287381312 -0.0082289930351658533 0 -0.004934740681090009 -0.010514085334640936 0 -0.004056534287381312 -0.0082289930351658533 0 -0.0061746971346337927 -0.0093168429242236235 0 -0.0027281821674844265 -0.0081150024410254467 0 -0.0027479422531778088 -0.0059425459967665075 0 -0.0011620278216749244 -0.0072967633541759207 0 0.00060316435649793339 -0.0082511262574403998 0 0.00053465819322734973 -0.0068016291699294551 0 -0.0025047461648114409 -0.0086847490506437725 0 -0.003350417566264449 -0.01010288065530628 0 -0.004056534287381312 -0.0082289930351658533 0 -0.0020540882090530153 -0.0073222908102546771 0 -0.0027281821674844265 -0.0081150024410254467 0 -0.0020709491461956622 -0.0073949576989072712 0 -0.0011620278216749244 -0.0072967633541759207 0 -0.001978810782052534 -0.0078614866566541 0 -0.0011620278216749244 -0.0072967633541759207 0 -0.001978810782052534 -0.0078614866566541 0 -0.00071703186134513739 -0.008375867105546126 0 -0.001978810782052534 -0.0078614866566541 0 -0.00071703186134513739 -0.008375867105546126 0 -0.00085069771384470392 -0.0097228594706252267 0 -0.001978810782052534 -0.0078614866566541 0 -0.00085069771384470392 -0.0097228594706252267 0 -0.0028191225092061736 -0.0093636076673850131 0 -0.00071703186134513739 -0.008375867105546126 0 0.00083626726350176091 -0.010391140386047616 0 -0.00085069771384470392 -0.0097228594706252267 0 -0.0011620278216749244 -0.0072967633541759207 0 -0.00071703186134513739 -0.008375867105546126 0 0.00060316435649793339 -0.0082511262574403998 0 -0.00071703186134513739 -0.008375867105546126 0 0.00060316435649793339 -0.0082511262574403998 0 0.00083626726350176091 -0.010391140386047616 0 0.00060316435649793339 -0.0082511262574403998 0 0.0022256618877243427 -0.0096749079327808647 0 0.00083626726350176091 -0.010391140386047616 0 0.00060316435649793339 -0.0082511262574403998 0 0.0022256618877243427 -0.0096749079327808647 0 0.0019711950815747502 -0.0077150206716731255 0 0.0025551096014354712 -0.021470370259059811 0 0.0027435270310761741 -0.021379797801515422 0 0.00060316435649793339 -0.0082511262574403998 0 0.0019711950815747502 -0.0077150206716731255 0 0.00053465819322734973 -0.0068016291699294551 0 -0.0068461709461936446 -0.011490391825079597 0 -0.004934740681090009 -0.010514085334640936 0 -0.0061746971346337927 -0.0093168429242236235 0 0.0027435270310761741 -0.021379797801515422 0 -0.0010919116954044128 -0.022946741752341772 0 -0.0027479422531778088 -0.0059425459967665075 0 -0.0010919116954044128 -0.022946741752341772 0 -0.0068461709461936446 -0.011490391825079597 0 -0.0061746971346337927 -0.0093168429242236235 0 -0.0087721355381299836 -0.010662579918533636 0 0.0019711950815747502 -0.0077150206716731255 0 0.00053465819322734973 -0.0068016291699294551 0 0.0018428265571254743 -0.0063857403874821956 0 0.00098034859055751676 -0.038244031205666842 0 0.0023665674417455295 -0.037515366081047871 0 0.0008636177276500651 -0.036594728480023271 0 0.0026426944663565221 -0.035503483612293323 0 0.0023665674417455295 -0.037515366081047871 0 0.0008636177276500651 -0.036594728480023271 0 0.00098034859055751676 -0.038244031205666842 0 0.0008636177276500651 -0.036594728480023271 0 -0.00021465568571818504 -0.03764643200472971 0 0.0008636177276500651 -0.036594728480023271 0 0.00080854164820038884 -0.034573443251653256 0 -0.0007517225894276456 -0.036453060263221461 0 0.0026426944663565221 -0.035503483612293323 0 0.0008636177276500651 -0.036594728480023271 0 0.00080854164820038884 -0.034573443251653256 0 0.0030377515746382198 -0.033188036090613091 0 0.0026426944663565221 -0.035503483612293323 0 0.00080854164820038884 -0.034573443251653256 0 0.0030377515746382198 -0.033188036090613091 0 0.00080854164820038884 -0.034573443251653256 0 0.0015368836143036012 -0.032319877392714587 0 0.00080854164820038884 -0.034573443251653256 0 -0.00026445995497754006 -0.032467252950067305 0 0.0015368836143036012 -0.032319877392714587 0 0.00080854164820038884 -0.034573443251653256 0 -0.00092135505714486003 -0.034547609904075093 0 -0.0007517225894276456 -0.036453060263221461 0 -0.00092135505714486003 -0.034547609904075093 0 -0.0014130114886764815 -0.033493337841243746 0 -0.00026445995497754006 -0.032467252950067305 0 0.00080854164820038884 -0.034573443251653256 0 -0.00092135505714486003 -0.034547609904075093 0 -0.00026445995497754006 -0.032467252950067305 0 -0.0021489626873256095 -0.034286663977930246 0 -0.00092135505714486003 -0.034547609904075093 0 -0.0014130114886764815 -0.033493337841243746 0 -0.0020718080625028606 -0.036005267680061313 0 -0.0021489626873256095 -0.034286663977930246 0 -0.00092135505714486003 -0.034547609904075093 0 -0.0020718080625028606 -0.036005267680061313 0 -0.00092135505714486003 -0.034547609904075093 0 -0.0007517225894276456 -0.036453060263221461 0 -0.0018856844490610328 -0.037405387080443268 0 -0.0020718080625028606 -0.036005267680061313 0 -0.0007517225894276456 -0.036453060263221461 0 -0.00117082065665989 -0.038051861998114223 0 -0.0007517225894276456 -0.036453060263221461 0 -0.00021465568571818504 -0.03764643200472971 0 0.0008636177276500651 -0.036594728480023271 0 -0.0007517225894276456 -0.036453060263221461 0 -0.00021465568571818504 -0.03764643200472971 0 -0.0018856844490610328 -0.037405387080443268 0 -0.00117082065665989 -0.038051861998114223 0 -0.0007517225894276456 -0.036453060263221461 0 -0.0018525355925209899 -0.028117157119361198 0 -0.0011806626884250998 -0.02659364434801886 0 -0.00069902460266294008 -0.027415301662258772 0 -0.00069902460266294008 -0.027415301662258772 0 0.00021145384982461715 -0.028575255203008087 0 0.00077009602505787088 -0.026776068711131973 0 -0.00069902460266294008 -0.027415301662258772 0 0.00077009602505787088 -0.026776068711131973 0 -0.00055860494592573605 -0.025602380470169186 0 -0.0010259040915879232 -0.028818700491488391 0 -0.00037733906882329052 -0.02992037567260241 0 0.00021145384982461715 -0.028575255203008087 0 -0.00069902460266294008 -0.027415301662258772 0 -0.0010259040915879232 -0.028818700491488391 0 0.00021145384982461715 -0.028575255203008087 0 -0.0018525355925209899 -0.028117157119361198 0 -0.0010259040915879232 -0.028818700491488391 0 -0.0017782123907317377 -0.03004799205995411 0 -0.0018525355925209899 -0.028117157119361198 0 -0.00069902460266294008 -0.027415301662258772 0 -0.0010259040915879232 -0.028818700491488391 0 -0.0021482998042868596 -0.033561895630299619 0 -0.0016314281255566396 -0.033121889132762677 0 -0.0014130114886764815 -0.033493337841243746 0 -0.0016314281255566396 -0.033121889132762677 0 -0.0014130114886764815 -0.033493337841243746 0 -0.00026445995497754006 -0.032467252950067305 0 -0.0015655035441703388 -0.031664301878336111 0 -0.00026455585807109815 -0.032489212599980895 0 -0.0010259040915879232 -0.028818700491488391 0 -0.0017782123907317377 -0.03004799205995411 0 -0.00037733906882329052 -0.02992037567260241 0 -0.0017782123907317377 -0.03004799205995411 0 -0.00026445995497754006 -0.032467252950067305 0 -0.00037733906882329052 -0.02992037567260241 0 -0.00026445995497754006 -0.032467252950067305 0 -0.00037733906882329052 -0.02992037567260241 0 0.0010314423105968423 -0.030333438925720151 0 -0.00037733906882329052 -0.02992037567260241 0 0.0010314423105968423 -0.030333438925720151 0 0.00021145384982461715 -0.028575255203008087 0 -0.00026445995497754006 -0.032467252950067305 0 0.0010314423105968423 -0.030333438925720151 0 0.0015368836143036012 -0.032319877392714587 0 0.0030377515746382198 -0.033188036090613091 0 0.0015368836143036012 -0.032319877392714587 0 0.0032327127084880365 -0.030245964074760528 0 0.0010314423105968423 -0.030333438925720151 0 0.0015368836143036012 -0.032319877392714587 0 0.0032327127084880365 -0.030245964074760528 0 0.0010314423105968423 -0.030333438925720151 0 0.0016180528457036723 -0.028640015549458265 0 0.0032327127084880365 -0.030245964074760528 0 0.0016180528457036723 -0.028640015549458265 0 0.0029436544771855593 -0.027462899541704493 0 0.0032327127084880365 -0.030245964074760528 0 0.0010314423105968423 -0.030333438925720151 0 0.0016180528457036723 -0.028640015549458265 0 0.00021145384982461715 -0.028575255203008087 0 0.0016180528457036723 -0.028640015549458265 0 0.00021145384982461715 -0.028575255203008087 0 0.00077009602505787088 -0.026776068711131973 0 0.00077009602505787088 -0.026776068711131973 0 0.0029436544771855593 -0.027462899541704493 0 0.0025598008469161974 -0.024979319039504618 0 0.0016180528457036723 -0.028640015549458265 0 0.00077009602505787088 -0.026776068711131973 0 0.0029436544771855593 -0.027462899541704493 0 0.0021240094441725599 -0.013153923086453363 0 0.00079511956359760441 -0.013549174685445555 0 0.002253147458817854 -0.014927500067251949 0 0.0021240094441725599 -0.013153923086453363 0 0.00079511956359760441 -0.013549174685445555 0 0.0010775627499567681 -0.012547575821312261 0 0.00079511956359760441 -0.013549174685445555 0 0.0010775627499567681 -0.012547575821312261 0 0.00010250901863260271 -0.012725360752971128 0 0.0021240094441725599 -0.013153923086453363 0 0.0010775627499567681 -0.012547575821312261 0 0.0021625230540330176 -0.011645260851571781 0 0.0025520418715240059 -0.020340509418944604 0 0.0026866220758978484 -0.020932026654069819 0 0.0010775627499567681 -0.012547575821312261 0 0.0021625230540330176 -0.011645260851571781 0 0.00037425548340554594 -0.01164644907529676 0 0.0021625230540330176 -0.011645260851571781 0 0.00083626726350176091 -0.010391140386047616 0 0.00037425548340554594 -0.01164644907529676 0 0.0025551096014354712 -0.021470370259059811 0 0.0026866220758978484 -0.020932026654069819 0 0.0022256618877243427 -0.0096749079327808647 0 0.0021625230540330176 -0.011645260851571781 0 0.00083626726350176091 -0.010391140386047616 0 0.00037425548340554594 -0.01164644907529676 0 -5.2061730453490075e-05 -0.010899399687788273 0 -0.00038112888034946813 -0.011988488004539628 0 0.00037425548340554594 -0.01164644907529676 0 -0.00038112888034946813 -0.011988488004539628 0 0.00010250901863260271 -0.012725360752971128 0 0.00083626726350176091 -0.010391140386047616 0 0.00037425548340554594 -0.01164644907529676 0 -5.2061730453490075e-05 -0.010899399687788273 0 0.00078336736811096032 -0.010338414266250012 0 -0.00032276561941647393 -0.010587820852209476 0 -0.00032276561941647393 -0.010587820852209476 0 -0.00203568348906987 -0.0069771176984483466 0 -5.2061730453490075e-05 -0.010899399687788273 0 -0.00038112888034946813 -0.011988488004539628 0 -0.0008174687158433848 -0.0110279927386832 0 -0.00038112888034946813 -0.011988488004539628 0 0.00010250901863260271 -0.012725360752971128 0 -0.00042708348925062984 -0.012993068092102779 0 0.0010775627499567681 -0.012547575821312261 0 0.00037425548340554594 -0.01164644907529676 0 0.00010250901863260271 -0.012725360752971128 0 0.00079511956359760441 -0.013549174685445555 0 0.00010250901863260271 -0.012725360752971128 0 -0.0001684881710817374 -0.013649068369105942 0 0.00010250901863260271 -0.012725360752971128 0 -0.00042708348925062984 -0.012993068092102779 0 -0.0001684881710817374 -0.013649068369105942 0 -0.00042708348925062984 -0.012993068092102779 0 -0.0001684881710817374 -0.013649068369105942 0 -0.00050727500183018494 -0.013389553670046858 0 -0.0001684881710817374 -0.013649068369105942 0 -0.00033867314685428703 -0.014298062470527881 0 -0.00050727500183018494 -0.013389553670046858 0 0.00079511956359760441 -0.013549174685445555 0 -0.0001684881710817374 -0.013649068369105942 0 0.00033691909193055239 -0.014941773801261687 0 -0.0001684881710817374 -0.013649068369105942 0 -0.00033867314685428703 -0.014298062470527881 0 0.00033691909193055239 -0.014941773801261687 0 -0.00033867314685428703 -0.014298062470527881 0 9.3998765550450659e-05 -0.016554891942532686 0 0.00033691909193055239 -0.014941773801261687 0 -0.00033867314685428703 -0.014298062470527881 0 -0.00050727500183018494 -0.013389553670046858 0 -0.00034899744243018947 -0.013532750460728249 0 -0.00033867314685428703 -0.014298062470527881 0 -0.00034899744243018947 -0.013532750460728249 0 -0.00030448133905630788 -0.013846461122463865 0 -0.00033867314685428703 -0.014298062470527881 0 -0.00015287478631196625 -0.015533920624075725 0 -0.00030448133905630788 -0.013846461122463865 0 -9.5994575650192851e-07 -0.014727425542926371 0 -0.00015287478631196625 -0.015533920624075725 0 -0.00030448133905630788 -0.013846461122463865 0 -0.00015287478631196625 -0.015533920624075725 0 9.3998765550450659e-05 -0.016554891942532686 0 4.1746176387502651e-07 -0.017817528874697605 0 -9.5994575650192851e-07 -0.014727425542926371 0 -0.00015287478631196625 -0.015533920624075725 0 4.1746176387502651e-07 -0.017817528874697605 0 -0.00033867314685428703 -0.014298062470527881 0 -0.00015287478631196625 -0.015533920624075725 0 9.3998765550450659e-05 -0.016554891942532686 0 9.3998765550450659e-05 -0.016554891942532686 0 0.0012898817764784632 -0.019972410533458898 0 0.00080614301373024464 -0.016565939056565723 0 9.3998765550450659e-05 -0.016554891942532686 0 4.1746176387502651e-07 -0.017817528874697605 0 0.0012898817764784632 -0.019972410533458898 0 4.1746176387502651e-07 -0.017817528874697605 0 0.0012898817764784632 -0.019972410533458898 0 1.9951655607938164e-06 -0.020904752494886578 0 0.002253147458817854 -0.014927500067251949 0 0.00080614301373024464 -0.016565939056565723 0 0.00033691909193055239 -0.014941773801261687 0 0.0012898817764784632 -0.019972410533458898 0 0.002253147458817854 -0.014927500067251949 0 0.00080614301373024464 -0.016565939056565723 0 0.0014965205457088508 -0.019992208200872656 0 0.002297819500001149 -0.0199851590814825 0 9.3998765550450659e-05 -0.016554891942532686 0 0.00080614301373024464 -0.016565939056565723 0 0.00033691909193055239 -0.014941773801261687 0 0.00079511956359760441 -0.013549174685445555 0 0.002253147458817854 -0.014927500067251949 0 0.00033691909193055239 -0.014941773801261687 0 0.0025520418715240059 -0.020340509418944604 0 0.002297819500001149 -0.0199851590814825 0 0.00077009602505787088 -0.026776068711131973 0 0.0025598008469161974 -0.024979319039504618 0 0.00035921071013576226 -0.024837304405449512 0 0.00077009602505787088 -0.026776068711131973 0 0.00035921071013576226 -0.024837304405449512 0 -0.00055860494592573605 -0.025602380470169186 0 0.00035921071013576226 -0.024837304405449512 0 -0.00011186313055954456 -0.023854099704289693 0 -0.00055860494592573605 -0.025602380470169186 0 0.00035921071013576226 -0.024837304405449512 0 0.00060437572189154045 -0.022991934547128338 0 -0.00011186313055954456 -0.023854099704289693 0 0.0012898817764784632 -0.019972410533458898 0 0.0025598008469161974 -0.024979319039504618 0 0.00060437572189154045 -0.022991934547128338 0 0.0025598008469161974 -0.024979319039504618 0 0.00035921071013576226 -0.024837304405449512 0 0.00060437572189154045 -0.022991934547128338 0 0.0012898817764784632 -0.019972410533458898 0 0.00060437572189154045 -0.022991934547128338 0 0.00026072445555444437 -0.022047165475248733 0 0.00026072445555444437 -0.022047165475248733 0 1.9951655607938164e-06 -0.020904752494886578 0 -5.4100857481299065e-07 -0.023993008528764487 0 0.0012898817764784632 -0.019972410533458898 0 0.00026072445555444437 -0.022047165475248733 0 1.9951655607938164e-06 -0.020904752494886578 0 0.00026072445555444437 -0.022047165475248733 0 -5.4100857481299065e-07 -0.023993008528764487 0 -0.00011186313055954456 -0.023854099704289693 0 0.00060437572189154045 -0.022991934547128338 0 0.00026072445555444437 -0.022047165475248733 0 -0.00011186313055954456 -0.023854099704289693 0 -5.4100857481299065e-07 -0.023993008528764487 0 -0.00011186313055954456 -0.023854099704289693 0 -0.00057035643777986786 -0.025408333639443718 0 -5.4100857481299065e-07 -0.023993008528764487 0 -1.9434634148079883e-06 -0.027081879616645849 0 -0.00057035643777986786 -0.025408333639443718 0 -0.00046655570535946187 -0.026705784617358001 0 -1.9434634148079883e-06 -0.027081879616645849 0 -0.00057035643777986786 -0.025408333639443718 0 -0.00096015108353902782 -0.02609027295973846 0 -0.00057035643777986786 -0.025408333639443718 0 -0.00055860494592573605 -0.025602380470169186 0 -0.00011186313055954456 -0.023854099704289693 0 -0.00057035643777986786 -0.025408333639443718 0 -0.00055860494592573605 -0.025602380470169186 0 -0.0011806626884250998 -0.02659364434801886 0 -0.00069902460266294008 -0.027415301662258772 0 -0.00055860494592573605 -0.025602380470169186 0 -0.00096015108353902782 -0.02609027295973846 0 -0.0011806626884250998 -0.02659364434801886 0 -0.00055860494592573605 -0.025602380470169186 0 -0.0005616435337289236 -0.0016621787512409037 0 -0.00067460863943689811 -0.0016086651379451642 0 -5.1923273103448728e-05 -0.0014791674157744509 0 -0.0005585117668978313 -0.0023361835478134499 0 -0.00069560826654411687 -0.0016088894921443202 0 -5.1923273103448728e-05 -0.0014791674157744509 0 0.00068305450776628832 -0.0024135099441559608 0 0.0021166280263329664 -0.0014255423254524446 0 -0.0011833114015589524 -0.0017682666932001352 0 -0.0013491534151989025 -0.0020926817125377921 0 -0.0015216814949043876 -0.0018059922247016002 0 -0.0005616435337289236 -0.0016621787512409037 0 0.0004407945752058383 -0.0011225155858030286 0 -5.1923273103448728e-05 -0.0014791674157744509 0 0.00068305450776628832 -0.0024135099441559608 0 -0.0005585117668978313 -0.0023361835478134499 0 0.00068305450776628832 -0.0024135099441559608 0 -0.0005585117668978313 -0.0023361835478134499 0 0.0006678189008568785 -0.0043084758033196877 0 -0.0005585117668978313 -0.0023361835478134499 0 -0.00067465197653666475 -0.001628901156663549 0 -0.00072414665549801877 -0.0021810634685944822 0 -0.00067465197653666475 -0.001628901156663549 0 -0.00049710867069686232 -0.00089044538815521025 0 -0.00032651742316256572 -0.0009062780201353457 0 -0.00067465197653666475 -0.001628901156663549 0 -0.00051216067043401007 -0.0014684555376971954 0 -0.00032651742316256572 -0.0009062780201353457 0 -0.00051216067043401007 -0.0014684555376971954 0 -0.00032651742316256572 -0.0009062780201353457 0 -0.0001416773438687338 -0.0015052086235435107 0 -0.00067465197653666475 -0.001628901156663549 0 -0.00051216067043401007 -0.0014684555376971954 0 -0.00069560826654411687 -0.0016088894921443202 0 -0.0005585117668978313 -0.0023361835478134499 0 -0.00067465197653666475 -0.001628901156663549 0 -0.00069560826654411687 -0.0016088894921443202 0 -0.00069560826654411687 -0.0016088894921443202 0 -0.0006337240142473648 -0.0020127264562030765 0 -0.0003438285061830439 -0.0018430243919277652 0 -0.0006337240142473648 -0.0020127264562030765 0 -0.0003438285061830439 -0.0018430243919277652 0 -0.00044642575932304522 -0.0022250177993402552 0 -0.00069560826654411687 -0.0016088894921443202 0 -0.0006337240142473648 -0.0020127264562030765 0 -0.00098193131779377016 -0.0020477052945043132 0 -0.00051216067043401007 -0.0014684555376971954 0 -0.00069560826654411687 -0.0016088894921443202 0 -0.0003438285061830439 -0.0018430243919277652 0 -0.00051216067043401007 -0.0014684555376971954 0 -0.0003438285061830439 -0.0018430243919277652 0 -0.0001416773438687338 -0.0015052086235435107 0 -0.0003438285061830439 -0.0018430243919277652 0 0.0001187533562252955 -0.0020408576156778686 0 -0.0001416773438687338 -0.0015052086235435107 0 -0.00055327382925548054 -0.0026661470440771215 0 3.9380979678993161e-05 -0.0023153939698484977 0 0.00096586016496706542 -0.0027755672707807598 0 -0.0003438285061830439 -0.0018430243919277652 0 3.9380979678993161e-05 -0.0023153939698484977 0 0.0001187533562252955 -0.0020408576156778686 0 -0.0003438285061830439 -0.0018430243919277652 0 3.9380979678993161e-05 -0.0023153939698484977 0 -0.00044642575932304522 -0.0022250177993402552 0 -0.00055327382925548054 -0.0026661470440771215 0 3.9380979678993161e-05 -0.0023153939698484977 0 -0.00044642575932304522 -0.0022250177993402552 0 -0.0010992116087809687 -0.0024568059567363788 0 -0.00055327382925548054 -0.0026661470440771215 0 -0.00076897259304745309 -0.0022854287057036344 0 -0.0006337240142473648 -0.0020127264562030765 0 -0.00076897259304745309 -0.0022854287057036344 0 -0.00098193131779377016 -0.0020477052945043132 0 -0.0006337240142473648 -0.0020127264562030765 0 -0.00076897259304745309 -0.0022854287057036344 0 -0.00044642575932304522 -0.0022250177993402552 0 -0.00055327382925548054 -0.0026661470440771215 0 -0.00076897259304745309 -0.0022854287057036344 0 -0.00044642575932304522 -0.0022250177993402552 0 -0.0010992116087809687 -0.0024568059567363788 0 -0.00076897259304745309 -0.0022854287057036344 0 -0.00098193131779377016 -0.0020477052945043132 0 -0.0010992116087809687 -0.0024568059567363788 0 -0.00098193131779377016 -0.0020477052945043132 0 -0.0013491534151989025 -0.0020926817125377921 0 -0.0011833114015589524 -0.0017682666932001352 0 -0.00069560826654411687 -0.0016088894921443202 0 -0.00098193131779377016 -0.0020477052945043132 0 -0.0011833114015589524 -0.0017682666932001352 0 -0.00098193131779377016 -0.0020477052945043132 0 -0.0013491534151989025 -0.0020926817125377921 0 -0.0014852838278688911 -0.0024382188580361857 0 -0.0010992116087809687 -0.0024568059567363788 0 -0.0013491534151989025 -0.0020926817125377921 0 -0.0014852838278688911 -0.0024382188580361857 0 -0.0013491534151989025 -0.0020926817125377921 0 -0.0017001379909080798 -0.0021127579604974063 0 -0.0014852838278688911 -0.0024382188580361857 0 -0.0018557179509997371 -0.0024781771714962246 0 -0.0017001379909080798 -0.0021127579604974063 0 -0.00016587584236368155 -0.0037883224779495161 0 -0.0012906445598609743 -0.0038461491171914697 0 -0.0013491534151989025 -0.0020926817125377921 0 -0.0017001379909080798 -0.0021127579604974063 0 -0.0015216814949043876 -0.0018059922247016002 0 -0.00203568348906987 -0.0069771176984483466 0 -0.0017085619129735554 -0.0070360499710208271 0 -0.0018557179509997371 -0.0024781771714962246 0 -0.0022589242510409275 -0.0025213173191223912 0 -0.0020597078358352864 -0.0021315372985392482 0 -0.0012906445598609743 -0.0038461491171914697 0 -0.00203568348906987 -0.0069771176984483466 0 -0.0018557179509997371 -0.0024781771714962246 0 -0.0017001379909080798 -0.0021127579604974063 0 -0.0020597078358352864 -0.0021315372985392482 0 -0.00038112888034946813 -0.011988488004539628 0 -0.0010670369243998556 -0.011990970465201277 0 -0.0006454802768838696 -0.012602075789779435 0 -0.00038112888034946813 -0.011988488004539628 0 -0.0008174687158433848 -0.0110279927386832 0 -0.0010670369243998556 -0.011990970465201277 0 -0.0010670369243998556 -0.011990970465201277 0 -0.0006454802768838696 -0.012602075789779435 0 -0.0006458596850556623 -0.013132819731213547 0 -0.00038112888034946813 -0.011988488004539628 0 -0.00042708348925062984 -0.012993068092102779 0 -0.0006454802768838696 -0.012602075789779435 0 -0.0017085619129735554 -0.0070360499710208271 0 0.000263146674616146 -0.0075303781931308905 0 -0.0017001379909080798 -0.0021127579604974063 0 -0.0020597078358352864 -0.0021315372985392482 0 -0.0018579046848218954 -0.0017887047169838613 0 -0.0010670369243998556 -0.011990970465201277 0 -0.0012534951953048937 -0.012961074440339107 0 -0.0006458596850556623 -0.013132819731213547 0 5.7657431284512003e-05 -0.013537777370245505 0 -0.00023406097746173223 -0.013078567414244081 0 -0.0006458596850556623 -0.013132819731213547 0 0.000263146674616146 -0.0075303781931308905 0 -0.00021353627153140561 -0.012096451289468183 0 -0.00023406097746173223 -0.013078567414244081 0 -0.0006458596850556623 -0.013132819731213547 0 -0.00058015714715743336 -0.013170504026700067 0 -0.00023406097746173223 -0.013078567414244081 0 -0.00058015714715743336 -0.013170504026700067 0 -0.00023160480332607935 -0.012821353967459446 0 -0.00042708348925062984 -0.012993068092102779 0 -0.00058015714715743336 -0.013170504026700067 0 -0.00050727500183018494 -0.013389553670046858 0 -0.00042708348925062984 -0.012993068092102779 0 -0.0006454802768838696 -0.012602075789779435 0 -0.00058015714715743336 -0.013170504026700067 0 -0.0006454802768838696 -0.012602075789779435 0 -0.0006458596850556623 -0.013132819731213547 0 -0.00058015714715743336 -0.013170504026700067 0 0.000263146674616146 -0.0075303781931308905 0 0.0004407945752058383 -0.0011225155858030286 0 -0.0017001379909080798 -0.0021127579604974063 0 -0.0018579046848218954 -0.0017887047169838613 0 -0.0015216814949043876 -0.0018059922247016002 0 5.7657431284512003e-05 -0.013537777370245505 0 -0.00023406097746173223 -0.013078567414244081 0 0.00092169593694215238 -0.01275894293327901 0 0.000263146674616146 -0.0075303781931308905 0 0.0026185241098937609 -0.008618732473307248 0 0.0050442551687004426 -0.0019967031919424999 0 0.0031200652056529677 -0.0027697115620238123 0 0.0039571133951510568 -0.0046547619372572244 0 0.0050442551687004426 -0.0019967031919424999 0 0.0021166280263329664 -0.0014255423254524446 0 0.0031200652056529677 -0.0027697115620238123 0 0.00068305450776628832 -0.0024135099441559608 0 0.0021166280263329664 -0.0014255423254524446 0 0.0031200652056529677 -0.0027697115620238123 0 0.00068305450776628832 -0.0024135099441559608 0 0.0031200652056529677 -0.0027697115620238123 0 0.0006678189008568785 -0.0043084758033196877 0 0.0026185241098937609 -0.008618732473307248 0 0.001874415204600208 -0.0093254886253939795 0 0.0039571133951510568 -0.0046547619372572244 0 0.0018962942673682662 -0.0092167127048426098 0 0.0006678189008568785 -0.0043084758033196877 0 0.0031200652056529677 -0.0027697115620238123 0 0.0039571133951510568 -0.0046547619372572244 0 0.0006678189008568785 -0.0043084758033196877 0 0.00092169593694215238 -0.01275894293327901 0 0.00097392284196325606 -0.010874816334400102 0 0.00023632578460190866 -0.012035424978570361 0 0.00092169593694215238 -0.01275894293327901 0 0.00097392284196325606 -0.010874816334400102 0 0.0018962942673682662 -0.0092167127048426098 0 0.00097392284196325606 -0.010874816334400102 0 0.00023632578460190866 -0.012035424978570361 0 0.00067737276126482752 -0.01143696628462265 0 0.00097392284196325606 -0.010874816334400102 0 0.0013721428509543845 -0.010318678681329055 0 0.00067737276126482752 -0.01143696628462265 0 0.00097392284196325606 -0.010874816334400102 0 0.0018962942673682662 -0.0092167127048426098 0 0.0013721428509543845 -0.010318678681329055 0 0.0018962942673682662 -0.0092167127048426098 0 0.00071643514297387858 -0.006583738600175003 0 0.0006678189008568785 -0.0043084758033196877 0 0.0018962942673682662 -0.0092167127048426098 0 0.0013721428509543845 -0.010318678681329055 0 0.00087531428424309009 -0.0094321354152883397 0 0.0018962942673682662 -0.0092167127048426098 0 0.00087531428424309009 -0.0094321354152883397 0 0.00071643514297387858 -0.006583738600175003 0 -0.00058015714715743336 -0.013170504026700067 0 -0.00050727500183018494 -0.013389553670046858 0 -0.00023160480332607935 -0.012821353967459446 0 -0.00050727500183018494 -0.013389553670046858 0 -0.00023160480332607935 -0.012821353967459446 0 -0.00011462902856930431 -0.012668772312013145 0 -0.00023406097746173223 -0.013078567414244081 0 0.00092169593694215238 -0.01275894293327901 0 -0.00023160480332607935 -0.012821353967459446 0 0.00092169593694215238 -0.01275894293327901 0 -0.00023160480332607935 -0.012821353967459446 0 0.00023632578460190866 -0.012035424978570361 0 -0.00011462902856930431 -0.012668772312013145 0 0.00023632578460190866 -0.012035424978570361 0 0.00067737276126482752 -0.01143696628462265 0 -0.00023160480332607935 -0.012821353967459446 0 -0.00011462902856930431 -0.012668772312013145 0 0.00023632578460190866 -0.012035424978570361 0 -0.00011462902856930431 -0.012668772312013145 0 -0.00034899744243018947 -0.013532750460728249 0 -0.00030448133905630788 -0.013846461122463865 0 -0.00050727500183018494 -0.013389553670046858 0 -0.00011462902856930431 -0.012668772312013145 0 -0.00034899744243018947 -0.013532750460728249 0 -0.00011462902856930431 -0.012668772312013145 0 -0.00030448133905630788 -0.013846461122463865 0 0.00026036280926862074 -0.012239572197499719 0 -0.00011462902856930431 -0.012668772312013145 0 0.00026036280926862074 -0.012239572197499719 0 0.00067737276126482752 -0.01143696628462265 0 5.8576740129997237e-09 -0.011639465897877541 0 0.00060187102663124628 -0.0093794427298109738 0 0.00026036280926862074 -0.012239572197499719 0 8.7710093824151731e-07 -0.01164441177420613 0 0.0011129822579771863 -0.011336829791673539 0 -0.00030448133905630788 -0.013846461122463865 0 0.00026036280926862074 -0.012239572197499719 0 8.7710093824151731e-07 -0.01164441177420613 0 -9.5994575650192851e-07 -0.014727425542926371 0 -0.00030448133905630788 -0.013846461122463865 0 8.7710093824151731e-07 -0.01164441177420613 0 0.00060187102663124628 -0.0093794427298109738 0 0.00042044367895120087 -0.0069795761880482371 0 0.00039257774234892763 -0.0074941142569468029 0 -0.00010721949499428676 -0.0063115875370985362 0 -0.00015955978613286265 -0.0046312836569716498 0 0.0013721428509543845 -0.010318678681329055 0 0.0011129822579771863 -0.011336829791673539 0 0.00087531428424309009 -0.0094321354152883397 0 0.00026036280926862074 -0.012239572197499719 0 0.00067737276126482752 -0.01143696628462265 0 0.0011129822579771863 -0.011336829791673539 0 0.0013721428509543845 -0.010318678681329055 0 0.00067737276126482752 -0.01143696628462265 0 0.0011129822579771863 -0.011336829791673539 0 1.4231670494118255e-06 -0.011638165646726125 0 1.7368647051821171e-07 -0.0086011314911992459 0 0.00039257774234892763 -0.0074941142569468029 0 1.7368647051821171e-07 -0.0086011314911992459 0 0.00039257774234892763 -0.0074941142569468029 0 -0.00010721949499428676 -0.0063115875370985362 0 1.7368647051821171e-07 -0.0086011314911992459 0 -0.00010721949499428676 -0.0063115875370985362 0 -7.518873832551092e-07 -0.0055631854982700442 0 -0.00010721949499428676 -0.0063115875370985362 0 -7.518873832551092e-07 -0.0055631854982700442 0 -0.00021523300050689073 -0.0050899685055543903 0 -7.518873832551092e-07 -0.0055631854982700442 0 -0.00046074928768770264 -0.0037713420010621833 0 -0.00021523300050689073 -0.0050899685055543903 0 -7.518873832551092e-07 -0.0055631854982700442 0 -0.00046074928768770264 -0.0037713420010621833 0 -6.8169768940556208e-07 -0.0025253732913389881 0 -0.00046074928768770264 -0.0037713420010621833 0 -0.00073162056058810739 -0.0038230501894776958 0 -0.00043197136961166041 -0.0016742968477990719 0 -0.00010721949499428676 -0.0063115875370985362 0 -0.00021523300050689073 -0.0050899685055543903 0 -0.00015955978613286265 -0.0046312836569716498 0 -0.00046074928768770264 -0.0037713420010621833 0 -0.00021523300050689073 -0.0050899685055543903 0 -0.00015955978613286265 -0.0046312836569716498 0 -0.00046074928768770264 -0.0037713420010621833 0 -0.00015955978613286265 -0.0046312836569716498 0 -0.00073162056058810739 -0.0038230501894776958 0 0.00087531428424309009 -0.0094321354152883397 0 0.00071643514297387858 -0.006583738600175003 0 -0.00073162056058810739 -0.0038230501894776958 0 0.00042044367895120087 -0.0069795761880482371 0 -0.00064682188704888509 -0.0043381273929844746 0 -0.0005585117668978313 -0.0023361835478134499 0 -0.00073162056058810739 -0.0038230501894776958 0 -0.00072414665549801877 -0.0021810634685944822 0 -0.0005585117668978313 -0.0023361835478134499 0 -0.00073162056058810739 -0.0038230501894776958 0 0.0006678189008568785 -0.0043084758033196877 0 0.00071643514297387858 -0.006583738600175003 0 -0.00073162056058810739 -0.0038230501894776958 0 0.0006678189008568785 -0.0043084758033196877 0 -0.00067465197653666475 -0.001628901156663549 0 -0.00049710867069686232 -0.00089044538815521025 0 -0.00072414665549801877 -0.0021810634685944822 0 -0.00073162056058810739 -0.0038230501894776958 0 -0.00072414665549801877 -0.0021810634685944822 0 -0.00043197136961166041 -0.0016742968477990719 0 -0.00049710867069686232 -0.00089044538815521025 0 -0.00043197136961166041 -0.0016742968477990719 0 -0.00014880701196786806 0.00093983803826339616 0 -0.00049710867069686232 -0.00089044538815521025 0 -0.00072414665549801877 -0.0021810634685944822 0 -0.00043197136961166041 -0.0016742968477990719 0 -0.00046074928768770264 -0.0037713420010621833 0 -0.00043197136961166041 -0.0016742968477990719 0 -6.8169768940556208e-07 -0.0025253732913389881 0 -0.00043197136961166041 -0.0016742968477990719 0 -6.8169768940556208e-07 -0.0025253732913389881 0 -4.7695546782056335e-07 0.00051253755930592566 0 -0.00014880701196786806 0.00093983803826339616 0 1.2731343991592936e-07 0.0035502221868341345 0 0.00027633911712697382 0.0035553710934855039 0 -4.7695546782056335e-07 0.00051253755930592566 0 -0.00014880701196786806 0.00093983803826339616 0 1.2731343991592936e-07 0.0035502221868341345 0 -0.00014880701196786806 0.00093983803826339616 0 0.00027633911712697382 0.0035553710934855039 0 0.00049306246540760184 0.0019407205107785474 0 -0.00043197136961166041 -0.0016742968477990719 0 -4.7695546782056335e-07 0.00051253755930592566 0 -0.00014880701196786806 0.00093983803826339616 0 -3.9836553765074878e-07 0.0065886656146309213 0 0.00054454430327923863 0.0051056081308940675 0 0.00027633911712697382 0.0035553710934855039 0 -3.9836553765074878e-07 0.0065886656146309213 0 1.2731343991592936e-07 0.0035502221868341345 0 0.00027633911712697382 0.0035553710934855039 0 0.00054454430327923863 0.0051056081308940675 0 0.00027633911712697382 0.0035553710934855039 0 0.001103895114933256 0.004071780431165524 0 0.00027633911712697382 0.0035553710934855039 0 0.0010708190617427752 0.0030515841593509404 0 0.001103895114933256 0.004071780431165524 0 0.0010708190617427752 0.0030515841593509404 0 0.0014948553644196585 0.0024130202831516919 0 0.0018084302145557126 0.0033476143281504283 0 0.0010708190617427752 0.0030515841593509404 0 0.0018084302145557126 0.0033476143281504283 0 0.001103895114933256 0.004071780431165524 0 0.00027633911712697382 0.0035553710934855039 0 0.0010708190617427752 0.0030515841593509404 0 0.00049306246540760184 0.0019407205107785474 0 0.0010708190617427752 0.0030515841593509404 0 0.00049306246540760184 0.0019407205107785474 0 0.0014948553644196585 0.0024130202831516919 0 0.00049306246540760184 0.0019407205107785474 0 0.0014948553644196585 0.0024130202831516919 0 0.00091123964761096799 0.00096402191914007407 0 0.0014948553644196585 0.0024130202831516919 0 0.0028760004533555632 0.0032903943790640942 0 0.0018084302145557126 0.0033476143281504283 0 0.0014948553644196585 0.0024130202831516919 0 0.0028760004533555632 0.0032903943790640942 0 0.00091123964761096799 0.00096402191914007407 0 -0.00049710867069686232 -0.00089044538815521025 0 -0.00014880701196786806 0.00093983803826339616 0 -1.1180537318700656e-05 0.0002884289952874278 0 -0.00014880701196786806 0.00093983803826339616 0 0.00049306246540760184 0.0019407205107785474 0 -1.1180537318700656e-05 0.0002884289952874278 0 0.00049306246540760184 0.0019407205107785474 0 -1.1180537318700656e-05 0.0002884289952874278 0 0.00091123964761096799 0.00096402191914007407 0 -0.00049710867069686232 -0.00089044538815521025 0 -1.1180537318700656e-05 0.0002884289952874278 0 -0.00032651742316256572 -0.0009062780201353457 0 -1.1180537318700656e-05 0.0002884289952874278 0 -0.00032651742316256572 -0.0009062780201353457 0 0.00017066896462629829 -0.00031467118974261971 0 -0.00032651742316256572 -0.0009062780201353457 0 0.00015191451560950901 -0.001099908575114183 0 -0.0001416773438687338 -0.0015052086235435107 0 -0.00032651742316256572 -0.0009062780201353457 0 0.00015191451560950901 -0.001099908575114183 0 0.00017066896462629829 -0.00031467118974261971 0 0.00015191451560950901 -0.001099908575114183 0 0.00068256121844715884 -0.00069827941024468295 0 0.00063137410829188856 -0.0015640607043491685 0 0.00015191451560950901 -0.001099908575114183 0 0.00068256121844715884 -0.00069827941024468295 0 0.00017066896462629829 -0.00031467118974261971 0 0.00068256121844715884 -0.00069827941024468295 0 0.00017066896462629829 -0.00031467118974261971 0 0.00091123964761096799 0.00096402191914007407 0 -1.1180537318700656e-05 0.0002884289952874278 0 0.00017066896462629829 -0.00031467118974261971 0 0.00091123964761096799 0.00096402191914007407 0 0.0028760004533555632 0.0032903943790640942 0 0.00091123964761096799 0.00096402191914007407 0 0.0024841879138903949 0.00059609512639255142 0 0.00091123964761096799 0.00096402191914007407 0 0.0024841879138903949 0.00059609512639255142 0 0.0016365161809971372 -0.00053371952158550839 0 0.0024841879138903949 0.00059609512639255142 0 0.0016365161809971372 -0.00053371952158550839 0 0.0028080814834433952 -0.0010026382399906447 0 0.00068256121844715884 -0.00069827941024468295 0 0.00091123964761096799 0.00096402191914007407 0 0.0016365161809971372 -0.00053371952158550839 0 0.00068256121844715884 -0.00069827941024468295 0 0.0016365161809971372 -0.00053371952158550839 0 0.0011475311703909037 -0.0013635506516488124 0 0.0011475311703909037 -0.0013635506516488124 0 0.0011188239834998841 -0.0023001074017937498 0 0.00063137410829188856 -0.0015640607043491685 0 0.0011475311703909037 -0.0013635506516488124 0 0.0018789836524187847 -0.0015656982158909437 0 0.0011188239834998841 -0.0023001074017937498 0 0.0016365161809971372 -0.00053371952158550839 0 0.0011475311703909037 -0.0013635506516488124 0 0.0018789836524187847 -0.0015656982158909437 0 0.0028080814834433952 -0.0010026382399906447 0 0.0018789836524187847 -0.0015656982158909437 0 0.0029243864532327848 -0.0022968860332938921 0 0.0016365161809971372 -0.00053371952158550839 0 0.0028080814834433952 -0.0010026382399906447 0 0.0018789836524187847 -0.0015656982158909437 0 -0.0019652009211912859 -0.0021629552308502767 0 -0.0017703743587024936 -0.0016907881588121417 0 -0.00097205049676582402 -0.0024545191882454497 0 0.0018789836524187847 -0.0015656982158909437 0 0.0029243864532327848 -0.0022968860332938921 0 0.0011188239834998841 -0.0023001074017937498 0 0.0003538698649389625 -0.0032242639134778405 0 0.00016991636234105543 -0.002265038808922492 0 -0.0019652009211912859 -0.0021629552308502767 0 -0.0017703743587024936 -0.0016907881588121417 0 -0.0020878047269226475 -0.0017161354953126992 0 -0.0017703743587024936 -0.0016907881588121417 0 -0.00097205049676582402 -0.0024545191882454497 0 -0.0012121666163564982 -0.0016710473524201516 0 -0.00097205049676582402 -0.0024545191882454497 0 -0.00030411941976373212 -0.0021320204445699621 0 -0.0012121666163564982 -0.0016710473524201516 0 -0.00097205049676582402 -0.0024545191882454497 0 0.0004774277064568862 -0.0025072362283059179 0 -0.00030411941976373212 -0.0021320204445699621 0 0.0011188239834998841 -0.0023001074017937498 0 0.0004774277064568862 -0.0025072362283059179 0 0.00038908164843925249 -0.0019034244578037265 0 0.00016991636234105543 -0.002265038808922492 0 0.00041646075061575673 -0.0025041698620591754 0 0.0004774277064568862 -0.0025072362283059179 0 -0.00030411941976373212 -0.0021320204445699621 0 0.00032939577493061811 -0.0021776452654751785 0 3.9380979678993161e-05 -0.0023153939698484977 0 0.00041102480923037028 -0.0024137175041586919 0 0.00096586016496706542 -0.0027755672707807598 0 0.0004774277064568862 -0.0025072362283059179 0 0.00041102480923037028 -0.0024137175041586919 0 0.00096586016496706542 -0.0027755672707807598 0 3.9380979678993161e-05 -0.0023153939698484977 0 0.00041102480923037028 -0.0024137175041586919 0 0.0001187533562252955 -0.0020408576156778686 0 0.0004774277064568862 -0.0025072362283059179 0 0.00041102480923037028 -0.0024137175041586919 0 0.0001187533562252955 -0.0020408576156778686 0 0.0004774277064568862 -0.0025072362283059179 0 0.00038908164843925249 -0.0019034244578037265 0 0.0001187533562252955 -0.0020408576156778686 0 0.00015191451560950901 -0.001099908575114183 0 0.00038908164843925249 -0.0019034244578037265 0 -0.0001416773438687338 -0.0015052086235435107 0 0.00038908164843925249 -0.0019034244578037265 0 0.0001187533562252955 -0.0020408576156778686 0 -0.0001416773438687338 -0.0015052086235435107 0 0.00015191451560950901 -0.001099908575114183 0 0.00038908164843925249 -0.0019034244578037265 0 0.00063137410829188856 -0.0015640607043491685 0 0.0011188239834998841 -0.0023001074017937498 0 0.00038908164843925249 -0.0019034244578037265 0 0.00063137410829188856 -0.0015640607043491685 0 0.00068256121844715884 -0.00069827941024468295 0 0.0011475311703909037 -0.0013635506516488124 0 0.00063137410829188856 -0.0015640607043491685 0 -0.00096855451333536981 0.016684610381907061 0 -0.0022093803547143165 0.016741683320524441 0 -0.00034626225728642704 0.017683259841787424 0 -0.00096855451333536981 0.016684610381907061 0 -0.0013504910025161556 0.015754000491297555 0 -0.0022093803547143165 0.016741683320524441 0 -0.00096855451333536981 0.016684610381907061 0 -0.00042755532623162367 0.015763483710240934 0 -0.00029869310682634746 0.016896422577247834 0 -0.00096855451333536981 0.016684610381907061 0 -0.00042755532623162367 0.015763483710240934 0 -0.0013504910025161556 0.015754000491297555 0 -0.00042755532623162367 0.015763483710240934 0 -0.0013504910025161556 0.015754000491297555 0 -0.00075278669775435004 0.014060307469640317 0 -0.0013504910025161556 0.015754000491297555 0 -0.0019367050204854659 0.014727841947496189 0 -0.00075278669775435004 0.014060307469640317 0 -0.0013504910025161556 0.015754000491297555 0 -0.0022093803547143165 0.016741683320524441 0 -0.0019367050204854659 0.014727841947496189 0 -0.0022093803547143165 0.016741683320524441 0 -0.0019367050204854659 0.014727841947496189 0 -0.0028412330664829731 0.016446965017714539 0 -0.0022093803547143165 0.016741683320524441 0 -0.0023210110032776269 0.017040436577593333 0 -0.0028412330664829731 0.016446965017714539 0 -0.0023210110032776269 0.017040436577593333 0 -0.0028412330664829731 0.016446965017714539 0 -0.0021103443301377215 0.017316061456141774 0 -0.0023210110032776269 0.017040436577593333 0 -0.0020557308326069126 0.017510822715960779 0 -0.0020171414067728876 0.017526118317569339 0 -0.0022093803547143165 0.016741683320524441 0 -0.0023210110032776269 0.017040436577593333 0 -0.0020557308326069126 0.017510822715960779 0 -0.0022093803547143165 0.016741683320524441 0 -0.0017262605046654625 0.017775289577787051 0 -0.0020557308326069126 0.017510822715960779 0 -0.0017262605046654625 0.017775289577787051 0 -0.0020557308326069126 0.017510822715960779 0 -0.0017825287933456255 0.018151704619836923 0 -0.0017262605046654625 0.017775289577787051 0 -0.0017825287933456255 0.018151704619836923 0 -0.0015513467156837999 0.018272351009698356 0 -0.0022093803547143165 0.016741683320524441 0 -0.0017262605046654625 0.017775289577787051 0 -0.00070389370546451973 0.017946222795802345 0 -0.0017262605046654625 0.017775289577787051 0 -0.00070389370546451973 0.017946222795802345 0 -0.0015513467156837999 0.018272351009698356 0 -0.0018703132330399853 0.017946243236895205 0 -0.00030373749226912807 0.014144525935828347 0 -0.00096855451333536981 0.016684610381907061 0 -0.00034626225728642704 0.017683259841787424 0 -0.00029869310682634746 0.016896422577247834 0 -0.0052106623523194492 -0.001181719172917808 0 -0.0037043505263210821 -0.00052205275693381376 0 -0.0041448851675569389 -0.0014929325122957067 0 -0.0037043505263210821 -0.00052205275693381376 0 -0.0041448851675569389 -0.0014929325122957067 0 -0.0033527931329098192 -0.0017088742618630065 0 -0.0041448851675569389 -0.0014929325122957067 0 -0.0033527931329098192 -0.0017088742618630065 0 -0.0042803921694327353 -0.0024016948389574784 0 -0.00030373749226912807 0.014144525935828347 0 0.00041507140271763884 0.0064261417547919648 0 -0.00034626225728642704 0.017683259841787424 0 -0.00029869310682634746 0.016896422577247834 0 8.6686489933666814e-05 0.016915781825119977 0 -0.0052106623523194492 -0.001181719172917808 0 -0.0041448851675569389 -0.0014929325122957067 0 -0.0042803921694327353 -0.0024016948389574784 0 0.0003538698649389625 -0.0032242639134778405 0 0.00041507140271763884 0.0064261417547919648 0 -0.0019652009211912859 -0.0021629552308502767 0 -0.0033527931329098192 -0.0017088742618630065 0 -0.0042803921694327353 -0.0024016948389574784 0 -0.0019652009211912859 -0.0021629552308502767 0 -0.0025191601416946897 -0.0015756384759834454 0 -0.0033527931329098192 -0.0017088742618630065 0 -0.0037043505263210821 -0.00052205275693381376 0 -0.0025191601416946897 -0.0015756384759834454 0 -0.0026359494844513161 0.00012986393388468359 0 -0.0037043505263210821 -0.00052205275693381376 0 -0.0025191601416946897 -0.0015756384759834454 0 -0.0033527931329098192 -0.0017088742618630065 0 -0.0019652009211912859 -0.0021629552308502767 0 -0.0020878047269226475 -0.0017161354953126992 0 -0.0025191601416946897 -0.0015756384759834454 0 0.0037650839374221918 -0.0014154630674391273 0 0.0049842565599414494 -0.0020184022723789756 0 0.0042054379940742658 -0.00010322467392181966 0 0.0028080814834433952 -0.0010026382399906447 0 0.0029243864532327848 -0.0022968860332938921 0 0.0037650839374221918 -0.0014154630674391273 0 0.0029243864532327848 -0.0022968860332938921 0 0.0037650839374221918 -0.0014154630674391273 0 0.0049842565599414494 -0.0020184022723789756 0 0.00098934227739645784 0.01733441143526963 0 0.00055101410391349549 0.014729927513448971 0 0.0032886754092700545 0.0111799960505004 0 0.00041507140271763884 0.0064261417547919648 0 0.0038783509624499917 0.0057225890956118909 0 0.00014835598253124966 0.016184508370446198 0 0.00098934227739645784 0.01733441143526963 0 0.00055101410391349549 0.014729927513448971 0 -0.00042755532623162367 0.015763483710240934 0 0.00014835598253124966 0.016184508370446198 0 -0.00029869310682634746 0.016896422577247834 0 0.00014835598253124966 0.016184508370446198 0 -0.00029869310682634746 0.016896422577247834 0 0.00098934227739645784 0.01733441143526963 0 0.00068688177235213459 0.0094390043482589416 0 0.00041507140271763884 0.0064261417547919648 0 -0.00042755532623162367 0.015763483710240934 0 0.00055101410391349549 0.014729927513448971 0 -0.00075278669775435004 0.014060307469640317 0 -0.00042755532623162367 0.015763483710240934 0 0.00014835598253124966 0.016184508370446198 0 0.00055101410391349549 0.014729927513448971 0 0.00055101410391349549 0.014729927513448971 0 0.00043774433152157354 0.011093973086773691 0 -0.00075278669775435004 0.014060307469640317 0 0.00055101410391349549 0.014729927513448971 0 0.00043774433152157354 0.011093973086773691 0 0.0032886754092700545 0.0111799960505004 0 0.0028080814834433952 -0.0010026382399906447 0 0.0037650839374221918 -0.0014154630674391273 0 0.0042054379940742658 -0.00010322467392181966 0 0.0024841879138903949 0.00059609512639255142 0 0.0028080814834433952 -0.0010026382399906447 0 0.0042054379940742658 -0.00010322467392181966 0 0.0028760004533555632 0.0032903943790640942 0 0.0024841879138903949 0.00059609512639255142 0 0.0042054379940742658 -0.00010322467392181966 0 0.002947016047601227 0.003692546908737051 0 0.0038783509624499917 0.0057225890956118909 0 0.0028760004533555632 0.0032903943790640942 0 0.0032886754092700545 0.0111799960505004 0 0.00128013835236293 0.0060679182115070422 0 0.00043774433152157354 0.011093973086773691 0 0.00128013835236293 0.0060679182115070422 0 -0.0022062118259598301 0.0088030710677487242 0 0.00043774433152157354 0.011093973086773691 0 0.0032886754092700545 0.0111799960505004 0 0.00128013835236293 0.0060679182115070422 0 -0.0033988330545588205 0.018502932343545463 0 -0.0025336571595422556 0.01867726300639359 0 -0.0030232861547274015 0.019135970325980415 0 -0.0022062118259598301 0.0088030710677487242 0 -0.0019367050204854659 0.014727841947496189 0 -0.00075278669775435004 0.014060307469640317 0 -0.0022062118259598301 0.0088030710677487242 0 -0.0019367050204854659 0.014727841947496189 0 -0.0028412330664829731 0.016446965017714539 0 0.00043774433152157354 0.011093973086773691 0 -0.0022062118259598301 0.0088030710677487242 0 -0.00075278669775435004 0.014060307469640317 0 -0.0029436123231939516 0.014195167073163274 0 -0.0026951618825340694 0.015715956886979274 0 -0.0033988330545588205 0.018502932343545463 0 -0.0028412330664829731 0.016446965017714539 0 -0.0023090800817724558 0.017871614684608409 0 -0.0028412330664829731 0.016446965017714539 0 -0.0023090800817724558 0.017871614684608409 0 -0.0021103443301377215 0.017316061456141774 0 -0.0023090800817724558 0.017871614684608409 0 -0.0025336571595422556 0.01867726300639359 0 -0.00184887070181983 0.018574166625149414 0 -0.0033988330545588205 0.018502932343545463 0 -0.0023090800817724558 0.017871614684608409 0 -0.0025336571595422556 0.01867726300639359 0 -0.0030232861547274015 0.019135970325980415 0 -0.0026138172173666213 0.019906902633359737 0 -0.0021404048468777743 0.019188025369903671 0 -0.0025336571595422556 0.01867726300639359 0 -0.0030232861547274015 0.019135970325980415 0 -0.0021404048468777743 0.019188025369903671 0 -0.0033988330545588205 0.018502932343545463 0 -0.0030232861547274015 0.019135970325980415 0 -0.0035600463856926396 0.019084718166507898 0 -0.0023722677372303687 0.019648480663621667 0 -0.0032773711188518934 0.019289490160850652 0 -0.0030232861547274015 0.019135970325980415 0 -0.0026138172173666213 0.019906902633359737 0 -0.0033611974551956921 0.01925149857008706 0 -0.0029855253433165412 0.019516223808735224 0 -0.0021485180196602902 0.019380386825480982 0 -0.0033611974551956921 0.01925149857008706 0 0.0028760004533555632 0.0032903943790640942 0 0.00128013835236293 0.0060679182115070422 0 0.001441016531685573 0.003650302977058211 0 0.0028760004533555632 0.0032903943790640942 0 0.001441016531685573 0.003650302977058211 0 0.0018084302145557126 0.0033476143281504283 0 -0.0029436123231939516 0.014195167073163274 0 -0.00010231892069287755 0.0082781902897163216 0 -0.0030232861547274015 0.019135970325980415 0 -0.0035600463856926396 0.019084718166507898 0 -0.0033611974551956921 0.01925149857008706 0 0.00128013835236293 0.0060679182115070422 0 -0.0022062118259598301 0.0088030710677487242 0 0.00090425600033465048 0.0028026475480658702 0 0.00098214082424986633 0.0043535276387495249 0 -0.00010231892069287755 0.0082781902897163216 0 -0.0035600463856926396 0.019084718166507898 0 -0.0033611974551956921 0.01925149857008706 0 -0.0034571077641798128 0.019537537402523633 0 -0.00010231892069287755 0.0082781902897163216 0 -0.0008156743700317656 0.012824953739023068 0 -0.0029855253433165412 0.019516223808735224 0 -0.0033611974551956921 0.01925149857008706 0 -0.0034571077641798128 0.019537537402523633 0 0.001441016531685573 0.003650302977058211 0 0.0018084302145557126 0.0033476143281504283 0 0.001103895114933256 0.004071780431165524 0 -0.00010231892069287755 0.0082781902897163216 0 0.0020554465347790108 0.0023214963244563031 0 0.0016623856378592768 0.0038190533239863345 0 0.0017292733779979664 0.004249029386712482 0 0.001103895114933256 0.004071780431165524 0 0.0017292733779979664 0.004249029386712482 0 0.001103895114933256 0.004071780431165524 0 0.0008316587564512727 0.0059459312926795575 0 0.00054454430327923863 0.0051056081308940675 0 0.001103895114933256 0.004071780431165524 0 0.0008316587564512727 0.0059459312926795575 0 0.0017292733779979664 0.004249029386712482 0 0.0008316587564512727 0.0059459312926795575 0 0.0018649223895032901 0.0061384598737911989 0 -0.0034571077641798128 0.019537537402523633 0 -0.0033795330366535848 0.02021199396423318 0 -0.0028623677508357141 0.019852932771496721 0 -0.0008156743700317656 0.012824953739023068 0 0.0002702775087707725 0.01096630860871496 0 0.0008316587564512727 0.0059459312926795575 0 0.0012957704548665775 0.0067266080854550955 0 4.6112956569128912e-06 0.0096224768302102387 0 0.0002702775087707725 0.01096630860871496 0 2.530979100095792e-07 0.0096255625534779118 0 0.00068288565833218211 0.0081001124361039182 0 0.0002702775087707725 0.01096630860871496 0 -3.9836553765074878e-07 0.0065886656146309213 0 0.00054454430327923863 0.0051056081308940675 0 0.0008316587564512727 0.0059459312926795575 0 -3.9836553765074878e-07 0.0065886656146309213 0 0.0008316587564512727 0.0059459312926795575 0 4.6112956569128912e-06 0.0096224768302102387 0 -0.0021485180196602902 0.019380386825480982 0 -0.0016929739682451038 0.020056207989027772 0 -0.0024092438956479427 0.020443303973546365 0 -0.0021485180196602902 0.019380386825480982 0 -0.0028623677508357141 0.019852932771496721 0 -0.0024092438956479427 0.020443303973546365 0 -0.0033795330366535848 0.02021199396423318 0 -0.0028623677508357141 0.019852932771496721 0 -0.0024092438956479427 0.020443303973546365 0 -0.0029855253433165412 0.019516223808735224 0 -0.0021485180196602902 0.019380386825480982 0 -0.0028623677508357141 0.019852932771496721 0 -0.0029855253433165412 0.019516223808735224 0 -0.0034571077641798128 0.019537537402523633 0 -0.0028623677508357141 0.019852932771496721 0 0.0002702775087707725 0.01096630860871496 0 -0.0016694168579249079 0.016569440815867077 0 0.0002453988261354364 0.010668494080812678 0 9.8029668215670257e-07 0.0096313341362804956 0 -0.00012880201731817434 0.01188667828994772 0 9.8029668215670257e-07 0.0096313341362804956 0 -0.00012880201731817434 0.01188667828994772 0 -7.313127855100592e-07 0.012111487758137392 0 -0.00012880201731817434 0.01188667828994772 0 -7.313127855100592e-07 0.012111487758137392 0 -1.9054152909833894e-06 0.014305882876291136 0 -0.0016694168579249079 0.016569440815867077 0 -0.00074373590468748533 0.017370824647940094 0 -7.313127855100592e-07 0.012111487758137392 0 1.6725598013940006e-07 0.014597421704485587 0 -1.9054152909833894e-06 0.014305882876291136 0 -0.0016929739682451038 0.020056207989027772 0 -0.0024092438956479427 0.020443303973546365 0 -0.0013161347657852226 0.02052545891954376 0 1.6725598013940006e-07 0.014597421704485587 0 -1.9054152909833894e-06 0.014305882876291136 0 8.0286579878062001e-06 0.016927882990723349 0 -0.0016929739682451038 0.020056207989027772 0 -0.0013161347657852226 0.02052545891954376 0 -0.0009536964259313261 0.019861172269908772 0 -0.0021485180196602902 0.019380386825480982 0 -0.0016929739682451038 0.020056207989027772 0 -0.0009536964259313261 0.019861172269908772 0 -0.0023722677372303687 0.019648480663621667 0 -0.0012549200917397869 0.020103195579178713 0 -0.0009536964259313261 0.019861172269908772 0 -0.00045886438743299635 0.020452322581307747 0 -0.00038208621505336337 0.020415071821083926 0 -0.0015342943983066126 0.020366173611227556 0 -0.00038208621505336337 0.020415071821083926 0 -0.00090033696975971248 0.020085643926665904 0 -0.0012549200917397869 0.020103195579178713 0 -0.0004618629547216977 0.020388363084696604 0 -0.0013161347657852226 0.02052545891954376 0 -0.0009536964259313261 0.019861172269908772 0 -0.00045886438743299635 0.020452322581307747 0 1.6725598013940006e-07 0.014597421704485587 0 1.5449025747084359e-08 0.017082113375748251 0 8.0286579878062001e-06 0.016927882990723349 0 -0.00074373590468748533 0.017370824647940094 0 -0.00044703843802090305 0.018619250160346462 0 1.5449025747084359e-08 0.017082113375748251 0 8.0286579878062001e-06 0.016927882990723349 0 7.7558283394766673e-08 0.019567201723368729 0 -0.00044703843802090305 0.018619250160346462 0 -5.9889294726492251e-07 0.019567108777215146 0 -0.00045886438743299635 0.020452322581307747 0 -1.0367166173457165e-06 0.019573642364884927 0 -0.00038208621505336337 0.020415071821083926 0 -1.0367166173457165e-06 0.019573642364884927 0 -0.00034176751154585931 0.020861087270294742 0 -0.00038208621505336337 0.020415071821083926 0 -0.00034176751154585931 0.020861087270294742 0 -0.00038208621505336337 0.020415071821083926 0 -0.00051783569274611711 0.020224940119240243 0 -0.00038208621505336337 0.020415071821083926 0 -0.00090033696975971248 0.020085643926665904 0 -0.00051783569274611711 0.020224940119240243 0 -0.00090033696975971248 0.020085643926665904 0 -0.00051783569274611711 0.020224940119240243 0 -0.00098334532556653364 0.01966448328581482 0 -0.00051783569274611711 0.020224940119240243 0 -0.00098334532556653364 0.01966448328581482 0 -0.00076422777226821653 0.019675974258337076 0 -0.00051783569274611711 0.020224940119240243 0 -0.00057628509697865487 0.019837821853105824 0 -0.00044868871126599509 0.020126048646225077 0 -0.00051783569274611711 0.020224940119240243 0 -0.00057628509697865487 0.019837821853105824 0 -0.00076422777226821653 0.019675974258337076 0 -0.00057628509697865487 0.019837821853105824 0 -0.00076422777226821653 0.019675974258337076 0 -0.00077679676175107157 0.019419881118067431 0 -0.00057628509697865487 0.019837821853105824 0 -0.00057052856643866913 0.019691365616134299 0 -0.00077679676175107157 0.019419881118067431 0 -0.00098334532556653364 0.01966448328581482 0 -0.00076422777226821653 0.019675974258337076 0 -0.0010014076665181317 0.019274431204539429 0 -0.00076422777226821653 0.019675974258337076 0 -0.0010014076665181317 0.019274431204539429 0 -0.00077679676175107157 0.019419881118067431 0 -0.00098334532556653364 0.01966448328581482 0 -0.001518284676589962 0.019661812957488218 0 -0.0013918792996655861 0.019097898541825354 0 -0.00098334532556653364 0.01966448328581482 0 -0.0013918792996655861 0.019097898541825354 0 -0.0010014076665181317 0.019274431204539429 0 -0.0021404048468777743 0.019188025369903671 0 -0.001518284676589962 0.019661812957488218 0 -0.0013918792996655861 0.019097898541825354 0 -0.0026138172173666213 0.019906902633359737 0 -0.0021404048468777743 0.019188025369903671 0 -0.001518284676589962 0.019661812957488218 0 -0.0026138172173666213 0.019906902633359737 0 -0.0015342943983066126 0.020366173611227556 0 -0.001518284676589962 0.019661812957488218 0 -0.0015342943983066126 0.020366173611227556 0 -0.00090033696975971248 0.020085643926665904 0 -0.001518284676589962 0.019661812957488218 0 -0.00090033696975971248 0.020085643926665904 0 -0.00098334532556653364 0.01966448328581482 0 -0.001518284676589962 0.019661812957488218 0 1.8010561893173735e-05 0.020556536285833357 0 -0.000162898085383954 0.020575399050878483 0 -9.0103704792452807e-05 0.020422537736885099 0 1.8010561893173735e-05 0.020556536285833357 0 5.1167771299755408e-06 0.020412177622093748 0 0.00013266157568999769 0.020437437548184337 0 1.8010561893173735e-05 0.020556536285833357 0 -9.0103704792452807e-05 0.020422537736885099 0 5.1167771299755408e-06 0.020412177622093748 0 1.8010561893173735e-05 0.020556536285833357 0 -0.000162898085383954 0.020575399050878483 0 9.5106836941963861e-05 0.02075887309666908 0 -0.00030297359372418652 0.021873214745171458 0 0.00029972718918539181 0.026289958659983553 0 9.6225083945499851e-05 0.023867749649649207 0 -2.393727899517617e-07 0.024863403827669207 0 1.3773843626659311e-06 0.027508274650470114 0 9.6225083945499851e-05 0.023867749649649207 0 0.00015282577235876046 0.027286997178201062 0 1.3773843626659311e-06 0.027508274650470114 0 9.6225083945499851e-05 0.023867749649649207 0 -2.393727899517617e-07 0.024863403827669207 0 -6.5674141801444523e-05 0.02311010937318813 0 -0.000162898085383954 0.020575399050878483 0 -9.0103704792452807e-05 0.020422537736885099 0 -0.00022842011008887165 0.020306478203177242 0 -0.00030297359372418652 0.021873214745171458 0 -0.00028511477772574084 0.020994884892802507 0 -0.000162898085383954 0.020575399050878483 0 -0.00040393208322084869 0.020334889266756754 0 -0.00022842011008887165 0.020306478203177242 0 9.6225083945499851e-05 0.023867749649649207 0 -6.5674141801444523e-05 0.02311010937318813 0 -0.00011691534388942512 0.02154083439476703 0 -2.393727899517617e-07 0.024863403827669207 0 -6.5674141801444523e-05 0.02311010937318813 0 -4.7142890825025736e-07 0.022213733396039912 0 -6.5674141801444523e-05 0.02311010937318813 0 -4.7142890825025736e-07 0.022213733396039912 0 -0.00011691534388942512 0.02154083439476703 0 -0.00034176751154585931 0.020861087270294742 0 -4.7142890825025736e-07 0.022213733396039912 0 -0.00011691534388942512 0.02154083439476703 0 -1.0367166173457165e-06 0.019573642364884927 0 -0.00034176751154585931 0.020861087270294742 0 -4.7142890825025736e-07 0.022213733396039912 0 -0.00058554114045918635 0.020280965863998232 0 -0.00028511477772574084 0.020994884892802507 0 -0.00034176751154585931 0.020861087270294742 0 -0.00051783569274611711 0.020224940119240243 0 -0.00011691534388942512 0.02154083439476703 0 -0.00040393208322084869 0.020334889266756754 0 -0.00044868871126599509 0.020126048646225077 0 -0.00035748742240599189 0.020155237541290179 0 -0.00051783569274611711 0.020224940119240243 0 -0.00040393208322084869 0.020334889266756754 0 -0.00044868871126599509 0.020126048646225077 0 -0.00044868871126599509 0.020126048646225077 0 -0.00044659990990614831 0.019936148541327997 0 -0.00035748742240599189 0.020155237541290179 0 -0.00057628509697865487 0.019837821853105824 0 -0.00044868871126599509 0.020126048646225077 0 -0.00044659990990614831 0.019936148541327997 0 -0.00057628509697865487 0.019837821853105824 0 -0.00057052856643866913 0.019691365616134299 0 -0.00044659990990614831 0.019936148541327997 0 -0.00057052856643866913 0.019691365616134299 0 -0.00044659990990614831 0.019936148541327997 0 -0.00046703733284390506 0.019742455826349078 0 -0.00044659990990614831 0.019936148541327997 0 -0.00027669559962921063 0.020006130836179352 0 -0.00035748742240599189 0.020155237541290179 0 -0.00044659990990614831 0.019936148541327997 0 -0.00027669559962921063 0.020006130836179352 0 -0.00046703733284390506 0.019742455826349078 0 -0.00040393208322084869 0.020334889266756754 0 -0.00035748742240599189 0.020155237541290179 0 -0.00022842011008887165 0.020306478203177242 0 -0.00027669559962921063 0.020006130836179352 0 -0.00035748742240599189 0.020155237541290179 0 -0.00022842011008887165 0.020306478203177242 0 -0.00027669559962921063 0.020006130836179352 0 -0.00022842011008887165 0.020306478203177242 0 -9.4617356353547506e-05 0.020275423281005487 0 -9.0103704792452807e-05 0.020422537736885099 0 -0.00022842011008887165 0.020306478203177242 0 -9.4617356353547506e-05 0.020275423281005487 0 -0.00027669559962921063 0.020006130836179352 0 -9.4617356353547506e-05 0.020275423281005487 0 -6.1858683187580892e-05 0.020167018457127751 0 -0.00027669559962921063 0.020006130836179352 0 -6.1858683187580892e-05 0.020167018457127751 0 -0.00011083418990860165 0.020022101978771401 0 -9.4617356353547506e-05 0.020275423281005487 0 -6.1858683187580892e-05 0.020167018457127751 0 0.0001221993971094316 0.020325938681609267 0 -6.1858683187580892e-05 0.020167018457127751 0 0.0001221993971094316 0.020325938681609267 0 5.8540837308105343e-05 0.020177954152276738 0 -9.4617356353547506e-05 0.020275423281005487 0 5.1167771299755408e-06 0.020412177622093748 0 0.0001221993971094316 0.020325938681609267 0 -9.0103704792452807e-05 0.020422537736885099 0 -9.4617356353547506e-05 0.020275423281005487 0 5.1167771299755408e-06 0.020412177622093748 0 -0.00018723595277152409 0.019819473785716146 0 -1.3904839014527528e-05 0.020005877341812021 0 -3.5799267756887003e-05 0.019758599090662798 0 -0.00018723595277152409 0.019819473785716146 0 -0.0002932021121266007 0.019623231407870131 0 -3.5799267756887003e-05 0.019758599090662798 0 -0.00018723595277152409 0.019819473785716146 0 -1.3904839014527528e-05 0.020005877341812021 0 -0.00011083418990860165 0.020022101978771401 0 -1.3904839014527528e-05 0.020005877341812021 0 -0.00011083418990860165 0.020022101978771401 0 5.8540837308105343e-05 0.020177954152276738 0 -6.1858683187580892e-05 0.020167018457127751 0 -0.00011083418990860165 0.020022101978771401 0 5.8540837308105343e-05 0.020177954152276738 0 -0.00027669559962921063 0.020006130836179352 0 -0.00026918468040753701 0.019844456947981211 0 -0.00038320150722098554 0.019776954502825836 0 -0.00018723595277152409 0.019819473785716146 0 -0.00011083418990860165 0.020022101978771401 0 -0.00026918468040753701 0.019844456947981211 0 -0.00027669559962921063 0.020006130836179352 0 -0.00011083418990860165 0.020022101978771401 0 -0.00026918468040753701 0.019844456947981211 0 -0.00026918468040753701 0.019844456947981211 0 -0.0003695186853572145 0.019691888778892063 0 -0.00038320150722098554 0.019776954502825836 0 -0.0003695186853572145 0.019691888778892063 0 -0.00051204027817411846 0.019515716140045401 0 -0.0002932021121266007 0.019623231407870131 0 -0.00018723595277152409 0.019819473785716146 0 -0.00026918468040753701 0.019844456947981211 0 -0.0003695186853572145 0.019691888778892063 0 -0.00018723595277152409 0.019819473785716146 0 -0.0003695186853572145 0.019691888778892063 0 -0.0002932021121266007 0.019623231407870131 0 -0.0003695186853572145 0.019691888778892063 0 -0.00053446297643053883 0.019553048640390414 0 -0.00038320150722098554 0.019776954502825836 0 -0.0003695186853572145 0.019691888778892063 0 -0.00053446297643053883 0.019553048640390414 0 -0.00051204027817411846 0.019515716140045401 0 -0.00053446297643053883 0.019553048640390414 0 -0.0006724179190287173 0.019363161134990727 0 -0.00051204027817411846 0.019515716140045401 0 -0.00027669559962921063 0.020006130836179352 0 -0.00038320150722098554 0.019776954502825836 0 -0.00046703733284390506 0.019742455826349078 0 -0.00053446297643053883 0.019553048640390414 0 -0.00038320150722098554 0.019776954502825836 0 -0.00046703733284390506 0.019742455826349078 0 -0.00053446297643053883 0.019553048640390414 0 -0.00046703733284390506 0.019742455826349078 0 -0.00063027068139724781 0.019494151790665267 0 -0.00057052856643866913 0.019691365616134299 0 -0.00046703733284390506 0.019742455826349078 0 -0.00063027068139724781 0.019494151790665267 0 -0.00066803843504293064 0.019377881313506869 0 -0.0006724179190287173 0.019363161134990727 0 -0.00081597585218408386 0.019153487742702469 0 -0.00063027068139724781 0.019494151790665267 0 -0.00066803843504293064 0.019377881313506869 0 -0.00078553569720787961 0.019258282421988723 0 -0.00053446297643053883 0.019553048640390414 0 -0.00063027068139724781 0.019494151790665267 0 -0.00066803843504293064 0.019377881313506869 0 -0.00053446297643053883 0.019553048640390414 0 -0.00066803843504293064 0.019377881313506869 0 -0.0006724179190287173 0.019363161134990727 0 -0.0006724179190287173 0.019363161134990727 0 -0.00081572395396250683 0.019182349955957186 0 -0.00081597585218408386 0.019153487742702469 0 -0.0006724179190287173 0.019363161134990727 0 -0.00073474096667785799 0.019318118813989388 0 -0.00081572395396250683 0.019182349955957186 0 -0.0006724179190287173 0.019363161134990727 0 -0.00073474096667785799 0.019318118813989388 0 -0.00060845921470369937 0.019416376611388664 0 -0.00073474096667785799 0.019318118813989388 0 -0.00081572395396250683 0.019182349955957186 0 -0.00083240175698246215 0.01927209763877076 0 -0.00089373797660840268 0.019328513903984951 0 -0.00090180751623593455 0.019428443270955022 0 -0.00084303291021222207 0.019357593442295134 0 -0.00083240175698246215 0.01927209763877076 0 -0.00089373797660840268 0.019328513903984951 0 -0.00084303291021222207 0.019357593442295134 0 -0.00084303291021222207 0.019357593442295134 0 -0.00072830685931304625 0.01933963969627335 0 -0.00084944310990495034 0.019367973347313251 0 -0.00090180751623593455 0.019428443270955022 0 -0.00084303291021222207 0.019357593442295134 0 -0.00084944310990495034 0.019367973347313251 0 -0.00073474096667785799 0.019318118813989388 0 -0.00083240175698246215 0.01927209763877076 0 -0.00073691303995519991 0.019353331201556811 0 -0.00083240175698246215 0.01927209763877076 0 -0.00084303291021222207 0.019357593442295134 0 -0.00073691303995519991 0.019353331201556811 0 -0.00073691303995519991 0.019353331201556811 0 -0.00056290005941048106 0.01937485240846579 0 -0.00060845921470369937 0.019416376611388664 0 -0.00073691303995519991 0.019353331201556811 0 -0.00072830685931304625 0.01933963969627335 0 -0.00056290005941048106 0.01937485240846579 0 -0.00084303291021222207 0.019357593442295134 0 -0.00073691303995519991 0.019353331201556811 0 -0.00072830685931304625 0.01933963969627335 0 -0.00072830685931304625 0.01933963969627335 0 -0.00056290005941048106 0.01937485240846579 0 -0.00060332377983462581 0.019288666450348161 0 -0.00056290005941048106 0.01937485240846579 0 -0.00042384520187992842 0.019308346288033733 0 -0.00060332377983462581 0.019288666450348161 0 -0.00056290005941048106 0.01937485240846579 0 -0.00060845921470369937 0.019416376611388664 0 -0.00046732361277146905 0.019479894068026093 0 -0.00060845921470369937 0.019416376611388664 0 -0.00051204027817411846 0.019515716140045401 0 -0.00046732361277146905 0.019479894068026093 0 -0.00073474096667785799 0.019318118813989388 0 -0.00073691303995519991 0.019353331201556811 0 -0.00060845921470369937 0.019416376611388664 0 -0.0006724179190287173 0.019363161134990727 0 -0.00060845921470369937 0.019416376611388664 0 -0.00051204027817411846 0.019515716140045401 0 -0.0002932021121266007 0.019623231407870131 0 -0.00046732361277146905 0.019479894068026093 0 -0.00030143575518610876 0.019433648481123951 0 -0.00051204027817411846 0.019515716140045401 0 -0.0002932021121266007 0.019623231407870131 0 -0.00046732361277146905 0.019479894068026093 0 -0.00042384520187992842 0.019308346288033733 0 -0.00030143575518610876 0.019433648481123951 0 -0.00015521382330063418 0.019214708064759639 0 -0.00056290005941048106 0.01937485240846579 0 -0.00046732361277146905 0.019479894068026093 0 -0.00030143575518610876 0.019433648481123951 0 -0.00056290005941048106 0.01937485240846579 0 -0.00042384520187992842 0.019308346288033733 0 -0.00030143575518610876 0.019433648481123951 0 -0.00011747828089487132 0.019534346612250092 0 -0.00015521382330063418 0.019214708064759639 0 0.00011242119013608271 0.019512107473183167 0 0.0018863160936974772 0.024930042877552627 0 0.0028069457965565099 0.02343663199968998 0 -0.00030143575518610876 0.019433648481123951 0 -0.00011747828089487132 0.019534346612250092 0 -0.00015521382330063418 0.019214708064759639 0 -0.0002932021121266007 0.019623231407870131 0 -0.00011747828089487132 0.019534346612250092 0 -3.5799267756887003e-05 0.019758599090662798 0 -0.0002932021121266007 0.019623231407870131 0 -0.00030143575518610876 0.019433648481123951 0 -0.00011747828089487132 0.019534346612250092 0 -0.00011747828089487132 0.019534346612250092 0 -3.5799267756887003e-05 0.019758599090662798 0 0.00011242119013608271 0.019512107473183167 0 -0.0012305760172849252 0.018635950275545741 0 -0.001660842172781509 0.018141238168698667 0 -0.0014528972396381889 0.018628583088417361 0 -0.0012305760172849252 0.018635950275545741 0 -0.001660842172781509 0.018141238168698667 0 -0.0014369777755687246 0.018290880781366328 0 -0.0012305760172849252 0.018635950275545741 0 -0.0014528972396381889 0.018628583088417361 0 -0.0011908182542105696 0.018872453079193875 0 -0.0012305760172849252 0.018635950275545741 0 -0.0011260062476960422 0.018700254349220534 0 -0.0014369777755687246 0.018290880781366328 0 -0.001660842172781509 0.018141238168698667 0 -0.0014369777755687246 0.018290880781366328 0 -0.0017709317365761038 0.017838421182543134 0 -0.0023090800817724558 0.017871614684608409 0 -0.0021103443301377215 0.017316061456141774 0 -0.001660842172781509 0.018141238168698667 0 -0.0023090800817724558 0.017871614684608409 0 -0.001660842172781509 0.018141238168698667 0 -0.00184887070181983 0.018574166625149414 0 -0.0021103443301377215 0.017316061456141774 0 -0.001660842172781509 0.018141238168698667 0 -0.0017709317365761038 0.017838421182543134 0 -0.001660842172781509 0.018141238168698667 0 -0.00184887070181983 0.018574166625149414 0 -0.0014528972396381889 0.018628583088417361 0 -0.0025336571595422556 0.01867726300639359 0 -0.0021404048468777743 0.019188025369903671 0 -0.00184887070181983 0.018574166625149414 0 -0.0021404048468777743 0.019188025369903671 0 -0.00184887070181983 0.018574166625149414 0 -0.0013918792996655861 0.019097898541825354 0 -0.0013918792996655861 0.019097898541825354 0 -0.0011908182542105696 0.018872453079193875 0 -0.0010014076665181317 0.019274431204539429 0 -0.00184887070181983 0.018574166625149414 0 -0.0013918792996655861 0.019097898541825354 0 -0.0014528972396381889 0.018628583088417361 0 -0.0013918792996655861 0.019097898541825354 0 -0.0014528972396381889 0.018628583088417361 0 -0.0011908182542105696 0.018872453079193875 0 -0.0010014076665181317 0.019274431204539429 0 -0.00077679676175107157 0.019419881118067431 0 -0.0009464527997397953 0.019045277768941597 0 -0.0011908182542105696 0.018872453079193875 0 -0.0010014076665181317 0.019274431204539429 0 -0.0009464527997397953 0.019045277768941597 0 -0.00057052856643866913 0.019691365616134299 0 -0.00063027068139724781 0.019494151790665267 0 -0.00077679676175107157 0.019419881118067431 0 -0.00077679676175107157 0.019419881118067431 0 -0.00078553569720787961 0.019258282421988723 0 -0.0009464527997397953 0.019045277768941597 0 -0.00063027068139724781 0.019494151790665267 0 -0.00077679676175107157 0.019419881118067431 0 -0.00078553569720787961 0.019258282421988723 0 -0.00066803843504293064 0.019377881313506869 0 -0.00078553569720787961 0.019258282421988723 0 -0.00081597585218408386 0.019153487742702469 0 -0.00078553569720787961 0.019258282421988723 0 -0.00081597585218408386 0.019153487742702469 0 -0.0009464527997397953 0.019045277768941597 0 -0.00081597585218408386 0.019153487742702469 0 -0.0009464527997397953 0.019045277768941597 0 -0.00099190811681055028 0.018904632133436947 0 -0.00081597585218408386 0.019153487742702469 0 -0.00099190811681055028 0.018904632133436947 0 -0.00093585205923965315 0.018973195578840505 0 -0.0012305760172849252 0.018635950275545741 0 -0.0011908182542105696 0.018872453079193875 0 -0.0009464527997397953 0.019045277768941597 0 -0.0012305760172849252 0.018635950275545741 0 -0.00099190811681055028 0.018904632133436947 0 -0.0011260062476960422 0.018700254349220534 0 -0.0012305760172849252 0.018635950275545741 0 -0.0009464527997397953 0.019045277768941597 0 -0.00099190811681055028 0.018904632133436947 0 -0.00099190811681055028 0.018904632133436947 0 -0.0011260062476960422 0.018700254349220534 0 -0.00093585205923965315 0.018973195578840505 0 -0.0011260062476960422 0.018700254349220534 0 -0.0010394601277146753 0.018843814758421264 0 -0.00093585205923965315 0.018973195578840505 0 -0.0011260062476960422 0.018700254349220534 0 -0.0010394601277146753 0.018843814758421264 0 -0.0013066480994358206 0.018502553180518209 0 -0.00081572395396250683 0.019182349955957186 0 -0.00081597585218408386 0.019153487742702469 0 -0.00093585205923965315 0.018973195578840505 0 -0.0010394601277146753 0.018843814758421264 0 -0.00093585205923965315 0.018973195578840505 0 -0.00089927764186871744 0.019108417537379175 0 -0.00081572395396250683 0.019182349955957186 0 -0.00093585205923965315 0.018973195578840505 0 -0.00089927764186871744 0.019108417537379175 0 -0.00081572395396250683 0.019182349955957186 0 -0.00083240175698246215 0.01927209763877076 0 -0.00089927764186871744 0.019108417537379175 0 -0.00083240175698246215 0.01927209763877076 0 -0.00089373797660840268 0.019328513903984951 0 -0.00089927764186871744 0.019108417537379175 0 -0.00089927764186871744 0.019108417537379175 0 -0.00097339728929293583 0.019044885889549133 0 -0.00085123480692125689 0.019380332817404401 0 -0.00089373797660840268 0.019328513903984951 0 -0.00089927764186871744 0.019108417537379175 0 -0.00085123480692125689 0.019380332817404401 0 -0.0010394601277146753 0.018843814758421264 0 -0.0011747870803934378 0.018749069629094475 0 -0.0013066480994358206 0.018502553180518209 0 -0.0010394601277146753 0.018843814758421264 0 -0.00089927764186871744 0.019108417537379175 0 -0.00097339728929293583 0.019044885889549133 0 -0.0010394601277146753 0.018843814758421264 0 -0.0011747870803934378 0.018749069629094475 0 -0.00097339728929293583 0.019044885889549133 0 -0.0011747870803934378 0.018749069629094475 0 -0.00097339728929293583 0.019044885889549133 0 -0.0011721775228076753 0.018907041277336122 0 -0.0011747870803934378 0.018749069629094475 0 -0.0014513099110238506 0.018453157314896079 0 -0.0011721775228076753 0.018907041277336122 0 -0.0014513099110238506 0.018453157314896079 0 -0.0015534825230048505 0.018529442503945691 0 -0.0011721775228076753 0.018907041277336122 0 -0.0014513099110238506 0.018453157314896079 0 -0.0013066480994358206 0.018502553180518209 0 -0.0016766650445834157 0.018043369323594457 0 -0.0011747870803934378 0.018749069629094475 0 -0.0014513099110238506 0.018453157314896079 0 -0.0013066480994358206 0.018502553180518209 0 -0.0013066480994358206 0.018502553180518209 0 -0.0014369777755687246 0.018290880781366328 0 -0.0016766650445834157 0.018043369323594457 0 -0.0014369777755687246 0.018290880781366328 0 -0.0017709317365761038 0.017838421182543134 0 -0.0016766650445834157 0.018043369323594457 0 -0.0011260062476960422 0.018700254349220534 0 -0.0013066480994358206 0.018502553180518209 0 -0.0014369777755687246 0.018290880781366328 0 -0.0021103443301377215 0.017316061456141774 0 -0.0017709317365761038 0.017838421182543134 0 -0.0020171414067728876 0.017526118317569339 0 -0.0023210110032776269 0.017040436577593333 0 -0.0021103443301377215 0.017316061456141774 0 -0.0020171414067728876 0.017526118317569339 0 -0.0016766650445834157 0.018043369323594457 0 -0.0020171414067728876 0.017526118317569339 0 -0.0017937891954045589 0.018036934245200406 0 -0.0017709317365761038 0.017838421182543134 0 -0.0016766650445834157 0.018043369323594457 0 -0.0020171414067728876 0.017526118317569339 0 -0.0020557308326069126 0.017510822715960779 0 -0.0020171414067728876 0.017526118317569339 0 -0.0017937891954045589 0.018036934245200406 0 -0.0017825287933456255 0.018151704619836923 0 -0.0017937891954045589 0.018036934245200406 0 -0.0015534825230048505 0.018529442503945691 0 -0.0020557308326069126 0.017510822715960779 0 -0.0017825287933456255 0.018151704619836923 0 -0.0017937891954045589 0.018036934245200406 0 -0.0014513099110238506 0.018453157314896079 0 -0.0016766650445834157 0.018043369323594457 0 -0.0017937891954045589 0.018036934245200406 0 -0.0014513099110238506 0.018453157314896079 0 -0.0017937891954045589 0.018036934245200406 0 -0.0015534825230048505 0.018529442503945691 0 -0.0015534825230048505 0.018529442503945691 0 -0.0016557095930966547 0.018536136480587311 0 -0.0011713570448837933 0.018941941554004083 0 -0.0017825287933456255 0.018151704619836923 0 -0.0015534825230048505 0.018529442503945691 0 -0.0016557095930966547 0.018536136480587311 0 0.0022497420406943055 0.02302445982535159 0 0.0024104410143343732 0.023591233477304289 0 0.006784080280378562 0.028055419615278829 0 0.0059618864068404047 0.028113771668997031 0 0.0065983957807983894 0.028713724423914837 0 0.006784080280378562 0.028055419615278829 0 0.0065983957807983894 0.028713724423914837 0 0.0072625400809980924 0.028600107614889424 0 -0.0015534825230048505 0.018529442503945691 0 -0.0011713570448837933 0.018941941554004083 0 -0.0011721775228076753 0.018907041277336122 0 -0.00097339728929293583 0.019044885889549133 0 -0.0011721775228076753 0.018907041277336122 0 -0.00087365099124996765 0.019374414237614185 0 -0.0011713570448837933 0.018941941554004083 0 -0.00087365099124996765 0.019374414237614185 0 -0.00070170466988619072 0.019989093916308431 0 -0.0011713570448837933 0.018941941554004083 0 -0.0011721775228076753 0.018907041277336122 0 -0.00087365099124996765 0.019374414237614185 0 -0.00097339728929293583 0.019044885889549133 0 -0.00087365099124996765 0.019374414237614185 0 -0.00085123480692125689 0.019380332817404401 0 -0.00089373797660840268 0.019328513903984951 0 -0.00085123480692125689 0.019380332817404401 0 -0.00094981573929575939 0.019685121016572198 0 -0.00085123480692125689 0.019380332817404401 0 -0.00070170466988619072 0.019989093916308431 0 -0.00094981573929575939 0.019685121016572198 0 -0.00087365099124996765 0.019374414237614185 0 -0.00085123480692125689 0.019380332817404401 0 -0.00070170466988619072 0.019989093916308431 0 -0.00070170466988619072 0.019989093916308431 0 -0.00057513335364302288 0.021019783143966818 0 -0.00094981573929575939 0.019685121016572198 0 -0.00070170466988619072 0.019989093916308431 0 -0.00057513335364302288 0.021019783143966818 0 -0.00077756366793602484 0.020149217546347267 0 0.0059618864068404047 0.028113771668997031 0 0.0049742740194704035 0.028177314093263881 0 0.0052555911110238824 0.028899096351286915 0 0.0024104410143343732 0.023591233477304289 0 0.0020100858388606914 0.024217128842843612 0 -0.0011713570448837933 0.018941941554004083 0 -0.00070170466988619072 0.019989093916308431 0 -0.00077756366793602484 0.020149217546347267 0 0.0052555911110238824 0.028899096351286915 0 0.0055444468053799482 0.029579915243850785 0 0.0060063367227375774 0.028909458978438708 0 0.0059618864068404047 0.028113771668997031 0 0.0052555911110238824 0.028899096351286915 0 0.0060063367227375774 0.028909458978438708 0 0.0052555911110238824 0.028899096351286915 0 0.0045131447092243079 0.029514733993788938 0 0.0050019749907132521 0.029651795400613825 0 0.0052555911110238824 0.028899096351286915 0 0.0045292304350556846 0.028691448165571575 0 0.0045131447092243079 0.029514733993788938 0 0.0049742740194704035 0.028177314093263881 0 0.0052555911110238824 0.028899096351286915 0 0.0045292304350556846 0.028691448165571575 0 0.0045131447092243079 0.029514733993788938 0 0.0050019749907132521 0.029651795400613825 0 0.0047684480497784416 0.030413488099129516 0 0.0050019749907132521 0.029651795400613825 0 0.0055444468053799482 0.029579915243850785 0 0.0047684480497784416 0.030413488099129516 0 0.0052555911110238824 0.028899096351286915 0 0.0050019749907132521 0.029651795400613825 0 0.0055444468053799482 0.029579915243850785 0 0.0055444468053799482 0.029579915243850785 0 0.0064275555031857324 0.029318960243148295 0 0.0060063367227375774 0.028909458978438708 0 0.0055444468053799482 0.029579915243850785 0 0.0064275555031857324 0.029318960243148295 0 0.00565985748734472 0.03031985751598441 0 0.0069147252390865457 0.029254207290151685 0 0.0073157471888808216 0.028084471257122115 0 0.0064275555031857324 0.029318960243148295 0 0.0069153435739603298 0.029460144853580075 0 0.006949364938995577 0.029212935833026345 0 0.0064275555031857324 0.029318960243148295 0 0.0065983957807983894 0.028713724423914837 0 0.006949364938995577 0.029212935833026345 0 0.0059618864068404047 0.028113771668997031 0 0.0065983957807983894 0.028713724423914837 0 0.0060063367227375774 0.028909458978438708 0 0.0064275555031857324 0.029318960243148295 0 0.0065983957807983894 0.028713724423914837 0 0.0060063367227375774 0.028909458978438708 0 -0.0014064654724817627 0.026881883969259376 0 -0.00083057449222291016 0.025695243968985388 0 -0.0036712384261730446 0.02510524310652628 0 -0.0014064654724817627 0.026881883969259376 0 0.00010959206261720397 0.026600015615938704 0 -0.00083057449222291016 0.025695243968985388 0 -0.0014064654724817627 0.026881883969259376 0 0.00010959206261720397 0.026600015615938704 0 -0.00046324631468217133 0.028390019388826286 0 0.00010959206261720397 0.026600015615938704 0 -0.00083057449222291016 0.025695243968985388 0 0.00042139556805458598 0.025075619701237457 0 -0.00083057449222291016 0.025695243968985388 0 0.00012870642680845896 0.024672334867741067 0 -0.0036712384261730446 0.02510524310652628 0 0.0018863160936974772 0.024930042877552627 0 0.0043317386713111897 0.029446140526535266 0 0.00026931042164016151 0.024970345174990694 0 0.0016180909726960814 0.029313865189011478 0 0.0013115905580789039 0.027576909904172237 0 0.0010239928431305108 0.027233902741868363 0 0.0025683314693124787 0.02706495748220545 0 0.0018863160936974772 0.024930042877552627 0 0.00026931042164016151 0.024970345174990694 0 -0.00083057449222291016 0.025695243968985388 0 0.00012870642680845896 0.024672334867741067 0 0.00042139556805458598 0.025075619701237457 0 0.0018863160936974772 0.024930042877552627 0 -0.0010068403211414142 0.021739513876164889 0 0.00024442292698450424 0.024866975500736143 0 0.00042139556805458598 0.025075619701237457 0 0.001257356958701287 0.024705542899404638 0 0.00026931042164016151 0.024970345174990694 0 -0.0010068403211414142 0.021739513876164889 0 -0.00042384520187992842 0.019308346288033733 0 -0.00015521382330063418 0.019214708064759639 0 -0.00050520575206191318 0.019150278318651643 0 0.0015160825998801405 0.023938455764023425 0 0.00091494286249805829 0.023222512134990599 0 -0.0010222349385907209 0.023457610086389767 0 0.00026931042164016151 0.024970345174990694 0 0.00028703917222195366 0.024978751484615123 0 -0.00042384520187992842 0.019308346288033733 0 -0.00050520575206191318 0.019150278318651643 0 -0.00060332377983462581 0.019288666450348161 0 0.00042139556805458598 0.025075619701237457 0 0.001257356958701287 0.024705542899404638 0 0.0011408959853752428 0.025233267339296834 0 0.001257356958701287 0.024705542899404638 0 0.0011408959853752428 0.025233267339296834 0 0.0011983531711706036 0.024561302047916869 0 0.0011408959853752428 0.025233267339296834 0 0.0013893287202520336 0.026683311460041718 0 0.0011983531711706036 0.024561302047916869 0 0.00010959206261720397 0.026600015615938704 0 0.00042139556805458598 0.025075619701237457 0 0.0011408959853752428 0.025233267339296834 0 0.00010959206261720397 0.026600015615938704 0 0.0013893287202520336 0.026683311460041718 0 0.0012171697742460645 0.028997340725051526 0 0.00010959206261720397 0.026600015615938704 0 0.0011408959853752428 0.025233267339296834 0 0.0013893287202520336 0.026683311460041718 0 0.0011285382924036617 0.026439975347965144 0 0.0019218226240968082 0.02536410347218742 0 0.0013893287202520336 0.026683311460041718 0 0.0038301948785981308 0.027906071112174489 0 0.0028037446508293478 0.028469120382902492 0 0.0013893287202520336 0.026683311460041718 0 0.0011983531711706036 0.024561302047916869 0 0.00054526250306946762 0.022689754122463483 0 0.0011983531711706036 0.024561302047916869 0 0.00075470973704916443 0.023739571884865258 0 0.00054526250306946762 0.022689754122463483 0 0.001257356958701287 0.024705542899404638 0 0.0011983531711706036 0.024561302047916869 0 0.00075470973704916443 0.023739571884865258 0 -0.0010068403211414142 0.021739513876164889 0 -0.0017813586526348735 0.019759391735877544 0 -0.0010068403211414142 0.021739513876164889 0 -0.00075441543655288892 0.022027614218798775 0 -0.0039730977215168845 0.020218634659544665 0 -0.0026198085819389527 0.020023341929648577 0 -0.0024564367764708813 0.020532506039992793 0 -0.00050520575206191318 0.019150278318651643 0 -0.00060332377983462581 0.019288666450348161 0 -0.00079109027872284476 0.019245733689857946 0 -0.00072830685931304625 0.01933963969627335 0 -0.00079109027872284476 0.019245733689857946 0 -0.00084944310990495034 0.019367973347313251 0 -0.00072830685931304625 0.01933963969627335 0 -0.00060332377983462581 0.019288666450348161 0 -0.00079109027872284476 0.019245733689857946 0 -0.00057513335364302288 0.021019783143966818 0 -0.0024564367764708813 0.020532506039992793 0 -0.00094981573929575939 0.019685121016572198 0 -0.0026198085819389527 0.020023341929648577 0 -0.0024564367764708813 0.020532506039992793 0 -0.00094981573929575939 0.019685121016572198 0 -0.0004303135018927455 0.021435964759850847 0 -0.00075441543655288892 0.022027614218798775 0 -0.0017813586526348735 0.019759391735877544 0 -0.00097468130850401978 0.019639670927400817 0 -0.00079109027872284476 0.019245733689857946 0 -0.00084944310990495034 0.019367973347313251 0 -0.00094981573929575939 0.019685121016572198 0 -0.00090180751623593455 0.019428443270955022 0 -0.00084944310990495034 0.019367973347313251 0 -0.00094981573929575939 0.019685121016572198 0 -0.00089373797660840268 0.019328513903984951 0 -0.00090180751623593455 0.019428443270955022 0 -0.00094981573929575939 0.019685121016572198 0 0.0020100858388606914 0.024217128842843612 0 0.0019218226240968082 0.02536410347218742 0 0.0049742740194704035 0.028177314093263881 0 0.0045292304350556846 0.028691448165571575 0 0.0038301948785981308 0.027906071112174489 0 -0.00057513335364302288 0.021019783143966818 0 0.00075470973704916443 0.023739571884865258 0 0.00054526250306946762 0.022689754122463483 0 -0.00057513335364302288 0.021019783143966818 0 -0.00077756366793602484 0.020149217546347267 0 0.00054526250306946762 0.022689754122463483 0 0.0045292304350556846 0.028691448165571575 0 0.0038301948785981308 0.027906071112174489 0 0.0038530594081650875 0.02908642236418699 0 0.0045292304350556846 0.028691448165571575 0 0.0045131447092243079 0.029514733993788938 0 0.0038530594081650875 0.02908642236418699 0 0.0038530594081650875 0.02908642236418699 0 0.0037813966005929298 0.030500336981501893 0 0.0029099339916662482 0.029678682136883679 0 0.0045131447092243079 0.029514733993788938 0 0.0037813966005929298 0.030500336981501893 0 0.0047684480497784416 0.030413488099129516 0 0.0045131447092243079 0.029514733993788938 0 0.0038530594081650875 0.02908642236418699 0 0.0037813966005929298 0.030500336981501893 0 0.0037813966005929298 0.030500336981501893 0 0.0029099339916662482 0.029678682136883679 0 0.0015764396921780341 0.032439390665550134 0 0.0029099339916662482 0.029678682136883679 0 0.0028037446508293478 0.028469120382902492 0 0.0012171697742460645 0.028997340725051526 0 0.0038530594081650875 0.02908642236418699 0 0.0029099339916662482 0.029678682136883679 0 0.0028037446508293478 0.028469120382902492 0 0.0038301948785981308 0.027906071112174489 0 0.0038530594081650875 0.02908642236418699 0 0.0028037446508293478 0.028469120382902492 0 0.0013893287202520336 0.026683311460041718 0 0.0028037446508293478 0.028469120382902492 0 0.0012171697742460645 0.028997340725051526 0 0.00010959206261720397 0.026600015615938704 0 0.0012171697742460645 0.028997340725051526 0 -0.00046324631468217133 0.028390019388826286 0 0.0029099339916662482 0.029678682136883679 0 0.0012171697742460645 0.028997340725051526 0 0.0015764396921780341 0.032439390665550134 0 0.0012171697742460645 0.028997340725051526 0 -0.00027157675403335273 0.030642330191719802 0 0.0015764396921780341 0.032439390665550134 0 -0.00027157675403335273 0.030642330191719802 0 -0.00070918001968132776 0.034030444971206678 0 -0.0029301897312937648 0.031918806964762042 0 -0.00027157675403335273 0.030642330191719802 0 -0.00070918001968132776 0.034030444971206678 0 0.0015764396921780341 0.032439390665550134 0 -0.00027157675403335273 0.030642330191719802 0 -0.00046324631468217133 0.028390019388826286 0 -0.0022188258819201795 0.028876445232412298 0 0.0012171697742460645 0.028997340725051526 0 -0.00027157675403335273 0.030642330191719802 0 -0.00046324631468217133 0.028390019388826286 0 -0.0014064654724817627 0.026881883969259376 0 -0.00046324631468217133 0.028390019388826286 0 -0.0022188258819201795 0.028876445232412298 0 -0.00065854446551565299 0.035444543317466139 0 -0.00070918001968132776 0.034030444971206678 0 0.0011741458432278059 0.034823811905161969 0 -0.0003378919141218392 0.039181044970208204 0 -0.00068506638085169731 0.034324382523102687 0 -0.00070918001968132776 0.034030444971206678 0 0.0015764396921780341 0.032439390665550134 0 0.0011741458432278059 0.034823811905161969 0 -0.00065854446551565299 0.035444543317466139 0 0.0011741458432278059 0.034823811905161969 0 0.00040879800331685822 0.036499140691715823 0 0.0011741458432278059 0.034823811905161969 0 0.0031764318052972637 0.033726194687398729 0 0.002170745310989949 0.036340618652451438 0 0.0016181008628371081 0.032312777913912717 0 0.0032986615008908709 0.032609524818816349 0 0.0015764396921780341 0.032439390665550134 0 0.0011741458432278059 0.034823811905161969 0 0.0031764318052972637 0.033726194687398729 0 0.0037813966005929298 0.030500336981501893 0 0.0015764396921780341 0.032439390665550134 0 0.0036546244721076798 0.03148533127953141 0 0.0037813966005929298 0.030500336981501893 0 0.0036546244721076798 0.03148533127953141 0 0.0047684480497784416 0.030413488099129516 0 0.0031764318052972637 0.033726194687398729 0 0.0040248032179696245 0.036048182572659758 0 0.002170745310989949 0.036340618652451438 0 0.0032986615008908709 0.032609524818816349 0 0.0047027681423456973 0.033024747054141344 0 0.0031764318052972637 0.033726194687398729 0 0.0040248032179696245 0.036048182572659758 0 0.0048515747903860196 0.034690430653949118 0 0.0040248032179696245 0.036048182572659758 0 0.003210409878307795 0.03762861952785445 0 0.002170745310989949 0.036340618652451438 0 0.0040248032179696245 0.036048182572659758 0 0.003210409878307795 0.03762861952785445 0 0.0046682669074557667 0.037360528987586281 0 0.003210409878307795 0.03762861952785445 0 0.0046682669074557667 0.037360528987586281 0 0.0036831642194798384 0.039569807235135979 0 0.003210409878307795 0.03762861952785445 0 0.002170745310989949 0.036340618652451438 0 0.0014269972709843072 0.039026120418570683 0 0.0011741458432278059 0.034823811905161969 0 0.002170745310989949 0.036340618652451438 0 0.00040879800331685822 0.036499140691715823 0 0.002170745310989949 0.036340618652451438 0 0.00040879800331685822 0.036499140691715823 0 0.0014269972709843072 0.039026120418570683 0 0.00040879800331685822 0.036499140691715823 0 -0.0010522563484322092 0.038173242306059105 0 0.0014269972709843072 0.039026120418570683 0 -0.00065854446551565299 0.035444543317466139 0 0.00040879800331685822 0.036499140691715823 0 -0.0010522563484322092 0.038173242306059105 0 0.0002009640015733964 0.043243595463846561 0 -0.0012334133020319097 0.044560489432424598 0 -0.0018812687957972922 0.044506855043579374 0 -0.0003378919141218392 0.039181044970208204 0 -0.0010187803366892051 0.041369493179542548 0 0.0063027751240013388 0.030770488640038601 0 0.0068897708247133531 0.032112789566347104 0 0.0053239164580899372 0.032036050956999948 0 0.0063027751240013388 0.030770488640038601 0 0.00565985748734472 0.03031985751598441 0 0.0053239164580899372 0.032036050956999948 0 0.0063027751240013388 0.030770488640038601 0 0.0068897708247133531 0.032112789566347104 0 0.0074251055235993171 0.030984093033555891 0 0.0074251055235993171 0.030984093033555891 0 0.0077779480396048695 0.032594579538647736 0 0.0091353683331152555 0.032712236237650849 0 0.0068897708247133531 0.032112789566347104 0 0.0074251055235993171 0.030984093033555891 0 0.0077779480396048695 0.032594579538647736 0 0.0063027751240013388 0.030770488640038601 0 0.0074251055235993171 0.030984093033555891 0 0.0069153435739603298 0.029460144853580075 0 0.0074251055235993171 0.030984093033555891 0 0.0069153435739603298 0.029460144853580075 0 0.0085059859757392105 0.02885419544840916 0 0.0063027751240013388 0.030770488640038601 0 0.0069153435739603298 0.029460144853580075 0 0.00565985748734472 0.03031985751598441 0 0.0064275555031857324 0.029318960243148295 0 0.0069153435739603298 0.029460144853580075 0 0.00565985748734472 0.03031985751598441 0 0.0055444468053799482 0.029579915243850785 0 0.00565985748734472 0.03031985751598441 0 0.0047684480497784416 0.030413488099129516 0 0.00565985748734472 0.03031985751598441 0 0.0047684480497784416 0.030413488099129516 0 0.0046032056600344064 0.031338071198161718 0 0.0036546244721076798 0.03148533127953141 0 0.0047684480497784416 0.030413488099129516 0 0.0046032056600344064 0.031338071198161718 0 0.0047027681423456973 0.033024747054141344 0 0.0059030766975463906 0.033695862137928682 0 0.00565985748734472 0.03031985751598441 0 0.0046032056600344064 0.031338071198161718 0 0.0053239164580899372 0.032036050956999948 0 0.0048515747903860196 0.034690430653949118 0 0.0055654917636155203 0.036326841230930378 0 0.0062567625516683949 0.035221631391286062 0 0.0040248032179696245 0.036048182572659758 0 0.0048515747903860196 0.034690430653949118 0 0.0055654917636155203 0.036326841230930378 0 0.0040248032179696245 0.036048182572659758 0 0.0046682669074557667 0.037360528987586281 0 0.0055654917636155203 0.036326841230930378 0 0.0055654917636155203 0.036326841230930378 0 0.0065772654108219404 0.036342552360161852 0 0.0057430415158774761 0.037509587444813204 0 0.0046682669074557667 0.037360528987586281 0 0.0055654917636155203 0.036326841230930378 0 0.0057430415158774761 0.037509587444813204 0 0.0055654917636155203 0.036326841230930378 0 0.0065772654108219404 0.036342552360161852 0 0.0062567625516683949 0.035221631391286062 0 0.0065772654108219404 0.036342552360161852 0 0.0062567625516683949 0.035221631391286062 0 0.0076635789007030667 0.034745875568560007 0 0.0068897708247133531 0.032112789566347104 0 0.0053239164580899372 0.032036050956999948 0 0.0076635789007030667 0.034745875568560007 0 0.0059030766975463906 0.033695862137928682 0 0.0076794207860617792 0.034709930465751687 0 0.0076635789007030667 0.034745875568560007 0 0.0087033187667596434 0.036085090605149403 0 0.0091353683331152555 0.032712236237650849 0 0.0077779480396048695 0.032594579538647736 0 0.0076635789007030667 0.034745875568560007 0 0.0091353683331152555 0.032712236237650849 0 0.0068897708247133531 0.032112789566347104 0 0.0077779480396048695 0.032594579538647736 0 0.0076635789007030667 0.034745875568560007 0 0.0065772654108219404 0.036342552360161852 0 0.0076635789007030667 0.034745875568560007 0 0.0075551677027357617 0.036197373293374559 0 0.0076635789007030667 0.034745875568560007 0 0.0075551677027357617 0.036197373293374559 0 0.0087033187667596434 0.036085090605149403 0 0.0065772654108219404 0.036342552360161852 0 0.0075551677027357617 0.036197373293374559 0 0.0076151277471230407 0.037364956406414164 0 0.0080895244520527015 0.028594750336863917 0 0.0069357625658179514 0.033783756972418748 0 0.0075551677027357617 0.036197373293374559 0 0.0087033187667596434 0.036085090605149403 0 0.0076151277471230407 0.037364956406414164 0 0.0078861995372861201 0.024206057356245349 0 0.0086629292193892635 0.024069544061305216 0 0.0078501166586850673 0.023333913002470511 0 0.0078861995372861201 0.024206057356245349 0 0.0086629292193892635 0.024069544061305216 0 0.0084519178049086638 0.025556315660366116 0 0.0078861995372861201 0.024206057356245349 0 0.0070950383071553937 0.023417890648287126 0 0.0073662416889072307 0.025029915772495533 0 0.0070950383071553937 0.023417890648287126 0 0.0073662416889072307 0.025029915772495533 0 0.0059721296617155284 0.023027213340582109 0 0.0078861995372861201 0.024206057356245349 0 0.0070950383071553937 0.023417890648287126 0 0.0078501166586850673 0.023333913002470511 0 0.0073662416889072307 0.025029915772495533 0 0.0078099678134455246 0.027049383887250419 0 0.0062930666222446776 0.02600320891381265 0 0.0073662416889072307 0.025029915772495533 0 0.0083695581188158036 0.026573013638697272 0 0.0078099678134455246 0.027049383887250419 0 0.0078861995372861201 0.024206057356245349 0 0.0073662416889072307 0.025029915772495533 0 0.0084519178049086638 0.025556315660366116 0 0.0095093105710275239 0.023878932864069911 0 0.0084519178049086638 0.025556315660366116 0 0.0093057817364746616 0.026291010764082783 0 0.0080895244520527015 0.028594750336863917 0 0.0091536020837264583 0.029764993721052995 0 0.0080895244520527015 0.028594750336863917 0 0.0092066677979381478 0.024071956591239244 0 0.0084519178049086638 0.025556315660366116 0 0.0093057817364746616 0.026291010764082783 0 0.0083695581188158036 0.026573013638697272 0 0.0073662416889072307 0.025029915772495533 0 0.0084519178049086638 0.025556315660366116 0 0.0083695581188158036 0.026573013638697272 0 0.0074251055235993171 0.030984093033555891 0 0.0091353683331152555 0.032712236237650849 0 0.0085059859757392105 0.02885419544840916 0 0.0091536020837264583 0.029764993721052995 0 0.008702284587628388 0.028857878500613145 0 0.0083695581188158036 0.026573013638697272 0 0.0078099678134455246 0.027049383887250419 0 0.0085059859757392105 0.02885419544840916 0 0.0093057817364746616 0.026291010764082783 0 0.0083695581188158036 0.026573013638697272 0 0.0085059859757392105 0.02885419544840916 0 0.0078099678134455246 0.027049383887250419 0 0.0079891875155114495 0.02842064945624027 0 0.0062930666222446776 0.02600320891381265 0 0.0078099678134455246 0.027049383887250419 0 0.0079891875155114495 0.02842064945624027 0 0.0085059859757392105 0.02885419544840916 0 0.0077696351504277133 0.025882837677625604 0 0.0064439440848094972 0.024165689364359044 0 0.0079891875155114495 0.02842064945624027 0 0.0082771705117450235 0.027837986758469858 0 0.0085059859757392105 0.02885419544840916 0 0.0069153435739603298 0.029460144853580075 0 0.0082771705117450235 0.027837986758469858 0 0.0085059859757392105 0.02885419544840916 0 0.0059517530063511416 0.023846376890708367 0 0.0058335556831214169 0.022334443428774043 0 0.0051467359138629813 0.023578065207790006 0 0.0059517530063511416 0.023846376890708367 0 0.0065126699191529382 0.023162829744742808 0 0.0058335556831214169 0.022334443428774043 0 0.0059517530063511416 0.023846376890708367 0 0.0051467359138629813 0.023578065207790006 0 0.0054302747976677675 0.024623983050176851 0 0.0059517530063511416 0.023846376890708367 0 0.0066924825669468571 0.024160686966430735 0 0.0065126699191529382 0.023162829744742808 0 0.00768508194070409 0.023481407894801642 0 0.0066924825669468571 0.024160686966430735 0 0.0071780048739554887 0.025058828573534597 0 0.00768508194070409 0.023481407894801642 0 0.0066924825669468571 0.024160686966430735 0 0.0065126699191529382 0.023162829744742808 0 0.0065126699191529382 0.023162829744742808 0 0.0058335556831214169 0.022334443428774043 0 0.0063936927290178169 0.022250787794552748 0 0.00768508194070409 0.023481407894801642 0 0.0065126699191529382 0.023162829744742808 0 0.0063936927290178169 0.022250787794552748 0 0.0058335556831214169 0.022334443428774043 0 0.0059960799107672946 0.022351527512892488 0 0.0057479086805299982 0.022056590520817421 0 0.0058335556831214169 0.022334443428774043 0 0.0059960799107672946 0.022351527512892488 0 0.0063936927290178169 0.022250787794552748 0 0.0073662416889072307 0.025029915772495533 0 0.0062930666222446776 0.02600320891381265 0 0.0059721296617155284 0.023027213340582109 0 0.0064439440848094972 0.024165689364359044 0 0.0059947450645025414 0.02316286674654704 0 0.0059960799107672946 0.022351527512892488 0 0.0063936927290178169 0.022250787794552748 0 0.0059721296617155284 0.023027213340582109 0 0.0059960799107672946 0.022351527512892488 0 0.0059721296617155284 0.023027213340582109 0 0.006015099042435604 0.022812842314808967 0 0.0059960799107672946 0.022351527512892488 0 0.0059617372089659877 0.022408726109613818 0 0.006015099042435604 0.022812842314808967 0 0.0060162075467112171 0.022629660539721964 0 0.0061689017160052673 0.02236622198277537 0 0.0060048758576398886 0.022607399354677045 0 0.0060162075467112171 0.022629660539721964 0 0.0059617372089659877 0.022408726109613818 0 0.0061689017160052673 0.02236622198277537 0 0.0060162075467112171 0.022629660539721964 0 0.0059617372089659877 0.022408726109613818 0 0.006015099042435604 0.022812842314808967 0 0.0048826130687696446 0.01766654060446456 0 0.004093407668718756 0.016326008120138805 0 0.0012582168900158871 0.01118564160586313 0 0.0039060445598748609 0.012596133049577327 0 0.0017256162244785073 0.0097101570066856092 0 0.0012582168900158871 0.01118564160586313 0 0.0015465009787246585 0.010113735952512345 0 0.0017256162244785073 0.0097101570066856092 0 0.0012582168900158871 0.01118564160586313 0 0.0039060445598748609 0.012596133049577327 0 0.00094313753244744804 0.020032014079627125 0 0.0012582168900158871 0.01118564160586313 0 0.0015059765280964702 0.0098186386710765738 0 0.00054932711845315989 0.0086804186312595694 0 0.0010981988435002539 0.011570754314876405 0 0.00095590501778303595 0.013935287781311726 0 0.0039060445598748609 0.012596133049577327 0 0.0055680556774301716 0.021374089984020635 0 0.00094313753244744804 0.020032014079627125 0 0.0048826130687696446 0.01766654060446456 0 0.0056313263887778292 0.020889871543166679 0 0.0057479086805299982 0.022056590520817421 0 0.0061689017160052673 0.02236622198277537 0 0.0055680556774301716 0.021374089984020635 0 0.0059960799107672946 0.022351527512892488 0 0.0059617372089659877 0.022408726109613818 0 0.0057479086805299982 0.022056590520817421 0 0.0059617372089659877 0.022408726109613818 0 0.0057479086805299982 0.022056590520817421 0 0.0061689017160052673 0.02236622198277537 0 0.0028128827196849406 0.0098383691898541459 0 0.0024389790259810489 0.0096568918894767708 0 0.0023144192526020815 0.01000627409091707 0 0.0023144192526020815 0.01000627409091707 0 0.002070540260271465 0.0099595635138982931 0 0.0018739605028137325 0.01008783128067786 0 0.0024389790259810489 0.0096568918894767708 0 0.0023144192526020815 0.01000627409091707 0 0.002070540260271465 0.0099595635138982931 0 0.002070540260271465 0.0099595635138982931 0 0.0016557299376367108 0.01020949501482191 0 0.0019834427858869902 0.0094878773352938799 0 0.002070540260271465 0.0099595635138982931 0 0.0018739605028137325 0.01008783128067786 0 0.0016557299376367108 0.01020949501482191 0 0.0018739605028137325 0.01008783128067786 0 0.0015465009787246585 0.010113735952512345 0 0.0016557299376367108 0.01020949501482191 0 0.0012582168900158871 0.01118564160586313 0 0.0015465009787246585 0.010113735952512345 0 0.0016557299376367108 0.01020949501482191 0 0.0012582168900158871 0.01118564160586313 0 0.0016557299376367108 0.01020949501482191 0 0.0015059765280964702 0.0098186386710765738 0 0.0015059765280964702 0.0098186386710765738 0 0.0019834427858869902 0.0094878773352938799 0 0.0014900299004423901 0.0088305744883744354 0 0.0016557299376367108 0.01020949501482191 0 0.0015059765280964702 0.0098186386710765738 0 0.0019834427858869902 0.0094878773352938799 0 0.0024389790259810489 0.0096568918894767708 0 0.0019834427858869902 0.0094878773352938799 0 0.002673089949922736 0.0087388962081729697 0 0.0024389790259810489 0.0096568918894767708 0 0.002070540260271465 0.0099595635138982931 0 0.0019834427858869902 0.0094878773352938799 0 0.0019834427858869902 0.0094878773352938799 0 0.002673089949922736 0.0087388962081729697 0 0.0019136431071535909 0.0084304035541670139 0 0.002673089949922736 0.0087388962081729697 0 0.0019136431071535909 0.0084304035541670139 0 0.0020090406759429051 0.0074237314355136098 0 0.0019136431071535909 0.0084304035541670139 0 0.0013741229216251887 0.0079103963431720152 0 0.0020090406759429051 0.0074237314355136098 0 0.0019136431071535909 0.0084304035541670139 0 0.0014900299004423901 0.0088305744883744354 0 0.0013741229216251887 0.0079103963431720152 0 0.0019834427858869902 0.0094878773352938799 0 0.0019136431071535909 0.0084304035541670139 0 0.0014900299004423901 0.0088305744883744354 0 0.0015059765280964702 0.0098186386710765738 0 0.0014900299004423901 0.0088305744883744354 0 0.00054932711845315989 0.0086804186312595694 0 0.0014900299004423901 0.0088305744883744354 0 0.0013741229216251887 0.0079103963431720152 0 0.00054932711845315989 0.0086804186312595694 0 0.0013741229216251887 0.0079103963431720152 0 0.00065609067357896714 0.0074456638131213063 0 0.0013843483418455756 0.0071314938092567302 0 0.0013741229216251887 0.0079103963431720152 0 0.0020090406759429051 0.0074237314355136098 0 0.0013843483418455756 0.0071314938092567302 0 0.0020750523956343391 0.0075412048222173863 0 7.1851845018669079e-05 0.0055304810628548553 0 0.003303885690495635 0.0064269864584279137 0 0.0020090406759429051 0.0074237314355136098 0 0.0023998799610901876 0.0042320699503270607 0 0.0020090406759429051 0.0074237314355136098 0 0.0023998799610901876 0.0042320699503270607 0 -0.00045882536735459309 0.0050606466277966474 0 0.0039000770509717837 0.022416461624620559 0 0.0055680556774301716 0.021374089984020635 0 0.0048733306704464158 0.022645421541892516 0 0.0058335556831214169 0.022334443428774043 0 0.0055680556774301716 0.021374089984020635 0 0.0048733306704464158 0.022645421541892516 0 0.0058335556831214169 0.022334443428774043 0 0.0057479086805299982 0.022056590520817421 0 0.0055680556774301716 0.021374089984020635 0 0.0013741229216251887 0.0079103963431720152 0 0.00054932711845315989 0.0086804186312595694 0 0.00065609067357896714 0.0074456638131213063 0 0.0039000770509717837 0.022416461624620559 0 0.0055680556774301716 0.021374089984020635 0 0.00094313753244744804 0.020032014079627125 0 0.0039000770509717837 0.022416461624620559 0 0.00094313753244744804 0.020032014079627125 0 0.0032523314227157762 0.023046875227979179 0 0.00094313753244744804 0.020032014079627125 0 0.0032523314227157762 0.023046875227979179 0 0.0030544335194142755 0.024012043934615233 0 0.00095590501778303595 0.013935287781311726 0 0.0018591900893940422 0.016704829524343566 0 0.0032523314227157762 0.023046875227979179 0 0.0030743269278651971 0.023882747648587759 0 0.0041242472545555868 0.023413260323099996 0 0.0032523314227157762 0.023046875227979179 0 0.0030544335194142755 0.024012043934615233 0 0.0030743269278651971 0.023882747648587759 0 0.0030743269278651971 0.023882747648587759 0 0.0041242472545555868 0.023413260323099996 0 0.004464910470786199 0.024460266919786873 0 0.0039000770509717837 0.022416461624620559 0 0.0032523314227157762 0.023046875227979179 0 0.0041242472545555868 0.023413260323099996 0 0.0039000770509717837 0.022416461624620559 0 0.0041242472545555868 0.023413260323099996 0 0.0048733306704464158 0.022645421541892516 0 0.0058335556831214169 0.022334443428774043 0 0.0048733306704464158 0.022645421541892516 0 0.0051467359138629813 0.023578065207790006 0 0.0041242472545555868 0.023413260323099996 0 0.0048733306704464158 0.022645421541892516 0 0.0051467359138629813 0.023578065207790006 0 0.0041242472545555868 0.023413260323099996 0 0.0051467359138629813 0.023578065207790006 0 0.004464910470786199 0.024460266919786873 0 0.0049555133247109195 0.025196890187866791 0 0.004464910470786199 0.024460266919786873 0 0.0054302747976677675 0.024623983050176851 0 0.0030743269278651971 0.023882747648587759 0 0.0042249920371149148 0.025559022097163393 0 0.004464910470786199 0.024460266919786873 0 0.0028535999038739545 0.023147582703838838 0 0.0037353016887136598 0.025406744405876359 0 0.0051467359138629813 0.023578065207790006 0 0.004464910470786199 0.024460266919786873 0 0.0054302747976677675 0.024623983050176851 0 0.0049555133247109195 0.025196890187866791 0 0.0042249920371149148 0.025559022097163393 0 0.004464910470786199 0.024460266919786873 0 0.0018591900893940422 0.016704829524343566 0 0.00046113089339718839 0.0083306888727529924 0 0.00065609067357896714 0.0074456638131213063 0 0.00067015871288732547 0.0065235216620164165 0 0.0013843483418455756 0.0071314938092567302 0 0.0030743269278651971 0.023882747648587759 0 0.0020677967514859687 0.021690238677428884 0 0.0036050883341543841 0.021631273754140753 0 0.0030544335194142755 0.024012043934615233 0 0.0030743269278651971 0.023882747648587759 0 0.0036050883341543841 0.021631273754140753 0 -0.0007424464470950163 0.0015406488140271074 0 -0.0021300585000908201 6.1853384717623324e-05 0 -0.0008125553560911948 -0.00016427478069397901 0 -0.0024222576449043918 0.0028178076369523466 0 -0.00083642731050144535 0.0010907015812058381 0 -0.0020104800326676319 2.6920066984715124e-05 0 0.00046113089339718839 0.0083306888727529924 0 -0.0015270044966654303 -0.0012651000898345839 0 0.0042249920371149148 0.025559022097163393 0 0.0050996836073908024 0.025819868457845192 0 0.00493299742432801 0.026659863929012265 0 0.0020677967514859687 0.021690238677428884 0 0.0036050883341543841 0.021631273754140753 0 0.0011508416584245539 0.019011187902933369 0 0.0037353016887136598 0.025406744405876359 0 0.0012892125668582139 0.013033035488944253 0 0.00046113089339718839 0.0083306888727529924 0 0.0012892125668582139 0.013033035488944253 0 0.0049555133247109195 0.025196890187866791 0 0.0042249920371149148 0.025559022097163393 0 0.0050996836073908024 0.025819868457845192 0 0.0023998799610901876 0.0042320699503270607 0 -0.00045882536735459309 0.0050606466277966474 0 -0.00023848344368061108 0.0028896969806567344 0 0.00046113089339718839 0.0083306888727529924 0 7.1851845018669079e-05 0.0055304810628548553 0 -0.0024222576449043918 0.0028178076369523466 0 -0.00045882536735459309 0.0050606466277966474 0 -0.00023848344368061108 0.0028896969806567344 0 -0.0024222576449043918 0.0028178076369523466 0 -0.00083642731050144535 0.0010907015812058381 0 -0.00023848344368061108 0.0028896969806567344 0 -0.00083642731050144535 0.0010907015812058381 0 -0.00023848344368061108 0.0028896969806567344 0 0.00082360841671569871 0.0011186380665429351 0 0.0023998799610901876 0.0042320699503270607 0 -0.00023848344368061108 0.0028896969806567344 0 0.00082360841671569871 0.0011186380665429351 0 0.0024797230918475461 -0.00077497908229368139 0 0.00082360841671569871 0.0011186380665429351 0 0.0009752242362055638 -0.0013960059475253447 0 0.00082360841671569871 0.0011186380665429351 0 -0.00040264501754130687 -0.0010772804938318796 0 0.0009752242362055638 -0.0013960059475253447 0 0.0024797230918475461 -0.00077497908229368139 0 0.0009752242362055638 -0.0013960059475253447 0 0.0021207121967304916 -0.0020749034779570952 0 -0.00083642731050144535 0.0010907015812058381 0 -0.00040264501754130687 -0.0010772804938318796 0 -0.0020104800326676319 2.6920066984715124e-05 0 -0.00083642731050144535 0.0010907015812058381 0 0.00082360841671569871 0.0011186380665429351 0 -0.00040264501754130687 -0.0010772804938318796 0 -0.00040264501754130687 -0.0010772804938318796 0 -0.00030411941976373212 -0.0021320204445699621 0 -0.0012121666163564982 -0.0016710473524201516 0 -0.00040264501754130687 -0.0010772804938318796 0 -0.00030411941976373212 -0.0021320204445699621 0 0.00032939577493061811 -0.0021776452654751785 0 -0.00040264501754130687 -0.0010772804938318796 0 0.0009752242362055638 -0.0013960059475253447 0 0.00032939577493061811 -0.0021776452654751785 0 0.0009752242362055638 -0.0013960059475253447 0 0.00032939577493061811 -0.0021776452654751785 0 0.00096586016496706542 -0.0027755672707807598 0 0.0004774277064568862 -0.0025072362283059179 0 0.00032939577493061811 -0.0021776452654751785 0 0.00096586016496706542 -0.0027755672707807598 0 0.0009752242362055638 -0.0013960059475253447 0 0.00096586016496706542 -0.0027755672707807598 0 0.0021207121967304916 -0.0020749034779570952 0 -0.0021300585000908201 6.1853384717623324e-05 0 -0.0008125553560911948 -0.00016427478069397901 0 -0.0016748182920342915 -0.001003971839562932 0 0.0012892125668582139 0.013033035488944253 0 -0.0023375678030704925 -0.0017085118890026376 0 -0.0021300585000908201 6.1853384717623324e-05 0 -0.0016748182920342915 -0.001003971839562932 0 -0.0023193070437985039 -0.0011255948983938744 0 -0.0015270044966654303 -0.0012651000898345839 0 -0.0012503093747097723 -0.00098700119441212653 0 -0.0008125553560911948 -0.00016427478069397901 0 -0.0012121666163564982 -0.0016710473524201516 0 -0.0016748182920342915 -0.001003971839562932 0 -0.00040264501754130687 -0.0010772804938318796 0 -0.0020104800326676319 2.6920066984715124e-05 0 -0.0012121666163564982 -0.0016710473524201516 0 -0.0017703743587024936 -0.0016907881588121417 0 -0.0012121666163564982 -0.0016710473524201516 0 -0.0016748182920342915 -0.001003971839562932 0 -0.0017703743587024936 -0.0016907881588121417 0 -0.0016748182920342915 -0.001003971839562932 0 -0.0023193070437985039 -0.0011255948983938744 0 -0.0017703743587024936 -0.0016907881588121417 0 -0.0020878047269226475 -0.0017161354953126992 0 -0.0023193070437985039 -0.0011255948983938744 0 -0.0021270956005066291 -0.0007429614339313945 0 -0.0023375678030704925 -0.0017085118890026376 0 -0.0020878047269226475 -0.0017161354953126992 0 -0.0025191601416946897 -0.0015756384759834454 0 -0.0023193070437985039 -0.0011255948983938744 0 -0.0025191601416946897 -0.0015756384759834454 0 -0.0026359494844513161 0.00012986393388468359 0 -0.000929532963407419 0.0013644986030299834 0 -0.0037043505263210821 -0.00052205275693381376 0 -0.0026359494844513161 0.00012986393388468359 0 -0.0031083245384618276 0.0013942338364790439 0 -0.0026359494844513161 0.00012986393388468359 0 -0.0031083245384618276 0.0013942338364790439 0 -0.000929532963407419 0.0013644986030299834 0 0.0062953240195277602 0.027314611502777104 0 0.0061965253770307795 0.027064553884292773 0 0.0061946312554636571 0.027309874987003206 0 0.0012892125668582139 0.013033035488944253 0 0.0019156917277795213 0.014601261004897927 0 0.00493299742432801 0.026659863929012265 0 0.0061965253770307795 0.027064553884292773 0 0.0060719720413083119 0.026702645002594748 0 0.00034989756939698757 0.0050228795246804138 0 -0.0031083245384618276 0.0013942338364790439 0 -0.000929532963407419 0.0013644986030299834 0 0.00493299742432801 0.026659863929012265 0 0.0062953240195277602 0.027314611502777104 0 0.0061965253770307795 0.027064553884292773 0 0.0065920884367959339 0.026993627690344822 0 0.0061946312554636571 0.027309874987003206 0 0.0076837713076517893 0.027335415634111439 0 0.0071010285014744849 0.026813386730627834 0 0.0065747795533078078 0.026558145077760085 0 0.0065920884367959339 0.026993627690344822 0 0.0060719720413083119 0.026702645002594748 0 0.0065747795533078078 0.026558145077760085 0 0.0065920884367959339 0.026993627690344822 0 0.0061965253770307795 0.027064553884292773 0 0.0065920884367959339 0.026993627690344822 0 0.0061946312554636571 0.027309874987003206 0 0.0061965253770307795 0.027064553884292773 0 0.0060719720413083119 0.026702645002594748 0 0.0065920884367959339 0.026993627690344822 0 -0.0052106623523194492 -0.001181719172917808 0 -0.0037043505263210821 -0.00052205275693381376 0 -0.0031083245384618276 0.0013942338364790439 0 0.0067415397183949559 0.02745798747104056 0 0.0048362279762522321 0.026438084380228068 0 0.0054303477323809513 0.026085250690818806 0 0.0062953240195277602 0.027314611502777104 0 0.0061946312554636571 0.027309874987003206 0 0.0054303477323809513 0.026085250690818806 0 0.0061946312554636571 0.027309874987003206 0 0.004716940682641022 0.027398572790002521 0 -0.00030373749226912807 0.014144525935828347 0 0.0019156917277795213 0.014601261004897927 0 -0.00070389370546451973 0.017946222795802345 0 -0.0012959182096885008 0.018628036943022799 0 -0.0015513467156837999 0.018272351009698356 0 -0.00030373749226912807 0.014144525935828347 0 0.0048362279762522321 0.026438084380228068 0 -0.0017825287933456255 0.018151704619836923 0 -0.0016557095930966547 0.018536136480587311 0 -0.0015513467156837999 0.018272351009698356 0 -0.0016557095930966547 0.018536136480587311 0 -0.0012959182096885008 0.018628036943022799 0 -0.0015513467156837999 0.018272351009698356 0 0.006784080280378562 0.028055419615278829 0 0.0075524483136758594 0.027966774699607171 0 0.0072625400809980924 0.028600107614889424 0 0.0022497420406943055 0.02302445982535159 0 0.0048362279762522321 0.026438084380228068 0 0.0076837713076517893 0.027335415634111439 0 0.0075858271390506363 0.026295919076190794 0 0.0082201983034112126 0.026401057389182005 0 0.0071010285014744849 0.026813386730627834 0 0.0065920884367959339 0.026993627690344822 0 0.0076837713076517893 0.027335415634111439 0 0.0048362279762522321 0.026438084380228068 0 0.0078788612042656678 0.027564329784718348 0 0.0071010285014744849 0.026813386730627834 0 0.0076837713076517893 0.027335415634111439 0 0.0075858271390506363 0.026295919076190794 0 0.0075858271390506363 0.026295919076190794 0 0.0083834894795093724 0.026412122956826063 0 0.0071458001404952039 0.025829799349540723 0 0.0075858271390506363 0.026295919076190794 0 0.0082201983034112126 0.026401057389182005 0 0.0083834894795093724 0.026412122956826063 0 0.0082201983034112126 0.026401057389182005 0 0.0076283447520267807 0.026790803081012376 0 0.0083834894795093724 0.026412122956826063 0 0.0078788612042656678 0.027564329784718348 0 0.0073157471888808216 0.028084471257122115 0 0.0065983957807983894 0.028713724423914837 0 0.0072625400809980924 0.028600107614889424 0 0.006949364938995577 0.029212935833026345 0 0.0069153435739603298 0.029460144853580075 0 0.0082771705117450235 0.027837986758469858 0 0.0076283447520267807 0.026790803081012376 0 0.0082771705117450235 0.027837986758469858 0 0.0076283447520267807 0.026790803081012376 0 0.0083834894795093724 0.026412122956826063 0 0.00768508194070409 0.023481407894801642 0 0.0083834894795093724 0.026412122956826063 0 0.0071780048739554887 0.025058828573534597 0 0.0083834894795093724 0.026412122956826063 0 0.0071780048739554887 0.025058828573534597 0 0.0071458001404952039 0.025829799349540723 0 0.0077696351504277133 0.025882837677625604 0 0.0082947444137259768 0.026335469526299133 0 0.0079891875155114495 0.02842064945624027 0 0.0082771705117450235 0.027837986758469858 0 0.0083834894795093724 0.026412122956826063 0 0.0066924825669468571 0.024160686966430735 0 0.0071780048739554887 0.025058828573534597 0 0.0063693170189114377 0.025143918965818513 0 0.0071780048739554887 0.025058828573534597 0 0.0063693170189114377 0.025143918965818513 0 0.0071458001404952039 0.025829799349540723 0 0.0059517530063511416 0.023846376890708367 0 0.0066924825669468571 0.024160686966430735 0 0.0063693170189114377 0.025143918965818513 0 0.0059517530063511416 0.023846376890708367 0 0.0063693170189114377 0.025143918965818513 0 0.0054302747976677675 0.024623983050176851 0 0.0049555133247109195 0.025196890187866791 0 0.0050996836073908024 0.025819868457845192 0 0.0055127628333328212 0.025428446669675711 0 0.0049555133247109195 0.025196890187866791 0 0.0054302747976677675 0.024623983050176851 0 0.0055127628333328212 0.025428446669675711 0 0.0063693170189114377 0.025143918965818513 0 0.0054302747976677675 0.024623983050176851 0 0.0055127628333328212 0.025428446669675711 0 0.00493299742432801 0.026659863929012265 0 0.0060719720413083119 0.026702645002594748 0 0.0058906398476685322 0.026099294214303338 0 0.0063693170189114377 0.025143918965818513 0 0.0055127628333328212 0.025428446669675711 0 0.0058906398476685322 0.026099294214303338 0 0.0050996836073908024 0.025819868457845192 0 0.0055127628333328212 0.025428446669675711 0 0.0058906398476685322 0.026099294214303338 0 0.0050996836073908024 0.025819868457845192 0 0.00493299742432801 0.026659863929012265 0 0.0058906398476685322 0.026099294214303338 0 0.0060719720413083119 0.026702645002594748 0 0.0065747795533078078 0.026558145077760085 0 0.0058906398476685322 0.026099294214303338 0 0.0065747795533078078 0.026558145077760085 0 0.0058906398476685322 0.026099294214303338 0 0.0066849672550345152 0.026022429620909084 0 0.0071010285014744849 0.026813386730627834 0 0.0065747795533078078 0.026558145077760085 0 0.0075858271390506363 0.026295919076190794 0 0.0065747795533078078 0.026558145077760085 0 0.0075858271390506363 0.026295919076190794 0 0.0066849672550345152 0.026022429620909084 0 0.0075858271390506363 0.026295919076190794 0 0.0071458001404952039 0.025829799349540723 0 0.0066849672550345152 0.026022429620909084 0 0.0063693170189114377 0.025143918965818513 0 0.0058906398476685322 0.026099294214303338 0 0.0066849672550345152 0.026022429620909084 0 0.0063693170189114377 0.025143918965818513 0 0.0071458001404952039 0.025829799349540723 0 0.0066849672550345152 0.026022429620909084 0 -7.1220951422515505e-07 0.054997576114960207 0 -0.00022357292614037105 0.054564066671686347 0 -9.3626739479517497e-05 0.054761602714503602 0 -7.1220951422515505e-07 0.054997576114960207 0 -0.00029883424525886161 0.054366054399793154 0 -0.0001275327397569361 0.054877128219299652 0 -7.1220951422515505e-07 0.054997576114960207 0 -0.00029883424525886161 0.054366054399793154 0 -0.00078320673106611004 0.05329219437092847 0 -0.00029883424525886161 0.054366054399793154 0 1.4172142149489764e-05 0.054303389558508774 0 -0.00012110166831555716 0.054619747458396317 0 1.4172142149489764e-05 0.054303389558508774 0 -2.8502611929150216e-06 0.054562175526797506 0 -0.00012110166831555716 0.054619747458396317 0 -0.00029883424525886161 0.054366054399793154 0 1.4172142149489764e-05 0.054303389558508774 0 -0.00012341097004062179 0.053649623304972638 0 1.4172142149489764e-05 0.054303389558508774 0 0.00020809563859836317 0.054131099706420133 0 -0.00012341097004062179 0.053649623304972638 0 0.00046300494086203291 0.049534374660752771 0 0.00021764283170923692 0.049767064318091261 0 0.00046431909600539226 0.049498064677599714 0 0.00027890487329604205 0.04964024506064648 0 0.00019208391603565381 0.049722253338262593 0 0.00020809563859836317 0.054131099706420133 0 0.00072193808301764298 0.053709018721345897 0 0.00011318656558136952 0.054745943424012129 0 1.4172142149489764e-05 0.054303389558508774 0 0.00020809563859836317 0.054131099706420133 0 0.00011318656558136952 0.054745943424012129 0 0.00052501706464107506 0.051576482261978446 0 0.00017238995424115558 0.052233334207434798 0 0.00050495357260207225 0.049534507096096698 0 0.00046431909600539226 0.049498064677599714 0 0.00027890487329604205 0.04964024506064648 0 0.00037393521845501053 0.049680947297709957 0 0.00050495357260207225 0.049534507096096698 0 0.00012385246388506104 0.04986066550125981 0 0.00037393521845501053 0.049680947297709957 0 0.00012385246388506104 0.04986066550125981 0 0.00036233469584595428 0.049838734537197338 0 0.00072193808301764298 0.053709018721345897 0 -0.00012341097004062179 0.053649623304972638 0 3.4808519963259402e-05 0.052020087053530867 0 0.00020809563859836317 0.054131099706420133 0 0.00072193808301764298 0.053709018721345897 0 -0.00012341097004062179 0.053649623304972638 0 -0.00029883424525886161 0.054366054399793154 0 -0.00012341097004062179 0.053649623304972638 0 -0.00078320673106611004 0.05329219437092847 0 -0.00012341097004062179 0.053649623304972638 0 3.4808519963259402e-05 0.052020087053530867 0 -0.00078320673106611004 0.05329219437092847 0 3.4808519963259402e-05 0.052020087053530867 0 0.00011671128988913506 0.049705667765089896 0 -0.00078320673106611004 0.05329219437092847 0 3.4808519963259402e-05 0.052020087053530867 0 0.00011671128988913506 0.049705667765089896 0 0.00068239820652162095 0.049975522637295537 0 0.00072193808301764298 0.053709018721345897 0 3.4808519963259402e-05 0.052020087053530867 0 0.00068239820652162095 0.049975522637295537 0 0.00011671128988913506 0.049705667765089896 0 -0.00078320673106611004 0.05329219437092847 0 -0.0011029173191862141 0.049418634869877028 0 -0.00074705228114973793 0.053207384910587061 0 -0.00062097947495124513 0.052074567925919905 0 -7.1220951422515505e-07 0.054997576114960207 0 -0.00078320673106611004 0.05329219437092847 0 -0.00022357292614037105 0.054564066671686347 0 -7.1220951422515505e-07 0.054997576114960207 0 -9.3626739479517497e-05 0.054761602714503602 0 -1.0475390177375807e-06 0.054995457988635102 0 -0.00062097947495124513 0.052074567925919905 0 -5.1337338986838606e-05 0.052072947198232397 0 -0.0011029173191862141 0.049418634869877028 0 0.00014856122713079477 0.049345301616830116 0 -0.00045119777228466219 0.04888970907833956 0 0.00014856122713079477 0.049345301616830116 0 -0.00015740645146347404 0.050909487108862443 0 -0.00048748756726799147 0.049076265930985213 0 -0.00015740645146347404 0.050909487108862443 0 3.0416015785082433e-06 0.053698264552580151 0 -1.6446000633223168e-06 0.051036241391773103 0 0.00014856122713079477 0.049345301616830116 0 -0.00015740645146347404 0.050909487108862443 0 3.0416015785082433e-06 0.053698264552580151 0 -9.3626739479517497e-05 0.054761602714503602 0 -1.0475390177375807e-06 0.054995457988635102 0 1.7411277816759529e-06 0.05371115992188686 0 -5.1337338986838606e-05 0.052072947198232397 0 4.5789831491213382e-08 0.053702754436034249 0 -1.6754241003179037e-07 0.048369290044661166 0 -0.00048748756726799147 0.049076265930985213 0 -0.00020633773167258058 0.047822154275308074 0 -1.6754241003179037e-07 0.048369290044661166 0 -1.6446000633223168e-06 0.051036241391773103 0 -0.00048748756726799147 0.049076265930985213 0 -0.00015740645146347404 0.050909487108862443 0 -1.6446000633223168e-06 0.051036241391773103 0 -0.00048748756726799147 0.049076265930985213 0 0.00014856122713079477 0.049345301616830116 0 -0.00048748756726799147 0.049076265930985213 0 -0.00045119777228466219 0.04888970907833956 0 -0.00048748756726799147 0.049076265930985213 0 -5.3963594269450393e-05 0.047888802891739933 0 -0.00020633773167258058 0.047822154275308074 0 -0.00048748756726799147 0.049076265930985213 0 -0.00045119777228466219 0.04888970907833956 0 -5.3963594269450393e-05 0.047888802891739933 0 0.00011671128988913506 0.049705667765089896 0 -0.0011029173191862141 0.049418634869877028 0 -0.00045119777228466219 0.04888970907833956 0 0.00011671128988913506 0.049705667765089896 0 -0.00045119777228466219 0.04888970907833956 0 -5.3963594269450393e-05 0.047888802891739933 0 0.00011671128988913506 0.049705667765089896 0 -5.3963594269450393e-05 0.047888802891739933 0 0.00035400204185648753 0.048571427442798423 0 0.00029427507354268066 0.047221663318670906 0 0.00056108825218503789 0.04770084869340132 0 0.00035400204185648753 0.048571427442798423 0 0.00029427507354268066 0.047221663318670906 0 -5.3963594269450393e-05 0.047888802891739933 0 0.00035400204185648753 0.048571427442798423 0 0.00018011618788868537 0.046570648707406015 0 -5.3963594269450393e-05 0.047888802891739933 0 -3.943816815503216e-05 0.046839859413924975 0 0.00029427507354268066 0.047221663318670906 0 0.00018011618788868537 0.046570648707406015 0 -5.3963594269450393e-05 0.047888802891739933 0 -5.3963594269450393e-05 0.047888802891739933 0 -0.00020633773167258058 0.047822154275308074 0 -3.943816815503216e-05 0.046839859413924975 0 0.00018011618788868537 0.046570648707406015 0 -3.943816815503216e-05 0.046839859413924975 0 6.1818968232204734e-06 0.045717014025752158 0 -3.943816815503216e-05 0.046839859413924975 0 -1.2232265186838064e-06 0.045701783482487893 0 6.1818968232204734e-06 0.045717014025752158 0 -0.00020633773167258058 0.047822154275308074 0 -3.943816815503216e-05 0.046839859413924975 0 -1.2232265186838064e-06 0.045701783482487893 0 -1.6754241003179037e-07 0.048369290044661166 0 -0.00020633773167258058 0.047822154275308074 0 -1.2232265186838064e-06 0.045701783482487893 0 -4.2202797399954832e-08 0.043035318554321245 0 -1.6359366505202605e-05 0.043625621622475429 0 1.2249229377384185e-07 0.043030657221969408 0 -0.0005847482359013197 0.041488632585985841 0 -8.5296901269699902e-07 0.03997944601898272 0 2.482824055734654e-06 0.043040632165273277 0 6.1818968232204734e-06 0.045717014025752158 0 0.00059150918771616319 0.045736686614051579 0 -1.2232265186838064e-06 0.045701783482487893 0 2.482824055734654e-06 0.043040632165273277 0 6.1818968232204734e-06 0.045717014025752158 0 6.1818968232204734e-06 0.045717014025752158 0 0.00059150918771616319 0.045736686614051579 0 0.00041108959463522567 0.045718923402581262 0 0.00018011618788868537 0.046570648707406015 0 6.1818968232204734e-06 0.045717014025752158 0 0.00041108959463522567 0.045718923402581262 0 0.00059150918771616319 0.045736686614051579 0 -0.00013135113439147921 0.044221457439856671 0 0.00041108959463522567 0.045718923402581262 0 -1.6359366505202605e-05 0.043625621622475429 0 -6.3210299063941783e-05 0.044162845560641609 0 -0.0005847482359013197 0.041488632585985841 0 -0.00013135113439147921 0.044221457439856671 0 0.0001994432255621618 0.040981787031185761 0 -0.00013135113439147921 0.044221457439856671 0 0.00041108959463522567 0.045718923402581262 0 0.0002724172344698409 0.045933152651808515 0 0.00029427507354268066 0.047221663318670906 0 0.00018011618788868537 0.046570648707406015 0 0.0002724172344698409 0.045933152651808515 0 0.00018011618788868537 0.046570648707406015 0 0.00041108959463522567 0.045718923402581262 0 0.0002724172344698409 0.045933152651808515 0 0.00029427507354268066 0.047221663318670906 0 0.0002724172344698409 0.045933152651808515 0 0.00056108825218503789 0.04770084869340132 0 0.00039659798492322696 0.047499560603627929 0 0.00066920053230869019 0.046173297950757412 0 0.0002724172344698409 0.045933152651808515 0 0.00056108825218503789 0.04770084869340132 0 0.00026040176252376928 0.045153986177189888 0 -0.00013135113439147921 0.044221457439856671 0 0.0002724172344698409 0.045933152651808515 0 0.00026040176252376928 0.045153986177189888 0 0.00056108825218503789 0.04770084869340132 0 0.0013517659132529819 0.047673292022195855 0 0.0012415527698566818 0.047077979124975175 0 0.0010850937348757229 0.048315165341986675 0 0.00056108825218503789 0.04770084869340132 0 0.0013517659132529819 0.047673292022195855 0 0.0010850937348757229 0.048315165341986675 0 0.0011730008777731736 0.048947593702557468 0 0.0015751648029424076 0.04857796783974639 0 0.0010850937348757229 0.048315165341986675 0 0.00047617654083033167 0.0488753320198443 0 0.00073081132490017625 0.049033422054867777 0 0.0010850937348757229 0.048315165341986675 0 0.00056108825218503789 0.04770084869340132 0 0.00047617654083033167 0.0488753320198443 0 0.00056108825218503789 0.04770084869340132 0 0.00035400204185648753 0.048571427442798423 0 0.00047617654083033167 0.0488753320198443 0 0.00035400204185648753 0.048571427442798423 0 0.00068239820652162095 0.049975522637295537 0 0.00047617654083033167 0.0488753320198443 0 0.00011671128988913506 0.049705667765089896 0 0.00035400204185648753 0.048571427442798423 0 0.00068239820652162095 0.049975522637295537 0 0.00050495357260207225 0.049534507096096698 0 0.00068239820652162095 0.049975522637295537 0 0.00047075959133219101 0.049402471135070444 0 0.00047617654083033167 0.0488753320198443 0 0.00047075959133219101 0.049402471135070444 0 0.00073081132490017625 0.049033422054867777 0 0.00068239820652162095 0.049975522637295537 0 0.00047617654083033167 0.0488753320198443 0 0.00047075959133219101 0.049402471135070444 0 0.00058391766794624073 0.049357905031876155 0 0.00047075959133219101 0.049402471135070444 0 0.00073081132490017625 0.049033422054867777 0 0.00058391766794624073 0.049357905031876155 0 0.00047075959133219101 0.049402471135070444 0 0.00049601495682744315 0.049462657493092282 0 0.00052501706464107506 0.051576482261978446 0 0.00070927938957159433 0.050191478844917287 0 0.00058391766794624073 0.049357905031876155 0 0.00049601495682744315 0.049462657493092282 0 0.00053149002887180081 0.04949057468700984 0 0.00050495357260207225 0.049534507096096698 0 0.00046431909600539226 0.049498064677599714 0 0.00068239820652162095 0.049975522637295537 0 0.00050495357260207225 0.049534507096096698 0 0.00047075959133219101 0.049402471135070444 0 0.00049601495682744315 0.049462657493092282 0 0.00050495357260207225 0.049534507096096698 0 0.00049601495682744315 0.049462657493092282 0 0.00047496982364151008 0.049547491973684042 0 0.00049601495682744315 0.049462657493092282 0 0.00047496982364151008 0.049547491973684042 0 0.00053149002887180081 0.04949057468700984 0 0.00053149002887180081 0.04949057468700984 0 0.00044921539966345249 0.049685883758061884 0 0.0005399946112002289 0.049935436771264358 0 0.00037393521845501053 0.049680947297709957 0 0.00047496982364151008 0.049547491973684042 0 0.00044921539966345249 0.049685883758061884 0 0.00047496982364151008 0.049547491973684042 0 0.00053149002887180081 0.04949057468700984 0 0.00044921539966345249 0.049685883758061884 0 0.00037393521845501053 0.049680947297709957 0 0.00050495357260207225 0.049534507096096698 0 0.00047496982364151008 0.049547491973684042 0 0.00037393521845501053 0.049680947297709957 0 0.00044921539966345249 0.049685883758061884 0 0.00036233469584595428 0.049838734537197338 0 0.00044921539966345249 0.049685883758061884 0 0.0005399946112002289 0.049935436771264358 0 0.00036233469584595428 0.049838734537197338 0 0.00058391766794624073 0.049357905031876155 0 0.00053149002887180081 0.04949057468700984 0 0.00059008856052946736 0.049640305663889592 0 0.0005380370037553335 0.049500752813058373 0 0.00087285024563323141 0.04989571720269019 0 0.00058391766794624073 0.049357905031876155 0 0.00090109000331672223 0.049370600425283809 0 0.00059008856052946736 0.049640305663889592 0 0.00090109000331672223 0.049370600425283809 0 0.0011730008777731736 0.048947593702557468 0 0.0013650537359696489 0.049258383783752052 0 0.00090109000331672223 0.049370600425283809 0 0.0013650537359696489 0.049258383783752052 0 0.0013266495819889011 0.0496009315330583 0 0.00090109000331672223 0.049370600425283809 0 0.0011730008777731736 0.048947593702557468 0 0.00073081132490017625 0.049033422054867777 0 0.0010850937348757229 0.048315165341986675 0 0.0011730008777731736 0.048947593702557468 0 0.00073081132490017625 0.049033422054867777 0 0.00058391766794624073 0.049357905031876155 0 0.00090109000331672223 0.049370600425283809 0 0.00073081132490017625 0.049033422054867777 0 0.0020323603279527478 0.048645505056223955 0 0.0016021882391730738 0.048977110779375638 0 0.0019928759120547228 0.04897854634816759 0 0.0020323603279527478 0.048645505056223955 0 0.0019928759120547228 0.04897854634816759 0 0.0023110423714244087 0.048868003675667328 0 0.0020323603279527478 0.048645505056223955 0 0.0024185703649225935 0.048494505542965256 0 0.0020392027636804079 0.048253047893984276 0 0.0020323603279527478 0.048645505056223955 0 0.0015751648029424076 0.04857796783974639 0 0.0020392027636804079 0.048253047893984276 0 0.0011730008777731736 0.048947593702557468 0 0.0015751648029424076 0.04857796783974639 0 0.0016021882391730738 0.048977110779375638 0 0.0020323603279527478 0.048645505056223955 0 0.0015751648029424076 0.04857796783974639 0 0.0016021882391730738 0.048977110779375638 0 0.0016021882391730738 0.048977110779375638 0 0.0013650537359696489 0.049258383783752052 0 0.0016897912005239802 0.049194732348056554 0 0.0011730008777731736 0.048947593702557468 0 0.0016021882391730738 0.048977110779375638 0 0.0013650537359696489 0.049258383783752052 0 0.0016897912005239802 0.049194732348056554 0 0.0018978982672873828 0.049314763798186695 0 0.0016057134250478259 0.049435320644897397 0 0.0013650537359696489 0.049258383783752052 0 0.0016897912005239802 0.049194732348056554 0 0.0016057134250478259 0.049435320644897397 0 0.0016897912005239802 0.049194732348056554 0 0.0018978982672873828 0.049314763798186695 0 0.0019928759120547228 0.04897854634816759 0 0.0016021882391730738 0.048977110779375638 0 0.0016897912005239802 0.049194732348056554 0 0.0019928759120547228 0.04897854634816759 0 0.0019928759120547228 0.04897854634816759 0 0.0021783932934770077 0.049154653155365428 0 0.0023110423714244087 0.048868003675667328 0 0.0018978982672873828 0.049314763798186695 0 0.0019928759120547228 0.04897854634816759 0 0.0021783932934770077 0.049154653155365428 0 0.0018978982672873828 0.049314763798186695 0 0.0021783932934770077 0.049154653155365428 0 0.002219492244031558 0.049313026436860224 0 -0.0070751564268898039 0.034536728242570078 0 -0.0069408165486734043 0.034700269208366448 0 -0.0071564865181873612 0.034465336476720322 0 0.0021783932934770077 0.049154653155365428 0 0.0024852884853589362 0.049221896726732405 0 0.002219492244031558 0.049313026436860224 0 -0.0030997343676140575 0.03214055976198639 0 -0.0066814241581738031 0.032280826461034348 0 0.0024852884853589362 0.049221896726732405 0 0.0023110423714244087 0.048868003675667328 0 0.0026235296893690439 0.048730730545641011 0 0.0024852884853589362 0.049221896726732405 0 0.0031129241556801046 0.048648012040540256 0 0.0026235296893690439 0.048730730545641011 0 0.0021783932934770077 0.049154653155365428 0 0.0024852884853589362 0.049221896726732405 0 0.0023110423714244087 0.048868003675667328 0 -0.0049262599072725146 0.027375084185369627 0 -0.0023809040574901013 0.028589965106553084 0 -0.0042588009986910544 0.029636386876482224 0 -0.0070751564268898039 0.034536728242570078 0 -0.0069408165486734043 0.034700269208366448 0 -0.0068304227876903149 0.034830999404709032 0 -0.0024928719789761035 0.042013824399748337 0 -0.00047100264155983628 0.041400759517105583 0 -0.0049262599072725146 0.027375084185369627 0 -0.0042588009986910544 0.029636386876482224 0 -0.0060057905528908585 0.030129986906759904 0 -0.00059113217479720499 0.035458912536105794 0 -0.00065462077541103612 0.035975744967413459 0 -0.00079653193135756156 0.036480884443172351 0 -0.0030997343676140575 0.03214055976198639 0 0.0017720768233563621 0.036163244862926436 0 -0.0049262599072725146 0.027375084185369627 0 -0.0034689675565268458 0.024708333857163721 0 -0.0018811512198177185 0.026118572275949541 0 -0.0030997343676140575 0.03214055976198639 0 -0.00047100264155983628 0.041400759517105583 0 0.0031129241556801046 0.048648012040540256 0 0.0026235296893690439 0.048730730545641011 0 0.0027332130752032308 0.048419757098393378 0 0.0031129241556801046 0.048648012040540256 0 0.0027332130752032308 0.048419757098393378 0 0.0029500124397674908 0.048079194603949355 0 -0.00047100264155983628 0.041400759517105583 0 0.0017720768233563621 0.036163244862926436 0 0.0023110423714244087 0.048868003675667328 0 0.0026235296893690439 0.048730730545641011 0 0.0024185703649225935 0.048494505542965256 0 0.0020323603279527478 0.048645505056223955 0 0.0023110423714244087 0.048868003675667328 0 0.0024185703649225935 0.048494505542965256 0 0.0027332130752032308 0.048419757098393378 0 0.0024185703649225935 0.048494505542965256 0 0.0025927905150968148 0.048131988135031126 0 0.0026235296893690439 0.048730730545641011 0 0.0027332130752032308 0.048419757098393378 0 0.0024185703649225935 0.048494505542965256 0 0.0024185703649225935 0.048494505542965256 0 0.0025927905150968148 0.048131988135031126 0 0.0020392027636804079 0.048253047893984276 0 0.0025927905150968148 0.048131988135031126 0 0.0024285770137784397 0.047816314477463789 0 0.0020392027636804079 0.048253047893984276 0 0.0027332130752032308 0.048419757098393378 0 0.0025927905150968148 0.048131988135031126 0 0.0029500124397674908 0.048079194603949355 0 0.0025927905150968148 0.048131988135031126 0 0.0028259386917667906 0.047765200132196602 0 0.0024285770137784397 0.047816314477463789 0 0.0025927905150968148 0.048131988135031126 0 0.0028259386917667906 0.047765200132196602 0 0.0029500124397674908 0.048079194603949355 0 0.0031129241556801046 0.048648012040540256 0 0.0032321533405289763 0.047821003607875147 0 0.0037000836932721795 0.047750253854066046 0 -0.00047100264155983628 0.041400759517105583 0 0.0043135132960387306 0.047190661585911162 0 0.0031129241556801046 0.048648012040540256 0 0.0029500124397674908 0.048079194603949355 0 0.0032321533405289763 0.047821003607875147 0 0.0045951016962758528 0.043714797278840589 0 0.0044228462309935735 0.04423721920415602 0 0.0043706296475992251 0.0451093041329041 0 0.0028259386917667906 0.047765200132196602 0 0.0032321533405289763 0.047821003607875147 0 0.0030898407198648942 0.047352707182242014 0 0.0028259386917667906 0.047765200132196602 0 0.0029500124397674908 0.048079194603949355 0 0.0032321533405289763 0.047821003607875147 0 0.0032321533405289763 0.047821003607875147 0 0.0033890525344764115 0.047403173355816876 0 0.0037000836932721795 0.047750253854066046 0 0.0033890525344764115 0.047403173355816876 0 0.0036184791445246192 0.046965422893029268 0 0.0037000836932721795 0.047750253854066046 0 0.0032321533405289763 0.047821003607875147 0 0.0033890525344764115 0.047403173355816876 0 0.0030898407198648942 0.047352707182242014 0 0.0033890525344764115 0.047403173355816876 0 0.0030898407198648942 0.047352707182242014 0 0.0033048674498847106 0.047050653870100628 0 0.0030898407198648942 0.047352707182242014 0 0.0033048674498847106 0.047050653870100628 0 0.003036878374329195 0.046826909370359548 0 0.0030898407198648942 0.047352707182242014 0 0.0027240185526423814 0.047362928915354083 0 0.003036878374329195 0.046826909370359548 0 0.0033048674498847106 0.047050653870100628 0 0.003036878374329195 0.046826909370359548 0 0.0034187551559353275 0.04673338107416114 0 0.0033048674498847106 0.047050653870100628 0 0.0034187551559353275 0.04673338107416114 0 0.0036184791445246192 0.046965422893029268 0 0.0033890525344764115 0.047403173355816876 0 0.0033048674498847106 0.047050653870100628 0 0.0036184791445246192 0.046965422893029268 0 0.0024285770137784397 0.047816314477463789 0 0.0027240185526423814 0.047362928915354083 0 0.0022999739756955294 0.047111605615764059 0 0.0027240185526423814 0.047362928915354083 0 0.0022999739756955294 0.047111605615764059 0 0.003036878374329195 0.046826909370359548 0 0.0028259386917667906 0.047765200132196602 0 0.0024285770137784397 0.047816314477463789 0 0.0027240185526423814 0.047362928915354083 0 0.0028259386917667906 0.047765200132196602 0 0.0030898407198648942 0.047352707182242014 0 0.0027240185526423814 0.047362928915354083 0 0.0024285770137784397 0.047816314477463789 0 0.0022999739756955294 0.047111605615764059 0 0.002041440452264575 0.047819292084740915 0 0.0022999739756955294 0.047111605615764059 0 0.0018089543231301574 0.047553544840934603 0 0.0017186623074193464 0.047153992517685275 0 0.0018089543231301574 0.047553544840934603 0 0.002041440452264575 0.047819292084740915 0 0.0016427411865774899 0.048039598920075061 0 0.0022999739756955294 0.047111605615764059 0 0.0018089543231301574 0.047553544840934603 0 0.002041440452264575 0.047819292084740915 0 0.0024285770137784397 0.047816314477463789 0 0.002041440452264575 0.047819292084740915 0 0.0020392027636804079 0.048253047893984276 0 0.002041440452264575 0.047819292084740915 0 0.0020392027636804079 0.048253047893984276 0 0.0016427411865774899 0.048039598920075061 0 0.0010850937348757229 0.048315165341986675 0 0.0015751648029424076 0.04857796783974639 0 0.0016427411865774899 0.048039598920075061 0 0.0015751648029424076 0.04857796783974639 0 0.0020392027636804079 0.048253047893984276 0 0.0016427411865774899 0.048039598920075061 0 0.0010850937348757229 0.048315165341986675 0 0.0016427411865774899 0.048039598920075061 0 0.0013517659132529819 0.047673292022195855 0 0.0018089543231301574 0.047553544840934603 0 0.0016427411865774899 0.048039598920075061 0 0.0013517659132529819 0.047673292022195855 0 0.0018089543231301574 0.047553544840934603 0 0.0013517659132529819 0.047673292022195855 0 0.0017186623074193464 0.047153992517685275 0 0.0013517659132529819 0.047673292022195855 0 0.0012415527698566818 0.047077979124975175 0 0.0017186623074193464 0.047153992517685275 0 0.00066920053230869019 0.046173297950757412 0 0.0012100378631098548 0.04425606532148843 0 0.0012415527698566818 0.047077979124975175 0 0.0017186623074193464 0.047153992517685275 0 0.0020067192295537984 0.046338018081227519 0 0.0022999739756955294 0.047111605615764059 0 0.0017186623074193464 0.047153992517685275 0 0.0020067192295537984 0.046338018081227519 0 -0.00013135113439147921 0.044221457439856671 0 0.00065857864880765305 0.042062762222956761 0 0.0001994432255621618 0.040981787031185761 0 -0.00013135113439147921 0.044221457439856671 0 0.00026040176252376928 0.045153986177189888 0 0.00065857864880765305 0.042062762222956761 0 0.00065857864880765305 0.042062762222956761 0 0.0001994432255621618 0.040981787031185761 0 0.00019646363998157576 0.039074013592352387 0 0.00019646363998157576 0.039074013592352387 0 -8.5296901269699902e-07 0.03997944601898272 0 6.3320614465790095e-07 0.036922422787854917 0 0.0001994432255621618 0.040981787031185761 0 0.00019646363998157576 0.039074013592352387 0 -8.5296901269699902e-07 0.03997944601898272 0 -0.0005847482359013197 0.041488632585985841 0 0.0001994432255621618 0.040981787031185761 0 -8.5296901269699902e-07 0.03997944601898272 0 0.00016605461148888349 0.036508221267563687 0 6.3320614465790095e-07 0.036922422787854917 0 -2.7765905212079501e-07 0.033865400149961616 0 0.00019646363998157576 0.039074013592352387 0 0.00016605461148888349 0.036508221267563687 0 6.3320614465790095e-07 0.036922422787854917 0 0.00019646363998157576 0.039074013592352387 0 0.00016605461148888349 0.036508221267563687 0 0.00055993016584864063 0.038948786707759114 0 0.0016426948841265902 0.042297637333513438 0 0.0019220309312027236 0.041013028332745484 0 0.00016605461148888349 0.036508221267563687 0 0.00055993016584864063 0.038948786707759114 0 0.00037845086223486116 0.035824607577466104 0 0.0029198637870741502 0.045651530363309531 0 0.0034528035905485159 0.046286869855552547 0 0.0038274278400312338 0.045885747239932946 0 0.0029198637870741502 0.045651530363309531 0 0.0038274278400312338 0.045885747239932946 0 0.0037403126050926149 0.045129709549514299 0 0.0029198637870741502 0.045651530363309531 0 0.0027177070262324977 0.046416044159752437 0 0.0034528035905485159 0.046286869855552547 0 0.00065857864880765305 0.042062762222956761 0 0.00019646363998157576 0.039074013592352387 0 0.00055993016584864063 0.038948786707759114 0 0.0020067192295537984 0.046338018081227519 0 0.0029198637870741502 0.045651530363309531 0 0.0027177070262324977 0.046416044159752437 0 0.0012100378631098548 0.04425606532148843 0 0.0016426948841265902 0.042297637333513438 0 0.0022999739756955294 0.047111605615764059 0 0.0027177070262324977 0.046416044159752437 0 0.003036878374329195 0.046826909370359548 0 0.0022999739756955294 0.047111605615764059 0 0.0020067192295537984 0.046338018081227519 0 0.0027177070262324977 0.046416044159752437 0 0.0027177070262324977 0.046416044159752437 0 0.0034528035905485159 0.046286869855552547 0 0.003036878374329195 0.046826909370359548 0 0.0034528035905485159 0.046286869855552547 0 0.0034187551559353275 0.04673338107416114 0 0.0037001228247656604 0.046502947904758424 0 0.0034528035905485159 0.046286869855552547 0 0.003036878374329195 0.046826909370359548 0 0.0034187551559353275 0.04673338107416114 0 0.0037001228247656604 0.046502947904758424 0 0.0041450783999251901 0.046300963953911686 0 0.0038454113536868788 0.046227404108237599 0 0.0034187551559353275 0.04673338107416114 0 0.0037001228247656604 0.046502947904758424 0 0.0036184791445246192 0.046965422893029268 0 0.0037001228247656604 0.046502947904758424 0 0.0041450783999251901 0.046300963953911686 0 0.0036184791445246192 0.046965422893029268 0 0.0041450783999251901 0.046300963953911686 0 0.0040235103467516084 0.046160361052886671 0 0.004078029923523096 0.046258457543381752 0 0.0040235103467516084 0.046160361052886671 0 0.0038454113536868788 0.046227404108237599 0 0.0038274278400312338 0.045885747239932946 0 0.0041450783999251901 0.046300963953911686 0 0.0040235103467516084 0.046160361052886671 0 0.0038454113536868788 0.046227404108237599 0 0.0034528035905485159 0.046286869855552547 0 0.0037001228247656604 0.046502947904758424 0 0.0038454113536868788 0.046227404108237599 0 0.0034528035905485159 0.046286869855552547 0 0.0038454113536868788 0.046227404108237599 0 0.0038274278400312338 0.045885747239932946 0 0.00033979937955202967 0.030567095716346009 0 0.00014057320177997691 0.024901354917412171 0 0.0040235103467516084 0.046160361052886671 0 0.0038340464468858085 0.046220138014209301 0 0.0044302621236446829 0.045649343360814013 0 0.0040235103467516084 0.046160361052886671 0 0.0038340464468858085 0.046220138014209301 0 0.004078029923523096 0.046258457543381752 0 0.00033979937955202967 0.030567095716346009 0 0.0018484067278180347 0.040206380825034096 0 -0.00068725726934093761 0.031280438370928157 0 -0.00059626509409085014 0.030677660474933449 0 -0.0003653466767059627 0.030802390330387314 0 0.0040235103467516084 0.046160361052886671 0 0.0044302621236446829 0.045649343360814013 0 0.0038274278400312338 0.045885747239932946 0 0.0044302621236446829 0.045649343360814013 0 0.0038274278400312338 0.045885747239932946 0 0.0037403126050926149 0.045129709549514299 0 0.0019220309312027236 0.041013028332745484 0 0.0019229864283680951 0.035031963567830941 0 -0.00059626509409085014 0.030677660474933449 0 -0.0004823343563396524 0.029928139160185805 0 -0.00034839636065830189 0.030351956086338207 0 0.0018484067278180347 0.040206380825034096 0 0.0019229864283680951 0.035031963567830941 0 0.0044302621236446829 0.045649343360814013 0 0.0037403126050926149 0.045129709549514299 0 0.0046297426836779901 0.04455069010225423 0 0.00021636162727307244 0.033826851173464859 0 0.00062605912118053587 0.032875963539964387 0 2.8726043915664158e-06 0.030811522103207898 0 0.00037845086223486116 0.035824607577466104 0 0.00021636162727307244 0.033826851173464859 0 0.00062605912118053587 0.032875963539964387 0 0.00021636162727307244 0.033826851173464859 0 -2.7765905212079501e-07 0.033865400149961616 0 2.8726043915664158e-06 0.030811522103207898 0 0.00037845086223486116 0.035824607577466104 0 0.00021636162727307244 0.033826851173464859 0 -2.7765905212079501e-07 0.033865400149961616 0 0.00016605461148888349 0.036508221267563687 0 0.00037845086223486116 0.035824607577466104 0 -2.7765905212079501e-07 0.033865400149961616 0 0.00029972718918539181 0.026289958659983553 0 0.00012902533755403402 0.025311120969073456 0 -4.3042732228936453e-05 0.0297012054447739 0 0.00067702136223925116 0.029107369369426112 0 1.0912448186317135e-05 0.030281428035821328 0 1.8010561893173735e-05 0.020556536285833357 0 9.5106836941963861e-05 0.02075887309666908 0 0.00020220799797583425 0.020553886010092105 0 0.00029972718918539181 0.026289958659983553 0 7.0643490564580652e-07 0.028661937886546383 0 4.4418132721714758e-07 0.027771123774498474 0 2.5063382843588436e-09 0.027512461136379802 0 -1.347107083940883e-10 0.028662707800951419 0 0.00029972718918539181 0.026289958659983553 0 -2.2059645573521195e-07 0.027509906339882401 0 -4.3042732228936453e-05 0.0297012054447739 0 0.00067702136223925116 0.029107369369426112 0 1.1401135950462153e-07 0.028667524812088532 0 -4.3042732228936453e-05 0.0297012054447739 0 1.1401135950462153e-07 0.028667524812088532 0 -0.00014144435367271992 0.029644248769075017 0 1.1401135950462153e-07 0.028667524812088532 0 -0.00014144435367271992 0.029644248769075017 0 -2.5592414137367884e-08 0.030803931331600816 0 -4.3042732228936453e-05 0.0297012054447739 0 -0.00014144435367271992 0.029644248769075017 0 -0.00022181278084908011 0.029813845292385965 0 -0.00014144435367271992 0.029644248769075017 0 -2.5592414137367884e-08 0.030803931331600816 0 -0.00022181278084908011 0.029813845292385965 0 0.00044969947146282887 0.029560812040819028 0 -2.5592414137367884e-08 0.030803931331600816 0 -0.00022181278084908011 0.029813845292385965 0 0.0019229864283680951 0.035031963567830941 0 1.7293994277439247e-06 0.030807189169795624 0 0.0019229864283680951 0.035031963567830941 0 0.001002181887844835 0.032215312152153702 0 -0.0004823343563396524 0.029928139160185805 0 -0.00022181278084908011 0.029813845292385965 0 -0.00023437891784941587 0.030011128357056931 0 -4.3042732228936453e-05 0.0297012054447739 0 -0.00022181278084908011 0.029813845292385965 0 -0.00023437891784941587 0.030011128357056931 0 0.00012902533755403402 0.025311120969073456 0 0.00014057320177997691 0.024901354917412171 0 -0.00023437891784941587 0.030011128357056931 0 -0.00034839636065830189 0.030351956086338207 0 1.0912448186317135e-05 0.030281428035821328 0 -4.3042732228936453e-05 0.0297012054447739 0 -0.00023437891784941587 0.030011128357056931 0 1.0912448186317135e-05 0.030281428035821328 0 -0.00034839636065830189 0.030351956086338207 0 1.0912448186317135e-05 0.030281428035821328 0 -0.0003653466767059627 0.030802390330387314 0 -0.0004823343563396524 0.029928139160185805 0 -0.00023437891784941587 0.030011128357056931 0 -0.00034839636065830189 0.030351956086338207 0 1.8010561893173735e-05 0.020556536285833357 0 0.00020220799797583425 0.020553886010092105 0 0.00013266157568999769 0.020437437548184337 0 5.1167771299755408e-06 0.020412177622093748 0 0.00013266157568999769 0.020437437548184337 0 0.0001221993971094316 0.020325938681609267 0 0.00013266157568999769 0.020437437548184337 0 0.0001221993971094316 0.020325938681609267 0 0.00027652932426912763 0.020409856055187508 0 0.00020220799797583425 0.020553886010092105 0 0.00013266157568999769 0.020437437548184337 0 0.00027652932426912763 0.020409856055187508 0 -0.00059626509409085014 0.030677660474933449 0 -0.00034839636065830189 0.030351956086338207 0 -0.0003653466767059627 0.030802390330387314 0 0.0001221993971094316 0.020325938681609267 0 0.00027652932426912763 0.020409856055187508 0 0.00026508265253074616 0.02035098132211819 0 0.00019513418691130628 0.02031580730313166 0 0.00027652932426912763 0.020409856055187508 0 0.00026508265253074616 0.02035098132211819 0 0.00019513418691130628 0.02031580730313166 0 0.00026508265253074616 0.02035098132211819 0 0.00031318989334092208 0.020435653001228724 0 0.00026508265253074616 0.02035098132211819 0 0.00022005246991631578 0.020300742693983909 0 0.00031318989334092208 0.020435653001228724 0 0.0001221993971094316 0.020325938681609267 0 0.00026508265253074616 0.02035098132211819 0 0.00022005246991631578 0.020300742693983909 0 0.0001221993971094316 0.020325938681609267 0 5.8540837308105343e-05 0.020177954152276738 0 0.00022005246991631578 0.020300742693983909 0 5.8540837308105343e-05 0.020177954152276738 0 0.00022005246991631578 0.020300742693983909 0 0.0001488277442643764 0.020184334862678836 0 0.00022005246991631578 0.020300742693983909 0 0.0001488277442643764 0.020184334862678836 0 0.00030812658571052818 0.020361974461609703 0 -1.3904839014527528e-05 0.020005877341812021 0 5.8540837308105343e-05 0.020177954152276738 0 0.0001488277442643764 0.020184334862678836 0 -1.3904839014527528e-05 0.020005877341812021 0 0.0001488277442643764 0.020184334862678836 0 0.00012626939691716638 0.020033442292119182 0 -3.5799267756887003e-05 0.019758599090662798 0 0.00012626939691716638 0.020033442292119182 0 0.00036040594116656401 0.019920173828314451 0 -1.3904839014527528e-05 0.020005877341812021 0 -3.5799267756887003e-05 0.019758599090662798 0 0.00012626939691716638 0.020033442292119182 0 0.0001488277442643764 0.020184334862678836 0 0.00012626939691716638 0.020033442292119182 0 0.00030812658571052818 0.020361974461609703 0 0.00030812658571052818 0.020361974461609703 0 0.0004112495217943628 0.02084408538191368 0 0.00036040594116656401 0.019920173828314451 0 0.00048758460464192062 0.020895063961971928 0 0.0016084342628767982 0.022174271557309635 0 0.00012626939691716638 0.020033442292119182 0 0.00030812658571052818 0.020361974461609703 0 0.00036040594116656401 0.019920173828314451 0 0.00030812658571052818 0.020361974461609703 0 0.0004112495217943628 0.02084408538191368 0 0.00035225071352405237 0.020565979573152617 0 0.00030812658571052818 0.020361974461609703 0 0.00031318989334092208 0.020435653001228724 0 0.00035225071352405237 0.020565979573152617 0 0.00022005246991631578 0.020300742693983909 0 0.00030812658571052818 0.020361974461609703 0 0.00031318989334092208 0.020435653001228724 0 0.00033979937955202967 0.030567095716346009 0 -0.00030783997791100512 0.02040475613495436 0 0.00033979937955202967 0.030567095716346009 0 0.001541400508581689 0.033254102459305386 0 0.0038340464468858085 0.046220138014209301 0 0.004078029923523096 0.046258457543381752 0 0.0045596612401206712 0.043956317590402048 0 0.00019513418691130628 0.02031580730313166 0 0.00031318989334092208 0.020435653001228724 0 0.00021969654751961468 0.020493641319761825 0 0.00019513418691130628 0.02031580730313166 0 0.00021969654751961468 0.020493641319761825 0 -0.00039094787248903935 0.02077685696209651 0 0.00031318989334092208 0.020435653001228724 0 0.00021969654751961468 0.020493641319761825 0 0.00035225071352405237 0.020565979573152617 0 -0.00067746202749856884 0.021692102711626846 0 -0.00093661033424995621 0.022593501963255706 0 -0.0016843574932262008 0.022697936612990063 0 0.00021969654751961468 0.020493641319761825 0 -0.00039094787248903935 0.02077685696209651 0 0.0004112495217943628 0.02084408538191368 0 0.00021969654751961468 0.020493641319761825 0 0.0004112495217943628 0.02084408538191368 0 0.00035225071352405237 0.020565979573152617 0 0.004078029923523096 0.046258457543381752 0 0.0049349963328901483 0.044019552079048264 0 0.0045596612401206712 0.043956317590402048 0 0.0041450783999251901 0.046300963953911686 0 0.0041978858397072214 0.045369204670238632 0 0.0043706296475992251 0.0451093041329041 0 0.0041864775582392752 0.045814208824820492 0 0.0044658542174310454 0.045565767883322839 0 0.0041450783999251901 0.046300963953911686 0 0.004078029923523096 0.046258457543381752 0 0.0041978858397072214 0.045369204670238632 0 0.0041450783999251901 0.046300963953911686 0 0.0036184791445246192 0.046965422893029268 0 0.0037000836932721795 0.047750253854066046 0 0.0041143584428210327 0.046077903172148812 0 0.0043135132960387306 0.047190661585911162 0 0.0017720768233563621 0.036163244862926436 0 0.001541400508581689 0.033254102459305386 0 0.0060974687611222052 0.040739859024353162 0 0.0049349963328901483 0.044019552079048264 0 0.0045596612401206712 0.043956317590402048 0 -0.0034689675565268458 0.024708333857163721 0 -0.0016843574932262008 0.022697936612990063 0 -0.0017201522175103855 0.023648783650399876 0 -0.00093661033424995621 0.022593501963255706 0 -0.0017201522175103855 0.023648783650399876 0 -0.001002319364875317 0.023960115949034955 0 0.0017720768233563621 0.036163244862926436 0 0.0044658542174310454 0.045565767883322839 0 0.0044228462309935735 0.04423721920415602 0 0.0041978858397072214 0.045369204670238632 0 0.0043706296475992251 0.0451093041329041 0 -0.00093661033424995621 0.022593501963255706 0 -0.0016843574932262008 0.022697936612990063 0 -0.0017201522175103855 0.023648783650399876 0 -0.0017201522175103855 0.023648783650399876 0 -0.001002319364875317 0.023960115949034955 0 -0.0020870908620267089 0.024669179450131581 0 -0.0034689675565268458 0.024708333857163721 0 -0.0017201522175103855 0.023648783650399876 0 -0.0020870908620267089 0.024669179450131581 0 0.0004112495217943628 0.02084408538191368 0 -0.001002319364875317 0.023960115949034955 0 0.0030429587967989637 0.02454163463519516 0 -0.00039094787248903935 0.02077685696209651 0 0.0004112495217943628 0.02084408538191368 0 -0.001002319364875317 0.023960115949034955 0 -0.00030783997791100512 0.02040475613495436 0 -0.0010412624929956676 0.024090322093905644 0 -0.001002319364875317 0.023960115949034955 0 0.00051174105948337246 0.026595048764909073 0 -0.0018811512198177185 0.026118572275949541 0 -0.001002319364875317 0.023960115949034955 0 0.00051174105948337246 0.026595048764909073 0 0.0030429587967989637 0.02454163463519516 0 -0.0034689675565268458 0.024708333857163721 0 -0.0020870908620267089 0.024669179450131581 0 -0.0018811512198177185 0.026118572275949541 0 -0.001002319364875317 0.023960115949034955 0 -0.0020870908620267089 0.024669179450131581 0 -0.0018811512198177185 0.026118572275949541 0 0.00051174105948337246 0.026595048764909073 0 -0.0018811512198177185 0.026118572275949541 0 -0.0023809040574901013 0.028589965106553084 0 -0.0049262599072725146 0.027375084185369627 0 -0.0018811512198177185 0.026118572275949541 0 -0.0023809040574901013 0.028589965106553084 0 -0.0022214357735460899 0.02860855096730594 0 0.0012693692051874862 0.029230808974653497 0 -0.0023809040574901013 0.028589965106553084 0 0.0011846923369429542 0.029412024362505309 0 -0.00089256345733445034 0.030573872736515999 0 0.00051174105948337246 0.026595048764909073 0 -0.0023809040574901013 0.028589965106553084 0 0.0012863821648528197 0.029002691428548284 0 0.00051174105948337246 0.026595048764909073 0 0.0012863821648528197 0.029002691428548284 0 0.0032484088754194829 0.028194732920815164 0 0.0012863821648528197 0.029002691428548284 0 0.0032484088754194829 0.028194732920815164 0 0.0048167220178965955 0.029417337648574682 0 0.0045029305764342125 0.028563004033861594 0 0.0050947975219403476 0.027342280475224408 0 0.0048167220178965955 0.029417337648574682 0 0.0032484088754194829 0.028194732920815164 0 0.0045029305764342125 0.028563004033861594 0 0.0050947975219403476 0.027342280475224408 0 0.0032484088754194829 0.028194732920815164 0 0.0045029305764342125 0.028563004033861594 0 0.0048167220178965955 0.029417337648574682 0 0.0070199747224497372 0.029769359726101462 0 0.0050947975219403476 0.027342280475224408 0 0.0048167220178965955 0.029417337648574682 0 0.0028069457965565099 0.02343663199968998 0 0.0016084342628767982 0.022174271557309635 0 0.0032484088754194829 0.028194732920815164 0 0.0050947975219403476 0.027342280475224408 0 0.0030429587967989637 0.02454163463519516 0 -3.5799267756887003e-05 0.019758599090662798 0 0.00011242119013608271 0.019512107473183167 0 0.00036040594116656401 0.019920173828314451 0 0.00051174105948337246 0.026595048764909073 0 0.0032484088754194829 0.028194732920815164 0 0.0030429587967989637 0.02454163463519516 0 0.0016180909726960814 0.029313865189011478 0 0.00193667771777112 0.032646634681125351 0 0.0016416231481691038 0.033845181265200197 0 0.0039806715386929764 0.031846262513305523 0 0.00080567777565791982 0.032267913538872608 0 0.0016416231481691038 0.033845181265200197 0 0.0039806715386929764 0.031846262513305523 0 0.0031388557309514368 0.034929183363773902 0 -0.0036712384261730446 0.02510524310652628 0 -0.0048037646211130216 0.028817967610919645 0 -0.0022188258819201795 0.028876445232412298 0 0.0016180909726960814 0.029313865189011478 0 -0.00095774987828648643 0.031783512677815554 0 -0.0014064654724817627 0.026881883969259376 0 -0.0036712384261730446 0.02510524310652628 0 -0.0022188258819201795 0.028876445232412298 0 0.0013115905580789039 0.027576909904172237 0 0.0025683314693124787 0.02706495748220545 0 0.0023720570411689011 0.027788305103966845 0 0.0016180909726960814 0.029313865189011478 0 0.0043317386713111897 0.029446140526535266 0 0.0042165929085917816 0.031782110201548287 0 0.0046889092290373869 0.030058232928988682 0 0.002390965747115191 0.030994173708136927 0 0.0012693692051874862 0.029230808974653497 0 0.0043317386713111897 0.029446140526535266 0 0.0011846923369429542 0.029412024362505309 0 0.002390965747115191 0.030994173708136927 0 0.00080567777565791982 0.032267913538872608 0 0.0011846923369429542 0.029412024362505309 0 0.0046889092290373869 0.030058232928988682 0 0.002390965747115191 0.030994173708136927 0 0.0042165929085917816 0.031782110201548287 0 0.002390965747115191 0.030994173708136927 0 0.00080567777565791982 0.032267913538872608 0 0.0011846923369429542 0.029412024362505309 0 -0.00089256345733445034 0.030573872736515999 0 0.00080567777565791982 0.032267913538872608 0 -0.00089256345733445034 0.030573872736515999 0 -0.001322275926491763 0.032249344654430641 0 0.00080567777565791982 0.032267913538872608 0 -0.0023809040574901013 0.028589965106553084 0 -0.00089256345733445034 0.030573872736515999 0 -0.0030445784572114597 0.031066406523020784 0 -0.00089256345733445034 0.030573872736515999 0 -0.0030445784572114597 0.031066406523020784 0 -0.001322275926491763 0.032249344654430641 0 -0.001322275926491763 0.032249344654430641 0 -0.0029605700533519006 0.033331567398774235 0 -0.00066342246848520798 0.03411145686107165 0 -0.0030445784572114597 0.031066406523020784 0 -0.001322275926491763 0.032249344654430641 0 -0.0029605700533519006 0.033331567398774235 0 0.0016416231481691038 0.033845181265200197 0 0.00080567777565791982 0.032267913538872608 0 -0.00066342246848520798 0.03411145686107165 0 -0.001322275926491763 0.032249344654430641 0 0.00080567777565791982 0.032267913538872608 0 -0.00066342246848520798 0.03411145686107165 0 -0.00066342246848520798 0.03411145686107165 0 0.00086790702678118123 0.036116159131442928 0 -0.001432592856290055 0.036458043387982052 0 0.0016416231481691038 0.033845181265200197 0 -0.00066342246848520798 0.03411145686107165 0 0.00086790702678118123 0.036116159131442928 0 -0.00066342246848520798 0.03411145686107165 0 -0.001432592856290055 0.036458043387982052 0 -0.0032526529990366477 0.035421476998461501 0 -0.0029605700533519006 0.033331567398774235 0 -0.00066342246848520798 0.03411145686107165 0 -0.0032526529990366477 0.035421476998461501 0 -0.0030157394706207519 0.037330402269891504 0 -0.0012692740603622969 0.038267698168554951 0 -0.0042736775253680425 0.039236969827859548 0 -0.0030157394706207519 0.037330402269891504 0 -0.001432592856290055 0.036458043387982052 0 -0.0032526529990366477 0.035421476998461501 0 -0.0030157394706207519 0.037330402269891504 0 -0.001432592856290055 0.036458043387982052 0 -0.0012692740603622969 0.038267698168554951 0 0.00086790702678118123 0.036116159131442928 0 -0.001432592856290055 0.036458043387982052 0 -0.0012692740603622969 0.038267698168554951 0 0.00086790702678118123 0.036116159131442928 0 -0.0012692740603622969 0.038267698168554951 0 0.00068132255514988965 0.039269107545060952 0 -0.0063760880148343033 0.034024785389354759 0 -0.0048037646211130216 0.028817967610919645 0 -0.0029301897312937648 0.031918806964762042 0 0.00086790702678118123 0.036116159131442928 0 0.0022420318079076867 0.038041885755597894 0 0.0031388557309514368 0.034929183363773902 0 0.00086790702678118123 0.036116159131442928 0 0.0022420318079076867 0.038041885755597894 0 0.00068132255514988965 0.039269107545060952 0 -0.0063760880148343033 0.034024785389354759 0 -0.0029301897312937648 0.031918806964762042 0 -0.0038732955714658487 0.037488091929997788 0 -0.0020888299869460513 0.036042547486170196 0 -0.00095774987828648643 0.031783512677815554 0 0.0016416231481691038 0.033845181265200197 0 0.00086790702678118123 0.036116159131442928 0 0.0031388557309514368 0.034929183363773902 0 -0.00027157675403335273 0.030642330191719802 0 -0.0022188258819201795 0.028876445232412298 0 -0.0029301897312937648 0.031918806964762042 0 -0.0048037646211130216 0.028817967610919645 0 -0.0022188258819201795 0.028876445232412298 0 -0.0029301897312937648 0.031918806964762042 0 -0.00070918001968132776 0.034030444971206678 0 -0.0029301897312937648 0.031918806964762042 0 -0.0038732955714658487 0.037488091929997788 0 -0.00070918001968132776 0.034030444971206678 0 -0.0038732955714658487 0.037488091929997788 0 -0.0022255362015711098 0.041136482537880881 0 -0.0063760880148343033 0.034024785389354759 0 -0.0038732955714658487 0.037488091929997788 0 -0.0074730617819496808 0.041697294333748663 0 -0.0020888299869460513 0.036042547486170196 0 -0.0021546269171154029 0.041663453649399863 0 0.0022420318079076867 0.038041885755597894 0 0.0013351634088980444 0.041188957762342611 0 0.00068132255514988965 0.039269107545060952 0 -0.0041823354652809012 0.04305737103001922 0 -0.002850997221583643 0.044755713909179727 0 -0.0027246257256924172 0.045601467875369069 0 -0.0034017887282624098 0.045056520374991409 0 -0.0041823354652809012 0.04305737103001922 0 -0.0027246257256924172 0.045601467875369069 0 -0.0021546269171154029 0.041663453649399863 0 -0.0040063912696096278 0.042215457548604077 0 -0.0038732955714658487 0.037488091929997788 0 -0.0074730617819496808 0.041697294333748663 0 -0.0041823354652809012 0.04305737103001922 0 0.0002009640015733964 0.043243595463846561 0 -0.00070918001968132776 0.034030444971206678 0 -0.0022255362015711098 0.041136482537880881 0 0.0002009640015733964 0.043243595463846561 0 -0.0022255362015711098 0.041136482537880881 0 -0.0018812687957972922 0.044506855043579374 0 -0.0041823354652809012 0.04305737103001922 0 -0.0022255362015711098 0.041136482537880881 0 -0.0018812687957972922 0.044506855043579374 0 -0.0038732955714658487 0.037488091929997788 0 -0.0041823354652809012 0.04305737103001922 0 -0.0022255362015711098 0.041136482537880881 0 -0.0041823354652809012 0.04305737103001922 0 -0.0018812687957972922 0.044506855043579374 0 -0.002850997221583643 0.044755713909179727 0 -0.0018812687957972922 0.044506855043579374 0 -0.002850997221583643 0.044755713909179727 0 -0.0015827497949134641 0.044991702993768222 0 -0.002850997221583643 0.044755713909179727 0 -0.0015827497949134641 0.044991702993768222 0 -0.0023672573089311539 0.045587087557458571 0 -0.0012334133020319097 0.044560489432424598 0 -0.0018812687957972922 0.044506855043579374 0 -0.0015827497949134641 0.044991702993768222 0 -0.0017855126720948424 0.046528990733014038 0 -0.0023672573089311539 0.045587087557458571 0 -0.0019232703327271288 0.046011239720297803 0 -0.0015827497949134641 0.044991702993768222 0 -0.0023672573089311539 0.045587087557458571 0 -0.0019232703327271288 0.046011239720297803 0 -0.002850997221583643 0.044755713909179727 0 -0.0023672573089311539 0.045587087557458571 0 -0.0027246257256924172 0.045601467875369069 0 -0.0017855126720948424 0.046528990733014038 0 -0.0023672573089311539 0.045587087557458571 0 -0.0017004781102149373 0.04716730035227603 0 -0.0023672573089311539 0.045587087557458571 0 -0.0017004781102149373 0.04716730035227603 0 -0.0027246257256924172 0.045601467875369069 0 -0.0017004781102149373 0.04716730035227603 0 -0.0023943221615841089 0.047275224748165638 0 -0.0010496410861648017 0.049208940281954633 0 -0.0017004781102149373 0.04716730035227603 0 -0.0027246257256924172 0.045601467875369069 0 -0.0023943221615841089 0.047275224748165638 0 -0.0021546269171154029 0.041663453649399863 0 -0.001338930528499921 0.043896843235803479 0 -0.0034017887282624098 0.045056520374991409 0 -0.0027246257256924172 0.045601467875369069 0 -0.0023943221615841089 0.047275224748165638 0 -0.0012692740603622969 0.038267698168554951 0 -0.00091279466581407399 0.040422795703427029 0 0.00068132255514988965 0.039269107545060952 0 0.0013351634088980444 0.041188957762342611 0 -0.00091279466581407399 0.040422795703427029 0 0.00068132255514988965 0.039269107545060952 0 -0.0012692740603622969 0.038267698168554951 0 -0.00091279466581407399 0.040422795703427029 0 -0.0042736775253680425 0.039236969827859548 0 -0.001338930528499921 0.043896843235803479 0 -0.0025750499980541799 0.044222114699367911 0 -0.0010496410861648017 0.049208940281954633 0 -0.00060940039425493486 0.04863337217772537 0 1.4867717939385447e-05 0.049537375206929017 0 -0.0010496410861648017 0.049208940281954633 0 1.4867717939385447e-05 0.049537375206929017 0 -2.0246311490989847e-05 0.050287657589107311 0 -0.0025750499980541799 0.044222114699367911 0 -0.004014571202113155 0.044011878940678713 0 -0.00016579108297667849 0.049051717372656331 0 -0.00060940039425493486 0.04863337217772537 0 1.4867717939385447e-05 0.049537375206929017 0 -0.0017004781102149373 0.04716730035227603 0 -0.0010496410861648017 0.049208940281954633 0 -0.00060940039425493486 0.04863337217772537 0 -0.0017855126720948424 0.046528990733014038 0 -0.0017004781102149373 0.04716730035227603 0 -0.00027192401212108787 0.048404555728682713 0 -0.0017004781102149373 0.04716730035227603 0 -0.00060940039425493486 0.04863337217772537 0 -0.00027192401212108787 0.048404555728682713 0 -0.00016579108297667849 0.049051717372656331 0 -0.00060940039425493486 0.04863337217772537 0 -0.00027192401212108787 0.048404555728682713 0 -0.00027192401212108787 0.048404555728682713 0 -9.3440943389882299e-05 0.050313620214961441 0 -3.6721679069509428e-05 0.050275320739796431 0 -0.00033158079818310213 0.048430933253824547 0 -0.00077051221319577386 0.048221023026278544 0 -0.0017855126720948424 0.046528990733014038 0 -0.00027192401212108787 0.048404555728682713 0 -0.0014803988265630456 0.046128500194656745 0 -0.00027192401212108787 0.048404555728682713 0 6.3619254131998582e-05 0.050280006050860457 0 -9.3440943389882299e-05 0.050313620214961441 0 -0.00027192401212108787 0.048404555728682713 0 6.3619254131998582e-05 0.050280006050860457 0 8.4514029452151869e-05 0.049723507520438727 0 -0.00016579108297667849 0.049051717372656331 0 -0.00027192401212108787 0.048404555728682713 0 8.4514029452151869e-05 0.049723507520438727 0 6.3619254131998582e-05 0.050280006050860457 0 8.4514029452151869e-05 0.049723507520438727 0 0.00013522303886863283 0.050876445114838909 0 8.4514029452151869e-05 0.049723507520438727 0 0.00015254273193605986 0.050223704496272094 0 0.00013522303886863283 0.050876445114838909 0 3.6463992685172893e-05 0.049680520638326578 0 0.00044215581178757744 0.050390517531289029 0 8.4514029452151869e-05 0.049723507520438727 0 1.4867717939385447e-05 0.049537375206929017 0 0.00015254273193605986 0.050223704496272094 0 -0.00016579108297667849 0.049051717372656331 0 8.4514029452151869e-05 0.049723507520438727 0 1.4867717939385447e-05 0.049537375206929017 0 1.4867717939385447e-05 0.049537375206929017 0 0.00046508180583426672 0.050402928335687297 0 -2.0246311490989847e-05 0.050287657589107311 0 0.00046508180583426672 0.050402928335687297 0 0.00069055134583032452 0.050618818858891843 0 0.00078399259823666578 0.050588672772976052 0 1.4867717939385447e-05 0.049537375206929017 0 0.00046508180583426672 0.050402928335687297 0 0.00078399259823666578 0.050588672772976052 0 0.00046508180583426672 0.050402928335687297 0 0.00069055134583032452 0.050618818858891843 0 0.00064173243512508917 0.050621371020273059 0 0.00069055134583032452 0.050618818858891843 0 0.00072257373311171717 0.050677319921197672 0 0.0007493321689553326 0.050795525299798333 0 0.00069055134583032452 0.050618818858891843 0 0.00072257373311171717 0.050677319921197672 0 0.00064173243512508917 0.050621371020273059 0 0.00046508180583426672 0.050402928335687297 0 0.00070134592916435757 0.05084538145724412 0 -2.0246311490989847e-05 0.050287657589107311 0 0.00046508180583426672 0.050402928335687297 0 0.00064173243512508917 0.050621371020273059 0 0.00070134592916435757 0.05084538145724412 0 0.00064173243512508917 0.050621371020273059 0 0.00071221067494000266 0.050704011806862258 0 0.00070134592916435757 0.05084538145724412 0 0.00072257373311171717 0.050677319921197672 0 0.00071221067494000266 0.050704011806862258 0 0.00078590852771839111 0.050711469686119032 0 0.00072257373311171717 0.050677319921197672 0 0.00064173243512508917 0.050621371020273059 0 0.00071221067494000266 0.050704011806862258 0 0.00071221067494000266 0.050704011806862258 0 0.00070134592916435757 0.05084538145724412 0 0.00078590852771839111 0.050711469686119032 0 0.0009953327264576213 0.05046602955966966 0 0.00081099404707894545 0.050567093845361753 0 0.00078590852771839111 0.050711469686119032 0 -0.0029741334634458246 0.044578608221474157 0 -0.0018244906668132129 0.048953058838818633 0 0.0009953327264576213 0.05046602955966966 0 0.00092830935627629459 0.050445269741775371 0 0.00081099404707894545 0.050567093845361753 0 -0.0029741334634458246 0.044578608221474157 0 -0.0021267661667613916 0.045078238792799243 0 0.00099538127423465066 0.050461389864594058 0 0.00092830935627629459 0.050445269741775371 0 0.0010565324445544334 0.050237720537269569 0 0.00092830935627629459 0.050445269741775371 0 0.0010565324445544334 0.050237720537269569 0 0.00088847916885307656 0.05031382394337508 0 -0.0029741334634458246 0.044578608221474157 0 -0.0036449029734581203 0.042446730216046093 0 0.0010223037814998941 0.050078388700883658 0 0.0010565324445544334 0.050237720537269569 0 0.00088847916885307656 0.05031382394337508 0 0.00099538127423465066 0.050461389864594058 0 0.0010565324445544334 0.050237720537269569 0 0.001444061925667983 0.049892702841864707 0 -0.0099535107022374718 0.036998704275121266 0 -0.0084670887561718016 0.035005810368310068 0 -0.0083950798050108685 0.036610087124269476 0 0.0010223037814998941 0.050078388700883658 0 0.001444061925667983 0.049892702841864707 0 0.0011212028491622789 0.049832618747338291 0 0.0010223037814998941 0.050078388700883658 0 0.0010565324445544334 0.050237720537269569 0 0.001444061925667983 0.049892702841864707 0 0.0010223037814998941 0.050078388700883658 0 0.0011212028491622789 0.049832618747338291 0 0.00074594296909640315 0.049998094589116575 0 -0.0079115509214065013 0.035663654889341555 0 -0.0083950798050108685 0.036610087124269476 0 -0.006702023016050454 0.03634538041352646 0 -0.0077215673811914546 0.035005720465933456 0 -0.0079115509214065013 0.035663654889341555 0 -0.0069107405744616383 0.035257173858455962 0 -0.0077215673811914546 0.035005720465933456 0 -0.0084670887561718016 0.035005810368310068 0 -0.0079115509214065013 0.035663654889341555 0 -0.0084670887561718016 0.035005810368310068 0 -0.0079115509214065013 0.035663654889341555 0 -0.0083950798050108685 0.036610087124269476 0 -0.0079115509214065013 0.035663654889341555 0 -0.006702023016050454 0.03634538041352646 0 -0.0069107405744616383 0.035257173858455962 0 -0.0073643007525875286 0.038000860374880242 0 -0.0083950798050108685 0.036610087124269476 0 -0.006702023016050454 0.03634538041352646 0 -0.0099535107022374718 0.036998704275121266 0 -0.0073643007525875286 0.038000860374880242 0 -0.0083950798050108685 0.036610087124269476 0 -0.0029741334634458246 0.044578608221474157 0 -0.004014571202113155 0.044011878940678713 0 -0.0073643007525875286 0.038000860374880242 0 -0.0050363667031318735 0.03695795299204422 0 -0.006702023016050454 0.03634538041352646 0 -0.0042736775253680425 0.039236969827859548 0 -0.0073643007525875286 0.038000860374880242 0 -0.0050363667031318735 0.03695795299204422 0 -0.0030157394706207519 0.037330402269891504 0 -0.0042736775253680425 0.039236969827859548 0 -0.0050363667031318735 0.03695795299204422 0 -0.0030157394706207519 0.037330402269891504 0 -0.0050363667031318735 0.03695795299204422 0 -0.0032526529990366477 0.035421476998461501 0 -0.0032526529990366477 0.035421476998461501 0 -0.0054324520726247482 0.034937843047059859 0 -0.004367010836806566 0.033807060094788198 0 -0.0050363667031318735 0.03695795299204422 0 -0.0032526529990366477 0.035421476998461501 0 -0.0054324520726247482 0.034937843047059859 0 -0.0050363667031318735 0.03695795299204422 0 -0.006702023016050454 0.03634538041352646 0 -0.0054324520726247482 0.034937843047059859 0 -0.006702023016050454 0.03634538041352646 0 -0.0054324520726247482 0.034937843047059859 0 -0.0069107405744616383 0.035257173858455962 0 -0.0054324520726247482 0.034937843047059859 0 -0.0069107405744616383 0.035257173858455962 0 -0.0065472403021465449 0.034219399629925235 0 -0.0077215673811914546 0.035005720465933456 0 -0.0069107405744616383 0.035257173858455962 0 -0.0065472403021465449 0.034219399629925235 0 -0.0065472403021465449 0.034219399629925235 0 -0.005706664065012996 0.033284832187956304 0 -0.0069550177342632465 0.032535275145494862 0 -0.0077215673811914546 0.035005720465933456 0 -0.0065472403021465449 0.034219399629925235 0 -0.0069550177342632465 0.032535275145494862 0 -0.0054324520726247482 0.034937843047059859 0 -0.0065472403021465449 0.034219399629925235 0 -0.005706664065012996 0.033284832187956304 0 -0.005706664065012996 0.033284832187956304 0 -0.0045159581006594491 0.032403752894293668 0 -0.0056902383857015404 0.031987092545751265 0 -0.005706664065012996 0.033284832187956304 0 -0.0069550177342632465 0.032535275145494862 0 -0.0056902383857015404 0.031987092545751265 0 -0.0029605700533519006 0.033331567398774235 0 -0.004367010836806566 0.033807060094788198 0 -0.0045159581006594491 0.032403752894293668 0 -0.0029605700533519006 0.033331567398774235 0 -0.0032526529990366477 0.035421476998461501 0 -0.004367010836806566 0.033807060094788198 0 -0.005706664065012996 0.033284832187956304 0 -0.004367010836806566 0.033807060094788198 0 -0.0045159581006594491 0.032403752894293668 0 -0.0054324520726247482 0.034937843047059859 0 -0.005706664065012996 0.033284832187956304 0 -0.004367010836806566 0.033807060094788198 0 -0.0030445784572114597 0.031066406523020784 0 -0.0029605700533519006 0.033331567398774235 0 -0.0045159581006594491 0.032403752894293668 0 -0.0023809040574901013 0.028589965106553084 0 -0.0030445784572114597 0.031066406523020784 0 -0.0042588009986910544 0.029636386876482224 0 -0.0030445784572114597 0.031066406523020784 0 -0.0045159581006594491 0.032403752894293668 0 -0.0050495187128683783 0.03093573953843276 0 -0.0045159581006594491 0.032403752894293668 0 -0.0050495187128683783 0.03093573953843276 0 -0.0056902383857015404 0.031987092545751265 0 -0.0050495187128683783 0.03093573953843276 0 -0.0042588009986910544 0.029636386876482224 0 -0.0060057905528908585 0.030129986906759904 0 -0.0030445784572114597 0.031066406523020784 0 -0.0050495187128683783 0.03093573953843276 0 -0.0042588009986910544 0.029636386876482224 0 -0.0070751564268898039 0.034536728242570078 0 -0.0071564865181873612 0.034465336476720322 0 -0.0074332899312756617 0.034344228433216127 0 0.0024852884853589362 0.049221896726732405 0 0.002219492244031558 0.049313026436860224 0 0.0019380391200073056 0.0494517515968304 0 -0.0024928719789761035 0.042013824399748337 0 -0.002717747102415857 0.041891450894134263 0 -0.0073100190380739147 0.034460132933629581 0 -0.0072157664789141221 0.034433140838286073 0 -0.0074332899312756617 0.034344228433216127 0 -0.0072157664789141221 0.034433140838286073 0 -0.0071564865181873612 0.034465336476720322 0 -0.0074332899312756617 0.034344228433216127 0 -0.0071315482358068729 0.033519550218013318 0 -0.0067552539547845519 0.032551207179763168 0 -0.0050495187128683783 0.03093573953843276 0 -0.0056902383857015404 0.031987092545751265 0 -0.0062497151872043738 0.030736388269977096 0 -0.0069550177342632465 0.032535275145494862 0 -0.0056902383857015404 0.031987092545751265 0 -0.0062497151872043738 0.030736388269977096 0 -0.0050495187128683783 0.03093573953843276 0 -0.0062497151872043738 0.030736388269977096 0 -0.0060057905528908585 0.030129986906759904 0 -0.0067552539547845519 0.032551207179763168 0 -0.0066814241581738031 0.032280826461034348 0 0.0018978982672873828 0.049314763798186695 0 0.002219492244031558 0.049313026436860224 0 0.0017307388019523683 0.049709596782193187 0 0.002219492244031558 0.049313026436860224 0 0.0019380391200073056 0.0494517515968304 0 0.0014949455691773694 0.049339911915059285 0 0.0021344300453816824 0.049330153382783543 0 0.0016170634172252448 0.049531953109947839 0 0.0018978982672873828 0.049314763798186695 0 0.0017307388019523683 0.049709596782193187 0 0.0016057134250478259 0.049435320644897397 0 0.0017307388019523683 0.049709596782193187 0 0.0013266495819889011 0.0496009315330583 0 0.0012371339014701217 0.049934385859839475 0 0.0013650537359696489 0.049258383783752052 0 0.0016057134250478259 0.049435320644897397 0 0.0013266495819889011 0.0496009315330583 0 0.0017307388019523683 0.049709596782193187 0 0.0016057134250478259 0.049435320644897397 0 0.0013266495819889011 0.0496009315330583 0 0.0016170634172252448 0.049531953109947839 0 0.0010051734670910367 0.049747013025659162 0 0.0013850672770248105 0.049624097755324455 0 0.0011212028491622789 0.049832618747338291 0 0.00083312444921403476 0.049595698055994057 0 0.0014949455691773694 0.049339911915059285 0 0.0013850672770248105 0.049624097755324455 0 0.00083312444921403476 0.049595698055994057 0 0.001444061925667983 0.049892702841864707 0 0.0013850672770248105 0.049624097755324455 0 0.0011212028491622789 0.049832618747338291 0 0.0019380391200073056 0.0494517515968304 0 0.0014949455691773694 0.049339911915059285 0 0.0013850672770248105 0.049624097755324455 0 -0.0036449029734581203 0.042446730216046093 0 -0.002717747102415857 0.041891450894134263 0 -0.0077215673811914546 0.035005720465933456 0 -0.0084670887561718016 0.035005810368310068 0 -0.0074332899312756617 0.034344228433216127 0 0.001444061925667983 0.049892702841864707 0 0.0019380391200073056 0.0494517515968304 0 0.0013850672770248105 0.049624097755324455 0 -0.0077215673811914546 0.035005720465933456 0 -0.0073100190380739147 0.034460132933629581 0 -0.0074332899312756617 0.034344228433216127 0 -0.0076619211648756777 0.034768474520502857 0 -0.0071315482358068729 0.033519550218013318 0 0.00094320878423006659 0.049734089338239557 0 0.00059008856052946736 0.049640305663889592 0 0.00084378389457665621 0.050109307998252715 0 0.00087285024563323141 0.04989571720269019 0 0.00087075573563369271 0.050418640509114362 0 0.0010051734670910367 0.049747013025659162 0 0.00087075573563369271 0.050418640509114362 0 0.0012371339014701217 0.049934385859839475 0 0.00094320878423006659 0.049734089338239557 0 0.00084378389457665621 0.050109307998252715 0 0.00083312444921403476 0.049595698055994057 0 0.00023513367197925983 0.049903698757446505 0 0.00074594296909640315 0.049998094589116575 0 0.0011212028491622789 0.049832618747338291 0 0.00083312444921403476 0.049595698055994057 0 0.00074594296909640315 0.049998094589116575 0 0.0013266495819889011 0.0496009315330583 0 0.0012371339014701217 0.049934385859839475 0 0.00094320878423006659 0.049734089338239557 0 0.00090109000331672223 0.049370600425283809 0 0.0013266495819889011 0.0496009315330583 0 0.00094320878423006659 0.049734089338239557 0 0.00090109000331672223 0.049370600425283809 0 0.00094320878423006659 0.049734089338239557 0 0.00059008856052946736 0.049640305663889592 0 0.0005399946112002289 0.049935436771264358 0 0.00049566512280762264 0.050479872623166819 0 0.00030604512210473747 0.050094748822400732 0 0.00053149002887180081 0.04949057468700984 0 0.0010619556047823688 0.050102602557137284 0 0.0005399946112002289 0.049935436771264358 0 0.0010619556047823688 0.050102602557137284 0 0.0005399946112002289 0.049935436771264358 0 0.00049566512280762264 0.050479872623166819 0 0.0005399946112002289 0.049935436771264358 0 0.00030604512210473747 0.050094748822400732 0 0.00036233469584595428 0.049838734537197338 0 0.00049566512280762264 0.050479872623166819 0 0.00097939512811615276 0.050626283851275232 0 0.00059146395029040862 0.050866058074121763 0 0.0010619556047823688 0.050102602557137284 0 0.00049566512280762264 0.050479872623166819 0 0.00097939512811615276 0.050626283851275232 0 0.0010619556047823688 0.050102602557137284 0 0.00097939512811615276 0.050626283851275232 0 0.0014969853288198706 0.050760315821575419 0 0.00097939512811615276 0.050626283851275232 0 0.00088601844737390889 0.051097124784981948 0 0.00059146395029040862 0.050866058074121763 0 0.00076894181888809187 0.051133469044053748 0 0.00087075573563369271 0.050418640509114362 0 0.00097939512811615276 0.050626283851275232 0 0.00088601844737390889 0.051097124784981948 0 0.0014969853288198706 0.050760315821575419 0 0.00088601844737390889 0.051097124784981948 0 0.00059146395029040862 0.050866058074121763 0 0.00026946425094673938 0.051442229583527913 0 0.00049566512280762264 0.050479872623166819 0 0.00059146395029040862 0.050866058074121763 0 0.00023412632331867855 0.0509159361825441 0 0.00076894181888809187 0.051133469044053748 0 0.00029387506666027889 0.051391308909092659 0 0.00059078357424314414 0.051057269200807012 0 0.0004666417532272848 0.051588018574135745 0 0.00026946425094673938 0.051442229583527913 0 0.00059078357424314414 0.051057269200807012 0 0.00075352076204996006 0.051173669319408317 0 0.0004666417532272848 0.051588018574135745 0 0.00059078357424314414 0.051057269200807012 0 0.00076320427634815103 0.051035619283171199 0 0.00075352076204996006 0.051173669319408317 0 0.00080150263324570365 0.050988461387099171 0 0.00076320427634815103 0.051035619283171199 0 0.00075352076204996006 0.051173669319408317 0 0.00080150263324570365 0.050988461387099171 0 0.00076320427634815103 0.051035619283171199 0 0.00079417712025798876 0.051017093435948735 0 0.00059078357424314414 0.051057269200807012 0 0.00076320427634815103 0.051035619283171199 0 0.00077474918637434752 0.050933311852230066 0 0.00076320427634815103 0.051035619283171199 0 0.00077474918637434752 0.050933311852230066 0 0.00079417712025798876 0.051017093435948735 0 0.00087075573563369271 0.050418640509114362 0 0.00063636200847543294 0.050640302380757125 0 0.00023513367197925983 0.049903698757446505 0 0.00074594296909640315 0.049998094589116575 0 0.00050343406890867573 0.050333976579596026 0 0.00074594296909640315 0.049998094589116575 0 0.00077981270024818036 0.050237118236160401 0 0.00050343406890867573 0.050333976579596026 0 0.0010223037814998941 0.050078388700883658 0 0.00074594296909640315 0.049998094589116575 0 0.00077981270024818036 0.050237118236160401 0 0.0010223037814998941 0.050078388700883658 0 0.00077981270024818036 0.050237118236160401 0 0.00088847916885307656 0.05031382394337508 0 0.00071316425505632357 0.050465354260602918 0 0.00050343406890867573 0.050333976579596026 0 0.0007493321689553326 0.050795525299798333 0 0.00092830935627629459 0.050445269741775371 0 0.00088847916885307656 0.05031382394337508 0 0.00071316425505632357 0.050465354260602918 0 0.00077981270024818036 0.050237118236160401 0 0.00071316425505632357 0.050465354260602918 0 0.00050343406890867573 0.050333976579596026 0 0.00077981270024818036 0.050237118236160401 0 0.00088847916885307656 0.05031382394337508 0 0.00071316425505632357 0.050465354260602918 0 0.00092830935627629459 0.050445269741775371 0 0.00071316425505632357 0.050465354260602918 0 0.00081099404707894545 0.050567093845361753 0 0.00063636200847543294 0.050640302380757125 0 0.00074739469323646386 0.050804395312943992 0 0.00080150263324570365 0.050988461387099171 0 0.00079417712025798876 0.051017093435948735 0 0.0007493321689553326 0.050795525299798333 0 0.00071316425505632357 0.050465354260602918 0 0.00081099404707894545 0.050567093845361753 0 0.0007493321689553326 0.050795525299798333 0 0.00081099404707894545 0.050567093845361753 0 0.00078590852771839111 0.050711469686119032 0 0.0007493321689553326 0.050795525299798333 0 0.00072257373311171717 0.050677319921197672 0 0.00078590852771839111 0.050711469686119032 0 0.0007493321689553326 0.050795525299798333 0 0.00069055134583032452 0.050618818858891843 0 0.00081444359511798851 0.05091205752002631 0 0.00078399259823666578 0.050588672772976052 0 0.00069055134583032452 0.050618818858891843 0 0.0007493321689553326 0.050795525299798333 0 0.00081444359511798851 0.05091205752002631 0 0.00080150263324570365 0.050988461387099171 0 0.0007493321689553326 0.050795525299798333 0 0.00081444359511798851 0.05091205752002631 0 0.00081444359511798851 0.05091205752002631 0 0.00075352076204996006 0.051173669319408317 0 0.00077737920478468446 0.051520904073254395 0 0.00080150263324570365 0.050988461387099171 0 0.00081444359511798851 0.05091205752002631 0 0.00075352076204996006 0.051173669319408317 0 0.0004356647184522719 0.05140931425841179 0 0.00044215581178757744 0.050390517531289029 0 7.1936542191449829e-05 0.051277356513320174 0 0.00015254273193605986 0.050223704496272094 0 0.00013522303886863283 0.050876445114838909 0 0.00081444359511798851 0.05091205752002631 0 0.00077737920478468446 0.051520904073254395 0 0.00078399259823666578 0.050588672772976052 0 7.1936542191449829e-05 0.051277356513320174 0 0.00013522303886863283 0.050876445114838909 0 8.2724743917313821e-05 0.051828346134972864 0 0.00013522303886863283 0.050876445114838909 0 6.2850629958396818e-05 0.052083797091425528 0 0.00021664775634700094 0.051192326953330938 0 0.00013522303886863283 0.050876445114838909 0 8.2724743917313821e-05 0.051828346134972864 0 6.2850629958396818e-05 0.052083797091425528 0 6.3619254131998582e-05 0.050280006050860457 0 0.00013522303886863283 0.050876445114838909 0 0.00021664775634700094 0.051192326953330938 0 2.5475738496767386e-05 0.05269629045534046 0 8.2724743917313821e-05 0.051828346134972864 0 0.00020505372833707917 0.052312761361796307 0 2.5475738496767386e-05 0.05269629045534046 0 8.2724743917313821e-05 0.051828346134972864 0 6.2850629958396818e-05 0.052083797091425528 0 7.1936542191449829e-05 0.051277356513320174 0 8.2724743917313821e-05 0.051828346134972864 0 0.00020505372833707917 0.052312761361796307 0 0.00020505372833707917 0.052312761361796307 0 0.0004666417532272848 0.051588018574135745 0 4.3747399881457028e-05 0.052142674980827836 0 0.0004356647184522719 0.05140931425841179 0 0.0002136674702604502 0.052180590206819782 0 0.00077737920478468446 0.051520904073254395 0 0.00020505372833707917 0.052312761361796307 0 0.0004666417532272848 0.051588018574135745 0 0.00075352076204996006 0.051173669319408317 0 0.00077737920478468446 0.051520904073254395 0 0.0004666417532272848 0.051588018574135745 0 4.3747399881457028e-05 0.052142674980827836 0 -4.4049234391434374e-05 0.051587486972761429 0 0.00026946425094673938 0.051442229583527913 0 0.0004666417532272848 0.051588018574135745 0 4.3747399881457028e-05 0.052142674980827836 0 0.00026946425094673938 0.051442229583527913 0 -0.00019417459971531181 0.054676546993925393 0 -2.5264865522398798e-07 0.054999626693023468 0 -6.1255492340162092e-07 0.054997509387730549 0 4.3747399881457028e-05 0.052142674980827836 0 -0.0002566596856116039 0.051944356986696742 0 -4.4049234391434374e-05 0.051587486972761429 0 4.3747399881457028e-05 0.052142674980827836 0 -0.0002566596856116039 0.051944356986696742 0 -0.00058978491661838242 0.05279338382270541 0 4.3747399881457028e-05 0.052142674980827836 0 -5.440096803136839e-05 0.053254485716021829 0 -0.00058978491661838242 0.05279338382270541 0 0.00020505372833707917 0.052312761361796307 0 4.3747399881457028e-05 0.052142674980827836 0 -5.440096803136839e-05 0.053254485716021829 0 2.5475738496767386e-05 0.05269629045534046 0 0.00020505372833707917 0.052312761361796307 0 -5.440096803136839e-05 0.053254485716021829 0 2.5475738496767386e-05 0.05269629045534046 0 -5.440096803136839e-05 0.053254485716021829 0 -0.00015582529568060517 0.053781014575914193 0 -5.440096803136839e-05 0.053254485716021829 0 -0.00019417459971531181 0.054676546993925393 0 -0.00015582529568060517 0.053781014575914193 0 -5.440096803136839e-05 0.053254485716021829 0 -0.00019417459971531181 0.054676546993925393 0 -0.00058978491661838242 0.05279338382270541 0 -0.00023091983464168311 0.054551480866971126 0 -0.0003073651327004352 0.053854685252825503 0 -0.00019417459971531181 0.054676546993925393 0 -2.5264865522398798e-07 0.054999626693023468 0 -0.00010007847993528692 0.054946327387423076 0 -0.0002566596856116039 0.051944356986696742 0 -0.00058978491661838242 0.05279338382270541 0 -0.00055952246215932092 0.051604859658541322 0 -0.0003073651327004352 0.053854685252825503 0 -0.00030173237684900825 0.053272176557900015 0 -2.5264865522398798e-07 0.054999626693023468 0 -0.00010007847993528692 0.054946327387423076 0 -7.0582690951956304e-05 0.054949071606216808 0 -7.0582690951956304e-05 0.054949071606216808 0 -6.4759398687982904e-05 0.054902396883407568 0 -0.0001275327397569361 0.054877128219299652 0 -7.1220951422515505e-07 0.054997576114960207 0 -2.5264865522398798e-07 0.054999626693023468 0 -0.0001275327397569361 0.054877128219299652 0 -2.5264865522398798e-07 0.054999626693023468 0 -7.0582690951956304e-05 0.054949071606216808 0 -0.0001275327397569361 0.054877128219299652 0 -0.0002566596856116039 0.051944356986696742 0 -0.00055952246215932092 0.051604859658541322 0 -0.00038294932929446501 0.051504444654471376 0 -0.0002566596856116039 0.051944356986696742 0 -0.00038294932929446501 0.051504444654471376 0 -4.4049234391434374e-05 0.051587486972761429 0 -0.00055952246215932092 0.051604859658541322 0 -0.00038294932929446501 0.051504444654471376 0 -0.00016281086333081509 0.050555570795913621 0 -0.00038294932929446501 0.051504444654471376 0 -4.4049234391434374e-05 0.051587486972761429 0 -0.00015986283566613526 0.051232768569044781 0 -4.4049234391434374e-05 0.051587486972761429 0 -0.00015986283566613526 0.051232768569044781 0 -2.6081659982486603e-05 0.051165673224374569 0 -4.4049234391434374e-05 0.051587486972761429 0 0.00026946425094673938 0.051442229583527913 0 -2.6081659982486603e-05 0.051165673224374569 0 0.00026946425094673938 0.051442229583527913 0 0.00023412632331867855 0.0509159361825441 0 -2.6081659982486603e-05 0.051165673224374569 0 0.00059146395029040862 0.050866058074121763 0 0.00026946425094673938 0.051442229583527913 0 0.00023412632331867855 0.0509159361825441 0 3.8316807601962149e-05 0.050853911685485906 0 0.00023412632331867855 0.0509159361825441 0 -2.6081659982486603e-05 0.051165673224374569 0 3.8316807601962149e-05 0.050853911685485906 0 0.00023412632331867855 0.0509159361825441 0 0.00012680601436312951 0.050653169371199777 0 -0.00037382681610180225 0.051448983093936515 0 -9.9579271305084277e-05 0.050566285735103342 0 -0.00015986283566613526 0.051232768569044781 0 -2.6081659982486603e-05 0.051165673224374569 0 -0.0001889065114779179 0.050675364615320809 0 3.8316807601962149e-05 0.050853911685485906 0 -2.6081659982486603e-05 0.051165673224374569 0 -0.0001889065114779179 0.050675364615320809 0 -0.00038294932929446501 0.051504444654471376 0 -0.00015986283566613526 0.051232768569044781 0 -0.0001889065114779179 0.050675364615320809 0 -0.00038294932929446501 0.051504444654471376 0 -0.00016281086333081509 0.050555570795913621 0 -1.0549823442263464e-05 0.050434830933283353 0 -0.00030173237684900825 0.053272176557900015 0 -0.00011138305891643725 0.052731321837241531 0 -6.4759398687982904e-05 0.054902396883407568 0 -5.7951122831447997e-05 0.054813794421803098 0 -0.0001275327397569361 0.054877128219299652 0 -6.4759398687982904e-05 0.054902396883407568 0 -5.7951122831447997e-05 0.054813794421803098 0 0.00011318656558136952 0.054745943424012129 0 -0.00016281086333081509 0.050555570795913621 0 -1.0549823442263464e-05 0.050434830933283353 0 0.00019208391603565381 0.049722253338262593 0 -0.00011138305891643725 0.052731321837241531 0 0.00017238995424115558 0.052233334207434798 0 -9.9579271305084277e-05 0.050566285735103342 0 0.00021764283170923692 0.049767064318091261 0 -0.0001889065114779179 0.050675364615320809 0 0.00010875102251350411 0.050252614353417026 0 0.00012385246388506104 0.04986066550125981 0 0.00049566512280762264 0.050479872623166819 0 0.00012680601436312951 0.050653169371199777 0 0.00017589044198394659 0.050387660740055705 0 0.00049566512280762264 0.050479872623166819 0 0.00023412632331867855 0.0509159361825441 0 0.00012680601436312951 0.050653169371199777 0 -0.0001889065114779179 0.050675364615320809 0 0.00012680601436312951 0.050653169371199777 0 0.00017589044198394659 0.050387660740055705 0 3.8316807601962149e-05 0.050853911685485906 0 -0.0001889065114779179 0.050675364615320809 0 0.00012680601436312951 0.050653169371199777 0 -0.0001889065114779179 0.050675364615320809 0 0.00010875102251350411 0.050252614353417026 0 0.00017589044198394659 0.050387660740055705 0 0.00049566512280762264 0.050479872623166819 0 0.00017589044198394659 0.050387660740055705 0 0.00030604512210473747 0.050094748822400732 0 -1.0549823442263464e-05 0.050434830933283353 0 0.00027890487329604205 0.04964024506064648 0 0.00019208391603565381 0.049722253338262593 0 0.00010875102251350411 0.050252614353417026 0 0.00017589044198394659 0.050387660740055705 0 0.00030604512210473747 0.050094748822400732 0 0.00010875102251350411 0.050252614353417026 0 0.00030604512210473747 0.050094748822400732 0 0.00012385246388506104 0.04986066550125981 0 0.00030604512210473747 0.050094748822400732 0 0.00012385246388506104 0.04986066550125981 0 0.00036233469584595428 0.049838734537197338 0 -5.7951122831447997e-05 0.054813794421803098 0 -0.00012110166831555716 0.054619747458396317 0 -0.0001275327397569361 0.054877128219299652 0 -5.7951122831447997e-05 0.054813794421803098 0 -2.8487062486420311e-05 0.054704928887617105 0 -0.00012110166831555716 0.054619747458396317 0 -5.7951122831447997e-05 0.054813794421803098 0 0.00011318656558136952 0.054745943424012129 0 -2.8487062486420311e-05 0.054704928887617105 0 1.4172142149489764e-05 0.054303389558508774 0 0.00011318656558136952 0.054745943424012129 0 -2.8502611929150216e-06 0.054562175526797506 0 -2.8487062486420311e-05 0.054704928887617105 0 -2.8502611929150216e-06 0.054562175526797506 0 -0.00012110166831555716 0.054619747458396317 0 0.00011318656558136952 0.054745943424012129 0 -2.8487062486420311e-05 0.054704928887617105 0 -2.8502611929150216e-06 0.054562175526797506 0 -0.00029883424525886161 0.054366054399793154 0 -0.00012110166831555716 0.054619747458396317 0 -0.0001275327397569361 0.054877128219299652 0 -2.5019287716179927e-06 0.054975498133915168 0 -5.3532770369567681e-08 0.054999393703317634 0 2.3567619506041084e-08 0.055000003596228614 0 -2.5019287716179927e-06 0.054975498133915168 0 1.3561047186498759e-05 0.054975203801481756 0 1.2129231711793804e-05 0.054982655263933727 0 -0.0001236654627969593 0.054656611979652207 0 -2.5019287716179927e-06 0.054975498133915168 0 -9.2008147413620011e-05 0.05461963067642376 0 -0.0001236654627969593 0.054656611979652207 0 -2.5019287716179927e-06 0.054975498133915168 0 -5.3532770369567681e-08 0.054999393703317634 0 3.8717540133110693e-06 0.05487265384075541 0 -0.00015349932187100668 0.055071430759719361 0 -0.0001236654627969593 0.054656611979652207 0 -9.2008147413620011e-05 0.05461963067642376 0 -0.00011201759276003384 0.054562465995293997 0 -0.0001236654627969593 0.054656611979652207 0 -0.00011201759276003384 0.054562465995293997 0 -7.6016379682790794e-05 0.054344263262115534 0 -0.00011201759276003384 0.054562465995293997 0 -4.5957535042177176e-05 0.054525635035509355 0 -7.6016379682790794e-05 0.054344263262115534 0 -0.0001236654627969593 0.054656611979652207 0 -0.00013637494237017176 0.054346274474903415 0 -0.00012053912135968651 0.054605161156968389 0 -0.0001236654627969593 0.054656611979652207 0 -7.6016379682790794e-05 0.054344263262115534 0 -0.00013637494237017176 0.054346274474903415 0 -7.6016379682790794e-05 0.054344263262115534 0 -0.00013637494237017176 0.054346274474903415 0 -9.0159735156792418e-05 0.05389347106596646 0 -0.0001236654627969593 0.054656611979652207 0 -0.00012053912135968651 0.054605161156968389 0 -5.3532770369567681e-08 0.054999393703317634 0 -0.00012053912135968651 0.054605161156968389 0 -5.3532770369567681e-08 0.054999393703317634 0 -6.1255492340162092e-07 0.054997509387730549 0 -0.00012053912135968651 0.054605161156968389 0 -6.1255492340162092e-07 0.054997509387730549 0 -0.00016636039377911503 0.054135055330186928 0 -6.1255492340162092e-07 0.054997509387730549 0 -0.00015582529568060517 0.053781014575914193 0 -0.00016636039377911503 0.054135055330186928 0 -0.00019417459971531181 0.054676546993925393 0 -6.1255492340162092e-07 0.054997509387730549 0 -0.00015582529568060517 0.053781014575914193 0 2.5475738496767386e-05 0.05269629045534046 0 -0.00015582529568060517 0.053781014575914193 0 -9.0522953345971948e-05 0.053181944946981009 0 -0.00015582529568060517 0.053781014575914193 0 -0.00016636039377911503 0.054135055330186928 0 -9.0522953345971948e-05 0.053181944946981009 0 -0.00016636039377911503 0.054135055330186928 0 -9.0159735156792418e-05 0.05389347106596646 0 -9.0522953345971948e-05 0.053181944946981009 0 -0.00013637494237017176 0.054346274474903415 0 -0.00012053912135968651 0.054605161156968389 0 -0.00016636039377911503 0.054135055330186928 0 -0.00013637494237017176 0.054346274474903415 0 -0.00016636039377911503 0.054135055330186928 0 -9.0159735156792418e-05 0.05389347106596646 0 -9.0159735156792418e-05 0.05389347106596646 0 4.5612980466213572e-05 0.053306366184179173 0 -9.0522953345971948e-05 0.053181944946981009 0 4.5612980466213572e-05 0.053306366184179173 0 -9.0522953345971948e-05 0.053181944946981009 0 0.00014762685418496572 0.052298664977536338 0 -9.0522953345971948e-05 0.053181944946981009 0 6.2850629958396818e-05 0.052083797091425528 0 0.00014762685418496572 0.052298664977536338 0 2.5475738496767386e-05 0.05269629045534046 0 -9.0522953345971948e-05 0.053181944946981009 0 6.2850629958396818e-05 0.052083797091425528 0 6.2850629958396818e-05 0.052083797091425528 0 0.00021664775634700094 0.051192326953330938 0 0.00014762685418496572 0.052298664977536338 0 0.00021664775634700094 0.051192326953330938 0 0.00014762685418496572 0.052298664977536338 0 0.0005087279011155337 0.050979757817135089 0 0.00014762685418496572 0.052298664977536338 0 0.00069966609456273443 0.052874802259971564 0 0.0005087279011155337 0.050979757817135089 0 4.5612980466213572e-05 0.053306366184179173 0 0.00014762685418496572 0.052298664977536338 0 0.00069966609456273443 0.052874802259971564 0 4.5612980466213572e-05 0.053306366184179173 0 0.00026925772200860347 0.053568393696463303 0 0.00069966609456273443 0.052874802259971564 0 0.0004713383094671635 0.050990447509223422 0 0.00068247430980126881 0.051121104065316808 0 0.00032426307167900744 0.053749939972369397 0 0.00026925772200860347 0.053568393696463303 0 0.00069966609456273443 0.052874802259971564 0 0.00032426307167900744 0.053749939972369397 0 0.00036637590237097352 0.053606120321108272 0 0.00026925772200860347 0.053568393696463303 0 0.00032426307167900744 0.053749939972369397 0 0.00036637590237097352 0.053606120321108272 0 -0.0001240074101558456 0.052478023987608417 0 0.00063912473805363343 0.048289094206046428 0 0.00045602486332825624 0.047722248731349372 0 0.00017256851641384726 0.047865382249599742 0 0.0004713383094671635 0.050990447509223422 0 0.00018991794402392758 0.050086235067927254 0 0.00042295646976349302 0.053601664124462468 0 0.00091252982636790838 0.053375977670991982 0 0.00036637590237097352 0.053606120321108272 0 0.00026925772200860347 0.053568393696463303 0 9.6731733943740912e-05 0.053833794791229642 0 4.5612980466213572e-05 0.053306366184179173 0 0.00026925772200860347 0.053568393696463303 0 9.6731733943740912e-05 0.053833794791229642 0 -7.6016379682790794e-05 0.054344263262115534 0 -9.0159735156792418e-05 0.05389347106596646 0 9.6731733943740912e-05 0.053833794791229642 0 -9.0159735156792418e-05 0.05389347106596646 0 4.5612980466213572e-05 0.053306366184179173 0 9.6731733943740912e-05 0.053833794791229642 0 -7.6016379682790794e-05 0.054344263262115534 0 9.6731733943740912e-05 0.053833794791229642 0 0.00012520858991080632 0.054262075810759029 0 0.00036637590237097352 0.053606120321108272 0 9.6731733943740912e-05 0.053833794791229642 0 0.00012520858991080632 0.054262075810759029 0 -4.5957535042177176e-05 0.054525635035509355 0 -7.6016379682790794e-05 0.054344263262115534 0 0.00012520858991080632 0.054262075810759029 0 0.0021625608688209241 0.052497773377562638 0 0.00091252982636790838 0.053375977670991982 0 0.0037632962659432914 0.050853282398679762 0 0.0018754559558763287 0.052403101612746979 0 0.0019070900998756101 0.050195775686023458 0 0.0018754559558763287 0.052403101612746979 0 0.00085065272928813219 0.051474600806636718 0 0.0019070900998756101 0.050195775686023458 0 0.00085065272928813219 0.051474600806636718 0 4.566898132201594e-05 0.0501375468016758 0 0.0019070900998756101 0.050195775686023458 0 0.00085065272928813219 0.051474600806636718 0 -0.0001240074101558456 0.052478023987608417 0 4.566898132201594e-05 0.0501375468016758 0 0.00045602486332825624 0.047722248731349372 0 0.00021501108004094491 0.047473824719984042 0 0.0003609498144806716 0.047477193288387336 0 0.00045602486332825624 0.047722248731349372 0 0.00014814769415212405 0.047615086764350383 0 0.00021501108004094491 0.047473824719984042 0 0.00018991794402392758 0.050086235067927254 0 0.00022674977357997638 0.048787242910521895 0 0.0018754559558763287 0.052403101612746979 0 0.00085065272928813219 0.051474600806636718 0 -0.0001240074101558456 0.052478023987608417 0 0.00036637590237097352 0.053606120321108272 0 0.0018754559558763287 0.052403101612746979 0 -0.0001240074101558456 0.052478023987608417 0 0.00045602486332825624 0.047722248731349372 0 0.00014814769415212405 0.047615086764350383 0 0.00017256851641384726 0.047865382249599742 0 -0.00022244719896175321 0.04763370475262392 0 0.00014814769415212405 0.047615086764350383 0 0.00017256851641384726 0.047865382249599742 0 0.00014814769415212405 0.047615086764350383 0 -5.1699880970207301e-05 0.047447068092796821 0 0.00021501108004094491 0.047473824719984042 0 -0.00022244719896175321 0.04763370475262392 0 -5.1699880970207301e-05 0.047447068092796821 0 -0.00034528661966743779 0.04742159901597099 0 -0.00022244719896175321 0.04763370475262392 0 0.00014814769415212405 0.047615086764350383 0 -5.1699880970207301e-05 0.047447068092796821 0 -0.00034528661966743779 0.04742159901597099 0 -0.00065082274603064732 0.047492003825439305 0 -0.00047374520605207148 0.047342831885993628 0 -0.00063689590064055785 0.047398916092756073 0 -0.00058168353571959666 0.047211841044294836 0 -0.0010123054317792903 0.047143997866350491 0 -0.00065082274603064732 0.047492003825439305 0 -0.00071102628638488599 0.046717695796676485 0 -0.00065082274603064732 0.047492003825439305 0 -0.0008683884738466673 0.047868561380798501 0 -0.0011207151369421399 0.047629547446817667 0 -0.0010123054317792903 0.047143997866350491 0 -0.00065082274603064732 0.047492003825439305 0 -0.0011207151369421399 0.047629547446817667 0 -0.00022244719896175321 0.04763370475262392 0 -0.00065082274603064732 0.047492003825439305 0 -0.0008683884738466673 0.047868561380798501 0 -0.00022244719896175321 0.04763370475262392 0 -0.00034528661966743779 0.04742159901597099 0 -0.00065082274603064732 0.047492003825439305 0 -0.00022244719896175321 0.04763370475262392 0 -0.0008683884738466673 0.047868561380798501 0 -0.00018701151721663172 0.04807170414429289 0 -0.0008683884738466673 0.047868561380798501 0 -0.0014595964922513706 0.048096544510199138 0 -0.00061852178274704949 0.048397610873598632 0 -0.0008683884738466673 0.047868561380798501 0 -0.0014595964922513706 0.048096544510199138 0 -0.0013579129425531611 0.047943428680269004 0 -0.0008683884738466673 0.047868561380798501 0 -0.00061852178274704949 0.048397610873598632 0 -0.00018701151721663172 0.04807170414429289 0 -0.00018701151721663172 0.04807170414429289 0 0.00023540442485734376 0.048611459790183539 0 0.00022371866830523106 0.048200144472188337 0 -0.00061852178274704949 0.048397610873598632 0 -0.00018701151721663172 0.04807170414429289 0 0.00023540442485734376 0.048611459790183539 0 -0.00022244719896175321 0.04763370475262392 0 -0.00018701151721663172 0.04807170414429289 0 0.00017256851641384726 0.047865382249599742 0 0.00063912473805363343 0.048289094206046428 0 0.00017256851641384726 0.047865382249599742 0 0.00022371866830523106 0.048200144472188337 0 -0.00018701151721663172 0.04807170414429289 0 0.00017256851641384726 0.047865382249599742 0 0.00022371866830523106 0.048200144472188337 0 0.00063912473805363343 0.048289094206046428 0 0.00023540442485734376 0.048611459790183539 0 0.00022371866830523106 0.048200144472188337 0 0.00063912473805363343 0.048289094206046428 0 0.00023540442485734376 0.048611459790183539 0 0.00076279856917627325 0.04934033278544589 0 0.00023540442485734376 0.048611459790183539 0 -0.00018902712192470444 0.049184985850065144 0 0.00076279856917627325 0.04934033278544589 0 -0.00061852178274704949 0.048397610873598632 0 0.00023540442485734376 0.048611459790183539 0 -0.00018902712192470444 0.049184985850065144 0 -0.00018902712192470444 0.049184985850065144 0 0.00076279856917627325 0.04934033278544589 0 -0.00016883405716441893 0.050217628686189578 0 0.00068247430980126881 0.051121104065316808 0 0.00054873357816360166 0.051029804950959788 0 0.00076279856917627325 0.04934033278544589 0 0.0005087279011155337 0.050979757817135089 0 -0.00016883405716441893 0.050217628686189578 0 0.0005087279011155337 0.050979757817135089 0 -0.00016883405716441893 0.050217628686189578 0 -9.3440943389882299e-05 0.050313620214961441 0 6.3619254131998582e-05 0.050280006050860457 0 0.0005087279011155337 0.050979757817135089 0 -9.3440943389882299e-05 0.050313620214961441 0 6.3619254131998582e-05 0.050280006050860457 0 0.00021664775634700094 0.051192326953330938 0 0.0005087279011155337 0.050979757817135089 0 -0.0017855126720948424 0.046528990733014038 0 -0.0014803988265630456 0.046128500194656745 0 -0.0019232703327271288 0.046011239720297803 0 -0.00016883405716441893 0.050217628686189578 0 -9.3440943389882299e-05 0.050313620214961441 0 -3.6721679069509428e-05 0.050275320739796431 0 -0.00016883405716441893 0.050217628686189578 0 -3.6721679069509428e-05 0.050275320739796431 0 -0.00091659869435565535 0.049779347484483358 0 -0.00077051221319577386 0.048221023026278544 0 -0.0013667740060904899 0.048209010186683325 0 -0.0014803988265630456 0.046128500194656745 0 -0.0019133830836328088 0.046701159860187011 0 -0.0019232703327271288 0.046011239720297803 0 -0.00018902712192470444 0.049184985850065144 0 -0.00016883405716441893 0.050217628686189578 0 -0.00091659869435565535 0.049779347484483358 0 -0.00061852178274704949 0.048397610873598632 0 -0.00018902712192470444 0.049184985850065144 0 -0.00091659869435565535 0.049779347484483358 0 -0.0014724695512378463 0.048094428838257118 0 -0.0013667740060904899 0.048209010186683325 0 -0.0014595964922513706 0.048096544510199138 0 -0.00061852178274704949 0.048397610873598632 0 -0.00091659869435565535 0.049779347484483358 0 -0.0014595964922513706 0.048096544510199138 0 -0.0019133830836328088 0.046701159860187011 0 -0.0013528603363075473 0.047254689849687267 0 -0.0019133830836328088 0.046701159860187011 0 -0.0013528603363075473 0.047254689849687267 0 -0.0014515943974983373 0.046597151078628399 0 -0.0014595964922513706 0.048096544510199138 0 -0.0013528603363075473 0.047254689849687267 0 -0.001173082332502995 0.047699835286365712 0 -0.0013528603363075473 0.047254689849687267 0 -0.00078691635638761465 0.047225916690212991 0 -0.001173082332502995 0.047699835286365712 0 -0.0013528603363075473 0.047254689849687267 0 -0.0014515943974983373 0.046597151078628399 0 -0.00078691635638761465 0.047225916690212991 0 -0.0019133830836328088 0.046701159860187011 0 -0.0014515943974983373 0.046597151078628399 0 -0.0019232703327271288 0.046011239720297803 0 -0.0014515943974983373 0.046597151078628399 0 -0.0019232703327271288 0.046011239720297803 0 -0.00099049810802547293 0.046315487381918985 0 -0.00093351091341139863 0.043166501576949026 0 -0.00086430132304334917 0.04222372942781983 0 -0.00088069064009602355 0.04300878248184397 0 -0.0012334133020319097 0.044560489432424598 0 -0.0015827497949134641 0.044991702993768222 0 -0.00093351091341139863 0.043166501576949026 0 -0.0015827497949134641 0.044991702993768222 0 -0.0019232703327271288 0.046011239720297803 0 -0.00099049810802547293 0.046315487381918985 0 -0.0014555019616724592 0.044935731119778943 0 -0.0010443108333144018 0.04479184183913431 0 -0.00093351091341139863 0.043166501576949026 0 -0.0013403618504209925 0.043323436508970331 0 -0.00088069064009602355 0.04300878248184397 0 -0.0010443108333144018 0.04479184183913431 0 -0.001041966498558864 0.045239452855023114 0 -0.0014515943974983373 0.046597151078628399 0 -0.00099049810802547293 0.046315487381918985 0 -0.00078691635638761465 0.047225916690212991 0 -0.001041966498558864 0.045239452855023114 0 -0.0012598621359157613 0.046626161677703774 0 -0.0013403618504209925 0.043323436508970331 0 -0.00066868438421309418 0.044026628165743223 0 -0.00088069064009602355 0.04300878248184397 0 -0.0013403618504209925 0.043323436508970331 0 -0.0015215201451411397 0.044808349893982677 0 -0.00066868438421309418 0.044026628165743223 0 -0.0015215201451411397 0.044808349893982677 0 -0.00066868438421309418 0.044026628165743223 0 -0.00065106296489863657 0.045562204206525549 0 -0.0012598621359157613 0.046626161677703774 0 -5.670948427004836e-05 0.045933725836136786 0 -0.0015215201451411397 0.044808349893982677 0 -0.0014461244545031263 0.046439575493416159 0 -0.00065106296489863657 0.045562204206525549 0 -0.00078134643671250474 0.047830610431857552 0 -0.0010705830969862898 0.048093003999194653 0 -0.00076960188398386242 0.048237926880103491 0 -0.00078691635638761465 0.047225916690212991 0 -0.00078134643671250474 0.047830610431857552 0 -0.001173082332502995 0.047699835286365712 0 -0.00078134643671250474 0.047830610431857552 0 -0.001173082332502995 0.047699835286365712 0 -0.0010705830969862898 0.048093003999194653 0 -0.0014595964922513706 0.048096544510199138 0 -0.001173082332502995 0.047699835286365712 0 -0.0013579129425531611 0.047943428680269004 0 -0.0008683884738466673 0.047868561380798501 0 -0.0013579129425531611 0.047943428680269004 0 -0.0011207151369421399 0.047629547446817667 0 -0.0013579129425531611 0.047943428680269004 0 -0.0014540481893159725 0.047554089930147925 0 -0.0011207151369421399 0.047629547446817667 0 -0.001173082332502995 0.047699835286365712 0 -0.0013579129425531611 0.047943428680269004 0 -0.0010705830969862898 0.048093003999194653 0 -0.0013579129425531611 0.047943428680269004 0 -0.00177647363562639 0.047720512289117917 0 -0.0014540481893159725 0.047554089930147925 0 -0.0013347630509366521 0.047936562375639882 0 -0.0015532337991640444 0.047999772219174855 0 -0.00177647363562639 0.047720512289117917 0 -0.0014540481893159725 0.047554089930147925 0 -0.0017131213244678206 0.04727625664741502 0 -0.0014540481893159725 0.047554089930147925 0 -0.0017131213244678206 0.04727625664741502 0 -0.0013545589878828995 0.047196541281845403 0 -0.0010123054317792903 0.047143997866350491 0 -0.0011207151369421399 0.047629547446817667 0 -0.0013545589878828995 0.047196541281845403 0 -0.0014540481893159725 0.047554089930147925 0 -0.0011207151369421399 0.047629547446817667 0 -0.0013545589878828995 0.047196541281845403 0 -0.0010123054317792903 0.047143997866350491 0 -0.0013545589878828995 0.047196541281845403 0 -0.0012828344635086131 0.046672387385211941 0 -0.0013545589878828995 0.047196541281845403 0 -0.0016432626785720069 0.046935956705367196 0 -0.0012828344635086131 0.046672387385211941 0 -0.0017131213244678206 0.04727625664741502 0 -0.0013545589878828995 0.047196541281845403 0 -0.0016432626785720069 0.046935956705367196 0 -0.0016432626785720069 0.046935956705367196 0 -0.0020304508186306421 0.046972741258376638 0 -0.0018622720316820635 0.046562862019950538 0 -0.0017131213244678206 0.04727625664741502 0 -0.0016432626785720069 0.046935956705367196 0 -0.0020304508186306421 0.046972741258376638 0 -0.0017131213244678206 0.04727625664741502 0 -0.0020304508186306421 0.046972741258376638 0 -0.0020116811244922967 0.047278323774727612 0 -0.0020304508186306421 0.046972741258376638 0 -0.0023234278734689997 0.046933875420500357 0 -0.0020116811244922967 0.047278323774727612 0 0.0031138160447740561 0.040509190610823004 0 0.0031981956144277652 0.04204221191079089 0 0.0016752610491499952 0.041086800452130881 0 -0.0020304508186306421 0.046972741258376638 0 -0.0023234278734689997 0.046933875420500357 0 -0.0023394999289306183 0.04629293353256958 0 0.0031138160447740561 0.040509190610823004 0 0.0016752610491499952 0.041086800452130881 0 0.0020265596305461598 0.039716848238875328 0 0.00038061445544972577 0.04338225824531991 0 -5.670948427004836e-05 0.045933725836136786 0 -5.670948427004836e-05 0.045933725836136786 0 0.00059149180322038276 0.044082232607324967 0 -0.0014461244545031263 0.046439575493416159 0 -0.00065106296489863657 0.045562204206525549 0 -0.00034057490029727348 0.047084079225818719 0 -0.00177647363562639 0.047720512289117917 0 -0.0022618560102671114 0.047438897771865329 0 -0.0020116811244922967 0.047278323774727612 0 -0.0015532337991640444 0.047999772219174855 0 -5.670948427004836e-05 0.045933725836136786 0 -0.0023234278734689997 0.046933875420500357 0 -0.0022618560102671114 0.047438897771865329 0 -0.0020116811244922967 0.047278323774727612 0 -0.00177647363562639 0.047720512289117917 0 -0.0017131213244678206 0.04727625664741502 0 -0.0020116811244922967 0.047278323774727612 0 -0.0023239807696659848 0.046188607222219485 0 -0.0018622720316820635 0.046562862019950538 0 -0.0015854119015178327 0.046134950767968842 0 -0.0014878163254876597 0.04323126295301763 0 -0.0014059498540420054 0.043266433766888261 0 -0.0014437270225926278 0.043209218262743758 0 -0.0013463282140471287 0.041350477041974372 0 -0.0017053505032695844 0.045024316368598778 0 -0.00080520073550206718 0.03763985958455953 0 -0.00054036966898173813 0.037616636864332996 0 -0.0005915665407736564 0.036904092191108018 0 -0.0013463282140471287 0.041350477041974372 0 -0.0010800751863084793 0.039839744773597731 0 0.00071128484958836457 0.035885498135022877 0 -0.00031707608584645366 0.04353246618673097 0 0.00071128484958836457 0.035885498135022877 0 -0.0013463282140471287 0.041350477041974372 0 -0.0011913842839652059 0.038910610909099447 0 0.00051870959393977183 0.038711476218157244 0 0.00074815214146648607 0.042161163405739145 0 -0.0013463282140471287 0.041350477041974372 0 -0.00031707608584645366 0.04353246618673097 0 0.00038061445544972577 0.04338225824531991 0 -0.00031707608584645366 0.04353246618673097 0 0.0031138160447740561 0.040509190610823004 0 0.0030071894383688368 0.039005034782147646 0 0.0020265596305461598 0.039716848238875328 0 0.0030071894383688368 0.039005034782147646 0 0.0019206419483475457 0.038827551554808708 0 0.0020265596305461598 0.039716848238875328 0 0.0024533910994648206 0.038076583405509561 0 0.0030071894383688368 0.039005034782147646 0 0.0019206419483475457 0.038827551554808708 0 -0.0020304508186306421 0.046972741258376638 0 -0.0023065980592246972 0.046493940786543356 0 -0.0018622720316820635 0.046562862019950538 0 -0.0023239807696659848 0.046188607222219485 0 -0.0023065980592246972 0.046493940786543356 0 -0.0018622720316820635 0.046562862019950538 0 -0.0021012635752813385 0.047583965128130803 0 -0.00031707608584645366 0.04353246618673097 0 -0.0016432626785720069 0.046935956705367196 0 -0.0018622720316820635 0.046562862019950538 0 -0.0012828344635086131 0.046672387385211941 0 -0.0018622720316820635 0.046562862019950538 0 -0.0012828344635086131 0.046672387385211941 0 -0.0015854119015178327 0.046134950767968842 0 -0.0017053505032695844 0.045024316368598778 0 -0.00074359730770903146 0.045823825754780237 0 -0.0012828344635086131 0.046672387385211941 0 -0.0015854119015178327 0.046134950767968842 0 -0.00080408991553683777 0.046045615166532848 0 -0.0014059498540420054 0.043266433766888261 0 -0.0013646083649732257 0.043242290291198762 0 -0.0014437270225926278 0.043209218262743758 0 -0.0013646083649732257 0.043242290291198762 0 -0.0014129593810929453 0.043181631113921634 0 -0.0014437270225926278 0.043209218262743758 0 -0.0014059498540420054 0.043266433766888261 0 -0.0013646083649732257 0.043242290291198762 0 -0.0013122763551824382 0.043294673323992096 0 -0.0013646083649732257 0.043242290291198762 0 -0.0014129593810929453 0.043181631113921634 0 -0.0013265187571095318 0.043215653783726986 0 -0.0017165124057940387 0.043906789388918656 0 -0.0018711304815206139 0.044319546087305019 0 -0.0022495281363160442 0.043965427189989047 0 -0.0016272352523191596 0.043767271658988346 0 -0.0016294777771065669 0.045216180583608101 0 -0.0017165124057940387 0.043906789388918656 0 -0.0013857694121933389 0.044078326525553685 0 -0.0016289129531848587 0.044168585733883541 0 -0.0014129593810929453 0.043181631113921634 0 -0.0014437270225926278 0.043209218262743758 0 -0.0014946437317307196 0.043137982787673085 0 -0.0017165124057940387 0.043906789388918656 0 -0.0011485268032592796 0.043831634410309038 0 -0.0013857694121933389 0.044078326525553685 0 -0.0016272352523191596 0.043767271658988346 0 -0.0011956615550941377 0.040226038925836281 0 -0.00080520073550206718 0.03763985958455953 0 -0.0005915665407736564 0.036904092191108018 0 -0.0012308584947529591 0.0369059988403595 0 -0.0014437270225926278 0.043209218262743758 0 -0.0014915326342480203 0.043188671212506552 0 -0.0014946437317307196 0.043137982787673085 0 -0.0014878163254876597 0.04323126295301763 0 -0.0014437270225926278 0.043209218262743758 0 -0.0014915326342480203 0.043188671212506552 0 -0.0010800751863084793 0.039839744773597731 0 -0.0011956615550941377 0.040226038925836281 0 -0.0005915665407736564 0.036904092191108018 0 -0.0010273979439549791 0.036555774090607458 0 -0.0012308584947529591 0.0369059988403595 0 -0.0005915665407736564 0.036904092191108018 0 -0.00064365838036058393 0.036220069723006676 0 -0.0010273979439549791 0.036555774090607458 0 -0.0011956997794086977 0.036669255001901012 0 -0.0011815758483253471 0.03687857653214368 0 -0.00034587855954296918 0.036607575839925174 0 -0.0011485268032592796 0.043831634410309038 0 -0.0011398288846225467 0.043944404735986084 0 -0.0013857694121933389 0.044078326525553685 0 -0.0011956615550941377 0.040226038925836281 0 -0.0011580835255265386 0.039380693340696632 0 -0.0013323077150813594 0.036668125409221243 0 -0.00074719729094567598 0.037723650108115063 0 -0.0012510261950228968 0.037879852049438154 0 -0.0011580835255265386 0.039380693340696632 0 -0.0012559277508171751 0.040702344143646083 0 -0.0011398288846225467 0.043944404735986084 0 -0.0011213207543999428 0.04424082122074155 0 -0.0013857694121933389 0.044078326525553685 0 -0.00062625262507240496 0.04397757096524197 0 -0.00064315081119723698 0.04372602903239578 0 -0.0023337791186275785 0.044994452196320249 0 -0.00073126251196476539 0.033755083982361107 0 -0.00056106441962036711 0.03365555421041827 0 -0.00057116402376831759 0.03385096768328523 0 -0.0011990477729893708 0.039953086252826703 0 -0.0012559277508171751 0.040702344143646083 0 -0.0011990477729893708 0.039953086252826703 0 -0.0005206448874118157 0.037313452051620177 0 -0.0005206448874118157 0.037313452051620177 0 -0.0012559277508171751 0.040702344143646083 0 -0.001907677946091414 0.039581081067062145 0 -0.00013994800776354795 0.038561169800435564 0 -0.001939882778501448 0.039096467330070328 0 -0.0012559277508171751 0.040702344143646083 0 -0.0022665854114791331 0.047421893452004434 0 -0.0011213207543999428 0.04424082122074155 0 -0.0013857694121933389 0.044078326525553685 0 -0.001518583268171801 0.044391579647511059 0 -0.0013857694121933389 0.044078326525553685 0 -0.001518583268171801 0.044391579647511059 0 -0.0016289129531848587 0.044168585733883541 0 -0.0046443053278764079 0.054602705663970637 0 -0.0047760395376399362 0.053775843363225675 0 -0.0034988157950998264 0.054052894297023382 0 -0.0022547249416775481 0.0497927715826866 0 -0.0018758769639044234 0.049881950660215016 0 -0.0027654094605694796 0.050435091990445116 0 -0.0034160681380840468 0.048003924452394181 0 -0.0033223394781234043 0.05271245534826581 0 -0.00064315081119723698 0.04372602903239578 0 -0.0036666614679496997 0.044674935705806371 0 -0.0023337791186275785 0.044994452196320249 0 -0.0022665854114791331 0.047421893452004434 0 -0.0034160681380840468 0.048003924452394181 0 -0.0046443053278764079 0.054602705663970637 0 -0.0052590592955458837 0.054420552756866435 0 -0.0047760395376399362 0.053775843363225675 0 -0.0011990477729893708 0.039953086252826703 0 -0.0023891922894975783 0.043658563169896754 0 -0.00072736640606193984 0.034014933578969529 0 -0.00057116402376831759 0.03385096768328523 0 -0.00042664043803300266 0.034072479015543715 0 -0.00073126251196476539 0.033755083982361107 0 -0.00072736640606193984 0.034014933578969529 0 -0.00057116402376831759 0.03385096768328523 0 -0.0034160681380840468 0.048003924452394181 0 -0.0023891922894975783 0.043658563169896754 0 -0.0011990477729893708 0.039953086252826703 0 -0.0034160681380840468 0.048003924452394181 0 -0.0018581092574844235 0.043391420734701876 0 -0.003475241002969563 0.044338953622522326 0 -0.0017704455424122282 0.044756609896629239 0 -0.0023891922894975783 0.043658563169896754 0 -0.00062082836606855397 0.035928107315343051 0 -0.0023891922894975783 0.043658563169896754 0 -0.0041499645752795895 0.049233960123314005 0 -0.0025015556551006603 0.040731388073625037 0 -0.0024826152355134049 0.041443879994259844 0 -0.002192924604396428 0.040787926079989184 0 -0.0052590592955458837 0.054420552756866435 0 -0.0047760395376399362 0.053775843363225675 0 -0.0054511747582109502 0.053135426649257488 0 -0.0047760395376399362 0.053775843363225675 0 -0.0046076432027571642 0.052675385394558294 0 -0.0054511747582109502 0.053135426649257488 0 -0.0047760395376399362 0.053775843363225675 0 -0.0039309343008725834 0.053342517871211553 0 -0.0046076432027571642 0.052675385394558294 0 -0.0047760395376399362 0.053775843363225675 0 -0.0039309343008725834 0.053342517871211553 0 -0.0034988157950998264 0.054052894297023382 0 -0.0039309343008725834 0.053342517871211553 0 -0.0046076432027571642 0.052675385394558294 0 -0.0035535826656898604 0.052818356066400465 0 -0.0046076432027571642 0.052675385394558294 0 -0.0035535826656898604 0.052818356066400465 0 -0.0039749980461942312 0.052161023826875652 0 -0.0041499645752795895 0.049233960123314005 0 -0.0034593086173122949 0.04131347228914909 0 -0.0024826152355134049 0.041443879994259844 0 -0.0023370135435230302 0.041468744952241059 0 -0.0025172257526356059 0.042077482356362106 0 -0.0046076432027571642 0.052675385394558294 0 -0.0054511747582109502 0.053135426649257488 0 -0.0057724981311143286 0.051622380691994811 0 -0.0014728988944083387 0.035350387821864726 0 -0.0034593086173122949 0.04131347228914909 0 -0.0023704403156419255 0.052880786458555026 0 -0.0023192532985088759 0.052712987316586968 0 -0.0024580230994823583 0.052390865936763058 0 -0.0023704403156419255 0.052880786458555026 0 -0.0024843757929968592 0.053102387656460824 0 -0.0024580230994823583 0.052390865936763058 0 -0.0027931589154465502 0.052929100581986223 0 -0.0024244294506703848 0.053441784117358719 0 -0.0024580230994823583 0.052390865936763058 0 -0.0027931589154465502 0.052929100581986223 0 -0.0032455423689672957 0.053348902993263086 0 -0.0024244294506703848 0.053441784117358719 0 -0.0029204091118729693 0.052514939655561359 0 -0.0023535752129536661 0.052768333789593565 0 -0.0027931589154465502 0.052929100581986223 0 -0.0029147601047368669 0.052501790906868094 0 -0.0024580230994823583 0.052390865936763058 0 -0.0035535826656898604 0.052818356066400465 0 -0.0033049763691614261 0.052128514343783738 0 -0.0029147601047368669 0.052501790906868094 0 -0.0027931589154465502 0.052929100581986223 0 -0.0035535826656898604 0.052818356066400465 0 -0.0029147601047368669 0.052501790906868094 0 -0.0039309343008725834 0.053342517871211553 0 -0.0035535826656898604 0.052818356066400465 0 -0.0032455423689672957 0.053348902993263086 0 -0.0027931589154465502 0.052929100581986223 0 -0.0035535826656898604 0.052818356066400465 0 -0.0032455423689672957 0.053348902993263086 0 -0.0032455423689672957 0.053348902993263086 0 -0.0024244294506703848 0.053441784117358719 0 -0.0034988157950998264 0.054052894297023382 0 -0.0039309343008725834 0.053342517871211553 0 -0.0032455423689672957 0.053348902993263086 0 -0.0034988157950998264 0.054052894297023382 0 -0.0029204091118729693 0.052514939655561359 0 -0.0033223394781234043 0.05271245534826581 0 -0.0029204091118729693 0.052514939655561359 0 -0.0031049628694274126 0.052010446852611407 0 -0.003704579945574828 0.051019285975602208 0 -0.0033378358656098077 0.050123045516027545 0 -0.0027654094605694796 0.050435091990445116 0 -0.0024473275671657948 0.053039526802837703 0 -0.0024484470876100241 0.053257431440197602 0 -0.0023609822031130981 0.053099748482746977 0 -0.0023704403156419255 0.052880786458555026 0 -0.0024843757929968592 0.053102387656460824 0 -0.0023889083538271025 0.053012960749696324 0 -0.0029204091118729693 0.052514939655561359 0 -0.0027766341553963317 0.052580552356560305 0 -0.0033378358656098077 0.050123045516027545 0 -0.0038330613655603641 0.050172342893666844 0 -0.003954356071959062 0.049289550219281913 0 -0.003704579945574828 0.051019285975602208 0 -0.0033378358656098077 0.050123045516027545 0 -0.0038330613655603641 0.050172342893666844 0 -0.0022547249416775481 0.0497927715826866 0 -0.0033378358656098077 0.050123045516027545 0 -0.0027654094605694796 0.050435091990445116 0 -0.0022665854114791331 0.047421893452004434 0 -0.0033664614617438708 0.050646931389785217 0 -0.0020980033194607059 0.049719671638821863 0 -0.0033378358656098077 0.050123045516027545 0 -0.0030381715231781008 0.049509703874802434 0 -0.0022665854114791331 0.047421893452004434 0 -0.0025299841683672666 0.04680469079969115 0 -0.001518583268171801 0.044391579647511059 0 -0.0018711304815206139 0.044319546087305019 0 -0.0016289129531848587 0.044168585733883541 0 -0.0017165124057940387 0.043906789388918656 0 -0.0018711304815206139 0.044319546087305019 0 -0.0016289129531848587 0.044168585733883541 0 -0.0018711304815206139 0.044319546087305019 0 -0.0022111034749913057 0.044258554399088892 0 -0.0022495281363160442 0.043965427189989047 0 -0.0025299841683672666 0.04680469079969115 0 -0.0027193593601764444 0.049042752189132087 0 -0.0033378358656098077 0.050123045516027545 0 -0.0030381715231781008 0.049509703874802434 0 -0.003954356071959062 0.049289550219281913 0 -0.0017879836120515791 0.048228374062336134 0 -0.0014912877586636508 0.048332050987833192 0 -0.001669779777106972 0.048355784565555136 0 -0.0020694920226215939 0.050723911971138812 0 -0.0016975410066098801 0.049622405352747166 0 -0.0018601781124096286 0.048210548351136591 0 -0.0017879836120515791 0.048228374062336134 0 -0.0018250812824686876 0.048432492666456474 0 -0.0024316941311176726 0.053457848822769237 0 -0.0024104329444371172 0.053460865992298594 0 -0.0023797450502782255 0.053468793423887349 0 -0.0027193593601764444 0.049042752189132087 0 -0.0020694920226215939 0.050723911971138812 0 -0.0019729563896756894 0.051005040060817193 0 -0.0020694920226215939 0.050723911971138812 0 -0.0023780152452504821 0.053479739357383656 0 -0.0023588414917383041 0.053376642300586009 0 -0.0022171561104301803 0.053380520308853471 0 -0.0024316941311176726 0.053457848822769237 0 -0.0024104329444371172 0.053460865992298594 0 -0.0023588414917383041 0.053376642300586009 0 -0.0024104329444371172 0.053460865992298594 0 -0.0023780152452504821 0.053479739357383656 0 -0.0023588414917383041 0.053376642300586009 0 -0.0020694920226215939 0.050723911971138812 0 -0.0018922949253728756 0.052548566704643994 0 -0.0023780152452504821 0.053479739357383656 0 -0.0022171561104301803 0.053380520308853471 0 -0.0020765314884311718 0.053632055011896454 0 -0.0021146193338057611 0.05086720597121442 0 -0.0016726160670621343 0.050993141217723227 0 -0.0018040422257772349 0.050990660900493291 0 -0.0022171561104301803 0.053380520308853471 0 -0.0021888275854573779 0.053178568287689854 0 -0.0019971413440147078 0.05338519191606042 0 -0.0022171561104301803 0.053380520308853471 0 -0.0022988926714158676 0.053230419488672021 0 -0.0021888275854573779 0.053178568287689854 0 -0.0024484470876100241 0.053257431440197602 0 -0.0024316941311176726 0.053457848822769237 0 -0.0023588414917383041 0.053376642300586009 0 -0.0031049628694274126 0.052010446852611407 0 -0.0027193593601764444 0.049042752189132087 0 -0.0024484470876100241 0.053257431440197602 0 -0.0023588414917383041 0.053376642300586009 0 -0.0022988926714158676 0.053230419488672021 0 -0.0023588414917383041 0.053376642300586009 0 -0.0022171561104301803 0.053380520308853471 0 -0.0022988926714158676 0.053230419488672021 0 -0.0024484470876100241 0.053257431440197602 0 -0.0022988926714158676 0.053230419488672021 0 -0.0023609822031130981 0.053099748482746977 0 -0.0024473275671657948 0.053039526802837703 0 -0.0023609822031130981 0.053099748482746977 0 -0.0023889083538271025 0.053012960749696324 0 -0.0023609822031130981 0.053099748482746977 0 -0.0023147774300687532 0.052982398425494834 0 -0.0023889083538271025 0.053012960749696324 0 -0.0023609822031130981 0.053099748482746977 0 -0.0023147774300687532 0.052982398425494834 0 -0.0022641794327582991 0.05306355962517726 0 -0.0023147774300687532 0.052982398425494834 0 -0.0022641794327582991 0.05306355962517726 0 -0.0022478463414840489 0.052877288606940576 0 -0.0022988926714158676 0.053230419488672021 0 -0.0023609822031130981 0.053099748482746977 0 -0.0022641794327582991 0.05306355962517726 0 -0.0022988926714158676 0.053230419488672021 0 -0.0022641794327582991 0.05306355962517726 0 -0.0021888275854573779 0.053178568287689854 0 -0.0021888275854573779 0.053178568287689854 0 -0.0021723070837138653 0.052998492097133074 0 -0.0020558503945198275 0.053146709332044129 0 -0.0022641794327582991 0.05306355962517726 0 -0.0021888275854573779 0.053178568287689854 0 -0.0021723070837138653 0.052998492097133074 0 -0.0022641794327582991 0.05306355962517726 0 -0.0021723070837138653 0.052998492097133074 0 -0.0022478463414840489 0.052877288606940576 0 -0.0021723070837138653 0.052998492097133074 0 -0.0022139388979191491 0.052829792344509879 0 -0.0022478463414840489 0.052877288606940576 0 -0.0021723070837138653 0.052998492097133074 0 -0.0021748568747794357 0.052871394000273027 0 -0.0022139388979191491 0.052829792344509879 0 -0.0022139388979191491 0.052829792344509879 0 -0.0022478463414840489 0.052877288606940576 0 -0.0022346106507671174 0.052717377134770448 0 -0.0022539721032033893 0.052749319739200183 0 -0.0022478463414840489 0.052877288606940576 0 -0.0022346106507671174 0.052717377134770448 0 -0.0022539721032033893 0.052749319739200183 0 -0.00221022012918452 0.052607416140274414 0 -0.0022346106507671174 0.052717377134770448 0 -0.0023192532985088759 0.052712987316586968 0 -0.00221022012918452 0.052607416140274414 0 -0.0022533135208938704 0.052539834875823359 0 -0.0023192532985088759 0.052712987316586968 0 -0.0022539721032033893 0.052749319739200183 0 -0.00221022012918452 0.052607416140274414 0 -0.0023192532985088759 0.052712987316586968 0 -0.0022539721032033893 0.052749319739200183 0 -0.0022936935905859433 0.052869339693088505 0 -0.0022539721032033893 0.052749319739200183 0 -0.0022936935905859433 0.052869339693088505 0 -0.0022478463414840489 0.052877288606940576 0 -0.0023704403156419255 0.052880786458555026 0 -0.0023192532985088759 0.052712987316586968 0 -0.0022936935905859433 0.052869339693088505 0 -0.0023704403156419255 0.052880786458555026 0 -0.0023147774300687532 0.052982398425494834 0 -0.0022936935905859433 0.052869339693088505 0 -0.0023704403156419255 0.052880786458555026 0 -0.0023147774300687532 0.052982398425494834 0 -0.0023889083538271025 0.053012960749696324 0 -0.0023147774300687532 0.052982398425494834 0 -0.0022936935905859433 0.052869339693088505 0 -0.0022478463414840489 0.052877288606940576 0 -0.002036998122275176 0.052965468921806341 0 -0.0015830773928425853 0.052964029311513297 0 -0.0019240291037624889 0.052794826632312247 0 -0.002036998122275176 0.052965468921806341 0 -0.0018808060221330582 0.053202892000968428 0 -0.0015830773928425853 0.052964029311513297 0 -0.0021723070837138653 0.052998492097133074 0 -0.002036998122275176 0.052965468921806341 0 -0.0020558503945198275 0.053146709332044129 0 -0.0021723070837138653 0.052998492097133074 0 -0.0021748568747794357 0.052871394000273027 0 -0.002036998122275176 0.052965468921806341 0 -0.0021748568747794357 0.052871394000273027 0 -0.002036998122275176 0.052965468921806341 0 -0.0021609433683948674 0.052844175548898552 0 -0.0020558503945198275 0.053146709332044129 0 -0.0018808060221330582 0.053202892000968428 0 -0.0019971413440147078 0.05338519191606042 0 -0.002036998122275176 0.052965468921806341 0 -0.0020558503945198275 0.053146709332044129 0 -0.0018808060221330582 0.053202892000968428 0 -0.0018808060221330582 0.053202892000968428 0 -0.0019971413440147078 0.05338519191606042 0 -0.0017182388397720676 0.053519883129440678 0 -0.0021888275854573779 0.053178568287689854 0 -0.0020558503945198275 0.053146709332044129 0 -0.0019971413440147078 0.05338519191606042 0 -0.0019971413440147078 0.05338519191606042 0 -0.0018826449234116826 0.053600743446632133 0 -0.0020765314884311718 0.053632055011896454 0 -0.0022171561104301803 0.053380520308853471 0 -0.0019971413440147078 0.05338519191606042 0 -0.0020765314884311718 0.053632055011896454 0 -0.0019971413440147078 0.05338519191606042 0 -0.0018826449234116826 0.053600743446632133 0 -0.0017182388397720676 0.053519883129440678 0 -0.0018826449234116826 0.053600743446632133 0 -0.0016934731238992125 0.053671528466601344 0 -0.0017182388397720676 0.053519883129440678 0 -0.0018826449234116826 0.053600743446632133 0 -0.0017428987757262034 0.053778846358210869 0 -0.0016934731238992125 0.053671528466601344 0 -0.001379482583263744 0.052073350749698988 0 -0.0010569151713847034 0.049136492476798459 0 -0.0018826449234116826 0.053600743446632133 0 -0.0017428987757262034 0.053778846358210869 0 -0.0020765314884311718 0.053632055011896454 0 -0.00089493772650217922 0.050024996687705457 0 -0.0012055503579989166 0.050020369124382645 0 -0.00079678166716606945 0.050179214451747646 0 -0.0010569151713847034 0.049136492476798459 0 -0.00054881405012718334 0.04865511953708096 0 -0.0003052976718842061 0.047253488970780001 0 -0.00052998332804061565 0.046983935604606834 0 -0.00022760016460949084 0.047102132586178749 0 -7.2817457241090088e-05 0.04712599752240583 0 -0.00045837352501288932 0.047366338172901694 0 -0.0003052976718842061 0.047253488970780001 0 -0.0006769433290813847 0.047273099259538612 0 -0.00052998332804061565 0.046983935604606834 0 -0.0010569151713847034 0.049136492476798459 0 -0.0016975410066098801 0.049622405352747166 0 -0.0012329434713317744 0.051121689198779366 0 -0.0016726160670621343 0.050993141217723227 0 -0.0014940018515433612 0.051113878701371719 0 -0.0016726160670621343 0.050993141217723227 0 -0.0014940018515433612 0.051113878701371719 0 -0.0018040422257772349 0.050990660900493291 0 -0.0006769433290813847 0.047273099259538612 0 -0.00052998332804061565 0.046983935604606834 0 -0.00081147244856678304 0.046972724572323266 0 -0.0010569151713847034 0.049136492476798459 0 -0.0010929338565630214 0.047759245847473528 0 -0.001379482583263744 0.052073350749698988 0 -0.0018922949253728756 0.052548566704643994 0 -0.0011726646546975077 0.048458813178745667 0 -0.0014912877586636508 0.048332050987833192 0 -0.0015118893997187475 0.048447866071459567 0 -0.0014912877586636508 0.048332050987833192 0 -0.0015118893997187475 0.048447866071459567 0 -0.001669779777106972 0.048355784565555136 0 -0.0010929338565630214 0.047759245847473528 0 -0.0016294777771065669 0.045216180583608101 0 -0.0027193593601764444 0.049042752189132087 0 -0.0016294777771065669 0.045216180583608101 0 -0.0015118893997187475 0.048447866071459567 0 -0.001669779777106972 0.048355784565555136 0 -0.0018250812824686876 0.048432492666456474 0 -0.0017879836120515791 0.048228374062336134 0 -0.001669779777106972 0.048355784565555136 0 -0.0018250812824686876 0.048432492666456474 0 -0.00081147244856678304 0.046972724572323266 0 -0.0010909606591119538 0.046959654262448462 0 -0.0010393803747917292 0.047293919649410376 0 -0.0013646083649732257 0.043242290291198762 0 -0.0013265187571095318 0.043215653783726986 0 -0.0013122763551824382 0.043294673323992096 0 -0.0016294777771065669 0.045216180583608101 0 -0.00074359730770903146 0.045823825754780237 0 -0.00045837352501288932 0.047366338172901694 0 -0.00074359730770903146 0.045823825754780237 0 -0.0006769433290813847 0.047273099259538612 0 -0.00081147244856678304 0.046972724572323266 0 -0.0010393803747917292 0.047293919649410376 0 -0.00049057837919791025 0.047103880737360868 0 -0.00047374520605207148 0.047342831885993628 0 -0.00025031105168747117 0.047299562759587264 0 -0.00019107043960377238 0.047103645438938122 0 -0.00049057837919791025 0.047103880737360868 0 -0.00025031105168747117 0.047299562759587264 0 -0.00074359730770903146 0.045823825754780237 0 -0.00058168353571959666 0.047211841044294836 0 -0.0012828344635086131 0.046672387385211941 0 -0.00080408991553683777 0.046045615166532848 0 -0.00071102628638488599 0.046717695796676485 0 -0.0010123054317792903 0.047143997866350491 0 -0.0012828344635086131 0.046672387385211941 0 -0.00071102628638488599 0.046717695796676485 0 -0.00034528661966743779 0.04742159901597099 0 -0.00047374520605207148 0.047342831885993628 0 -0.00025031105168747117 0.047299562759587264 0 -5.1699880970207301e-05 0.047447068092796821 0 -0.00025031105168747117 0.047299562759587264 0 3.7271034282550861e-05 0.047325325500005351 0 -5.1699880970207301e-05 0.047447068092796821 0 -0.00034528661966743779 0.04742159901597099 0 -0.00025031105168747117 0.047299562759587264 0 0.00021501108004094491 0.047473824719984042 0 3.7271034282550861e-05 0.047325325500005351 0 0.00030074334376073187 0.047412639743477786 0 -5.1699880970207301e-05 0.047447068092796821 0 0.00021501108004094491 0.047473824719984042 0 3.7271034282550861e-05 0.047325325500005351 0 0.00015159663661255726 0.047182709150013595 0 -0.00019107043960377238 0.047103645438938122 0 3.7271034282550861e-05 0.047325325500005351 0 0.00015159663661255726 0.047182709150013595 0 3.7271034282550861e-05 0.047325325500005351 0 0.00030074334376073187 0.047412639743477786 0 -0.00019107043960377238 0.047103645438938122 0 -0.00025031105168747117 0.047299562759587264 0 3.7271034282550861e-05 0.047325325500005351 0 0.00030074334376073187 0.047412639743477786 0 0.00048902343328718564 0.047286309491527831 0 0.00050789226957866117 0.047504682652324021 0 0.00030074334376073187 0.047412639743477786 0 0.0003609498144806716 0.047477193288387336 0 0.00050789226957866117 0.047504682652324021 0 0.00022674977357997638 0.048787242910521895 0 0.00049141464123266779 0.047553758445374718 0 4.566898132201594e-05 0.0501375468016758 0 0.0013442926705222414 0.048633916339936009 0 0.00050789226957866117 0.047504682652324021 0 0.0013442926705222414 0.048633916339936009 0 0.0012373600520311763 0.047587700372794542 0 0.00050789226957866117 0.047504682652324021 0 0.00021501108004094491 0.047473824719984042 0 0.00030074334376073187 0.047412639743477786 0 0.0003609498144806716 0.047477193288387336 0 4.566898132201594e-05 0.0501375468016758 0 0.0019070900998756101 0.050195775686023458 0 0.0013442926705222414 0.048633916339936009 0 0.0019070900998756101 0.050195775686023458 0 0.0013442926705222414 0.048633916339936009 0 0.0022108196157679927 0.048737167087181142 0 0.0019070900998756101 0.050195775686023458 0 0.0031432846221265357 0.049131791427000707 0 0.0022108196157679927 0.048737167087181142 0 0.0037632962659432914 0.050853282398679762 0 0.0019070900998756101 0.050195775686023458 0 0.0031432846221265357 0.049131791427000707 0 0.0031432846221265357 0.049131791427000707 0 0.0028525431631463137 0.047929763994637789 0 0.0022108196157679927 0.048737167087181142 0 0.0031432846221265357 0.049131791427000707 0 0.0028525431631463137 0.047929763994637789 0 0.0037088332554652405 0.048414801390029329 0 0.0028525431631463137 0.047929763994637789 0 0.0037107565686640338 0.047288844971027068 0 0.0037088332554652405 0.048414801390029329 0 0.0013442926705222414 0.048633916339936009 0 0.0022108196157679927 0.048737167087181142 0 0.0017957369949407323 0.04783928081707535 0 0.0028525431631463137 0.047929763994637789 0 0.0022108196157679927 0.048737167087181142 0 0.0017957369949407323 0.04783928081707535 0 0.0013442926705222414 0.048633916339936009 0 0.0017957369949407323 0.04783928081707535 0 0.0012373600520311763 0.047587700372794542 0 0.00022840229410856386 0.051015287519890137 0 0.0003007384457518638 0.047872093688897638 0 0.00022840229410856386 0.051015287519890137 0 -0.0010548426787271939 0.052079500308987101 0 0.0023915455101329304 0.046905274954399785 0 0.00041087562889043777 0.047154465573543851 0 0.00062380481152278489 0.047230604129435375 0 0.0012373600520311763 0.047587700372794542 0 0.0023915455101329304 0.046905274954399785 0 0.00062380481152278489 0.047230604129435375 0 0.0028525431631463137 0.047929763994637789 0 0.0017957369949407323 0.04783928081707535 0 0.0023915455101329304 0.046905274954399785 0 0.0017957369949407323 0.04783928081707535 0 0.0012373600520311763 0.047587700372794542 0 0.0023915455101329304 0.046905274954399785 0 0.0028525431631463137 0.047929763994637789 0 0.0023915455101329304 0.046905274954399785 0 0.0037107565686640338 0.047288844971027068 0 -0.0012109869832338624 0.053852969079154968 0 -0.0011570125534037369 0.05384531294019658 0 -0.0010460976437367069 0.053873762294283124 0 0.00022840229410856386 0.051015287519890137 0 0.00061330271954224786 0.052625492448532422 0 0.00022840229410856386 0.051015287519890137 0 -0.00086282019782506322 0.051834898724525409 0 -0.0012793573664917786 0.054315111253658087 0 0.00061330271954224786 0.052625492448532422 0 -0.0011570125534037369 0.05384531294019658 0 -0.0012834198968914839 0.053725098607107578 0 -0.0010460976437367069 0.053873762294283124 0 -0.00050765151170580254 0.05451726344676807 0 -0.00090395255533310943 0.054407963326714284 0 -0.00047678795906429494 0.054694178673363743 0 -0.00053310636063592237 0.054409617077045544 0 -0.00090395255533310943 0.054407963326714284 0 -0.00060285103339704333 0.05423149703745659 0 -0.0012184635628199848 0.053858341334666715 0 -0.0011570125534037369 0.05384531294019658 0 -0.0012834198968914839 0.053725098607107578 0 -0.00050765151170580254 0.05451726344676807 0 -0.00053310636063592237 0.054409617077045544 0 -0.00090395255533310943 0.054407963326714284 0 -0.0012184635628199848 0.053858341334666715 0 -0.0012834198968914839 0.053725098607107578 0 -0.0014574513174048884 0.053827272881461025 0 -0.0012834198968914839 0.053725098607107578 0 -0.0014574513174048884 0.053827272881461025 0 -0.001516357129875389 0.053705538481832592 0 0.00010135648948289254 0.050292366589568704 0 -0.00039918024931074925 0.050155776508367764 0 -0.00038130619428118813 0.050334553704428422 0 -0.00039918024931074925 0.050155776508367764 0 -0.00038130619428118813 0.050334553704428422 0 -0.00079678166716606945 0.050179214451747646 0 0.0012373600520311763 0.047587700372794542 0 0.00050789226957866117 0.047504682652324021 0 0.00062380481152278489 0.047230604129435375 0 0.00048902343328718564 0.047286309491527831 0 0.00050789226957866117 0.047504682652324021 0 0.00062380481152278489 0.047230604129435375 0 0.0003007384457518638 0.047872093688897638 0 0.00033490387220517999 0.047830603316690604 0 -7.2817457241090088e-05 0.04712599752240583 0 0.0003007384457518638 0.047872093688897638 0 -0.0003052976718842061 0.047253488970780001 0 8.4247587095557874e-05 0.047228532829063856 0 -0.00022760016460949084 0.047102132586178749 0 0.00015159663661255726 0.047182709150013595 0 0.00030074334376073187 0.047412639743477786 0 0.00048902343328718564 0.047286309491527831 0 0.0003007384457518638 0.047872093688897638 0 -0.00054881405012718334 0.04865511953708096 0 -0.00089493772650217922 0.050024996687705457 0 -0.00039918024931074925 0.050155776508367764 0 -0.00079678166716606945 0.050179214451747646 0 -0.001379482583263744 0.052073350749698988 0 -0.0010548426787271939 0.052079500308987101 0 -0.0017120847477106911 0.053785700603538607 0 -0.0014574513174048884 0.053827272881461025 0 -0.0016252827204886445 0.053780902861746943 0 -0.0014574513174048884 0.053827272881461025 0 -0.0016252827204886445 0.053780902861746943 0 -0.001516357129875389 0.053705538481832592 0 -0.0016252827204886445 0.053780902861746943 0 -0.0016934731238992125 0.053671528466601344 0 -0.001516357129875389 0.053705538481832592 0 -0.001379482583263744 0.052073350749698988 0 -0.0016706986360021838 0.052926798551486735 0 -0.0017428987757262034 0.053778846358210869 0 -0.0016252827204886445 0.053780902861746943 0 -0.0016934731238992125 0.053671528466601344 0 -0.001516357129875389 0.053705538481832592 0 -0.0014591658853228457 0.053637889176731221 0 -0.0017182388397720676 0.053519883129440678 0 -0.0016934731238992125 0.053671528466601344 0 -0.001516357129875389 0.053705538481832592 0 -0.0017182388397720676 0.053519883129440678 0 -0.0012834198968914839 0.053725098607107578 0 -0.001516357129875389 0.053705538481832592 0 -0.0014591658853228457 0.053637889176731221 0 -0.0014591658853228457 0.053637889176731221 0 -0.0015909516096743251 0.053312882382179322 0 -0.0011761501335562747 0.053201239887937846 0 -0.0014591658853228457 0.053637889176731221 0 -0.0017182388397720676 0.053519883129440678 0 -0.0015909516096743251 0.053312882382179322 0 -0.0018808060221330582 0.053202892000968428 0 -0.0017182388397720676 0.053519883129440678 0 -0.0015909516096743251 0.053312882382179322 0 -0.0018808060221330582 0.053202892000968428 0 -0.0015909516096743251 0.053312882382179322 0 -0.0015830773928425853 0.052964029311513297 0 -0.0015909516096743251 0.053312882382179322 0 -0.0015830773928425853 0.052964029311513297 0 -0.0011761501335562747 0.053201239887937846 0 -0.00087423876188112964 0.054673272636086796 0 -0.00053852595247861929 0.054772906143820757 0 -0.00058212645702803312 0.054548904463317803 0 -0.0012308446563341101 0.053814463592624158 0 -0.00085992969137724761 0.053988876347558334 0 -0.00038423166345818343 0.054678128277737707 0 -0.00031027391001543634 0.054660637219012181 0 -0.00034167359370080631 0.054598767057056012 0 -0.00031027391001543634 0.054660637219012181 0 -0.00034167359370080631 0.054598767057056012 0 -0.00028382717968923821 0.054607040109051118 0 -0.00034167359370080631 0.054598767057056012 0 -0.00028382717968923821 0.054607040109051118 0 -0.00031532099344637726 0.054517658808955545 0 -0.00038423166345818343 0.054678128277737707 0 -0.00034167359370080631 0.054598767057056012 0 -0.00042975941355133482 0.054603727001061142 0 -0.00034167359370080631 0.054598767057056012 0 -0.00042975941355133482 0.054603727001061142 0 -0.00037136563331949517 0.054549927050036542 0 -0.00042975941355133482 0.054603727001061142 0 -0.00053852595247861929 0.054772906143820757 0 -0.00058212645702803312 0.054548904463317803 0 -0.00038423166345818343 0.054678128277737707 0 -0.00042975941355133482 0.054603727001061142 0 -0.00053852595247861929 0.054772906143820757 0 -0.00038423166345818343 0.054678128277737707 0 -0.00053852595247861929 0.054772906143820757 0 -0.0003333235581195823 0.054729770448592376 0 -0.00085992969137724761 0.053988876347558334 0 -0.00048642454295975279 0.054220430748940347 0 -0.00053852595247861929 0.054772906143820757 0 -0.0003333235581195823 0.054729770448592376 0 -0.00029896695361792991 0.054777799849160327 0 -0.00038423166345818343 0.054678128277737707 0 -0.00031027391001543634 0.054660637219012181 0 -0.0003333235581195823 0.054729770448592376 0 -0.00031027391001543634 0.054660637219012181 0 -0.0003333235581195823 0.054729770448592376 0 -0.00029123751703230165 0.054704767695223283 0 -0.0003333235581195823 0.054729770448592376 0 -0.00029896695361792991 0.054777799849160327 0 -0.00029359453623665409 0.054734739764457974 0 -0.0003333235581195823 0.054729770448592376 0 -0.00029359453623665409 0.054734739764457974 0 -0.00029123751703230165 0.054704767695223283 0 -0.00062252802669159329 0.053676333228572688 0 -0.00088626680778395889 0.053962593972439687 0 -0.00064954530341921962 0.054018402419647227 0 -0.00062252802669159329 0.053676333228572688 0 -0.00049687872299761812 0.054167847499619011 0 -0.00064954530341921962 0.054018402419647227 0 -0.0014591658853228457 0.053637889176731221 0 -0.0011761501335562747 0.053201239887937846 0 -0.00088626680778395889 0.053962593972439687 0 -0.0011761501335562747 0.053201239887937846 0 -0.00062252802669159329 0.053676333228572688 0 -0.00088626680778395889 0.053962593972439687 0 -0.0012793573664917786 0.054315111253658087 0 -0.0013911211005275272 0.053590930326464323 0 -0.00090395255533310943 0.054407963326714284 0 -0.0014591658853228457 0.053637889176731221 0 -0.00088626680778395889 0.053962593972439687 0 -0.00090395255533310943 0.054407963326714284 0 -0.00088626680778395889 0.053962593972439687 0 -0.00060285103339704333 0.05423149703745659 0 -0.00049687872299761812 0.054167847499619011 0 -0.00064954530341921962 0.054018402419647227 0 -0.00060285103339704333 0.05423149703745659 0 -0.00088626680778395889 0.053962593972439687 0 -0.00064954530341921962 0.054018402419647227 0 -0.00060285103339704333 0.05423149703745659 0 -0.00049687872299761812 0.054167847499619011 0 -0.00060285103339704333 0.05423149703745659 0 -0.00038830396323917359 0.054363417270624645 0 -0.00053310636063592237 0.054409617077045544 0 -0.00060285103339704333 0.05423149703745659 0 -0.00038830396323917359 0.054363417270624645 0 -0.00028073129177969117 0.054427143257865282 0 -0.00027891042349366418 0.054316036386435576 0 -0.00030907718687292951 0.054603506499423908 0 -0.00023133882324226102 0.054636509365770643 0 -0.00028116694470077048 0.054618762706062703 0 -0.00038830396323917359 0.054363417270624645 0 -0.00028073129177969117 0.054427143257865282 0 -0.00032247991480084025 0.054381130552912618 0 -0.00049687872299761812 0.054167847499619011 0 -0.00038830396323917359 0.054363417270624645 0 -0.00028073129177969117 0.054427143257865282 0 -0.0002074081768127728 0.054930805764239074 0 -0.00017232445551731314 0.054855996008300559 0 -0.00024449011834603044 0.054735222751987132 0 -0.0002074081768127728 0.054930805764239074 0 -0.00024449011834603044 0.054735222751987132 0 -0.00030907718687292951 0.054603506499423908 0 -0.0002074081768127728 0.054930805764239074 0 -0.00017232445551731314 0.054855996008300559 0 -0.00011428699046084515 0.054926229550065472 0 -0.00028073129177969117 0.054427143257865282 0 -0.00027891042349366418 0.054316036386435576 0 -0.00032247991480084025 0.054381130552912618 0 -0.00017232445551731314 0.054855996008300559 0 -0.00014432198459939159 0.05482476304416762 0 -0.00011428699046084515 0.054926229550065472 0 -0.00024449011834603044 0.054735222751987132 0 -0.00018614110610839038 0.054748371990131474 0 -0.00014432198459939159 0.05482476304416762 0 -0.00017232445551731314 0.054855996008300559 0 -0.00024449011834603044 0.054735222751987132 0 -0.00014432198459939159 0.05482476304416762 0 -0.00024449011834603044 0.054735222751987132 0 -0.00028785989017949892 0.054694753425688643 0 -0.00024835436299135843 0.054705910335121906 0 -0.00024449011834603044 0.054735222751987132 0 -0.00018614110610839038 0.054748371990131474 0 -0.00024835436299135843 0.054705910335121906 0 -0.00028785989017949892 0.054694753425688643 0 -0.00029359453623665409 0.054734739764457974 0 -0.00024835436299135843 0.054705910335121906 0 -0.00029896695361792991 0.054777799849160327 0 -0.00028073129177969117 0.054427143257865282 0 -0.00030907718687292951 0.054603506499423908 0 -0.00048642454295975279 0.054220430748940347 0 -0.00031468864632400238 0.054386648949924551 0 -0.00062252802669159329 0.053676333228572688 0 -0.00049687872299761812 0.054167847499619011 0 -0.00028073129177969117 0.054427143257865282 0 -0.00024449011834603044 0.054735222751987132 0 -0.00030907718687292951 0.054603506499423908 0 -0.00028785989017949892 0.054694753425688643 0 -0.00029896695361792991 0.054777799849160327 0 -0.00030907718687292951 0.054603506499423908 0 -0.00029359453623665409 0.054734739764457974 0 -0.00030907718687292951 0.054603506499423908 0 -0.00028785989017949892 0.054694753425688643 0 -0.00029359453623665409 0.054734739764457974 0 -0.00029359453623665409 0.054734739764457974 0 -0.00024835436299135843 0.054705910335121906 0 -0.0002248235103550485 0.054625777032368865 0 -0.00029359453623665409 0.054734739764457974 0 -0.00029123751703230165 0.054704767695223283 0 -0.00024493503197103427 0.054684132355160939 0 -0.00030655713532163286 0.054693240928027576 0 -0.00011127826531427299 0.054770871221538002 0 -0.00029359453623665409 0.054734739764457974 0 -0.00024493503197103427 0.054684132355160939 0 -0.00016931451122861163 0.054665491001374425 0 -0.00031027391001543634 0.054660637219012181 0 -0.00029123751703230165 0.054704767695223283 0 -0.00025853526068714906 0.054652690522592827 0 -0.00029123751703230165 0.054704767695223283 0 -0.00024493503197103427 0.054684132355160939 0 -0.00025853526068714906 0.054652690522592827 0 -0.00024835436299135843 0.054705910335121906 0 -0.00019852703432098203 0.054687149426612465 0 -0.0002248235103550485 0.054625777032368865 0 -0.00018614110610839038 0.054748371990131474 0 -0.00019852703432098203 0.054687149426612465 0 -0.00012323674132953453 0.054692667626165509 0 -0.00018614110610839038 0.054748371990131474 0 -0.00024835436299135843 0.054705910335121906 0 -0.00019852703432098203 0.054687149426612465 0 -0.00019852703432098203 0.054687149426612465 0 -0.0002248235103550485 0.054625777032368865 0 -0.00012323674132953453 0.054692667626165509 0 -0.00011127826531427299 0.054770871221538002 0 -8.0971182867557463e-05 0.054807015327160008 0 -3.578498853174864e-05 0.054894911344095999 0 -3.7881022868257918e-05 0.054896496313625538 0 -2.6429859271656907e-05 0.054908773368579987 0 -1.8966514487253152e-05 0.054846390782154537 0 -0.00012763326660827668 0.054696111469875686 0 9.3886854239807379e-05 0.054824456101289297 0 4.3024488057128762e-05 0.054818826296038868 0 9.8098590447906369e-05 0.054763091333058317 0 -0.00011127826531427299 0.054770871221538002 0 -0.00012763326660827668 0.054696111469875686 0 -0.00024493503197103427 0.054684132355160939 0 -0.00016931451122861163 0.054665491001374425 0 -0.00022016807715362634 0.054654771749771659 0 -0.00016931451122861163 0.054665491001374425 0 -0.00020780581251914242 0.054615582657434901 0 -0.00022016807715362634 0.054654771749771659 0 -6.1332366929971936e-05 0.054790659797419601 0 -7.8159684482570445e-05 0.054804874783444944 0 -0.0001445436692350221 0.05473956262974336 0 -1.8966514487253152e-05 0.054846390782154537 0 -0.00011127826531427299 0.054770871221538002 0 -0.00020780581251914242 0.054615582657434901 0 -0.00028382717968923821 0.054607040109051118 0 -0.00031532099344637726 0.054517658808955545 0 -0.00031027391001543634 0.054660637219012181 0 -0.00028382717968923821 0.054607040109051118 0 -0.00025853526068714906 0.054652690522592827 0 -0.00020780581251914242 0.054615582657434901 0 -0.00025853526068714906 0.054652690522592827 0 -0.00022016807715362634 0.054654771749771659 0 -0.00024493503197103427 0.054684132355160939 0 -0.00025853526068714906 0.054652690522592827 0 -0.00022016807715362634 0.054654771749771659 0 -0.00020780581251914242 0.054615582657434901 0 -0.00028382717968923821 0.054607040109051118 0 -0.00025853526068714906 0.054652690522592827 0 4.1302244443367133e-10 0.054999998065722443 0 2.5434487075705552e-07 0.054999079291243376 0 6.1420331192372927e-07 0.054999156263318756 0 6.3949623993460746e-07 0.054997995149394206 0 2.5434487075705552e-07 0.054999079291243376 0 6.1420331192372927e-07 0.054999156263318756 0 -1.8966514487253152e-05 0.054846390782154537 0 7.0267100616458345e-05 0.054892087717539187 0 9.3886854239807379e-05 0.054824456101289297 0 0.00011992642353309399 0.054760616019754509 0 9.8098590447906369e-05 0.054763091333058317 0 -3.578498853174864e-05 0.054894911344095999 0 -2.0064280435654072e-05 0.054907560149177269 0 -2.6429859271656907e-05 0.054908773368579987 0 -1.8966514487253152e-05 0.054846390782154537 0 -7.7392178420191833e-06 0.05496585311277126 0 -2.0064280435654072e-05 0.054907560149177269 0 -2.6429859271656907e-05 0.054908773368579987 0 -1.8066761572374228e-05 0.054914120467580554 0 -7.7392178420191833e-06 0.05496585311277126 0 -1.9960888991040833e-08 0.054999965912902661 0 4.1302244443367133e-10 0.054999998065722443 0 2.5434487075705552e-07 0.054999079291243376 0 -8.5936949967028102e-11 0.054999999474485424 0 -2.0064280435654072e-05 0.054907560149177269 0 -5.1863353950857027e-08 0.054999683957601152 0 -1.8066761572374228e-05 0.054914120467580554 0 -5.1863353950857027e-08 0.054999683957601152 0 -1.8066761572374228e-05 0.054914120467580554 0 1.046242461270708e-08 0.054999973888220047 0 -1.8066761572374228e-05 0.054914120467580554 0 -7.7576196633755343e-05 0.054888583694338182 0 -4.9512251389437543e-05 0.0549446663455396 0 -0.00018614110610839038 0.054748371990131474 0 -0.00012323674132953453 0.054692667626165509 0 -0.00010733573499033211 0.054821813294170872 0 -0.00018614110610839038 0.054748371990131474 0 -0.00010733573499033211 0.054821813294170872 0 -0.00014432198459939159 0.05482476304416762 0 -8.0971182867557463e-05 0.054807015327160008 0 -2.4011795044426481e-05 0.054888909168552033 0 -0.00012323674132953453 0.054692667626165509 0 -1.8066761572374228e-05 0.054914120467580554 0 -0.00010733573499033211 0.054821813294170872 0 -1.8066761572374228e-05 0.054914120467580554 0 -0.00010733573499033211 0.054821813294170872 0 -7.7576196633755343e-05 0.054888583694338182 0 -0.00010733573499033211 0.054821813294170872 0 -7.7576196633755343e-05 0.054888583694338182 0 -0.00014432198459939159 0.05482476304416762 0 -4.9512251389437543e-05 0.0549446663455396 0 -0.00011428699046084515 0.054926229550065472 0 -7.3347646690916692e-05 0.055015418885039191 0 -7.7576196633755343e-05 0.054888583694338182 0 -0.00014432198459939159 0.05482476304416762 0 -0.00011428699046084515 0.054926229550065472 0 -7.7576196633755343e-05 0.054888583694338182 0 -4.9512251389437543e-05 0.0549446663455396 0 -0.00011428699046084515 0.054926229550065472 0 -1.8066761572374228e-05 0.054914120467580554 0 -4.9512251389437543e-05 0.0549446663455396 0 1.046242461270708e-08 0.054999973888220047 0 -4.9512251389437543e-05 0.0549446663455396 0 1.046242461270708e-08 0.054999973888220047 0 -2.0669471368051648e-05 0.055000312648194501 0 1.046242461270708e-08 0.054999973888220047 0 -2.0669471368051648e-05 0.055000312648194501 0 -2.8853252396643875e-08 0.055000071190859645 0 -2.0669471368051648e-05 0.055000312648194501 0 -1.7028165901311576e-05 0.055026615903288729 0 -7.3347646690916692e-05 0.055015418885039191 0 -2.0669471368051648e-05 0.055000312648194501 0 -2.8853252396643875e-08 0.055000071190859645 0 -1.7028165901311576e-05 0.055026615903288729 0 -4.9223702427665521e-08 0.054999989689469959 0 -1.5867032379033583e-07 0.054900589794179874 0 -1.5867032379033583e-07 0.054900589794179874 0 -5.4622347374614506e-05 0.054459672121763752 0 -1.2253261304653513e-11 0.054999999540014589 0 9.8924119820628811e-11 0.054999690079360175 0 1.5951975582598188e-11 0.054999999613494555 0 -1.5867032379033583e-07 0.054900589794179874 0 4.0948400234894961e-08 0.054999992499609615 0 0.00013466708126337628 0.0546784785754207 0 -9.6500569183455984e-05 0.054660044677243044 0 1.3194794518396844e-06 0.05478253689906009 0 -9.6500569183455984e-05 0.054660044677243044 0 -0.00024000232625568321 0.054721461195368269 0 1.3194794518396844e-06 0.05478253689906009 0 -1.5867032379033583e-07 0.054900589794179874 0 -6.2011944149142711e-05 0.054754280676199855 0 0.00013466708126337628 0.0546784785754207 0 -9.6500569183455984e-05 0.054660044677243044 0 -4.6634081498978675e-05 0.054506875000108222 0 -9.6500569183455984e-05 0.054660044677243044 0 -4.6634081498978675e-05 0.054506875000108222 0 -0.00024018128408851523 0.05452079075425495 0 -0.0002074081768127728 0.054930805764239074 0 -0.00011428699046084515 0.054926229550065472 0 -7.3347646690916692e-05 0.055015418885039191 0 -4.9512251389437543e-05 0.0549446663455396 0 -2.0669471368051648e-05 0.055000312648194501 0 -7.3347646690916692e-05 0.055015418885039191 0 -0.00027891042349366418 0.054316036386435576 0 -4.6634081498978675e-05 0.054506875000108222 0 -0.00024018128408851523 0.05452079075425495 0 -0.00023133882324226102 0.054636509365770643 0 -6.2011944149142711e-05 0.054754280676199855 0 -0.00027891042349366418 0.054316036386435576 0 -0.00024018128408851523 0.05452079075425495 0 -0.00032247991480084025 0.054381130552912618 0 -0.00053310636063592237 0.054409617077045544 0 -0.00038830396323917359 0.054363417270624645 0 -0.00037950037273710969 0.054471611451086324 0 -0.00050765151170580254 0.05451726344676807 0 -0.00053310636063592237 0.054409617077045544 0 -0.00037950037273710969 0.054471611451086324 0 -0.00038830396323917359 0.054363417270624645 0 -0.00032247991480084025 0.054381130552912618 0 -0.00037950037273710969 0.054471611451086324 0 -0.00024018128408851523 0.05452079075425495 0 -0.00032247991480084025 0.054381130552912618 0 -0.00037950037273710969 0.054471611451086324 0 -0.00024018128408851523 0.05452079075425495 0 -0.00037950037273710969 0.054471611451086324 0 -0.00036018320744994956 0.054594646873471167 0 -0.00050765151170580254 0.05451726344676807 0 -0.00037950037273710969 0.054471611451086324 0 -0.00036018320744994956 0.054594646873471167 0 0.0010880025013099586 0.053144939876202793 0 0.00074917147058857188 0.053076635835498188 0 0.00089702822357557875 0.052953382447634319 0 0.00061330271954224786 0.052625492448532422 0 0.00026269552487460728 0.053951729988673196 0 -0.00036018320744994956 0.054594646873471167 0 -0.00047678795906429494 0.054694178673363743 0 -0.00024000232625568321 0.054721461195368269 0 -0.00050765151170580254 0.05451726344676807 0 -0.00036018320744994956 0.054594646873471167 0 -0.00047678795906429494 0.054694178673363743 0 0.00061330271954224786 0.052625492448532422 0 0.002724951999839183 0.050596431345086873 0 -0.00024018128408851523 0.05452079075425495 0 -0.00036018320744994956 0.054594646873471167 0 -0.00024000232625568321 0.054721461195368269 0 -9.6500569183455984e-05 0.054660044677243044 0 -0.00024018128408851523 0.05452079075425495 0 -0.00024000232625568321 0.054721461195368269 0 0.00074917147058857188 0.053076635835498188 0 0.00089702822357557875 0.052953382447634319 0 0.00069722563346999574 0.052748507057015281 0 0.00074917147058857188 0.053076635835498188 0 0.00069722563346999574 0.052748507057015281 0 0.00038804517869955033 0.053000755984716361 0 0.002724951999839183 0.050596431345086873 0 0.0013757350486699115 0.052695038141724437 0 0.0046753209317330503 0.048326644121875741 0 0.0041464782582721063 0.049388723254825392 0 0.0056103303378413879 0.049335780084866061 0 0.0037107565686640338 0.047288844971027068 0 0.0037088332554652405 0.048414801390029329 0 0.0046753209317330503 0.048326644121875741 0 0.0031432846221265357 0.049131791427000707 0 0.0037088332554652405 0.048414801390029329 0 0.0041464782582721063 0.049388723254825392 0 0.0037088332554652405 0.048414801390029329 0 0.0046753209317330503 0.048326644121875741 0 0.0041464782582721063 0.049388723254825392 0 0.0037632962659432914 0.050853282398679762 0 0.0031432846221265357 0.049131791427000707 0 0.0041464782582721063 0.049388723254825392 0 0.0037632962659432914 0.050853282398679762 0 0.0041464782582721063 0.049388723254825392 0 0.0056103303378413879 0.049335780084866061 0 0.0021625608688209241 0.052497773377562638 0 0.0013757350486699115 0.052695038141724437 0 -0.00011201759276003384 0.054562465995293997 0 -4.5957535042177176e-05 0.054525635035509355 0 -9.9149396729894713e-05 0.054569993683437359 0 -9.2008147413620011e-05 0.05461963067642376 0 -0.00011201759276003384 0.054562465995293997 0 -9.9149396729894713e-05 0.054569993683437359 0 1.3561047186498759e-05 0.054975203801481756 0 3.8499578775878161e-05 0.054969034477345281 0 1.2129231711793804e-05 0.054982655263933727 0 -0.00015349932187100668 0.055071430759719361 0 0.0013757350486699115 0.052695038141724437 0 -2.5019287716179927e-06 0.054975498133915168 0 1.9144981460303423e-06 0.054996204494293856 0 2.3567619506041084e-08 0.055000003596228614 0 -2.5019287716179927e-06 0.054975498133915168 0 1.2129231711793804e-05 0.054982655263933727 0 1.9144981460303423e-06 0.054996204494293856 0 1.2129231711793804e-05 0.054982655263933727 0 1.9144981460303423e-06 0.054996204494293856 0 1.7837521805620562e-05 0.054991667210964108 0 3.6712366500761324e-06 0.054999457644475822 0 1.9144981460303423e-06 0.054996204494293856 0 7.2938081340528765e-06 0.054993642031060504 0 6.6264996123783151e-05 0.0550127585168897 0 -5.4622347374614506e-05 0.054459672121763752 0 3.6712366500761324e-06 0.054999457644475822 0 1.9144981460303423e-06 0.054996204494293856 0 2.3567619506041084e-08 0.055000003596228614 0 0.0013757350486699115 0.052695038141724437 0 -5.4622347374614506e-05 0.054459672121763752 0 0.00026269552487460728 0.053951729988673196 0 -5.4622347374614506e-05 0.054459672121763752 0 3.8499578775878161e-05 0.054969034477345281 0 1.2129231711793804e-05 0.054982655263933727 0 1.7837521805620562e-05 0.054991667210964108 0 0.0065461192328995889 0.02314542957484586 0 0.006252034853431703 0.023226977408301708 0 0.0063640756316250668 0.023519166864647723 0 0.0065461192328995889 0.02314542957484586 0 0.0063640756316250668 0.023519166864647723 0 0.0067549142892907076 0.023460127298730048 0 0.003859969736878232 0.010219226544064848 0 0.0037358973428395282 0.011015434604138783 0 0.0037218835807873887 0.012365464957996753 0 0.0065461192328995889 0.02314542957484586 0 0.0067549142892907076 0.023460127298730048 0 0.0069294566601514904 0.022746824352675787 0 0.0031226978760853759 0.010118072970420205 0 0.0037358973428395282 0.011015434604138783 0 0.0026821593437837072 0.010548660463727396 0 0.003859969736878232 0.010219226544064848 0 0.0031226978760853759 0.010118072970420205 0 0.0037358973428395282 0.011015434604138783 0 0.0065461192328995889 0.02314542957484586 0 0.0069294566601514904 0.022746824352675787 0 0.0065917272646794957 0.022817949060601889 0 0.0052894586365961989 0.016935516095275837 0 0.005266233989091657 0.017200344199995866 0 0.0037358973428395282 0.011015434604138783 0 0.0037218835807873887 0.012365464957996753 0 0.0028688054962124295 0.011800008863727278 0 0.0069294566601514904 0.022746824352675787 0 0.0065917272646794957 0.022817949060601889 0 0.0064940455898771935 0.022386453860980694 0 0.0065917272646794957 0.022817949060601889 0 0.0063441560172373202 0.022810364256961192 0 0.0064940455898771935 0.022386453860980694 0 0.0065917272646794957 0.022817949060601889 0 0.0063958817917873258 0.023032047098499146 0 0.0063441560172373202 0.022810364256961192 0 0.0065461192328995889 0.02314542957484586 0 0.0065917272646794957 0.022817949060601889 0 0.0063958817917873258 0.023032047098499146 0 0.0065461192328995889 0.02314542957484586 0 0.006252034853431703 0.023226977408301708 0 0.0063958817917873258 0.023032047098499146 0 0.006252034853431703 0.023226977408301708 0 0.0063958817917873258 0.023032047098499146 0 0.0061946241925875606 0.023002563781078584 0 0.0063958817917873258 0.023032047098499146 0 0.0063441560172373202 0.022810364256961192 0 0.0061946241925875606 0.023002563781078584 0 0.0060159473926216459 0.022813223983043533 0 0.0060106047832463021 0.023134214259059007 0 0.0055887047735505256 0.023174542288521685 0 0.0063441560172373202 0.022810364256961192 0 0.0060159473926216459 0.022813223983043533 0 0.0061946241925875606 0.023002563781078584 0 0.0060159473926216459 0.022813223983043533 0 0.0060106047832463021 0.023134214259059007 0 0.0061946241925875606 0.023002563781078584 0 0.006252034853431703 0.023226977408301708 0 0.0060106047832463021 0.023134214259059007 0 0.0061946241925875606 0.023002563781078584 0 0.0065954625897453783 0.022443492660735125 0 0.0055887047735505256 0.023174542288521685 0 0.005827323708727245 0.022353548348462666 0 0.0062818915763998085 0.02260804452709975 0 0.0056438066678655878 0.023126436428111706 0 0.0055887047735505256 0.023174542288521685 0 0.005827323708727245 0.022353548348462666 0 0.0051601779397681515 0.022850789507417663 0 0.0055887047735505256 0.023174542288521685 0 0.0060026050363686627 0.023410786897512945 0 0.0057620775380585769 0.023688795727013524 0 0.0055887047735505256 0.023174542288521685 0 0.0057620775380585769 0.023688795727013524 0 0.0053047012581358419 0.024007376328545719 0 0.0060106047832463021 0.023134214259059007 0 0.0055887047735505256 0.023174542288521685 0 0.0060026050363686627 0.023410786897512945 0 0.006252034853431703 0.023226977408301708 0 0.0060106047832463021 0.023134214259059007 0 0.0060026050363686627 0.023410786897512945 0 0.006252034853431703 0.023226977408301708 0 0.0063640756316250668 0.023519166864647723 0 0.0060026050363686627 0.023410786897512945 0 0.0060026050363686627 0.023410786897512945 0 0.0060883528300811679 0.023735841543829902 0 0.0057620775380585769 0.023688795727013524 0 0.0063640756316250668 0.023519166864647723 0 0.0060026050363686627 0.023410786897512945 0 0.0060883528300811679 0.023735841543829902 0 0.0060883528300811679 0.023735841543829902 0 0.0060117290666269725 0.024155151571694372 0 0.006314755431060172 0.02387895282697548 0 0.0060883528300811679 0.023735841543829902 0 0.0057620775380585769 0.023688795727013524 0 0.0060117290666269725 0.024155151571694372 0 0.0057620775380585769 0.023688795727013524 0 0.0060117290666269725 0.024155151571694372 0 0.0053047012581358419 0.024007376328545719 0 0.0060117290666269725 0.024155151571694372 0 0.0053047012581358419 0.024007376328545719 0 0.0053147593124746985 0.025098107813768127 0 0.0060117290666269725 0.024155151571694372 0 0.0055466811587625304 0.024153416547275621 0 0.0059340498456722547 0.02430740415363309 0 0.0059572493202011204 0.024212844591265003 0 0.0054058027142611254 0.024633053752680857 0 0.0060117290666269725 0.024155151571694372 0 0.0062038037881516021 0.024213460349472922 0 0.006314755431060172 0.02387895282697548 0 0.0060117290666269725 0.024155151571694372 0 0.0062038037881516021 0.024213460349472922 0 0.0059340498456722547 0.02430740415363309 0 0.0062038037881516021 0.024213460349472922 0 0.006314755431060172 0.02387895282697548 0 0.0065334350604405794 0.024008511324804357 0 0.0063640756316250668 0.023519166864647723 0 0.0067549142892907076 0.023460127298730048 0 0.006314755431060172 0.02387895282697548 0 0.0067549142892907076 0.023460127298730048 0 0.006314755431060172 0.02387895282697548 0 0.0065334350604405794 0.024008511324804357 0 0.0063640756316250668 0.023519166864647723 0 0.0060883528300811679 0.023735841543829902 0 0.006314755431060172 0.02387895282697548 0 0.0052894586365961989 0.016935516095275837 0 0.0050774655861337142 0.016253136846636516 0 0.003859969736878232 0.010219226544064848 0 0.0031918719400222508 0.0093499031123752113 0 0.0036557751548351833 0.0085683361628410872 0 0.003859969736878232 0.010219226544064848 0 0.0031226978760853759 0.010118072970420205 0 0.0031918719400222508 0.0093499031123752113 0 0.0036557751548351833 0.0085683361628410872 0 0.0029228014881712049 0.0082054201538313189 0 0.0032308489473647185 0.0082399786090111646 0 0.0031918719400222508 0.0093499031123752113 0 0.0036557751548351833 0.0085683361628410872 0 0.0029228014881712049 0.0082054201538313189 0 0.0029228014881712049 0.0082054201538313189 0 0.0032607700186862232 0.0078049525229949646 0 0.0030766334381204558 0.0080985408330983399 0 0.0029228014881712049 0.0082054201538313189 0 0.0032607700186862232 0.0078049525229949646 0 0.0030453578803611532 0.007534372628381871 0 0.0032607700186862232 0.0078049525229949646 0 0.0033180251920128688 0.0079496684317762068 0 0.0030766334381204558 0.0080985408330983399 0 0.0032607700186862232 0.0078049525229949646 0 0.0030453578803611532 0.007534372628381871 0 0.0034866613541989157 0.0074243844644604953 0 0.0031918719400222508 0.0093499031123752113 0 0.0029228014881712049 0.0082054201538313189 0 0.0022267239850432439 0.0095751916477680062 0 0.0028742476618872008 0.0082315642529159003 0 0.0026273146179078837 0.0085484644798239154 0 0.0031226978760853759 0.010118072970420205 0 0.0031918719400222508 0.0093499031123752113 0 0.0022267239850432439 0.0095751916477680062 0 0.0037442772030177756 0.0076282372509159212 0 0.0035469908037699402 0.007627520597738518 0 0.0035849271618503247 0.007861724264566966 0 0.0037442772030177756 0.0076282372509159212 0 0.0035469908037699402 0.007627520597738518 0 0.0036770928542213619 0.0073514253588478993 0 0.0035469908037699402 0.007627520597738518 0 0.0035849271618503247 0.007861724264566966 0 0.0033180251920128688 0.0079496684317762068 0 0.0032607700186862232 0.0078049525229949646 0 0.0035469908037699402 0.007627520597738518 0 0.0033180251920128688 0.0079496684317762068 0 0.0035469908037699402 0.007627520597738518 0 0.0034866613541989157 0.0074243844644604953 0 0.0036770928542213619 0.0073514253588478993 0 0.0032607700186862232 0.0078049525229949646 0 0.0035469908037699402 0.007627520597738518 0 0.0034866613541989157 0.0074243844644604953 0 0.0034866613541989157 0.0074243844644604953 0 0.0036770928542213619 0.0073514253588478993 0 0.0036777518057689771 0.007299701014673257 0 0.0037021999783381806 0.0073878922956097694 0 0.0036777518057689771 0.007299701014673257 0 0.0035830258678619014 0.0072151189839090059 0 0.0034866613541989157 0.0074243844644604953 0 0.0035830258678619014 0.0072151189839090059 0 0.0032038419254002207 0.0072078046981077608 0 0.0034866613541989157 0.0074243844644604953 0 0.0036777518057689771 0.007299701014673257 0 0.0035830258678619014 0.0072151189839090059 0 0.0046100134435936475 0.0076685719814108076 0 0.0048302928873025846 0.0076367548211649606 0 0.0045140615513587423 0.0079241760354131358 0 0.0046100134435936475 0.0076685719814108076 0 0.0044491944338250289 0.0074757451919980379 0 0.0048771557781214824 0.0075109668911666899 0 0.0042777456181080286 0.0071211862322381782 0 0.0028686593232754563 0.0093711803483159922 0 0.0046100134435936475 0.0076685719814108076 0 0.0044581525098386235 0.0076602793934284893 0 0.0044881957052963139 0.0078383400771480302 0 0.0044581525098386235 0.0076602793934284893 0 0.0042602990642429334 0.007663755828620329 0 0.0044881957052963139 0.0078383400771480302 0 0.0046100134435936475 0.0076685719814108076 0 0.0044581525098386235 0.0076602793934284893 0 0.0044491944338250289 0.0074757451919980379 0 0.0044581525098386235 0.0076602793934284893 0 0.0044491944338250289 0.0074757451919980379 0 0.0042602990642429334 0.007663755828620329 0 0.0035837715720422854 0.0074378243678355381 0 0.0042777456181080286 0.0071211862322381782 0 0.0037021999783381806 0.0073878922956097694 0 0.0042602990642429334 0.007663755828620329 0 0.0041422306272225614 0.0078951235273848671 0 0.0037021999783381806 0.0073878922956097694 0 0.0044491944338250289 0.0074757451919980379 0 0.0042602990642429334 0.007663755828620329 0 0.0042602990642429334 0.007663755828620329 0 0.0041422306272225614 0.0078951235273848671 0 0.0044881957052963139 0.0078383400771480302 0 0.0030768729706729097 0.011484620277804071 0 0.0028686593232754563 0.0093711803483159922 0 0.0037358973428395282 0.011015434604138783 0 0.0026821593437837072 0.010548660463727396 0 0.0016302924798875082 0.011096885011188379 0 0.0037358973428395282 0.011015434604138783 0 0.0015847356672093996 0.011272077330724887 0 0.0019868897861892291 0.011395233850040197 0 0.0022267239850432439 0.0095751916477680062 0 0.0026821593437837072 0.010548660463727396 0 0.0016302924798875082 0.011096885011188379 0 0.0026273146179078837 0.0085484644798239154 0 0.0028686593232754563 0.0093711803483159922 0 0.0031226978760853759 0.010118072970420205 0 0.0022267239850432439 0.0095751916477680062 0 0.0026821593437837072 0.010548660463727396 0 0.0030453578803611532 0.007534372628381871 0 0.0034866613541989157 0.0074243844644604953 0 0.0032038419254002207 0.0072078046981077608 0 0.0028244508968828528 0.010162944274702617 0 0.0015437289843381679 0.011511371719525423 0 0.0028244508968828528 0.010162944274702617 0 0.003323763508536031 0.0095551188774222699 0 0.0013069442617084286 0.011921800975321285 0 0.0019868897861892291 0.011395233850040197 0 0.0021442870179197624 0.011945641602008847 0 0.0046100134435936475 0.0076685719814108076 0 0.0048771557781214824 0.0075109668911666899 0 0.0048302928873025846 0.0076367548211649606 0 0.0015847356672093996 0.011272077330724887 0 0.0013841198934906563 0.011859441372973472 0 0.0019868897861892291 0.011395233850040197 0 0.0028686593232754563 0.0093711803483159922 0 0.0028244508968828528 0.010162944274702617 0 0.0037358973428395282 0.011015434604138783 0 0.0019868897861892291 0.011395233850040197 0 0.0028688054962124295 0.011800008863727278 0 0.0013069442617084286 0.011921800975321285 0 0.0021442870179197624 0.011945641602008847 0 0.0023981300979991518 0.012673806238127321 0 0.0021442870179197624 0.011945641602008847 0 0.0028688054962124295 0.011800008863727278 0 0.0023981300979991518 0.012673806238127321 0 0.0019868897861892291 0.011395233850040197 0 0.0021442870179197624 0.011945641602008847 0 0.0028688054962124295 0.011800008863727278 0 0.0037218835807873887 0.012365464957996753 0 0.0028688054962124295 0.011800008863727278 0 0.0023981300979991518 0.012673806238127321 0 0.0037218835807873887 0.012365464957996753 0 0.0029300188171665475 0.013371544981586204 0 0.0023981300979991518 0.012673806238127321 0 0.0029300188171665475 0.013371544981586204 0 0.002146745875017622 0.013968766375105869 0 0.0034537096059652278 0.014480770703753764 0 0.0029300188171665475 0.013371544981586204 0 0.002146745875017622 0.013968766375105869 0 0.0023981300979991518 0.012673806238127321 0 0.002146745875017622 0.013968766375105869 0 0.00078816720850546928 0.013409417589545206 0 0.0011661492515399013 0.014420742254966697 0 0.0027774607313707906 0.010298550064362932 0 0.0024978865901631093 0.011087102475695066 0 0.0019210929054447868 0.010974130567136578 0 0.0013069442617084286 0.011921800975321285 0 0.0023981300979991518 0.012673806238127321 0 0.00078816720850546928 0.013409417589545206 0 0.002146745875017622 0.013968766375105869 0 0.0023981300979991518 0.012673806238127321 0 0.00078816720850546928 0.013409417589545206 0 0.0028244508968828528 0.010162944274702617 0 0.0015032809506645539 0.012629965727306366 0 0.002146745875017622 0.013968766375105869 0 0.0011661492515399013 0.014420742254966697 0 0.0020920563444620523 0.015370314072188427 0 0.0015032809506645539 0.012629965727306366 0 0.0014706630159889496 0.012187912031548257 0 0.00078816720850546928 0.013409417589545206 0 0.0011661492515399013 0.014420742254966697 0 0.00027932029308799225 0.014882039328004484 0 0.0011661492515399013 0.014420742254966697 0 0.0010792973108925612 0.015263831493314709 0 0.00027932029308799225 0.014882039328004484 0 0.0011661492515399013 0.014420742254966697 0 0.0010792973108925612 0.015263831493314709 0 0.0020920563444620523 0.015370314072188427 0 0.0059454397065927828 0.022364959436194591 0 0.0061307197146664959 0.022307119490577745 0 0.006143506702460947 0.022176144709854548 0 0.002146745875017622 0.013968766375105869 0 0.0020920563444620523 0.015370314072188427 0 0.0034537096059652278 0.014480770703753764 0 0.0039409389554804072 0.018964804707758142 0 0.0060264874389466781 0.019946635962930878 0 0.003323763508536031 0.0095551188774222699 0 0.0032931381524219736 0.0097284396327773984 0 0.0041422306272225614 0.0078951235273848671 0 0.004538486582836219 0.0079723458048734739 0 0.0041705262223783136 0.0083853566038398827 0 0.0024978865901631093 0.011087102475695066 0 0.0019210929054447868 0.010974130567136578 0 0.0022152838409603462 0.01187662902578001 0 0.0041422306272225614 0.0078951235273848671 0 0.0044881957052963139 0.0078383400771480302 0 0.004538486582836219 0.0079723458048734739 0 0.0046100134435936475 0.0076685719814108076 0 0.0044881957052963139 0.0078383400771480302 0 0.0045140615513587423 0.0079241760354131358 0 0.0034226002667592224 0.0087655210629146788 0 0.003323763508536031 0.0095551188774222699 0 0.0019888532960344041 0.011372995736519353 0 0.0017965012661954433 0.010860521730642824 0 0.002128870495134349 0.010884770994489245 0 0.003323763508536031 0.0095551188774222699 0 0.0014706630159889496 0.012187912031548257 0 0.0017921137134872427 0.010878345262849077 0 0.001832904654865035 0.010753469437952756 0 0.0017541969920542939 0.010577954232661507 0 0.0014706630159889496 0.012187912031548257 0 0.0017042208315762915 0.011456716348789043 0 0.0017965012661954433 0.010860521730642824 0 0.001832904654865035 0.010753469437952756 0 0.0019773798588112374 0.010728114416691187 0 0.002128870495134349 0.010884770994489245 0 0.0019773798588112374 0.010728114416691187 0 0.0022333805734533812 0.010616565054614686 0 0.0017965012661954433 0.010860521730642824 0 0.002128870495134349 0.010884770994489245 0 0.0019773798588112374 0.010728114416691187 0 0.0024523956099180206 0.01102481960744175 0 0.0025914089448499265 0.01039553399417927 0 0.0022333805734533812 0.010616565054614686 0 0.0019888532960344041 0.011372995736519353 0 0.002128870495134349 0.010884770994489245 0 0.0024523956099180206 0.01102481960744175 0 0.002128870495134349 0.010884770994489245 0 0.0024523956099180206 0.01102481960744175 0 0.0022333805734533812 0.010616565054614686 0 0.0025914089448499265 0.01039553399417927 0 0.002212779363431817 0.010341458252904008 0 0.0025997238416807199 0.010143315386851058 0 0.0022333805734533812 0.010616565054614686 0 0.002212779363431817 0.010341458252904008 0 0.0020911256362593045 0.010466712264147488 0 0.0025914089448499265 0.01039553399417927 0 0.0022333805734533812 0.010616565054614686 0 0.002212779363431817 0.010341458252904008 0 0.0017921137134872427 0.010878345262849077 0 0.0017541969920542939 0.010577954232661507 0 0.0016139211600534299 0.010438927173839449 0 0.002212779363431817 0.010341458252904008 0 0.0019407065826647929 0.010378894605507371 0 0.0019142465456529886 0.010237189575731062 0 0.002212779363431817 0.010341458252904008 0 0.0019407065826647929 0.010378894605507371 0 0.0020911256362593045 0.010466712264147488 0 0.0019407065826647929 0.010378894605507371 0 0.0020911256362593045 0.010466712264147488 0 0.0019923111781345857 0.010570195098419726 0 0.0019407065826647929 0.010378894605507371 0 0.0019923111781345857 0.010570195098419726 0 0.0018518354144338484 0.010531304539143129 0 0.0019773798588112374 0.010728114416691187 0 0.0022333805734533812 0.010616565054614686 0 0.0019923111781345857 0.010570195098419726 0 0.0022333805734533812 0.010616565054614686 0 0.0020911256362593045 0.010466712264147488 0 0.0019923111781345857 0.010570195098419726 0 0.0019773798588112374 0.010728114416691187 0 0.0019923111781345857 0.010570195098419726 0 0.0018826381613845618 0.010632729753906516 0 0.0019923111781345857 0.010570195098419726 0 0.0018518354144338484 0.010531304539143129 0 0.0018826381613845618 0.010632729753906516 0 0.0018518354144338484 0.010531304539143129 0 0.0018826381613845618 0.010632729753906516 0 0.0017541969920542939 0.010577954232661507 0 0.001832904654865035 0.010753469437952756 0 0.0019773798588112374 0.010728114416691187 0 0.0018826381613845618 0.010632729753906516 0 0.001832904654865035 0.010753469437952756 0 0.0018826381613845618 0.010632729753906516 0 0.0017541969920542939 0.010577954232661507 0 0.0017541969920542939 0.010577954232661507 0 0.0017009013612469832 0.010468298802357799 0 0.001761058562019081 0.010486365290475108 0 0.0018518354144338484 0.010531304539143129 0 0.0017541969920542939 0.010577954232661507 0 0.001761058562019081 0.010486365290475108 0 0.0017009013612469832 0.010468298802357799 0 0.0018124743673097971 0.010429406586258187 0 0.0017716023833872414 0.010353763262650544 0 0.0018518354144338484 0.010531304539143129 0 0.0018124743673097971 0.010429406586258187 0 0.001761058562019081 0.010486365290475108 0 0.0017009013612469832 0.010468298802357799 0 0.0018124743673097971 0.010429406586258187 0 0.001761058562019081 0.010486365290475108 0 0.0019407065826647929 0.010378894605507371 0 0.0018518354144338484 0.010531304539143129 0 0.0018124743673097971 0.010429406586258187 0 0.0019407065826647929 0.010378894605507371 0 0.0018572754994585496 0.010304495250091502 0 0.0019142465456529886 0.010237189575731062 0 0.0019407065826647929 0.010378894605507371 0 0.0018124743673097971 0.010429406586258187 0 0.0018572754994585496 0.010304495250091502 0 0.0018572754994585496 0.010304495250091502 0 0.0017716023833872414 0.010353763262650544 0 0.0017964173824568767 0.010204389108861341 0 0.0018124743673097971 0.010429406586258187 0 0.0018572754994585496 0.010304495250091502 0 0.0017716023833872414 0.010353763262650544 0 0.0017716023833872414 0.010353763262650544 0 0.0017964173824568767 0.010204389108861341 0 0.0016139211600534299 0.010438927173839449 0 0.0017964173824568767 0.010204389108861341 0 0.0018128819236340513 0.01014166914940849 0 0.0017265635710322165 0.010064583918898929 0 0.0018572754994585496 0.010304495250091502 0 0.0017964173824568767 0.010204389108861341 0 0.0019142465456529886 0.010237189575731062 0 0.0017964173824568767 0.010204389108861341 0 0.0018128819236340513 0.01014166914940849 0 0.0019142465456529886 0.010237189575731062 0 0.0015465009787246585 0.010113735952512345 0 0.0018128819236340513 0.01014166914940849 0 0.0017265635710322165 0.010064583918898929 0 0.0018739605028137325 0.01008783128067786 0 0.0015465009787246585 0.010113735952512345 0 0.0018128819236340513 0.01014166914940849 0 0.0018739605028137325 0.01008783128067786 0 0.0018128819236340513 0.01014166914940849 0 0.0021171168631567844 0.010159317483359033 0 0.002212779363431817 0.010341458252904008 0 0.0019142465456529886 0.010237189575731062 0 0.0021171168631567844 0.010159317483359033 0 0.0018128819236340513 0.01014166914940849 0 0.0019142465456529886 0.010237189575731062 0 0.0021171168631567844 0.010159317483359033 0 0.002212779363431817 0.010341458252904008 0 0.0021171168631567844 0.010159317483359033 0 0.0025997238416807199 0.010143315386851058 0 0.0023144192526020815 0.01000627409091707 0 0.0021171168631567844 0.010159317483359033 0 0.0025997238416807199 0.010143315386851058 0 0.0023144192526020815 0.01000627409091707 0 0.0018739605028137325 0.01008783128067786 0 0.0021171168631567844 0.010159317483359033 0 0.0028128827196849406 0.0098383691898541459 0 0.0023144192526020815 0.01000627409091707 0 0.0025997238416807199 0.010143315386851058 0 0.0059529763094454185 0.022528010873476521 0 0.0060696502188325278 0.022475817975451791 0 0.0060266373723069705 0.022639400425093222 0 0.0059454397065927828 0.022364959436194591 0 0.0060696502188325278 0.022475817975451791 0 0.0061307197146664959 0.022307119490577745 0 0.0059454397065927828 0.022364959436194591 0 0.0059529763094454185 0.022528010873476521 0 0.0060696502188325278 0.022475817975451791 0 0.0014706630159889496 0.012187912031548257 0 0.0019447718348999184 0.016309339203253496 0 0.0059454397065927828 0.022364959436194591 0 0.0059529763094454185 0.022528010873476521 0 0.0058320177860865336 0.022466394039032674 0 0.0039409389554804072 0.018964804707758142 0 0.0019447718348999184 0.016309339203253496 0 0.0010792973108925612 0.015263831493314709 0 0.00027932029308799225 0.014882039328004484 0 0.00075003515295786179 0.016261349349172279 0 0.0010792973108925612 0.015263831493314709 0 0.0020920563444620523 0.015370314072188427 0 0.00075003515295786179 0.016261349349172279 0 0.0017541969920542939 0.010577954232661507 0 0.0017009013612469832 0.010468298802357799 0 0.0016139211600534299 0.010438927173839449 0 0.0017009013612469832 0.010468298802357799 0 0.0017716023833872414 0.010353763262650544 0 0.0016139211600534299 0.010438927173839449 0 0.0019447718348999184 0.016309339203253496 0 0.004093407668718756 0.016326008120138805 0 0.0059529763094454185 0.022528010873476521 0 0.0058320177860865336 0.022466394039032674 0 0.0060048758576398886 0.022607399354677045 0 0.0059529763094454185 0.022528010873476521 0 0.0060048758576398886 0.022607399354677045 0 0.0060019911410371272 0.022608820581411653 0 0.0016139211600534299 0.010438927173839449 0 0.0017265635710322165 0.010064583918898929 0 0.0017256162244785073 0.0097101570066856092 0 0.0017964173824568767 0.010204389108861341 0 0.0016139211600534299 0.010438927173839449 0 0.0017265635710322165 0.010064583918898929 0 0.0015465009787246585 0.010113735952512345 0 0.0017265635710322165 0.010064583918898929 0 0.0017256162244785073 0.0097101570066856092 0 0.0060162075467112171 0.022629660539721964 0 0.0060048758576398886 0.022607399354677045 0 0.0060019911410371272 0.022608820581411653 0 0.0059529763094454185 0.022528010873476521 0 0.0060019911410371272 0.022608820581411653 0 0.0060266373723069705 0.022639400425093222 0 0.0060162075467112171 0.022629660539721964 0 0.0060019911410371272 0.022608820581411653 0 0.0060266373723069705 0.022639400425093222 0 0.0060162075467112171 0.022629660539721964 0 0.0060266373723069705 0.022639400425093222 0 0.006015099042435604 0.022812842314808967 0 0.0060266373723069705 0.022639400425093222 0 0.006015099042435604 0.022812842314808967 0 0.0062424396497158998 0.022563744131711146 0 0.006015099042435604 0.022812842314808967 0 0.0064134779764264613 0.022812124227849475 0 0.0062424396497158998 0.022563744131711146 0 0.0070950383071553937 0.023417890648287126 0 0.0059721296617155284 0.023027213340582109 0 0.0064134779764264613 0.022812124227849475 0 0.0059721296617155284 0.023027213340582109 0 0.006015099042435604 0.022812842314808967 0 0.0064134779764264613 0.022812124227849475 0 0.0067638425933047568 0.022398264185256211 0 0.0062424396497158998 0.022563744131711146 0 0.0065098978327750188 0.022247298255220618 0 0.0064134779764264613 0.022812124227849475 0 0.0067638425933047568 0.022398264185256211 0 0.0062424396497158998 0.022563744131711146 0 0.0060696502188325278 0.022475817975451791 0 0.0060266373723069705 0.022639400425093222 0 0.0062424396497158998 0.022563744131711146 0 0.0062424396497158998 0.022563744131711146 0 0.0062468291770698394 0.022365657200200999 0 0.0065098978327750188 0.022247298255220618 0 0.0060696502188325278 0.022475817975451791 0 0.0062424396497158998 0.022563744131711146 0 0.0062468291770698394 0.022365657200200999 0 0.0060696502188325278 0.022475817975451791 0 0.0062468291770698394 0.022365657200200999 0 0.0061307197146664959 0.022307119490577745 0 0.0059181393349506889 0.022181629475861653 0 0.0060264874389466781 0.019946635962930878 0 0.0062468291770698394 0.022365657200200999 0 0.0061307197146664959 0.022307119490577745 0 0.0063487714377029767 0.022189751511953886 0 0.0061307197146664959 0.022307119490577745 0 0.0061716312217218097 0.02210397146690557 0 0.0063487714377029767 0.022189751511953886 0 0.0061716312217218097 0.02210397146690557 0 0.0063487714377029767 0.022189751511953886 0 0.006690095735664375 0.021948408347772359 0 0.0062468291770698394 0.022365657200200999 0 0.0063487714377029767 0.022189751511953886 0 0.0065098978327750188 0.022247298255220618 0 0.0063487714377029767 0.022189751511953886 0 0.0065098978327750188 0.022247298255220618 0 0.006690095735664375 0.021948408347772359 0 0.0065098978327750188 0.022247298255220618 0 0.006690095735664375 0.021948408347772359 0 0.0068144339611519097 0.022084959065077573 0 0.0067638425933047568 0.022398264185256211 0 0.0065098978327750188 0.022247298255220618 0 0.0068144339611519097 0.022084959065077573 0 0.0062818915763998085 0.02260804452709975 0 0.0065425902737333225 0.022382878813359004 0 0.0063441560172373202 0.022810364256961192 0 0.0060159473926216459 0.022813223983043533 0 0.0064940455898771935 0.022386453860980694 0 0.006690095735664375 0.021948408347772359 0 0.0066657525771569312 0.022112572319991558 0 0.0068144339611519097 0.022084959065077573 0 0.0060264874389466781 0.019946635962930878 0 0.0065425902737333225 0.022382878813359004 0 0.0037218835807873887 0.012365464957996753 0 0.0029300188171665475 0.013371544981586204 0 0.0034537096059652278 0.014480770703753764 0 0.0069294566601514904 0.022746824352675787 0 0.0070459170736291146 0.021965025147142023 0 0.0064940455898771935 0.022386453860980694 0 0.005266233989091657 0.017200344199995866 0 0.0060264874389466781 0.019946635962930878 0 0.0054946694191241648 0.022015737467464519 0 0.005827323708727245 0.022353548348462666 0 0.0051066846270532377 0.022338869516689737 0 0.0054946694191241648 0.022015737467464519 0 0.005827323708727245 0.022353548348462666 0 0.0059052415823211317 0.021780548244816424 0 0.005827323708727245 0.022353548348462666 0 0.0062664801494199656 0.022225091529699294 0 0.0059052415823211317 0.021780548244816424 0 0.0065954625897453783 0.022443492660735125 0 0.006690095735664375 0.021948408347772359 0 0.0066657525771569312 0.022112572319991558 0 0.0065954625897453783 0.022443492660735125 0 0.005827323708727245 0.022353548348462666 0 0.0062664801494199656 0.022225091529699294 0 0.0066657525771569312 0.022112572319991558 0 0.0068144339611519097 0.022084959065077573 0 0.007303535450285256 0.021948022923638146 0 0.0065954625897453783 0.022443492660735125 0 0.0062664801494199656 0.022225091529699294 0 0.0066657525771569312 0.022112572319991558 0 0.0062664801494199656 0.022225091529699294 0 0.0066657525771569312 0.022112572319991558 0 0.0059052415823211317 0.021780548244816424 0 0.0067090896084890383 0.022091700696717478 0 0.006679769432020405 0.021880108101876572 0 0.007075490023458547 0.022204350195823036 0 0.0068144339611519097 0.022084959065077573 0 0.007303535450285256 0.021948022923638146 0 0.0067638425933047568 0.022398264185256211 0 0.007075490023458547 0.022204350195823036 0 0.0068144339611519097 0.022084959065077573 0 0.007075490023458547 0.022204350195823036 0 0.007303535450285256 0.021948022923638146 0 0.0074166639760671321 0.022412525828310638 0 0.0059052415823211317 0.021780548244816424 0 0.0051642399217840321 0.021783957065345423 0 0.0052111107371916486 0.021391525363767171 0 0.0054946694191241648 0.022015737467464519 0 0.0059052415823211317 0.021780548244816424 0 0.0051642399217840321 0.021783957065345423 0 0.007303535450285256 0.021948022923638146 0 0.0074166639760671321 0.022412525828310638 0 0.0080116217112031173 0.022210079112770894 0 0.006679769432020405 0.021880108101876572 0 0.0056069270044336299 0.022927329169762759 0 0.0074166639760671321 0.022412525828310638 0 0.0082241243802945903 0.022906465191653215 0 0.0080116217112031173 0.022210079112770894 0 0.0074166639760671321 0.022412525828310638 0 0.0076775168205864561 0.022840765509555761 0 0.0082241243802945903 0.022906465191653215 0 0.0067638425933047568 0.022398264185256211 0 0.0074166639760671321 0.022412525828310638 0 0.0071897363833032194 0.022790934835399158 0 0.0067638425933047568 0.022398264185256211 0 0.007075490023458547 0.022204350195823036 0 0.0074166639760671321 0.022412525828310638 0 0.0064134779764264613 0.022812124227849475 0 0.0067638425933047568 0.022398264185256211 0 0.0071897363833032194 0.022790934835399158 0 0.0074166639760671321 0.022412525828310638 0 0.0071897363833032194 0.022790934835399158 0 0.0076775168205864561 0.022840765509555761 0 0.0070950383071553937 0.023417890648287126 0 0.0064134779764264613 0.022812124227849475 0 0.0071897363833032194 0.022790934835399158 0 0.0070950383071553937 0.023417890648287126 0 0.0071897363833032194 0.022790934835399158 0 0.0078501166586850673 0.023333913002470511 0 0.0080895244520527015 0.028594750336863917 0 0.0074277660856158613 0.025801517806499669 0 0.0086629292193892635 0.024069544061305216 0 0.0078501166586850673 0.023333913002470511 0 0.0082241243802945903 0.022906465191653215 0 0.0076775168205864561 0.022840765509555761 0 0.0078501166586850673 0.023333913002470511 0 0.0082241243802945903 0.022906465191653215 0 0.0071897363833032194 0.022790934835399158 0 0.0076775168205864561 0.022840765509555761 0 0.0078501166586850673 0.023333913002470511 0 0.006901717162563918 0.028938977144740811 0 0.0064629535493862774 0.028588159248980113 0 0.0074931980838217806 0.027997924001242531 0 0.0063720031568513993 0.029834210285772524 0 0.006901717162563918 0.028938977144740811 0 0.0064629535493862774 0.028588159248980113 0 0.0069357625658179514 0.033783756972418748 0 0.0067855687003391327 0.032644244538193534 0 0.0064629535493862774 0.028588159248980113 0 0.0074931980838217806 0.027997924001242531 0 0.0065868177159591808 0.027247430339622871 0 0.0074277660856158613 0.025801517806499669 0 0.0056069270044336299 0.022927329169762759 0 0.0067855687003391327 0.032644244538193534 0 0.0056069270044336299 0.022927329169762759 0 0.0074318564579615946 0.04048371230618697 0 0.0062618106015275453 0.040800445680140927 0 0.0062183801202465609 0.041630693994225497 0 0.0074318564579615946 0.04048371230618697 0 0.0063326812140513215 0.039219736179279832 0 0.0062618106015275453 0.040800445680140927 0 0.0076151277471230407 0.037364956406414164 0 0.0069779766963309169 0.038367911826069336 0 0.0057430415158774761 0.037509587444813204 0 0.0067855687003391327 0.032644244538193534 0 0.006464797495275891 0.039333803593646639 0 0.0065772654108219404 0.036342552360161852 0 0.0076151277471230407 0.037364956406414164 0 0.0057430415158774761 0.037509587444813204 0 0.0044596085690461395 0.037064239756970686 0 0.006464797495275891 0.039333803593646639 0 0.0046682669074557667 0.037360528987586281 0 0.0063326812140513215 0.039219736179279832 0 0.0036831642194798384 0.039569807235135979 0 0.0063326812140513215 0.039219736179279832 0 0.0051714425275030586 0.040416229062465531 0 0.0036831642194798384 0.039569807235135979 0 0.0051714425275030586 0.040416229062465531 0 0.0040088160618908493 0.041048694651403164 0 0.0036831642194798384 0.039569807235135979 0 0.0051714425275030586 0.040416229062465531 0 0.0040088160618908493 0.041048694651403164 0 0.0050372200236817079 0.041428398744247794 0 0.0063326812140513215 0.039219736179279832 0 0.0051714425275030586 0.040416229062465531 0 0.0062618106015275453 0.040800445680140927 0 0.0051714425275030586 0.040416229062465531 0 0.0062618106015275453 0.040800445680140927 0 0.0050372200236817079 0.041428398744247794 0 0.0062618106015275453 0.040800445680140927 0 0.0061049725476951151 0.041530520554209048 0 0.0062183801202465609 0.041630693994225497 0 0.0061049725476951151 0.041530520554209048 0 0.0062183801202465609 0.041630693994225497 0 0.0062450196200915372 0.041106623807843093 0 0.0062618106015275453 0.040800445680140927 0 0.0061049725476951151 0.041530520554209048 0 0.0050372200236817079 0.041428398744247794 0 0.0061049725476951151 0.041530520554209048 0 0.0046239775661666808 0.042427011998511496 0 0.0044994807398280089 0.043878461575105929 0 0.0040088160618908493 0.041048694651403164 0 0.0050372200236817079 0.041428398744247794 0 0.0040270274090000628 0.042149762278227511 0 0.0050372200236817079 0.041428398744247794 0 0.0046239775661666808 0.042427011998511496 0 0.0040270274090000628 0.042149762278227511 0 0.0061049725476951151 0.041530520554209048 0 0.0050372200236817079 0.041428398744247794 0 0.0046239775661666808 0.042427011998511496 0 0.0046239775661666808 0.042427011998511496 0 0.0040270274090000628 0.042149762278227511 0 0.0034884022986149603 0.043172010554009613 0 0.0046239775661666808 0.042427011998511496 0 0.0044994807398280089 0.043878461575105929 0 0.0034884022986149603 0.043172010554009613 0 0.0041425072877344987 0.021931698014648379 0 0.0041006123862190645 0.022506590289823027 0 0.0034788190173522314 0.022783098258425328 0 0.0051818568973892448 0.031435662450936208 0 0.0047713947958450131 0.031875177376133157 0 0.0060539342167932704 0.041605292270261919 0 0.0053699358407736644 0.042456705042808872 0 0.0062183801202465609 0.041630693994225497 0 0.0062450196200915372 0.041106623807843093 0 0.0060407481394112381 0.040874533783162408 0 0.0041006123862190645 0.022506590289823027 0 0.0043380798556240385 0.022203162466522278 0 0.0046129678084486066 0.022629525255888568 0 0.0041425072877344987 0.021931698014648379 0 0.0041006123862190645 0.022506590289823027 0 0.0043380798556240385 0.022203162466522278 0 0.0041425072877344987 0.021931698014648379 0 0.0043380798556240385 0.022203162466522278 0 0.0044662422905674118 0.021976813843595993 0 0.0043380798556240385 0.022203162466522278 0 0.0046598040892374543 0.022113154056305213 0 0.0044662422905674118 0.021976813843595993 0 0.0043380798556240385 0.022203162466522278 0 0.0046598040892374543 0.022113154056305213 0 0.0046129678084486066 0.022629525255888568 0 0.0046598040892374543 0.022113154056305213 0 0.0051066846270532377 0.022338869516689737 0 0.0046129678084486066 0.022629525255888568 0 0.0054946694191241648 0.022015737467464519 0 0.004987267150564148 0.022060775063670872 0 0.0051642399217840321 0.021783957065345423 0 0.0054946694191241648 0.022015737467464519 0 0.0051066846270532377 0.022338869516689737 0 0.004987267150564148 0.022060775063670872 0 0.0046598040892374543 0.022113154056305213 0 0.0051066846270532377 0.022338869516689737 0 0.004987267150564148 0.022060775063670872 0 0.0046598040892374543 0.022113154056305213 0 0.004987267150564148 0.022060775063670872 0 0.0047170825915563031 0.021673663985964698 0 0.004987267150564148 0.022060775063670872 0 0.0051642399217840321 0.021783957065345423 0 0.0047170825915563031 0.021673663985964698 0 0.0054377257278179969 0.021668597685062643 0 0.0056069270044336299 0.022927329169762759 0 0.0051642399217840321 0.021783957065345423 0 0.0051628418524699632 0.021559941216726948 0 0.0047170825915563031 0.021673663985964698 0 0.0046992697341705081 0.021263624973126709 0 0.0051628418524699632 0.021559941216726948 0 0.0047170825915563031 0.021673663985964698 0 0.0067855687003391327 0.032644244538193534 0 0.0051818568973892448 0.031435662450936208 0 0.0046992697341705081 0.021263624973126709 0 0.0041425072877344987 0.021931698014648379 0 0.0047170825915563031 0.021673663985964698 0 0.0041425072877344987 0.021931698014648379 0 0.0047170825915563031 0.021673663985964698 0 0.0044662422905674118 0.021976813843595993 0 0.0046598040892374543 0.022113154056305213 0 0.0047170825915563031 0.021673663985964698 0 0.0044662422905674118 0.021976813843595993 0 -0.0012334133020319097 0.044560489432424598 0 -0.00093351091341139863 0.043166501576949026 0 -0.00086430132304334917 0.04222372942781983 0 -0.0010187803366892051 0.041369493179542548 0 -0.00091832057465726538 0.042250586096218727 0 -0.0010522563484322092 0.038173242306059105 0 -0.00086430132304334917 0.04222372942781983 0 0.0014269972709843072 0.039026120418570683 0 -0.00086430132304334917 0.04222372942781983 0 0.0017877681789767487 0.040911383543213567 0 0.0014269972709843072 0.039026120418570683 0 -0.00086430132304334917 0.04222372942781983 0 0.0017877681789767487 0.040911383543213567 0 0.0014859195889106013 0.042475977594111661 0 0.0017877681789767487 0.040911383543213567 0 0.0028264362074345482 0.041227554530655096 0 0.0014859195889106013 0.042475977594111661 0 0.0017877681789767487 0.040911383543213567 0 0.0014269972709843072 0.039026120418570683 0 0.0036831642194798384 0.039569807235135979 0 0.003210409878307795 0.03762861952785445 0 0.0014269972709843072 0.039026120418570683 0 0.0036831642194798384 0.039569807235135979 0 0.0040088160618908493 0.041048694651403164 0 0.0036831642194798384 0.039569807235135979 0 0.0028264362074345482 0.041227554530655096 0 0.0017877681789767487 0.040911383543213567 0 0.0036831642194798384 0.039569807235135979 0 0.0028264362074345482 0.041227554530655096 0 0.0040088160618908493 0.041048694651403164 0 0.0028264362074345482 0.041227554530655096 0 0.0030151258543461268 0.04227917966716517 0 0.0028264362074345482 0.041227554530655096 0 0.0030151258543461268 0.04227917966716517 0 0.0014859195889106013 0.042475977594111661 0 0.0040088160618908493 0.041048694651403164 0 0.0040270274090000628 0.042149762278227511 0 0.0030151258543461268 0.04227917966716517 0 0.0040270274090000628 0.042149762278227511 0 0.0030151258543461268 0.04227917966716517 0 0.0034884022986149603 0.043172010554009613 0 0.0034884022986149603 0.043172010554009613 0 0.0020724167908729649 0.043496827958775804 0 0.0030002330605067434 0.044150416703690694 0 0.0020724167908729649 0.043496827958775804 0 0.0021442653707704124 0.044746570417877857 0 0.0030002330605067434 0.044150416703690694 0 0.0030151258543461268 0.04227917966716517 0 0.0034884022986149603 0.043172010554009613 0 0.0020724167908729649 0.043496827958775804 0 0.0044994807398280089 0.043878461575105929 0 0.0034884022986149603 0.043172010554009613 0 0.0030002330605067434 0.044150416703690694 0 0.0020724167908729649 0.043496827958775804 0 0.0003012978145965628 0.043415950402688731 0 0.0012608972330733683 0.044335458100661189 0 0.0020724167908729649 0.043496827958775804 0 0.0014859195889106013 0.042475977594111661 0 0.0003012978145965628 0.043415950402688731 0 0.0030151258543461268 0.04227917966716517 0 0.0020724167908729649 0.043496827958775804 0 0.0014859195889106013 0.042475977594111661 0 -0.00086430132304334917 0.04222372942781983 0 0.0014859195889106013 0.042475977594111661 0 0.0003012978145965628 0.043415950402688731 0 0.0003012978145965628 0.043415950402688731 0 0.00033562178278182631 0.04472426336578228 0 0.0012608972330733683 0.044335458100661189 0 0.0003012978145965628 0.043415950402688731 0 -0.00066868438421309418 0.044026628165743223 0 0.00033562178278182631 0.04472426336578228 0 0.0003012978145965628 0.043415950402688731 0 -0.00066868438421309418 0.044026628165743223 0 -0.00088069064009602355 0.04300878248184397 0 -0.00086430132304334917 0.04222372942781983 0 0.0003012978145965628 0.043415950402688731 0 -0.00088069064009602355 0.04300878248184397 0 -0.00065106296489863657 0.045562204206525549 0 0.00033562178278182631 0.04472426336578228 0 0.00040797111186764679 0.04599666206507276 0 -0.00066868438421309418 0.044026628165743223 0 -0.00065106296489863657 0.045562204206525549 0 0.00033562178278182631 0.04472426336578228 0 0.00033562178278182631 0.04472426336578228 0 0.001546525295579501 0.045406002698463212 0 0.0012608972330733683 0.044335458100661189 0 0.00033562178278182631 0.04472426336578228 0 0.00040797111186764679 0.04599666206507276 0 0.001546525295579501 0.045406002698463212 0 0.00040797111186764679 0.04599666206507276 0 0.001546525295579501 0.045406002698463212 0 0.0017291330933464659 0.046508312500042684 0 0.001546525295579501 0.045406002698463212 0 0.0029037238263422693 0.045358486970182708 0 0.0017291330933464659 0.046508312500042684 0 0.0020724167908729649 0.043496827958775804 0 0.0021442653707704124 0.044746570417877857 0 0.0012608972330733683 0.044335458100661189 0 0.001546525295579501 0.045406002698463212 0 0.0021442653707704124 0.044746570417877857 0 0.0012608972330733683 0.044335458100661189 0 0.001546525295579501 0.045406002698463212 0 0.0021442653707704124 0.044746570417877857 0 0.0029037238263422693 0.045358486970182708 0 0.0021442653707704124 0.044746570417877857 0 0.0030002330605067434 0.044150416703690694 0 0.0029037238263422693 0.045358486970182708 0 0.0044994807398280089 0.043878461575105929 0 0.0030002330605067434 0.044150416703690694 0 0.0029037238263422693 0.045358486970182708 0 0.0065616568229232616 0.040312496055729855 0 0.006526035136178626 0.039839231250498708 0 0.0068175854132582264 0.039633122482698423 0 0.0047182105897416414 0.04281096448286318 0 0.0045025446036583913 0.043270948932547654 0 0.0065616568229232616 0.040312496055729855 0 0.006526035136178626 0.039839231250498708 0 0.0062244824991787061 0.040040357144628211 0 0.0044506064705389994 0.032006341555638237 0 0.0044881114428116835 0.031888601205301147 0 0.0020416791172987673 0.024758648715699664 0 0.0027892506474433772 0.023711734959015348 0 0.0028140713718860385 0.024386304369518993 0 0.006526035136178626 0.039839231250498708 0 0.0064884438195387997 0.039386288811393576 0 0.0062244824991787061 0.040040357144628211 0 0.006526035136178626 0.039839231250498708 0 0.0064884438195387997 0.039386288811393576 0 0.0068175854132582264 0.039633122482698423 0 0.0020416791172987673 0.024758648715699664 0 0.0028140713718860385 0.024386304369518993 0 0.0026718348453341183 0.024979343057322072 0 0.0020416791172987673 0.024758648715699664 0 0.0013235316600733839 0.02589601541498187 0 0.0023157067127022525 0.025593435071017839 0 0.0020416791172987673 0.024758648715699664 0 0.0026718348453341183 0.024979343057322072 0 0.0023157067127022525 0.025593435071017839 0 0.0067781258980705444 0.039235709030725756 0 0.007095421866785686 0.039097699155622147 0 0.0067392163699705153 0.038846693308141521 0 0.0044506064705389994 0.032006341555638237 0 0.0027736338167980408 0.032421517677681963 0 0.0067781258980705444 0.039235709030725756 0 0.0068175854132582264 0.039633122482698423 0 0.007095421866785686 0.039097699155622147 0 0.0064884438195387997 0.039386288811393576 0 0.0067781258980705444 0.039235709030725756 0 0.0067392163699705153 0.038846693308141521 0 0.0064884438195387997 0.039386288811393576 0 0.0067781258980705444 0.039235709030725756 0 0.0068175854132582264 0.039633122482698423 0 0.00040797111186764679 0.04599666206507276 0 0.0017291330933464659 0.046508312500042684 0 0.00063290280654747753 0.046819876425966897 0 0.0045025446036583913 0.043270948932547654 0 0.0020365452443885461 0.041847347114499459 0 0.0017291330933464659 0.046508312500042684 0 0.00063290280654747753 0.046819876425966897 0 0.00074598764184838568 0.047676369105830591 0 0.00063290280654747753 0.046819876425966897 0 0.00074598764184838568 0.047676369105830591 0 -0.00034057490029727348 0.047084079225818719 0 0.0020365452443885461 0.041847347114499459 0 0.00059149180322038276 0.044082232607324967 0 0.0001785919093083478 0.040138140512736391 0 0.0016752610491499952 0.041086800452130881 0 0.0011397686988477999 0.039897722560861291 0 0.0016752610491499952 0.041086800452130881 0 0.0020265596305461598 0.039716848238875328 0 0.0011397686988477999 0.039897722560861291 0 0.00040797111186764679 0.04599666206507276 0 0.00063290280654747753 0.046819876425966897 0 -0.00034057490029727348 0.047084079225818719 0 -0.00065106296489863657 0.045562204206525549 0 0.00040797111186764679 0.04599666206507276 0 -0.00034057490029727348 0.047084079225818719 0 0.0041633977910970933 0.023090084139076577 0 0.0036914854912138222 0.023453878827251442 0 0.0043975757398510996 0.023883582346817606 0 0.0048484637252745226 0.023301947071172301 0 0.0041633977910970933 0.023090084139076577 0 0.0043975757398510996 0.023883582346817606 0 0.0055887047735505256 0.023174542288521685 0 0.0048484637252745226 0.023301947071172301 0 0.0053047012581358419 0.024007376328545719 0 0.0048484637252745226 0.023301947071172301 0 0.0043975757398510996 0.023883582346817606 0 0.0053047012581358419 0.024007376328545719 0 0.0055887047735505256 0.023174542288521685 0 0.0048484637252745226 0.023301947071172301 0 0.0051601779397681515 0.022850789507417663 0 0.0048484637252745226 0.023301947071172301 0 0.0051601779397681515 0.022850789507417663 0 0.0046129678084486066 0.022629525255888568 0 0.005827323708727245 0.022353548348462666 0 0.0051066846270532377 0.022338869516689737 0 0.0051601779397681515 0.022850789507417663 0 0.0051066846270532377 0.022338869516689737 0 0.0051601779397681515 0.022850789507417663 0 0.0046129678084486066 0.022629525255888568 0 0.0048484637252745226 0.023301947071172301 0 0.0046129678084486066 0.022629525255888568 0 0.0041633977910970933 0.023090084139076577 0 0.0041006123862190645 0.022506590289823027 0 0.0046129678084486066 0.022629525255888568 0 0.0041633977910970933 0.023090084139076577 0 0.0041006123862190645 0.022506590289823027 0 0.0041633977910970933 0.023090084139076577 0 0.0038660107917809008 0.02292318592498039 0 0.0038660107917809008 0.02292318592498039 0 0.0034788190173522314 0.022783098258425328 0 0.0036914854912138222 0.023453878827251442 0 0.0041006123862190645 0.022506590289823027 0 0.0038660107917809008 0.02292318592498039 0 0.0034788190173522314 0.022783098258425328 0 0.0041633977910970933 0.023090084139076577 0 0.0038660107917809008 0.02292318592498039 0 0.0036914854912138222 0.023453878827251442 0 0.0047713947958450131 0.031875177376133157 0 0.0044881114428116835 0.031888601205301147 0 0.0053699358407736644 0.042456705042808872 0 0.0047182105897416414 0.04281096448286318 0 0.0060407481394112381 0.040874533783162408 0 0.0062638687190110457 0.040558687345994673 0 0.0062244824991787061 0.040040357144628211 0 0.0062450196200915372 0.041106623807843093 0 0.0065616568229232616 0.040312496055729855 0 0.0062638687190110457 0.040558687345994673 0 0.0062450196200915372 0.041106623807843093 0 0.0060407481394112381 0.040874533783162408 0 0.0062638687190110457 0.040558687345994673 0 0.0027892506474433772 0.023711734959015348 0 0.0036914854912138222 0.023453878827251442 0 0.0032877598800925309 0.024019446078706423 0 0.0034788190173522314 0.022783098258425328 0 0.0027892506474433772 0.023711734959015348 0 0.0036914854912138222 0.023453878827251442 0 0.0065616568229232616 0.040312496055729855 0 0.0062638687190110457 0.040558687345994673 0 0.0062244824991787061 0.040040357144628211 0 0.0036914854912138222 0.023453878827251442 0 0.003789082977777 0.024109580248893869 0 0.0043975757398510996 0.023883582346817606 0 0.0036914854912138222 0.023453878827251442 0 0.003789082977777 0.024109580248893869 0 0.0032877598800925309 0.024019446078706423 0 0.003789082977777 0.024109580248893869 0 0.0033069809047416698 0.024582495923785131 0 0.0042108402488507599 0.024874633264592445 0 0.003789082977777 0.024109580248893869 0 0.0032877598800925309 0.024019446078706423 0 0.0033069809047416698 0.024582495923785131 0 0.0027892506474433772 0.023711734959015348 0 0.0032877598800925309 0.024019446078706423 0 0.0028140713718860385 0.024386304369518993 0 0.0032877598800925309 0.024019446078706423 0 0.0033069809047416698 0.024582495923785131 0 0.0028140713718860385 0.024386304369518993 0 0.0033069809047416698 0.024582495923785131 0 0.0028140713718860385 0.024386304369518993 0 0.0026718348453341183 0.024979343057322072 0 0.0033069809047416698 0.024582495923785131 0 0.0026718348453341183 0.024979343057322072 0 0.0031589442291257079 0.025376320405195458 0 0.0026718348453341183 0.024979343057322072 0 0.0031589442291257079 0.025376320405195458 0 0.0023157067127022525 0.025593435071017839 0 0.0033069809047416698 0.024582495923785131 0 0.0031589442291257079 0.025376320405195458 0 0.0042108402488507599 0.024874633264592445 0 0.0031589442291257079 0.025376320405195458 0 0.0042108402488507599 0.024874633264592445 0 0.0038054329548304106 0.025572217468119298 0 0.003789082977777 0.024109580248893869 0 0.0042108402488507599 0.024874633264592445 0 0.0043975757398510996 0.023883582346817606 0 0.0042108402488507599 0.024874633264592445 0 0.0043975757398510996 0.023883582346817606 0 0.0047340874198549777 0.024366175036316912 0 0.0043975757398510996 0.023883582346817606 0 0.0053047012581358419 0.024007376328545719 0 0.0047340874198549777 0.024366175036316912 0 0.0053047012581358419 0.024007376328545719 0 0.0047340874198549777 0.024366175036316912 0 0.0053147593124746985 0.025098107813768127 0 0.0042108402488507599 0.024874633264592445 0 0.0047340874198549777 0.024366175036316912 0 0.0053147593124746985 0.025098107813768127 0 0.0055466811587625304 0.024153416547275621 0 0.0053491136877935781 0.024642567632227174 0 0.0049243218308215493 0.024329284202728903 0 0.0054058027142611254 0.024633053752680857 0 0.0046395006882527729 0.025169701775671672 0 0.0055466811587625304 0.024153416547275621 0 0.0053491136877935781 0.024642567632227174 0 0.0057390773977460527 0.024608457424120603 0 0.0049243218308215493 0.024329284202728903 0 0.0046362040155111424 0.024897067232329911 0 0.0050298138696022654 0.024834944954760994 0 0.0053491136877935781 0.024642567632227174 0 0.0049243218308215493 0.024329284202728903 0 0.0050298138696022654 0.024834944954760994 0 0.0042108402488507599 0.024874633264592445 0 0.0053147593124746985 0.025098107813768127 0 0.0043895647940699715 0.02599301537948975 0 0.0042108402488507599 0.024874633264592445 0 0.0043895647940699715 0.02599301537948975 0 0.0038054329548304106 0.025572217468119298 0 0.0043895647940699715 0.02599301537948975 0 0.0038054329548304106 0.025572217468119298 0 0.0034215624972327371 0.026097369740308126 0 0.0031589442291257079 0.025376320405195458 0 0.0038054329548304106 0.025572217468119298 0 0.0034215624972327371 0.026097369740308126 0 0.0031589442291257079 0.025376320405195458 0 0.0027155449248783799 0.026197075448414504 0 0.0023157067127022525 0.025593435071017839 0 0.0034215624972327371 0.026097369740308126 0 0.0027155449248783799 0.026197075448414504 0 0.0030820643322695732 0.026528974375690614 0 0.0031589442291257079 0.025376320405195458 0 0.0034215624972327371 0.026097369740308126 0 0.0027155449248783799 0.026197075448414504 0 0.0032847699092427287 0.026935096592249994 0 0.0028897372043552366 0.026880512540579271 0 0.0022180549999615989 0.02773542967419431 0 0.0027155449248783799 0.026197075448414504 0 0.0030820643322695732 0.026528974375690614 0 0.0028897372043552366 0.026880512540579271 0 0.0027155449248783799 0.026197075448414504 0 0.0028897372043552366 0.026880512540579271 0 0.002083227456670729 0.026316869684107985 0 0.0034215624972327371 0.026097369740308126 0 0.0030820643322695732 0.026528974375690614 0 0.0032847699092427287 0.026935096592249994 0 0.0030820643322695732 0.026528974375690614 0 0.0032847699092427287 0.026935096592249994 0 0.0028897372043552366 0.026880512540579271 0 0.0043895647940699715 0.02599301537948975 0 0.0034215624972327371 0.026097369740308126 0 0.0032847699092427287 0.026935096592249994 0 0.0046395006882527729 0.025169701775671672 0 0.0036954524990279835 0.025808631901941489 0 0.0049243218308215493 0.024329284202728903 0 0.0041715682822977595 0.024618733133348281 0 0.0046362040155111424 0.024897067232329911 0 0.0046362040155111424 0.024897067232329911 0 0.0041037068164400427 0.025114934083142765 0 0.0045966974445635347 0.025417794789847906 0 0.0041715682822977595 0.024618733133348281 0 0.0046362040155111424 0.024897067232329911 0 0.0041037068164400427 0.025114934083142765 0 0.0036954524990279835 0.025808631901941489 0 0.0027034593447712411 0.026264823750884344 0 0.0041715682822977595 0.024618733133348281 0 0.0037738472191766277 0.025121976319723922 0 0.0031233558739776671 0.025118155403430775 0 0.0041715682822977595 0.024618733133348281 0 0.0041037068164400427 0.025114934083142765 0 0.0037738472191766277 0.025121976319723922 0 0.0041037068164400427 0.025114934083142765 0 0.0037738472191766277 0.025121976319723922 0 0.0036849468045870521 0.025726007821230204 0 0.0041499667796074382 0.025016540771776348 0 0.0030315083637582237 0.02590237725104395 0 0.0037738472191766277 0.025121976319723922 0 0.0036849468045870521 0.025726007821230204 0 0.0031233558739776671 0.025118155403430775 0 0.0024308599317551232 0.026242302193611261 0 0.00051274448790863654 0.023935732137875743 0 0.0015326787425674125 0.024118301047294104 0 0.0014728510385483564 0.024185624013977381 0 0.00078912242586030553 0.024085177771900022 0 0.0013307877073530561 0.024039735459426097 0 0.001029726587882482 0.023870982306572766 0 0.00078912242586030553 0.024085177771900022 0 0.0024308599317551232 0.026242302193611261 0 0.0030315083637582237 0.02590237725104395 0 0.0013307877073530561 0.024039735459426097 0 0.001029726587882482 0.023870982306572766 0 0.0012357188204743892 0.02367248552694098 0 0.0014728510385483564 0.024185624013977381 0 0.00053508405621992565 0.024101042020338467 0 0.00078912242586030553 0.024085177771900022 0 0.0030315083637582237 0.02590237725104395 0 0.0022883030351686035 0.024734679638768554 0 0.0041037068164400427 0.025114934083142765 0 0.003803509504082985 0.025483421525435108 0 0.0045966974445635347 0.025417794789847906 0 0.00078912242586030553 0.024085177771900022 0 0.00082893875881099059 0.023871259905902404 0 0.00062919394043340531 0.02385316878944245 0 0.001029726587882482 0.023870982306572766 0 0.00078912242586030553 0.024085177771900022 0 0.00082893875881099059 0.023871259905902404 0 0.001029726587882482 0.023870982306572766 0 0.00082893875881099059 0.023871259905902404 0 0.00085889345599740098 0.02367895527292399 0 0.00082893875881099059 0.023871259905902404 0 0.00062919394043340531 0.02385316878944245 0 0.00085889345599740098 0.02367895527292399 0 0.00053508405621992565 0.024101042020338467 0 0.00062919394043340531 0.02385316878944245 0 0.00039166375225788928 0.023834223082873831 0 0.00053508405621992565 0.024101042020338467 0 0.00078912242586030553 0.024085177771900022 0 0.00062919394043340531 0.02385316878944245 0 0.0045966974445635347 0.025417794789847906 0 0.0053560726674757855 0.02530986078631622 0 0.0049733348436082868 0.025101061798594577 0 0.00053508405621992565 0.024101042020338467 0 0.00039166375225788928 0.023834223082873831 0 0.00017161676850853603 0.023863951768356099 0 0.0022883030351686035 0.024734679638768554 0 0.0035552983831683843 0.023877140019421542 0 0.00062919394043340531 0.02385316878944245 0 0.00039166375225788928 0.023834223082873831 0 0.00041366842318609192 0.023679127159258278 0 0.00053508405621992565 0.024101042020338467 0 0.00017161676850853603 0.023863951768356099 0 -0.00017297731384272641 0.024058279170516231 0 0.00039166375225788928 0.023834223082873831 0 0.00017161676850853603 0.023863951768356099 0 0.0002253572871035213 0.023675897613589778 0 0.00017161676850853603 0.023863951768356099 0 -1.2481680650079433e-05 0.023744363651534858 0 0.0002253572871035213 0.023675897613589778 0 -1.2481680650079433e-05 0.023744363651534858 0 -0.00017297731384272641 0.024058279170516231 0 -0.00037240344571767012 0.02365941371718169 0 0.00017161676850853603 0.023863951768356099 0 -1.2481680650079433e-05 0.023744363651534858 0 -0.00017297731384272641 0.024058279170516231 0 0.0035552983831683843 0.023877140019421542 0 0.00058197067196077935 0.019247098810983576 0 0.0035552983831683843 0.023877140019421542 0 0.0048197966175328524 0.025339475979665078 0 0.0053491136877935781 0.024642567632227174 0 0.0052459383388006806 0.025072926959455982 0 0.0055901717767363156 0.024942160168107363 0 0.0053560726674757855 0.02530986078631622 0 0.0052459383388006806 0.025072926959455982 0 0.0049733348436082868 0.025101061798594577 0 0.0053491136877935781 0.024642567632227174 0 0.0052459383388006806 0.025072926959455982 0 0.0050298138696022654 0.024834944954760994 0 0.0053305599575557356 0.025190960460312849 0 0.0052459383388006806 0.025072926959455982 0 0.0055901717767363156 0.024942160168107363 0 0.0046362040155111424 0.024897067232329911 0 0.0045966974445635347 0.025417794789847906 0 0.0049733348436082868 0.025101061798594577 0 0.0046362040155111424 0.024897067232329911 0 0.0050298138696022654 0.024834944954760994 0 0.0049733348436082868 0.025101061798594577 0 0.0052459383388006806 0.025072926959455982 0 0.0050298138696022654 0.024834944954760994 0 0.0049733348436082868 0.025101061798594577 0 0.00067474919340269749 0.027164350817816343 0 0.00088534031376944606 0.027455468057327813 0 0.00037403285328691736 0.02775916663956967 0 0.00071128484958836457 0.035885498135022877 0 0.00098605604802654077 0.032665995171350194 0 9.5069561995708794e-05 0.027310996090080916 0 0.00067474919340269749 0.027164350817816343 0 0.00037403285328691736 0.02775916663956967 0 0.0024533910994648206 0.038076583405509561 0 0.00095125223028072535 0.038249043769402982 0 0.0019206419483475457 0.038827551554808708 0 0.00071128484958836457 0.035885498135022877 0 -0.00079809683604118342 0.031695380869412051 0 0.0019206419483475457 0.038827551554808708 0 0.0020265596305461598 0.039716848238875328 0 0.0011849413329910066 0.039102668409637442 0 0.0011397686988477999 0.039897722560861291 0 0.0011849413329910066 0.039102668409637442 0 0.00052431781839102048 0.03966249113983935 0 0.0020265596305461598 0.039716848238875328 0 0.0011397686988477999 0.039897722560861291 0 0.0011849413329910066 0.039102668409637442 0 0.00095125223028072535 0.038249043769402982 0 0.0019206419483475457 0.038827551554808708 0 0.0011849413329910066 0.039102668409637442 0 0.00095125223028072535 0.038249043769402982 0 0.0011849413329910066 0.039102668409637442 0 0.00040161111883991172 0.038928918986558737 0 0.0011849413329910066 0.039102668409637442 0 0.00040161111883991172 0.038928918986558737 0 0.00052431781839102048 0.03966249113983935 0 0.00022228343249987924 0.040059035756529596 0 -0.00014625335005374906 0.039232744534552097 0 -0.0010102427556078633 0.039272027810387404 0 0.0020365452443885461 0.041847347114499459 0 0.0027736338167980408 0.032421517677681963 0 0.0001785919093083478 0.040138140512736391 0 0.0011397686988477999 0.039897722560861291 0 0.00052431781839102048 0.03966249113983935 0 0.00022228343249987924 0.040059035756529596 0 0.00052431781839102048 0.03966249113983935 0 -0.00014625335005374906 0.039232744534552097 0 0.00040161111883991172 0.038928918986558737 0 0.00052431781839102048 0.03966249113983935 0 -0.00014625335005374906 0.039232744534552097 0 0.0020365452443885461 0.041847347114499459 0 0.0016633597197028562 0.040891193260622245 0 0.00040161111883991172 0.038928918986558737 0 -0.00014625335005374906 0.039232744534552097 0 -0.00048411921906125517 0.038405340607381988 0 0.00095125223028072535 0.038249043769402982 0 0.00040161111883991172 0.038928918986558737 0 -0.00048411921906125517 0.038405340607381988 0 0.00067474919340269749 0.027164350817816343 0 0.0011913820822730284 0.027155223563566755 0 0.0012822294388912467 0.027009546481767469 0 0.00098605604802654077 0.032665995171350194 0 0.00012514977975769162 0.030603773724211514 0 0.0011613469280140523 0.02852282596003505 0 0.00012514977975769162 0.030603773724211514 0 0.00067474919340269749 0.027164350817816343 0 0.0011913820822730284 0.027155223563566755 0 0.00088534031376944606 0.027455468057327813 0 0.0011913820822730284 0.027155223563566755 0 0.00088534031376944606 0.027455468057327813 0 0.0012565873024408107 0.027448764304791446 0 0.0012565873024408107 0.027448764304791446 0 0.0014398190010915793 0.027166269812160439 0 0.0016896334331540244 0.027391632628672398 0 0.0011913820822730284 0.027155223563566755 0 0.0012565873024408107 0.027448764304791446 0 0.0014398190010915793 0.027166269812160439 0 0.0016896334331540244 0.027391632628672398 0 0.0018439455463595015 0.026964996812913783 0 0.0020147421425462078 0.027212755496838929 0 0.0014398190010915793 0.027166269812160439 0 0.0016896334331540244 0.027391632628672398 0 0.0016176366661312424 0.02706397559656008 0 0.0016896334331540244 0.027391632628672398 0 0.0018439455463595015 0.026964996812913783 0 0.0016176366661312424 0.02706397559656008 0 0.0018439455463595015 0.026964996812913783 0 0.0016176366661312424 0.02706397559656008 0 0.0014620601146120096 0.026893265524340512 0 0.0014398190010915793 0.027166269812160439 0 0.0016176366661312424 0.02706397559656008 0 0.0014620601146120096 0.026893265524340512 0 0.0014398190010915793 0.027166269812160439 0 0.0014620601146120096 0.026893265524340512 0 0.001303015679470579 0.026931281796126895 0 0.0011913820822730284 0.027155223563566755 0 0.0014398190010915793 0.027166269812160439 0 0.001303015679470579 0.026931281796126895 0 0.00078774482544465333 0.030052367152942992 0 0.00012514977975769162 0.030603773724211514 0 -0.00014625335005374906 0.039232744534552097 0 -0.00048411921906125517 0.038405340607381988 0 -0.0010102427556078633 0.039272027810387404 0 0.00012514977975769162 0.030603773724211514 0 0.0027736338167980408 0.032421517677681963 0 0.0014620601146120096 0.026893265524340512 0 0.0013115256013186874 0.026917382270422528 0 0.0015903097396445958 0.026486592601808395 0 0.0018439455463595015 0.026964996812913783 0 0.0014620601146120096 0.026893265524340512 0 0.0015903097396445958 0.026486592601808395 0 0.0027736338167980408 0.032421517677681963 0 0.0015233899103373537 0.026107557947249952 0 0.0018439455463595015 0.026964996812913783 0 0.0015903097396445958 0.026486592601808395 0 0.00219601962039985 0.02674381770522383 0 0.0013235316600733839 0.02589601541498187 0 0.0023157067127022525 0.025593435071017839 0 0.002083227456670729 0.026316869684107985 0 0.0027155449248783799 0.026197075448414504 0 0.0023157067127022525 0.025593435071017839 0 0.002083227456670729 0.026316869684107985 0 0.0030487054660379618 0.027001893475188683 0 0.0015233899103373537 0.026107557947249952 0 0.0028897372043552366 0.026880512540579271 0 0.00219601962039985 0.02674381770522383 0 0.0023202385357046274 0.027131755716588261 0 0.0018439455463595015 0.026964996812913783 0 0.00219601962039985 0.02674381770522383 0 0.0020147421425462078 0.027212755496838929 0 0.00219601962039985 0.02674381770522383 0 0.0020147421425462078 0.027212755496838929 0 0.0023202385357046274 0.027131755716588261 0 0.0028897372043552366 0.026880512540579271 0 0.0023202385357046274 0.027131755716588261 0 0.0022180549999615989 0.02773542967419431 0 0.0016896334331540244 0.027391632628672398 0 0.0020147421425462078 0.027212755496838929 0 0.0022180549999615989 0.02773542967419431 0 0.0020147421425462078 0.027212755496838929 0 0.0023202385357046274 0.027131755716588261 0 0.0022180549999615989 0.02773542967419431 0 0.0036849468045870521 0.025726007821230204 0 0.0031233558739776671 0.025118155403430775 0 0.0028359745977051911 0.025779461641839113 0 0.0030315083637582237 0.02590237725104395 0 0.0025760868124309472 0.026788810477170241 0 0.0029458476451113213 0.028903011963796237 0 0.0017409211730418865 0.02900819274464039 0 0.0017671561070886337 0.029546889479916245 0 0.002991504239830977 0.027842864403097124 0 0.0022218535752815982 0.027801142984854525 0 0.002010947857867366 0.027961183399777805 0 0.002991504239830977 0.027842864403097124 0 0.0030684566211233947 0.027741009774283898 0 0.0022218535752815982 0.027801142984854525 0 0.0024308599317551232 0.026242302193611261 0 0.0019496638297060984 0.02849183260745192 0 0.0017409211730418865 0.02900819274464039 0 0.001184625985390986 0.029356737543750382 0 0.00052894898463498943 0.029127272398036835 0 0.0022218535752815982 0.027801142984854525 0 0.002010947857867366 0.027961183399777805 0 0.0013657219997538726 0.027857872464518582 0 0.002010947857867366 0.027961183399777805 0 0.0013657219997538726 0.027857872464518582 0 0.0010181644150095591 0.02807748793351952 0 0.0025760868124309472 0.026788810477170241 0 0.0017105846933123791 0.028218979016074574 0 0.0019496638297060984 0.02849183260745192 0 0.00089103148349469743 0.030512278845878388 0 0.0031233558739776671 0.025118155403430775 0 0.0028359745977051911 0.025779461641839113 0 0.0019254247695233546 0.025816132777967026 0 0.0017409211730418865 0.02900819274464039 0 0.001184625985390986 0.029356737543750382 0 0.0017671561070886337 0.029546889479916245 0 0.0013316454466698916 0.028274144712315447 0 0.001504578165911769 0.027738396065502938 0 0.0010614700057433603 0.027848154424771569 0 0.0022180549999615989 0.02773542967419431 0 0.0013316454466698916 0.028274144712315447 0 0.001504578165911769 0.027738396065502938 0 0.0027034593447712411 0.026264823750884344 0 0.0017105846933123791 0.028218979016074574 0 0.0016896334331540244 0.027391632628672398 0 0.0022180549999615989 0.02773542967419431 0 0.001504578165911769 0.027738396065502938 0 0.0012565873024408107 0.027448764304791446 0 0.0016896334331540244 0.027391632628672398 0 0.001504578165911769 0.027738396065502938 0 0.00088534031376944606 0.027455468057327813 0 0.0012565873024408107 0.027448764304791446 0 0.0010614700057433603 0.027848154424771569 0 0.0012565873024408107 0.027448764304791446 0 0.001504578165911769 0.027738396065502938 0 0.0010614700057433603 0.027848154424771569 0 0.00088534031376944606 0.027455468057327813 0 0.00074331720970555052 0.027803676600277907 0 0.0010614700057433603 0.027848154424771569 0 0.00074331720970555052 0.027803676600277907 0 0.0010614700057433603 0.027848154424771569 0 0.00067015876825471865 0.028292783325713427 0 0.0013316454466698916 0.028274144712315447 0 0.0010614700057433603 0.027848154424771569 0 0.00067015876825471865 0.028292783325713427 0 0.0016545190570949814 0.030931942344964936 0 0.0010481908851297168 0.031292332730231222 0 5.4464343769411414e-05 0.030987326303653192 0 0.0017105846933123791 0.028218979016074574 0 -0.00029740746083674032 0.033115462990016234 0 0.0017105846933123791 0.028218979016074574 0 0.00089103148349469743 0.030512278845878388 0 0.001184625985390986 0.029356737543750382 0 0.00052894898463498943 0.029127272398036835 0 0.00027666569545675338 0.029664707797162244 0 0.00089975703879099542 0.03214826741903571 0 0.00017994744649788997 0.032568038591204822 0 -3.1944570586195091e-05 0.032216722189704547 0 0.0010481908851297168 0.031292332730231222 0 0.000278509884411599 0.031355108243341832 0 5.4464343769411414e-05 0.030987326303653192 0 0.00052894898463498943 0.029127272398036835 0 0.00010445560067326143 0.029382934857988586 0 0.00027666569545675338 0.029664707797162244 0 0.00089103148349469743 0.030512278845878388 0 0.00019308311172643337 0.033825333209537553 0 0.00024880822651477741 0.033134507845397225 0 0.00019308311172643337 0.033825333209537553 0 0.00089103148349469743 0.030512278845878388 0 0.00024880822651477741 0.033134507845397225 0 -0.0011815758483253471 0.03687857653214368 0 -0.00024715396313172624 0.036766050828427141 0 -0.00034587855954296918 0.036607575839925174 0 -0.0011956615550941377 0.040226038925836281 0 -0.00029740746083674032 0.033115462990016234 0 -0.00064365838036058393 0.036220069723006676 0 -0.00163899643648494 0.03619709730937546 0 -0.0010273979439549791 0.036555774090607458 0 -0.0011580835255265386 0.039380693340696632 0 0.00019308311172643337 0.033825333209537553 0 0.00019308311172643337 0.033825333209537553 0 -0.00029740746083674032 0.033115462990016234 0 -0.00163899643648494 0.03619709730937546 0 -0.0010273979439549791 0.036555774090607458 0 -0.0012308584947529591 0.0369059988403595 0 -0.00029740746083674032 0.033115462990016234 0 -0.00079809683604118342 0.031695380869412051 0 0.00074331720970555052 0.027803676600277907 0 0.00067015876825471865 0.028292783325713427 0 0.00037403285328691736 0.02775916663956967 0 0.00088534031376944606 0.027455468057327813 0 0.00074331720970555052 0.027803676600277907 0 0.00037403285328691736 0.02775916663956967 0 -0.00042069289297799788 0.033930598373215132 0 -0.00040208022518876344 0.033803239023737774 0 -0.00022619459313621509 0.033725767666759235 0 -0.00062082836606855397 0.035928107315343051 0 -0.00036070067109771552 0.033938208430129284 0 -0.00057116402376831759 0.03385096768328523 0 -0.00042664043803300266 0.034072479015543715 0 -0.00040208022518876344 0.033803239023737774 0 -0.00056106441962036711 0.03365555421041827 0 -0.00040208022518876344 0.033803239023737774 0 -0.00022619459313621509 0.033725767666759235 0 -0.0013253190456729883 0.0350269149851761 0 0.00068778816989377889 0.033824781315751784 0 0.0009759234902850302 0.034303011904622906 0 -0.00056106441962036711 0.03365555421041827 0 -0.00022619459313621509 0.033725767666759235 0 -0.0001066256355814323 0.033485107146260532 0 -0.00074719729094567598 0.037723650108115063 0 0.00084635220790361444 0.036774102507957561 0 0.00067974877322726757 0.036499642677509957 0 -0.00056106441962036711 0.03365555421041827 0 -0.00057116402376831759 0.03385096768328523 0 -0.00040208022518876344 0.033803239023737774 0 -0.0005206448874118157 0.037313452051620177 0 0.00013049203248702995 0.031806780524452412 0 -0.0013323077150813594 0.036668125409221243 0 -0.00074719729094567598 0.037723650108115063 0 0.00067974877322726757 0.036499642677509957 0 -0.0005206448874118157 0.037313452051620177 0 0.00024880822651477741 0.033134507845397225 0 -0.00022619459313621509 0.033725767666759235 0 -0.0001066256355814323 0.033485107146260532 0 3.6504101961462251e-05 0.033722997424489115 0 -0.00017596561202683775 0.033555506067878563 0 5.5003494169124378e-05 0.032919471281031017 0 0.00024880822651477741 0.033134507845397225 0 0.00013049203248702995 0.031806780524452412 0 0.0013237318348264034 0.029493579545729651 0 0.00013049203248702995 0.031806780524452412 0 0.00013049203248702995 0.031806780524452412 0 5.5003494169124378e-05 0.032919471281031017 0 0.00030142264477111229 0.029630775557436182 0 0.00072615471912467963 0.030335629093963035 0 0.0011574467463058688 0.029867337264200173 0 -0.00022619459313621509 0.033725767666759235 0 1.3780212598194092e-05 0.033679302483091866 0 0.00012201521281619349 0.033792062972699148 0 -0.00042069289297799788 0.033930598373215132 0 -0.00022619459313621509 0.033725767666759235 0 9.4550245033267244e-05 0.033972272401399536 0 -0.00022619459313621509 0.033725767666759235 0 0.00012201521281619349 0.033792062972699148 0 9.4550245033267244e-05 0.033972272401399536 0 -0.00062082836606855397 0.035928107315343051 0 -0.00086604275118273128 0.029514232599133335 0 0.0013026432876626782 0.027454835140301701 0 -0.00086604275118273128 0.029514232599133335 0 0.00040187408329611386 0.023322882009827631 0 0.00039190564888132943 0.023289456512480874 0 0.00039189561773036069 0.023342318718957873 0 0.00012201521281619349 0.033792062972699148 0 0.00047426772859625462 0.033536606190550995 0 9.4550245033267244e-05 0.033972272401399536 0 -3.1184426733273201e-05 0.033527804140614757 0 0.00012201521281619349 0.033792062972699148 0 0.00047426772859625462 0.033536606190550995 0 5.5003494169124378e-05 0.032919471281031017 0 0.0002483036953125306 0.033734121334677104 0 5.5003494169124378e-05 0.032919471281031017 0 0.0013026432876626782 0.027454835140301701 0 0.00072615471912467963 0.030335629093963035 0 0.0011574467463058688 0.029867337264200173 0 0.001825176033028713 0.030339156278720664 0 0.001184625985390986 0.029356737543750382 0 0.00030142264477111229 0.029630775557436182 0 0.0011574467463058688 0.029867337264200173 0 0.001184625985390986 0.029356737543750382 0 0.0011574467463058688 0.029867337264200173 0 0.0017671561070886337 0.029546889479916245 0 0.0011574467463058688 0.029867337264200173 0 0.0017671561070886337 0.029546889479916245 0 0.001825176033028713 0.030339156278720664 0 0.0024308599317551232 0.026242302193611261 0 0.0013026432876626782 0.027454835140301701 0 0.0013307877073530561 0.024039735459426097 0 0.0018289295884713489 0.02343156625268086 0 0.0012357188204743892 0.02367248552694098 0 0.0029458476451113213 0.028903011963796237 0 0.0017671561070886337 0.029546889479916245 0 0.001825176033028713 0.030339156278720664 0 0.0013026432876626782 0.027454835140301701 0 0.00065666369275058567 0.022799010018240255 0 0.00040187408329611386 0.023322882009827631 0 0.00038442282667202894 0.023280615590838272 0 0.00039190564888132943 0.023289456512480874 0 0.00040187408329611386 0.023322882009827631 0 0.00038442282667202894 0.023280615590838272 0 0.00034899173693523749 0.023281921259345324 0 0.00039190564888132943 0.023289456512480874 0 0.00037180961955788201 0.023212545173932422 0 0.00037295397915727737 0.023222764203891483 0 0.00038442282667202894 0.023280615590838272 0 0.00039190564888132943 0.023289456512480874 0 0.00037180961955788201 0.023212545173932422 0 -0.00026383308162247055 0.027077832997968693 0 -0.00024156613731470927 0.02499870846697963 0 -0.00024156613731470927 0.02499870846697963 0 -0.0014749816513656667 0.025375949122184962 0 -0.0010245896819475854 0.030837373762187634 0 -0.00098907577067110599 0.030801908106091555 0 -0.0010399815049380455 0.030877777849392288 0 -0.0010245896819475854 0.030837373762187634 0 -0.001051916029286968 0.030912690683719161 0 -0.0010399815049380455 0.030877777849392288 0 -0.001051916029286968 0.030912690683719161 0 -0.001059643474306165 0.030920519595417417 0 -0.0010399815049380455 0.030877777849392288 0 -0.0010245896819475854 0.030837373762187634 0 -0.001051916029286968 0.030912690683719161 0 -0.0010616693166536309 0.030852364488173377 0 -0.00026383308162247055 0.027077832997968693 0 -0.00086604275118273128 0.029514232599133335 0 -0.00090515252926614794 0.031463075577227315 0 -0.0013360336416307172 0.03133018531583668 0 -0.0010290198859573851 0.031232403163649131 0 -0.00086604275118273128 0.029514232599133335 0 -0.0013223068431399896 0.031587713974579913 0 -0.001051916029286968 0.030912690683719161 0 -0.0010616693166536309 0.030852364488173377 0 -0.0010641234956627569 0.031013650237852852 0 -0.0013360336416307172 0.03133018531583668 0 -0.0010641234956627569 0.031013650237852852 0 -0.0010290198859573851 0.031232403163649131 0 -0.001051916029286968 0.030912690683719161 0 -0.0010641234956627569 0.031013650237852852 0 -0.001059643474306165 0.030920519595417417 0 -0.0010641234956627569 0.031013650237852852 0 -0.00091440169564218905 0.031105051616181493 0 -0.0010120256006795547 0.030981760331782463 0 -0.00062082836606855397 0.035928107315343051 0 -0.0014728988944083387 0.035350387821864726 0 -0.00090515252926614794 0.031463075577227315 0 -0.00091440169564218905 0.031105051616181493 0 -0.0010290198859573851 0.031232403163649131 0 -0.0024826152355134049 0.041443879994259844 0 -0.002192924604396428 0.040787926079989184 0 -0.0023370135435230302 0.041468744952241059 0 -0.0010641234956627569 0.031013650237852852 0 -0.00091440169564218905 0.031105051616181493 0 -0.0010290198859573851 0.031232403163649131 0 0.00014902107130219044 0.023234278298463616 0 6.2038629531532892e-05 0.02324560189398877 0 0.00014939431271817987 0.023296134019315219 0 0.00014902107130219044 0.023234278298463616 0 0.00018754611868488277 0.023222018746123778 0 0.00012976830430034544 0.023181948328250393 0 0.00014902107130219044 0.023234278298463616 0 0.00012976830430034544 0.023181948328250393 0 6.2038629531532892e-05 0.02324560189398877 0 0.00014902107130219044 0.023234278298463616 0 0.00021459604057375936 0.023260498881804672 0 0.00018754611868488277 0.023222018746123778 0 0.00014902107130219044 0.023234278298463616 0 0.00021459604057375936 0.023260498881804672 0 0.00014939431271817987 0.023296134019315219 0 0.00023410232406217358 0.02321374690041907 0 0.00018754611868488277 0.023222018746123778 0 0.00012976830430034544 0.023181948328250393 0 0.00021459604057375936 0.023260498881804672 0 0.00023410232406217358 0.02321374690041907 0 0.00018754611868488277 0.023222018746123778 0 0.00023410232406217358 0.02321374690041907 0 0.00012976830430034544 0.023181948328250393 0 0.00018023682287897851 0.023126308249222051 0 0.00023410232406217358 0.02321374690041907 0 0.00027047327818470257 0.023183908712880546 0 0.00018023682287897851 0.023126308249222051 0 0.00012976830430034544 0.023181948328250393 0 7.574254577778475e-05 0.023107989204772104 0 0.00018023682287897851 0.023126308249222051 0 2.7767083627711612e-05 0.023166156604752929 0 7.574254577778475e-05 0.023107989204772104 0 -3.5570852161288379e-05 0.023068592784015945 0 2.7767083627711612e-05 0.023166156604752929 0 -3.5570852161288379e-05 0.023068592784015945 0 -0.00013205766160581298 0.023173708682209262 0 0.00012976830430034544 0.023181948328250393 0 2.7767083627711612e-05 0.023166156604752929 0 7.574254577778475e-05 0.023107989204772104 0 2.7767083627711612e-05 0.023166156604752929 0 -1.9223336563432742e-05 0.023231703092487996 0 -0.00013205766160581298 0.023173708682209262 0 2.7767083627711612e-05 0.023166156604752929 0 6.2038629531532892e-05 0.02324560189398877 0 -1.9223336563432742e-05 0.023231703092487996 0 0.00012976830430034544 0.023181948328250393 0 2.7767083627711612e-05 0.023166156604752929 0 6.2038629531532892e-05 0.02324560189398877 0 6.2038629531532892e-05 0.02324560189398877 0 -4.5092880034379118e-05 0.023327558940932958 0 0.00014939431271817987 0.023296134019315219 0 -1.2481680650079433e-05 0.023744363651534858 0 -0.00037240344571767012 0.02365941371718169 0 8.82002451153733e-05 0.023538983306995664 0 -0.00037240344571767012 0.02365941371718169 0 8.82002451153733e-05 0.023538983306995664 0 0.00014939431271817987 0.023296134019315219 0 0.00058197067196077935 0.019247098810983576 0 -0.00058687112522131919 0.024351186111233381 0 6.2038629531532892e-05 0.02324560189398877 0 -1.9223336563432742e-05 0.023231703092487996 0 -4.5092880034379118e-05 0.023327558940932958 0 -1.2481680650079433e-05 0.023744363651534858 0 0.0002253572871035213 0.023675897613589778 0 8.82002451153733e-05 0.023538983306995664 0 0.0002253572871035213 0.023675897613589778 0 8.82002451153733e-05 0.023538983306995664 0 0.00030831469288607931 0.02353306118980034 0 8.82002451153733e-05 0.023538983306995664 0 0.00025390944066346093 0.023425089552669698 0 0.00030831469288607931 0.02353306118980034 0 8.82002451153733e-05 0.023538983306995664 0 0.00014939431271817987 0.023296134019315219 0 0.00025390944066346093 0.023425089552669698 0 0.00021459604057375936 0.023260498881804672 0 0.00014939431271817987 0.023296134019315219 0 0.00025390944066346093 0.023425089552669698 0 0.00025390944066346093 0.023425089552669698 0 0.00030831469288607931 0.02353306118980034 0 0.00052836661856695867 0.023506758816220236 0 0.00021459604057375936 0.023260498881804672 0 0.00025390944066346093 0.023425089552669698 0 0.00052836661856695867 0.023506758816220236 0 0.00030831469288607931 0.02353306118980034 0 0.00041366842318609192 0.023679127159258278 0 0.00052836661856695867 0.023506758816220236 0 0.0002253572871035213 0.023675897613589778 0 0.00030831469288607931 0.02353306118980034 0 0.00041366842318609192 0.023679127159258278 0 0.00039166375225788928 0.023834223082873831 0 0.0002253572871035213 0.023675897613589778 0 0.00041366842318609192 0.023679127159258278 0 0.00060685497245767893 0.023679797566320295 0 0.00085889345599740098 0.02367895527292399 0 0.00052836661856695867 0.023506758816220236 0 0.00062919394043340531 0.02385316878944245 0 0.00041366842318609192 0.023679127159258278 0 0.00060685497245767893 0.023679797566320295 0 0.00062919394043340531 0.02385316878944245 0 0.00060685497245767893 0.023679797566320295 0 0.00085889345599740098 0.02367895527292399 0 0.00085889345599740098 0.02367895527292399 0 0.00052836661856695867 0.023506758816220236 0 0.0010913731458049435 0.023347883076741762 0 0.00021459604057375936 0.023260498881804672 0 0.00052836661856695867 0.023506758816220236 0 0.0010913731458049435 0.023347883076741762 0 0.00041366842318609192 0.023679127159258278 0 0.00060685497245767893 0.023679797566320295 0 0.00052836661856695867 0.023506758816220236 0 0.0018289295884713489 0.02343156625268086 0 0.0012357188204743892 0.02367248552694098 0 0.0010913731458049435 0.023347883076741762 0 0.001029726587882482 0.023870982306572766 0 0.00085889345599740098 0.02367895527292399 0 0.0012357188204743892 0.02367248552694098 0 0.00085889345599740098 0.02367895527292399 0 0.0012357188204743892 0.02367248552694098 0 0.0010913731458049435 0.023347883076741762 0 0.00038442282667202894 0.023280615590838272 0 0.00034899173693523749 0.023281921259345324 0 0.00036058181395653987 0.023248619706135613 0 0.00032603333165110143 0.023210607416743575 0 0.00036058181395653987 0.023248619706135613 0 0.00037180961955788201 0.023212545173932422 0 0.00034899173693523749 0.023281921259345324 0 0.00032603333165110143 0.023210607416743575 0 0.00036058181395653987 0.023248619706135613 0 0.00038442282667202894 0.023280615590838272 0 0.00036058181395653987 0.023248619706135613 0 0.00037180961955788201 0.023212545173932422 0 0.00021459604057375936 0.023260498881804672 0 0.00023410232406217358 0.02321374690041907 0 0.00034899173693523749 0.023281921259345324 0 0.00026468016424606271 0.023395149622938986 0 0.00065666369275058567 0.022799010018240255 0 0.00023410232406217358 0.02321374690041907 0 0.00034899173693523749 0.023281921259345324 0 0.00027047327818470257 0.023183908712880546 0 0.00034899173693523749 0.023281921259345324 0 0.00032603333165110143 0.023210607416743575 0 0.00027047327818470257 0.023183908712880546 0 0.00032603333165110143 0.023210607416743575 0 0.00027047327818470257 0.023183908712880546 0 0.00026199138156625358 0.02304651262821758 0 0.00027047327818470257 0.023183908712880546 0 0.00026199138156625358 0.02304651262821758 0 0.00018023682287897851 0.023126308249222051 0 -0.001160177441908661 0.02139345400366301 0 -0.00024156613731470927 0.02499870846697963 0 0.00026199138156625358 0.02304651262821758 0 0.00037180961955788201 0.023212545173932422 0 0.00038598177994561637 0.023175724459317749 0 0.00032603333165110143 0.023210607416743575 0 0.00026199138156625358 0.02304651262821758 0 0.00037180961955788201 0.023212545173932422 0 0.0001881944170044832 0.023889788098091655 0 -0.00024156613731470927 0.02499870846697963 0 -0.0023342306034728377 0.02010193537135253 0 -0.0017700775890195611 0.020285398575903297 0 -0.0019280027526104985 0.019776750046152342 0 -0.0017700775890195611 0.020285398575903297 0 -0.0019280027526104985 0.019776750046152342 0 -0.0015572324090025696 0.019558808191898935 0 -0.0023342306034728377 0.02010193537135253 0 -0.0019280027526104985 0.019776750046152342 0 -0.0022939546637668349 0.019686410524247671 0 -0.001160177441908661 0.02139345400366301 0 -0.0015461598845201052 0.020406834578633234 0 -0.0023342306034728377 0.02010193537135253 0 -0.0022939546637668349 0.019686410524247671 0 -0.0028336300472246541 0.019969532085512366 0 -0.0022428122189129904 0.019431164877869996 0 -0.0015461598845201052 0.020406834578633234 0 -0.0019094428127750369 0.019298801897846742 0 -0.0020803650733302649 0.019321838821366802 0 -0.002003474004010174 0.019243732896901296 0 -0.0020803650733302649 0.019321838821366802 0 -0.0020736707581236599 0.019243891825900465 0 -0.002003474004010174 0.019243732896901296 0 0.00026199138156625358 0.02304651262821758 0 8.8533449221780381e-05 0.023036869309938503 0 0.00018023682287897851 0.023126308249222051 0 0.00026199138156625358 0.02304651262821758 0 8.0494744840619879e-05 0.022928164488695349 0 8.8533449221780381e-05 0.023036869309938503 0 7.574254577778475e-05 0.023107989204772104 0 8.8533449221780381e-05 0.023036869309938503 0 0.00018023682287897851 0.023126308249222051 0 8.0494744840619879e-05 0.022928164488695349 0 8.8533449221780381e-05 0.023036869309938503 0 -6.4863461051100827e-05 0.022960027564686101 0 8.8533449221780381e-05 0.023036869309938503 0 -3.5570852161288379e-05 0.023068592784015945 0 -6.4863461051100827e-05 0.022960027564686101 0 7.574254577778475e-05 0.023107989204772104 0 8.8533449221780381e-05 0.023036869309938503 0 -3.5570852161288379e-05 0.023068592784015945 0 -0.0015461598845201052 0.020406834578633234 0 -0.0014273992083450413 0.021291488723340184 0 -0.0020799845029893494 0.019320734261625519 0 -0.002194913456253572 0.019352547342501976 0 -0.0021079682186604556 0.019309953989368078 0 -0.002194913456253572 0.019352547342501976 0 -0.0021742971279608459 0.019286219169957323 0 -0.0021079682186604556 0.019309953989368078 0 -0.0020803650733302649 0.019321838821366802 0 -0.0021079682186604556 0.019309953989368078 0 -0.002118202062064162 0.019261299321035086 0 -0.0015461598845201052 0.020406834578633234 0 -0.0018556542478460739 0.02019466701299839 0 -0.0021742971279608459 0.019286219169957323 0 -0.0021079682186604556 0.019309953989368078 0 -0.002118202062064162 0.019261299321035086 0 -0.0020803650733302649 0.019321838821366802 0 -0.002118202062064162 0.019261299321035086 0 -0.0020736707581236599 0.019243891825900465 0 -0.0021742971279608459 0.019286219169957323 0 -0.002118202062064162 0.019261299321035086 0 -0.0021876172013596579 0.019226680308537684 0 -0.0021742971279608459 0.019286219169957323 0 -0.0021876172013596579 0.019226680308537684 0 -0.0022594864817286672 0.019264295876903783 0 -0.002194913456253572 0.019352547342501976 0 -0.0021742971279608459 0.019286219169957323 0 -0.0022594864817286672 0.019264295876903783 0 0.00041138923254487383 0.013238327253964347 0 0.00030796907163655038 0.013064173370476984 0 0.00046353086660748708 0.013092136283770458 0 -0.0022594864817286672 0.019264295876903783 0 -0.0024189701980211467 0.019190862673956324 0 -0.0023069439902615985 0.019388216556911371 0 -0.0011420854981162014 0.016280229564321014 0 -0.00081374998636470888 0.017047111625592457 0 0.00030796907163655038 0.013064173370476984 0 0.00046353086660748708 0.013092136283770458 0 0.00048913850351229985 0.012942675474136465 0 -0.00081374998636470888 0.017047111625592457 0 0.00067710681252947037 0.012586378142447374 0 -0.002194913456253572 0.019352547342501976 0 -0.0022594864817286672 0.019264295876903783 0 -0.0023069439902615985 0.019388216556911371 0 -3.5570852161288379e-05 0.023068592784015945 0 -6.4863461051100827e-05 0.022960027564686101 0 -0.00022209056619571703 0.022985805540552684 0 -0.0014273992083450413 0.021291488723340184 0 -0.00081374998636470888 0.017047111625592457 0 0.00062714615749475625 0.013125548962086448 0 0.00071495745025080832 0.013030490389833409 0 0.0005895891591556888 0.013205697384835889 0 0.00088247995246202985 0.011367712630589603 0 0.00080161464913798466 0.01209777998824412 0 0.0011086688396279517 0.0098454759328713021 0 0.0014134799181433984 0.010521680872392912 0 0.0009988179229243957 0.010992737237672587 0 0.00061178809975166888 0.01317728577514163 0 0.00055486490370003523 0.013147677145601737 0 0.0006336752078771351 0.01320912203179817 0 0.00061178809975166888 0.01317728577514163 0 0.00062714615749475625 0.013125548962086448 0 0.0005895891591556888 0.013205697384835889 0 0.00061178809975166888 0.01317728577514163 0 0.0006336752078771351 0.01320912203179817 0 0.0005895891591556888 0.013205697384835889 0 0.00061178809975166888 0.01317728577514163 0 0.00062714615749475625 0.013125548962086448 0 0.00055486490370003523 0.013147677145601737 0 0.00041138923254487383 0.013238327253964347 0 0.00055486490370003523 0.013147677145601737 0 0.0006336752078771351 0.01320912203179817 0 0.00041138923254487383 0.013238327253964347 0 0.00055486490370003523 0.013147677145601737 0 0.00046353086660748708 0.013092136283770458 0 0.00046353086660748708 0.013092136283770458 0 0.0005698604210553342 0.013054467917343889 0 0.00048913850351229985 0.012942675474136465 0 0.0005698604210553342 0.013054467917343889 0 0.00062182845367865643 0.012962768242520116 0 0.00048913850351229985 0.012942675474136465 0 0.00062714615749475625 0.013125548962086448 0 0.00055486490370003523 0.013147677145601737 0 0.0005698604210553342 0.013054467917343889 0 0.00055486490370003523 0.013147677145601737 0 0.00046353086660748708 0.013092136283770458 0 0.0005698604210553342 0.013054467917343889 0 0.00062714615749475625 0.013125548962086448 0 0.0005698604210553342 0.013054467917343889 0 0.00071495745025080832 0.013030490389833409 0 0.0005698604210553342 0.013054467917343889 0 0.00071495745025080832 0.013030490389833409 0 0.00062182845367865643 0.012962768242520116 0 0.00071495745025080832 0.013030490389833409 0 0.00072871713546977064 0.012811772880463392 0 0.00062182845367865643 0.012962768242520116 0 0.00054035026180362792 0.012965872147709506 0 0.00067710681252947037 0.012586378142447374 0 0.00088247995246202985 0.011367712630589603 0 0.0012416618804317332 0.011008054435047973 0 0.00071495745025080832 0.013030490389833409 0 0.00072871713546977064 0.012811772880463392 0 0.00079204076221448157 0.01270544407034358 0 0.00072871713546977064 0.012811772880463392 0 0.0001940406199700439 0.013156834003839305 0 0.00047513314831817998 0.01280171444656548 0 0.00072871713546977064 0.012811772880463392 0 0.00062182845367865643 0.012962768242520116 0 0.00048913850351229985 0.012942675474136465 0 0.0001940406199700439 0.013156834003839305 0 0.00026067608515274694 0.012776845461540559 0 0.00047513314831817998 0.01280171444656548 0 0.0001940406199700439 0.013156834003839305 0 0.00026067608515274694 0.012776845461540559 0 2.8569454426055456e-06 0.012817876422179417 0 0.00026177141757364623 0.012557760302387092 0 0.00026067608515274694 0.012776845461540559 0 2.8569454426055456e-06 0.012817876422179417 0 -8.4280497342511578e-06 0.01238103622212694 0 -3.69331612570951e-05 0.012226496900560539 0 -0.00017855183627105457 0.012261721967795491 0 -8.4280497342511578e-06 0.01238103622212694 0 0.00051633996019457412 0.0120346334008415 0 0.0010459819071195016 0.012050977631232791 0 -8.4280497342511578e-06 0.01238103622212694 0 -3.69331612570951e-05 0.012226496900560539 0 0.00051633996019457412 0.0120346334008415 0 0.00026067608515274694 0.012776845461540559 0 0.00044172656709760502 0.012686788569252375 0 0.00047513314831817998 0.01280171444656548 0 0.00026177141757364623 0.012557760302387092 0 0.00026067608515274694 0.012776845461540559 0 0.00044172656709760502 0.012686788569252375 0 0.00026177141757364623 0.012557760302387092 0 0.00044172656709760502 0.012686788569252375 0 0.00062868036850688316 0.012626718757392094 0 7.1599138486598386e-05 0.012654709450681338 0 0.0016137906259608035 0.010654776374623448 0 0.00026177141757364623 0.012557760302387092 0 0.00062868036850688316 0.012626718757392094 0 0.00087027084720151253 0.012578258149387586 0 -8.4280497342511578e-06 0.01238103622212694 0 0.0010459819071195016 0.012050977631232791 0 0.0017228609158021625 0.012439422595325215 0 0.00072871713546977064 0.012811772880463392 0 0.00047513314831817998 0.01280171444656548 0 0.00064379909335642179 0.012740399840826231 0 0.00047513314831817998 0.01280171444656548 0 0.00064379909335642179 0.012740399840826231 0 0.00056229568969628 0.012703151093568463 0 0.00044172656709760502 0.012686788569252375 0 0.00047513314831817998 0.01280171444656548 0 0.00056229568969628 0.012703151093568463 0 0.00064379909335642179 0.012740399840826231 0 0.00064195072502591611 0.012683809508670891 0 0.00056229568969628 0.012703151093568463 0 0.00064195072502591611 0.012683809508670891 0 0.00062868036850688316 0.012626718757392094 0 0.00056229568969628 0.012703151093568463 0 0.00064195072502591611 0.012683809508670891 0 0.00062868036850688316 0.012626718757392094 0 0.00069899878943710406 0.012649057872883019 0 0.00044172656709760502 0.012686788569252375 0 0.00062868036850688316 0.012626718757392094 0 0.00056229568969628 0.012703151093568463 0 0.00051633996019457412 0.0120346334008415 0 0.0010459819071195016 0.012050977631232791 0 0.00087262750781630578 0.011888939347445471 0 0.0010459819071195016 0.012050977631232791 0 0.0017394889896748893 0.011692457008466472 0 0.0017228609158021625 0.012439422595325215 0 0.00072871713546977064 0.012811772880463392 0 0.00079204076221448157 0.01270544407034358 0 0.00074424641374389912 0.012761025360296031 0 0.00083602408788689404 0.012629951707829117 0 0.00075373311310636946 0.012622766242253031 0 0.00087027084720151253 0.012578258149387586 0 0.00083602408788689404 0.012629951707829117 0 0.00076333304966849571 0.012680298488193546 0 0.00074424641374389912 0.012761025360296031 0 0.0012416618804317332 0.011008054435047973 0 0.0016137906259608035 0.010654776374623448 0 0.00062868036850688316 0.012626718757392094 0 0.00075373311310636946 0.012622766242253031 0 0.00087027084720151253 0.012578258149387586 0 0.0012416618804317332 0.011008054435047973 0 0.00071668625166954243 0.012061072954344824 0 0.00083602408788689404 0.012629951707829117 0 0.00076333304966849571 0.012680298488193546 0 0.00075373311310636946 0.012622766242253031 0 0.00062868036850688316 0.012626718757392094 0 0.00075373311310636946 0.012622766242253031 0 0.00069899878943710406 0.012649057872883019 0 0.00075373311310636946 0.012622766242253031 0 0.00069899878943710406 0.012649057872883019 0 0.00070194819159427092 0.012690739872470174 0 0.00064379909335642179 0.012740399840826231 0 0.00064195072502591611 0.012683809508670891 0 0.00070194819159427092 0.012690739872470174 0 0.00064195072502591611 0.012683809508670891 0 0.00069899878943710406 0.012649057872883019 0 0.00070194819159427092 0.012690739872470174 0 0.00076333304966849571 0.012680298488193546 0 0.00075373311310636946 0.012622766242253031 0 0.00070194819159427092 0.012690739872470174 0 0.00064379909335642179 0.012740399840826231 0 0.00070194819159427092 0.012690739872470174 0 0.00074424641374389912 0.012761025360296031 0 0.00072871713546977064 0.012811772880463392 0 0.00064379909335642179 0.012740399840826231 0 0.00074424641374389912 0.012761025360296031 0 0.00076333304966849571 0.012680298488193546 0 0.00070194819159427092 0.012690739872470174 0 0.00074424641374389912 0.012761025360296031 0 -0.00081374998636470888 0.017047111625592457 0 -0.00044586063102824541 0.018019521100422355 0 -3.5570852161288379e-05 0.023068592784015945 0 -0.00022209056619571703 0.022985805540552684 0 -0.00013205766160581298 0.023173708682209262 0 -0.00068287914240051765 0.012969404242447436 0 -0.00027581616110294025 0.013055377796902466 0 -0.00044450410242042487 0.012518860796705675 0 -0.00044061164586700684 0.013503221354965388 0 -0.00068287914240051765 0.012969404242447436 0 -0.00027581616110294025 0.013055377796902466 0 -0.00044061164586700684 0.013503221354965388 0 0.0001940406199700439 0.013156834003839305 0 -0.00027581616110294025 0.013055377796902466 0 0.0001940406199700439 0.013156834003839305 0 -0.00027581616110294025 0.013055377796902466 0 2.8569454426055456e-06 0.012817876422179417 0 0.00026177141757364623 0.012557760302387092 0 2.8569454426055456e-06 0.012817876422179417 0 -0.00044450410242042487 0.012518860796705675 0 -8.4280497342511578e-06 0.01238103622212694 0 -0.00044450410242042487 0.012518860796705675 0 -0.00017855183627105457 0.012261721967795491 0 7.1599138486598386e-05 0.012654709450681338 0 -0.00040019283686679039 0.01247119468534847 0 -0.00027581616110294025 0.013055377796902466 0 2.8569454426055456e-06 0.012817876422179417 0 -0.00044450410242042487 0.012518860796705675 0 0.00058197067196077935 0.019247098810983576 0 -0.00044586063102824541 0.018019521100422355 0 -0.00087330747404612151 0.012494587288397047 0 -0.00068287914240051765 0.012969404242447436 0 -0.00044450410242042487 0.012518860796705675 0 -1.9223336563432742e-05 0.023231703092487996 0 -4.5092880034379118e-05 0.023327558940932958 0 -0.00013205766160581298 0.023173708682209262 0 0.0023409187877948328 0.020513677750519158 0 0.0023885206367332155 0.020611317457562919 0 0.0025781302509280423 0.020477488022153861 0 0.00058197067196077935 0.019247098810983576 0 0.0029097173501062483 0.018596172867124144 0 -0.00087330747404612151 0.012494587288397047 0 -0.00044450410242042487 0.012518860796705675 0 -0.00031984408997824156 0.012118199652513637 0 0.0035552983831683843 0.023877140019421542 0 0.0029097173501062483 0.018596172867124144 0 0.0053305599575557356 0.025190960460312849 0 0.0055901717767363156 0.024942160168107363 0 0.0059188709057290886 0.025064065329342192 0 0.0055901717767363156 0.024942160168107363 0 0.0059407164636343917 0.024773468712163661 0 0.0057390773977460527 0.024608457424120603 0 0.0055901717767363156 0.024942160168107363 0 0.0059407164636343917 0.024773468712163661 0 0.0059188709057290886 0.025064065329342192 0 0.0059407164636343917 0.024773468712163661 0 0.0063027229102279149 0.024736717053058022 0 0.0060976991952599166 0.024523218557811324 0 0.0059407164636343917 0.024773468712163661 0 0.0059188709057290886 0.025064065329342192 0 0.0063027229102279149 0.024736717053058022 0 0.0029097173501062483 0.018596172867124144 0 0.0026696815051764082 0.015104683648526076 0 -0.00044450410242042487 0.012518860796705675 0 -0.00031984408997824156 0.012118199652513637 0 -0.00017855183627105457 0.012261721967795491 0 -0.00031984408997824156 0.012118199652513637 0 -0.00017855183627105457 0.012261721967795491 0 -1.053626211924796e-05 0.012099114905710822 0 0.0029097173501062483 0.018596172867124144 0 0.00028532811071061174 0.012037333274787404 0 3.1769218249767116e-05 0.012023145326680482 0 0.00028532811071061174 0.012037333274787404 0 -3.69331612570951e-05 0.012226496900560539 0 -0.00017855183627105457 0.012261721967795491 0 -1.053626211924796e-05 0.012099114905710822 0 0.00048708522162588415 0.011691499033827778 0 3.6838330771057004e-05 0.011114132667469976 0 0.00097072666967772288 0.011521000671561912 0 -3.69331612570951e-05 0.012226496900560539 0 0.00051633996019457412 0.0120346334008415 0 0.00048708522162588415 0.011691499033827778 0 -3.69331612570951e-05 0.012226496900560539 0 0.00048708522162588415 0.011691499033827778 0 3.6838330771057004e-05 0.011114132667469976 0 0.00028532811071061174 0.012037333274787404 0 0.0016486517845686658 0.010724903306892327 0 -4.378266140862734e-06 0.010935022083775857 0 0.00081343801700523694 0.010451887187463146 0 0.001849815319127823 0.010912417786192183 0 3.6838330771057004e-05 0.011114132667469976 0 0.00097072666967772288 0.011521000671561912 0 0.001849815319127823 0.010912417786192183 0 0.0014122159869952152 0.011681258243831229 0 0.001849815319127823 0.010912417786192183 0 0.0017394889896748893 0.011692457008466472 0 0.0010459819071195016 0.012050977631232791 0 0.0014122159869952152 0.011681258243831229 0 0.0017394889896748893 0.011692457008466472 0 0.0014122159869952152 0.011681258243831229 0 0.00097072666967772288 0.011521000671561912 0 0.001849815319127823 0.010912417786192183 0 0.0010459819071195016 0.012050977631232791 0 0.0014122159869952152 0.011681258243831229 0 0.0010752511868080262 0.01178548716478401 0 0.0014122159869952152 0.011681258243831229 0 0.00097072666967772288 0.011521000671561912 0 0.0010752511868080262 0.01178548716478401 0 0.00097072666967772288 0.011521000671561912 0 0.0010752511868080262 0.01178548716478401 0 0.00087262750781630578 0.011888939347445471 0 0.0010459819071195016 0.012050977631232791 0 0.0010752511868080262 0.01178548716478401 0 0.00087262750781630578 0.011888939347445471 0 0.00051633996019457412 0.0120346334008415 0 0.00048708522162588415 0.011691499033827778 0 0.00087262750781630578 0.011888939347445471 0 0.00048708522162588415 0.011691499033827778 0 0.00097072666967772288 0.011521000671561912 0 0.00087262750781630578 0.011888939347445471 0 0.0012719255544364231 0.010029905008353428 0 0.00014473673742860501 0.0099371824188026828 0 0.0016775518740344249 0.0089683587654866507 0 0.00081343801700523694 0.010451887187463146 0 0.0012719255544364231 0.010029905008353428 0 0.001849815319127823 0.010912417786192183 0 0.00081343801700523694 0.010451887187463146 0 0.0012719255544364231 0.010029905008353428 0 0.00014473673742860501 0.0099371824188026828 0 0.0012719255544364231 0.010029905008353428 0 0.0016775518740344249 0.0089683587654866507 0 0.0020379723624323639 0.0099886186960220121 0 0.0020297178154004367 0.01566150048853316 0 0.0022965386377741541 0.015631463771086842 0 0.0023266345584539269 0.015445070948904368 0 -4.378266140862734e-06 0.010935022083775857 0 0.00081343801700523694 0.010451887187463146 0 0.00014473673742860501 0.0099371824188026828 0 0.00028532811071061174 0.012037333274787404 0 0.0026696815051764082 0.015104683648526076 0 0.0026696815051764082 0.015104683648526076 0 0.005035512203291472 0.016549300283990927 0 0.0063027229102279149 0.024736717053058022 0 0.0063721893872865582 0.02436723630881632 0 0.0060976991952599166 0.024523218557811324 0 0.0032027607833348924 0.0082523053123792819 0 0.0031668547186335235 0.0081503205991354244 0 0.0032783500761522969 0.0081701661520048874 0 0.0026696815051764082 0.015104683648526076 0 0.0025887421502485642 0.0078506698288572669 0 0.0031668547186335235 0.0081503205991354244 0 0.0032783500761522969 0.0081701661520048874 0 0.0031010363509751653 0.008181174958020121 0 0.0032308489473647185 0.0082399786090111646 0 0.0032783500761522969 0.0081701661520048874 0 0.0031010363509751653 0.008181174958020121 0 0.0036557751548351833 0.0085683361628410872 0 0.0032308489473647185 0.0082399786090111646 0 0.0032783500761522969 0.0081701661520048874 0 0.0050774655861337142 0.016253136846636516 0 0.005035512203291472 0.016549300283990927 0 0.0062038037881516021 0.024213460349472922 0 0.0065334350604405794 0.024008511324804357 0 0.0063721893872865582 0.02436723630881632 0 0.0062038037881516021 0.024213460349472922 0 0.0063721893872865582 0.02436723630881632 0 0.0060976991952599166 0.024523218557811324 0 0.0062038037881516021 0.024213460349472922 0 0.0059340498456722547 0.02430740415363309 0 0.0060976991952599166 0.024523218557811324 0 0.0055466811587625304 0.024153416547275621 0 0.0059340498456722547 0.02430740415363309 0 0.0057390773977460527 0.024608457424120603 0 0.0053491136877935781 0.024642567632227174 0 0.0055901717767363156 0.024942160168107363 0 0.0057390773977460527 0.024608457424120603 0 0.0059340498456722547 0.02430740415363309 0 0.0057390773977460527 0.024608457424120603 0 0.0060976991952599166 0.024523218557811324 0 0.0059407164636343917 0.024773468712163661 0 0.0057390773977460527 0.024608457424120603 0 0.0060976991952599166 0.024523218557811324 0 0.0035947876921597699 0.0085170614692803379 0 0.003455744019582054 0.0059906991337245049 0 0.0034811094762720067 0.0078698407361802933 0 0.0032389582276558687 0.0079024101425255195 0 0.003478186653766843 0.0080223941968324136 0 0.0035746702544880759 0.0079286771807725864 0 0.0033259566986910145 0.0084799054531290389 0 0.0034811094762720067 0.0078698407361802933 0 0.0036238513096757017 0.0078118913134201133 0 0.003521293866631546 0.0079631824463978519 0 0.0034811094762720067 0.0078698407361802933 0 0.0035849271618503247 0.007861724264566966 0 0.0032389582276558687 0.0079024101425255195 0 0.0037223988305271033 0.0078272107665178954 0 0.0036238513096757017 0.0078118913134201133 0 0.003521293866631546 0.0079631824463978519 0 0.0025585213730227666 0.0040912046277488383 0 0.003455744019582054 0.0059906991337245049 0 0.0037442772030177756 0.0076282372509159212 0 0.0036238513096757017 0.0078118913134201133 0 0.0035849271618503247 0.007861724264566966 0 0.0035849271618503247 0.007861724264566966 0 0.0033180251920128688 0.0079496684317762068 0 0.003504631672755049 0.008960985732842295 0 0.0034811094762720067 0.0078698407361802933 0 0.0036238513096757017 0.0078118913134201133 0 0.0035849271618503247 0.007861724264566966 0 0.0033180251920128688 0.0079496684317762068 0 0.0030523990287136859 0.0082194696717196349 0 0.003504631672755049 0.008960985732842295 0 0.0033180251920128688 0.0079496684317762068 0 0.0030766334381204558 0.0080985408330983399 0 0.0030523990287136859 0.0082194696717196349 0 0.0030766334381204558 0.0080985408330983399 0 0.0030523990287136859 0.0082194696717196349 0 0.0031010363509751653 0.008181174958020121 0 0.0029228014881712049 0.0082054201538313189 0 0.0030766334381204558 0.0080985408330983399 0 0.0031010363509751653 0.008181174958020121 0 0.0029228014881712049 0.0082054201538313189 0 0.0032308489473647185 0.0082399786090111646 0 0.0031010363509751653 0.008181174958020121 0 0.0031668547186335235 0.0081503205991354244 0 0.0030523990287136859 0.0082194696717196349 0 0.0031010363509751653 0.008181174958020121 0 0.0025887421502485642 0.0078506698288572669 0 0.0028742638881799941 0.0084301211360176594 0 0.0016775518740344249 0.0089683587654866507 0 0.0030523990287136859 0.0082194696717196349 0 0.0026363178586455054 0.0094502382389965948 0 0.0030523990287136859 0.0082194696717196349 0 0.003504631672755049 0.008960985732842295 0 0.0026363178586455054 0.0094502382389965948 0 0.0032389582276558687 0.0079024101425255195 0 0.0030638686395058718 0.0081533633289352873 0 0.0027916477676140244 0.0082722745416730012 0 0.0033259566986910145 0.0084799054531290389 0 0.0028599245227694881 0.0094349850520532245 0 0.003504631672755049 0.008960985732842295 0 0.0026363178586455054 0.0094502382389965948 0 0.0027836935880965752 0.010680863796223995 0 0.0030638686395058718 0.0081533633289352873 0 0.003041924741933454 0.0083253819971086523 0 0.0031881349698608631 0.0082083201590064953 0 0.0020379723624323639 0.0099886186960220121 0 0.0026363178586455054 0.0094502382389965948 0 0.0027836935880965752 0.010680863796223995 0 0.0016775518740344249 0.0089683587654866507 0 0.0020379723624323639 0.0099886186960220121 0 0.0026363178586455054 0.0094502382389965948 0 0.0020379723624323639 0.0099886186960220121 0 0.001849815319127823 0.010912417786192183 0 0.0027836935880965752 0.010680863796223995 0 0.0012719255544364231 0.010029905008353428 0 0.0020379723624323639 0.0099886186960220121 0 0.001849815319127823 0.010912417786192183 0 0.0028599245227694881 0.0094349850520532245 0 0.0016137906259608035 0.010654776374623448 0 0.0027836935880965752 0.010680863796223995 0 0.0017394889896748893 0.011692457008466472 0 0.0017228609158021625 0.012439422595325215 0 0.0027916477676140244 0.0082722745416730012 0 0.0027463919352027602 0.008493568581751515 0 0.0025632193529681845 0.0086161210899333741 0 0.001849815319127823 0.010912417786192183 0 0.0027836935880965752 0.010680863796223995 0 0.0017394889896748893 0.011692457008466472 0 0.0027916477676140244 0.0082722745416730012 0 0.0027463919352027602 0.008493568581751515 0 0.0028201315149604424 0.0084809070241967065 0 0.0030638686395058718 0.0081533633289352873 0 0.0027916477676140244 0.0082722745416730012 0 0.003041924741933454 0.0083253819971086523 0 0.0027916477676140244 0.0082722745416730012 0 0.003041924741933454 0.0083253819971086523 0 0.0028201315149604424 0.0084809070241967065 0 0.0027441207195632021 0.0084464325586860369 0 0.0033131193655745505 0.008386060542566711 0 0.003041924741933454 0.0083253819971086523 0 0.0028201315149604424 0.0084809070241967065 0 0.0031527928546492647 0.0084724641586717189 0 0.0028201315149604424 0.0084809070241967065 0 0.0027945494086523926 0.0084810089909882133 0 0.0027908703085256941 0.0085308546022224725 0 0.003041924741933454 0.0083253819971086523 0 0.0032241520192304129 0.0083447489670822987 0 0.0031527928546492647 0.0084724641586717189 0 0.0032241520192304129 0.0083447489670822987 0 0.0031527928546492647 0.0084724641586717189 0 0.0033667544374797681 0.0084626425294156114 0 0.0032241520192304129 0.0083447489670822987 0 0.0033379527367941647 0.0082420357856825832 0 0.0033667544374797681 0.0084626425294156114 0 0.0026027934499116218 0.0039858316509981404 0 0.0017631501477916565 0.0050800953240573415 0 0.0032241520192304129 0.0083447489670822987 0 0.0033379527367941647 0.0082420357856825832 0 0.0031881349698608631 0.0082083201590064953 0 0.003041924741933454 0.0083253819971086523 0 0.0032241520192304129 0.0083447489670822987 0 0.0031881349698608631 0.0082083201590064953 0 0.0028689175065761342 0.0084004597494777046 0 0.003455744019582054 0.0059906991337245049 0 0.0032389582276558687 0.0079024101425255195 0 0.0030638686395058718 0.0081533633289352873 0 0.003478186653766843 0.0080223941968324136 0 0.0030638686395058718 0.0081533633289352873 0 0.0031881349698608631 0.0082083201590064953 0 0.003299226215778489 0.0080179162745613076 0 0.0033379527367941647 0.0082420357856825832 0 0.0031881349698608631 0.0082083201590064953 0 0.003299226215778489 0.0080179162745613076 0 0.0026027934499116218 0.0039858316509981404 0 0.003455744019582054 0.0059906991337245049 0 0.0015864691070217873 0.00089319631906866208 0 0.0020840157866919848 0.00074172761736320306 0 0.0017562846481955596 0.00056249018871950575 0 0.0020274479237185864 0.00041500725910799527 0 0.0020840157866919848 0.00074172761736320306 0 0.0017562846481955596 0.00056249018871950575 0 0.0020274479237185864 0.00041500725910799527 0 0.0016848511568348754 0.00029286389840247219 0 0.0019704958618049924 0.00010142096427571906 0 0.0020274479237185864 0.00041500725910799527 0 0.0017562846481955596 0.00056249018871950575 0 0.0016848511568348754 0.00029286389840247219 0 0.001521667840961687 -2.3573472207165776e-06 0 0.0016848511568348754 0.00029286389840247219 0 0.0019704958618049924 0.00010142096427571906 0 0.00060922187984357589 0.0029703177340092467 0 -0.00046067319164390066 0.0026265214376267232 0 -0.00017991816630866231 0.0046175013326632229 0 0.00084710804847585913 0.0028526685603872661 0 0.00060922187984357589 0.0029703177340092467 0 -0.00046067319164390066 0.0026265214376267232 0 0.00091056562575433627 0.0011601234607577762 0 0.0017631501477916565 0.0050800953240573415 0 0.0033131193655745505 0.008386060542566711 0 0.0017631501477916565 0.0050800953240573415 0 0.0027945494086523926 0.0084810089909882133 0 0.0032305461201635501 0.0084295631919620202 0 0.0027823326985862377 0.0086227388295329627 0 0.0027823326985862377 0.0086227388295329627 0 0.0030332676413370994 0.0089632150157104937 0 0.0027044182527019801 0.0090791565829452855 0 0.0032305461201635501 0.0084295631919620202 0 0.0027823326985862377 0.0086227388295329627 0 0.0030332676413370994 0.0089632150157104937 0 0.0030332676413370994 0.0089632150157104937 0 0.0029710585047230832 0.0093243582041873524 0 0.003468587612020508 0.0094949745505017759 0 0.0030332676413370994 0.0089632150157104937 0 0.0027044182527019801 0.0090791565829452855 0 0.0029710585047230832 0.0093243582041873524 0 0.0026743521740265393 0.0094415787209234346 0 0.0029710585047230832 0.0093243582041873524 0 0.002752837654053519 0.0097954299378535097 0 0.0027044182527019801 0.0090791565829452855 0 0.0026743521740265393 0.0094415787209234346 0 0.0029710585047230832 0.0093243582041873524 0 0.0029710585047230832 0.0093243582041873524 0 0.003468587612020508 0.0094949745505017759 0 0.0030816885641191932 0.0097763420433659882 0 0.0017631501477916565 0.0050800953240573415 0 0.0016052504065858792 0.0071670586170550837 0 0.00060922187984357589 0.0029703177340092467 0 0.00082022578228837433 0.0049016651002227393 0 -0.00017991816630866231 0.0046175013326632229 0 0.0032305461201635501 0.0084295631919620202 0 0.0030332676413370994 0.0089632150157104937 0 0.003468587612020508 0.0094949745505017759 0 0.0012809442871101291 0.0086061859292110316 0 0.0016303310573448305 0.0088925598412032507 0 0.0020017269471929262 0.0086044643532504142 0 0.0027463919352027602 0.008493568581751515 0 0.0025632193529681845 0.0086161210899333741 0 0.0027881897432315461 0.0085552652192877471 0 0.0016137906259608035 0.010654776374623448 0 0.0024390548136146227 0.008614359891129764 0 0.0012230662403690175 0.0086936724577417693 0 0.0012809442871101291 0.0086061859292110316 0 0.0016303310573448305 0.0088925598412032507 0 0.0016303310573448305 0.0088925598412032507 0 0.0020017269471929262 0.0086044643532504142 0 0.0020001136558584378 0.009173891646917353 0 0.0027297624804505593 0.0086110040537621859 0 0.0024390548136146227 0.008614359891129764 0 0.0027823326985862377 0.0086227388295329627 0 0.0020017269471929262 0.0086044643532504142 0 0.0023622793717276288 0.0089586227609359786 0 0.0027823326985862377 0.0086227388295329627 0 0.0027881897432315461 0.0085552652192877471 0 0.0027908703085256941 0.0085308546022224725 0 0.0020017269471929262 0.0086044643532504142 0 0.0023622793717276288 0.0089586227609359786 0 0.0020001136558584378 0.009173891646917353 0 0.0027463919352027602 0.008493568581751515 0 0.0028201315149604424 0.0084809070241967065 0 0.0027881897432315461 0.0085552652192877471 0 0.0028201315149604424 0.0084809070241967065 0 0.0027881897432315461 0.0085552652192877471 0 0.0027908703085256941 0.0085308546022224725 0 0.0027945494086523926 0.0084810089909882133 0 0.0027823326985862377 0.0086227388295329627 0 0.0027908703085256941 0.0085308546022224725 0 0.0027823326985862377 0.0086227388295329627 0 0.0027044182527019801 0.0090791565829452855 0 0.0023622793717276288 0.0089586227609359786 0 0.0027044182527019801 0.0090791565829452855 0 0.0023622793717276288 0.0089586227609359786 0 0.0023358100919247358 0.0094101269044679602 0 0.0026743521740265393 0.0094415787209234346 0 0.0023358100919247358 0.0094101269044679602 0 0.0023203318034477954 0.0098954411623921879 0 0.0027044182527019801 0.0090791565829452855 0 0.0026743521740265393 0.0094415787209234346 0 0.0023358100919247358 0.0094101269044679602 0 0.0023358100919247358 0.0094101269044679602 0 0.0020001136558584378 0.009173891646917353 0 0.0020345566846222372 0.0096565378345189641 0 0.0023622793717276288 0.0089586227609359786 0 0.0023358100919247358 0.0094101269044679602 0 0.0020001136558584378 0.009173891646917353 0 0.0011086688396279517 0.0098454759328713021 0 0.0016303310573448305 0.0088925598412032507 0 0.0017045028697019494 0.0095242631208779654 0 0.0011086688396279517 0.0098454759328713021 0 0.0012230662403690175 0.0086936724577417693 0 0.0016303310573448305 0.0088925598412032507 0 0.0016303310573448305 0.0088925598412032507 0 0.0020001136558584378 0.009173891646917353 0 0.0017045028697019494 0.0095242631208779654 0 0.0020001136558584378 0.009173891646917353 0 0.0017045028697019494 0.0095242631208779654 0 0.0020345566846222372 0.0096565378345189641 0 0.0011086688396279517 0.0098454759328713021 0 0.0017767669027372091 0.010049783054817083 0 0.0014134799181433984 0.010521680872392912 0 0.0011086688396279517 0.0098454759328713021 0 0.0017045028697019494 0.0095242631208779654 0 0.0017767669027372091 0.010049783054817083 0 0.0017045028697019494 0.0095242631208779654 0 0.0017767669027372091 0.010049783054817083 0 0.0020345566846222372 0.0096565378345189641 0 0.0017767669027372091 0.010049783054817083 0 0.0023203318034477954 0.0098954411623921879 0 0.0019759603055307393 0.010407226343993806 0 0.0023358100919247358 0.0094101269044679602 0 0.0020345566846222372 0.0096565378345189641 0 0.0023203318034477954 0.0098954411623921879 0 0.0017767669027372091 0.010049783054817083 0 0.0020345566846222372 0.0096565378345189641 0 0.0023203318034477954 0.0098954411623921879 0 0.0026743521740265393 0.0094415787209234346 0 0.0023203318034477954 0.0098954411623921879 0 0.002752837654053519 0.0097954299378535097 0 0.0023203318034477954 0.0098954411623921879 0 0.0025126708489128275 0.010300582665127829 0 0.002752837654053519 0.0097954299378535097 0 0.0023203318034477954 0.0098954411623921879 0 0.0025126708489128275 0.010300582665127829 0 0.0019759603055307393 0.010407226343993806 0 0.0025126708489128275 0.010300582665127829 0 0.0022323313445193659 0.010684014580843908 0 0.0025770958378931287 0.010635629195712402 0 0.002705146683859076 0.0109427129414251 0 0.0025770958378931287 0.010635629195712402 0 0.002313263925233349 0.011126947528335153 0 0.0022323313445193659 0.010684014580843908 0 0.0025770958378931287 0.010635629195712402 0 0.002313263925233349 0.011126947528335153 0 0.0022323313445193659 0.010684014580843908 0 0.0017393752597384172 0.010805939259401208 0 0.0019828928509489294 0.011051560841933556 0 0.0022323313445193659 0.010684014580843908 0 0.0019759603055307393 0.010407226343993806 0 0.0017393752597384172 0.010805939259401208 0 0.0025126708489128275 0.010300582665127829 0 0.0022323313445193659 0.010684014580843908 0 0.0019759603055307393 0.010407226343993806 0 0.0019759603055307393 0.010407226343993806 0 0.0017393752597384172 0.010805939259401208 0 0.0014134799181433984 0.010521680872392912 0 0.0017767669027372091 0.010049783054817083 0 0.0019759603055307393 0.010407226343993806 0 0.0014134799181433984 0.010521680872392912 0 0.0017393752597384172 0.010805939259401208 0 0.0013931434752826883 0.010938061150045243 0 0.0014134799181433984 0.010521680872392912 0 0.0013931434752826883 0.010938061150045243 0 0.0014134799181433984 0.010521680872392912 0 0.0009988179229243957 0.010992737237672587 0 0.00082022578228837433 0.0049016651002227393 0 -0.00017991816630866231 0.0046175013326632229 0 0.00021686806125987331 0.0068032110817829216 0 0.003468587612020508 0.0094949745505017759 0 0.0032258671821066421 0.010186796973912549 0 0.0036533344566268477 0.010691602187710134 0 0.003468587612020508 0.0094949745505017759 0 0.0032258671821066421 0.010186796973912549 0 0.0030816885641191932 0.0097763420433659882 0 0.0016052504065858792 0.0071670586170550837 0 0.0019204740586269704 0.0086787913546434881 0 0.0029710585047230832 0.0093243582041873524 0 0.0030816885641191932 0.0097763420433659882 0 0.002752837654053519 0.0097954299378535097 0 0.0030816885641191932 0.0097763420433659882 0 0.002752837654053519 0.0097954299378535097 0 0.0028963393723300938 0.010116697012577927 0 0.0025126708489128275 0.010300582665127829 0 0.002752837654053519 0.0097954299378535097 0 0.0028963393723300938 0.010116697012577927 0 0.0032258671821066421 0.010186796973912549 0 0.0030816885641191932 0.0097763420433659882 0 0.0028963393723300938 0.010116697012577927 0 0.0032258671821066421 0.010186796973912549 0 0.0029093988067882817 0.010525684354856409 0 0.0032700529663776496 0.010634903705312232 0 0.0032258671821066421 0.010186796973912549 0 0.0028963393723300938 0.010116697012577927 0 0.0029093988067882817 0.010525684354856409 0 0.0025126708489128275 0.010300582665127829 0 0.0029093988067882817 0.010525684354856409 0 0.0025770958378931287 0.010635629195712402 0 0.0025126708489128275 0.010300582665127829 0 0.0028963393723300938 0.010116697012577927 0 0.0029093988067882817 0.010525684354856409 0 0.0029093988067882817 0.010525684354856409 0 0.002705146683859076 0.0109427129414251 0 0.0025770958378931287 0.010635629195712402 0 0.0029093988067882817 0.010525684354856409 0 0.002705146683859076 0.0109427129414251 0 0.0031123675238473236 0.010861666561972015 0 0.0029093988067882817 0.010525684354856409 0 0.0031123675238473236 0.010861666561972015 0 0.0032700529663776496 0.010634903705312232 0 0.0031123675238473236 0.010861666561972015 0 0.0033763251890853957 0.010892998921160149 0 0.0032700529663776496 0.010634903705312232 0 0.0033763251890853957 0.010892998921160149 0 0.0032700529663776496 0.010634903705312232 0 0.0036533344566268477 0.010691602187710134 0 0.0032258671821066421 0.010186796973912549 0 0.0032700529663776496 0.010634903705312232 0 0.0036533344566268477 0.010691602187710134 0 0.0033763251890853957 0.010892998921160149 0 0.0036533344566268477 0.010691602187710134 0 0.0035662844497144825 0.01114609126195233 0 0.0036533344566268477 0.010691602187710134 0 0.0035662844497144825 0.01114609126195233 0 0.0038074848512383241 0.011860707253614895 0 0.0035662844497144825 0.01114609126195233 0 0.0038074848512383241 0.011860707253614895 0 0.0036028035715655127 0.011610721492500083 0 0.0019204740586269704 0.0086787913546434881 0 0.0023284380037487513 0.010565769684273784 0 0.00095833522142161601 0.0069386816337939543 0 0.00021686806125987331 0.0068032110817829216 0 0.00062640771231947385 0.0089103843110952645 0 0.0035662844497144825 0.01114609126195233 0 0.0036028035715655127 0.011610721492500083 0 0.003480349457651348 0.01159761226776701 0 0.0031778647593716778 0.011383233837803753 0 0.0031256506976614761 0.011683045304844724 0 0.003480349457651348 0.01159761226776701 0 0.0035662844497144825 0.01114609126195233 0 0.0033795172377109823 0.01131454771904189 0 0.003480349457651348 0.01159761226776701 0 0.0033795172377109823 0.01131454771904189 0 0.0031778647593716778 0.011383233837803753 0 0.003480349457651348 0.01159761226776701 0 0.0033795172377109823 0.01131454771904189 0 0.0032796657167925604 0.011127757704256759 0 0.0031778647593716778 0.011383233837803753 0 0.0035662844497144825 0.01114609126195233 0 0.0033795172377109823 0.01131454771904189 0 0.0032796657167925604 0.011127757704256759 0 0.0033763251890853957 0.010892998921160149 0 0.0035662844497144825 0.01114609126195233 0 0.0032796657167925604 0.011127757704256759 0 0.0031123675238473236 0.010861666561972015 0 0.0033763251890853957 0.010892998921160149 0 0.0032796657167925604 0.011127757704256759 0 0.0031123675238473236 0.010861666561972015 0 0.0032796657167925604 0.011127757704256759 0 0.0029901916561747457 0.011152590241077801 0 0.002705146683859076 0.0109427129414251 0 0.0031123675238473236 0.010861666561972015 0 0.0029901916561747457 0.011152590241077801 0 0.0032796657167925604 0.011127757704256759 0 0.0029901916561747457 0.011152590241077801 0 0.0031778647593716778 0.011383233837803753 0 0.002705146683859076 0.0109427129414251 0 0.0027535408570328736 0.011290122081383969 0 0.0025203630616632772 0.011287716562280732 0 0.002705146683859076 0.0109427129414251 0 0.0029901916561747457 0.011152590241077801 0 0.0027535408570328736 0.011290122081383969 0 0.0027535408570328736 0.011290122081383969 0 0.0026579678880787878 0.011530891154821411 0 0.0025203630616632772 0.011287716562280732 0 0.0027535408570328736 0.011290122081383969 0 0.0026579678880787878 0.011530891154821411 0 0.0029292992112404923 0.011475216930875245 0 0.0026579678880787878 0.011530891154821411 0 0.0029292992112404923 0.011475216930875245 0 0.0028269418609700551 0.011756712398727292 0 0.0029901916561747457 0.011152590241077801 0 0.0027535408570328736 0.011290122081383969 0 0.0029292992112404923 0.011475216930875245 0 0.0029901916561747457 0.011152590241077801 0 0.0031778647593716778 0.011383233837803753 0 0.0029292992112404923 0.011475216930875245 0 0.0031778647593716778 0.011383233837803753 0 0.0029292992112404923 0.011475216930875245 0 0.0031256506976614761 0.011683045304844724 0 0.0031256506976614761 0.011683045304844724 0 0.0030292319158302461 0.012031850115476011 0 0.0033154161219519978 0.011928998822591203 0 0.0031256506976614761 0.011683045304844724 0 0.0028269418609700551 0.011756712398727292 0 0.0030292319158302461 0.012031850115476011 0 0.0029292992112404923 0.011475216930875245 0 0.0031256506976614761 0.011683045304844724 0 0.0028269418609700551 0.011756712398727292 0 0.0028269418609700551 0.011756712398727292 0 0.0027090828376176448 0.012118202584888826 0 0.0025337624182479299 0.011819794745279845 0 0.0026579678880787878 0.011530891154821411 0 0.0028269418609700551 0.011756712398727292 0 0.0025337624182479299 0.011819794745279845 0 0.0028269418609700551 0.011756712398727292 0 0.0027090828376176448 0.012118202584888826 0 0.0030292319158302461 0.012031850115476011 0 0.0030292319158302461 0.012031850115476011 0 0.003267501155862669 0.012282562277382504 0 0.002930064177695087 0.012417168778570738 0 0.0027090828376176448 0.012118202584888826 0 0.0030292319158302461 0.012031850115476011 0 0.002930064177695087 0.012417168778570738 0 0.0030292319158302461 0.012031850115476011 0 0.0033154161219519978 0.011928998822591203 0 0.003267501155862669 0.012282562277382504 0 0.0033154161219519978 0.011928998822591203 0 0.0035037949850007469 0.012095188928319303 0 0.003267501155862669 0.012282562277382504 0 0.0033154161219519978 0.011928998822591203 0 0.0035037949850007469 0.012095188928319303 0 0.0035578263536197503 0.011837047811219529 0 0.0035037949850007469 0.012095188928319303 0 0.0038074848512383241 0.011860707253614895 0 0.0035715396746643919 0.012487280637696748 0 0.0035037949850007469 0.012095188928319303 0 0.0035578263536197503 0.011837047811219529 0 0.0038074848512383241 0.011860707253614895 0 0.0035578263536197503 0.011837047811219529 0 0.0038074848512383241 0.011860707253614895 0 0.0036028035715655127 0.011610721492500083 0 0.0035578263536197503 0.011837047811219529 0 0.0036028035715655127 0.011610721492500083 0 0.003480349457651348 0.01159761226776701 0 0.0031256506976614761 0.011683045304844724 0 0.0033154161219519978 0.011928998822591203 0 0.003480349457651348 0.01159761226776701 0 0.0033154161219519978 0.011928998822591203 0 0.0035578263536197503 0.011837047811219529 0 0.003480349457651348 0.01159761226776701 0 0.0012838728381818153 0.011541227418341004 0 0.0015768646749510942 0.011219672924690801 0 0.00159138133826295 0.011661246871449709 0 0.0012838728381818153 0.011541227418341004 0 0.001279345387605932 0.011184699650441448 0 0.0015768646749510942 0.011219672924690801 0 0.0017393752597384172 0.010805939259401208 0 0.0013931434752826883 0.010938061150045243 0 0.0015768646749510942 0.011219672924690801 0 0.0013931434752826883 0.010938061150045243 0 0.001279345387605932 0.011184699650441448 0 0.0015768646749510942 0.011219672924690801 0 0.0015768646749510942 0.011219672924690801 0 0.0019450132430817075 0.011368094975242955 0 0.0019828928509489294 0.011051560841933556 0 0.0017393752597384172 0.010805939259401208 0 0.0015768646749510942 0.011219672924690801 0 0.0019828928509489294 0.011051560841933556 0 0.0015768646749510942 0.011219672924690801 0 0.0019450132430817075 0.011368094975242955 0 0.00159138133826295 0.011661246871449709 0 0.0019450132430817075 0.011368094975242955 0 0.0019943011771109695 0.011819201297766488 0 0.00159138133826295 0.011661246871449709 0 0.0019450132430817075 0.011368094975242955 0 0.0021388112389791273 0.011550470818685342 0 0.002313263925233349 0.011126947528335153 0 0.0019450132430817075 0.011368094975242955 0 0.0021388112389791273 0.011550470818685342 0 0.0019943011771109695 0.011819201297766488 0 0.0019450132430817075 0.011368094975242955 0 0.0019828928509489294 0.011051560841933556 0 0.002313263925233349 0.011126947528335153 0 0.0022323313445193659 0.010684014580843908 0 0.0019828928509489294 0.011051560841933556 0 0.002313263925233349 0.011126947528335153 0 0.002705146683859076 0.0109427129414251 0 0.002313263925233349 0.011126947528335153 0 0.0025203630616632772 0.011287716562280732 0 0.0021388112389791273 0.011550470818685342 0 0.002313263925233349 0.011126947528335153 0 0.0023900914057889042 0.011530242378878994 0 0.002313263925233349 0.011126947528335153 0 0.0025203630616632772 0.011287716562280732 0 0.0023900914057889042 0.011530242378878994 0 0.0026579678880787878 0.011530891154821411 0 0.0025203630616632772 0.011287716562280732 0 0.0023900914057889042 0.011530242378878994 0 0.0022749470392627487 0.011779071473697059 0 0.0025337624182479299 0.011819794745279845 0 0.0023177026815974365 0.012174776092840681 0 0.0026579678880787878 0.011530891154821411 0 0.0023900914057889042 0.011530242378878994 0 0.0025337624182479299 0.011819794745279845 0 0.0023900914057889042 0.011530242378878994 0 0.0022749470392627487 0.011779071473697059 0 0.0025337624182479299 0.011819794745279845 0 0.0021388112389791273 0.011550470818685342 0 0.0023900914057889042 0.011530242378878994 0 0.0022749470392627487 0.011779071473697059 0 0.0027090828376176448 0.012118202584888826 0 0.0025337624182479299 0.011819794745279845 0 0.0023177026815974365 0.012174776092840681 0 0.0023177026815974365 0.012174776092840681 0 0.0019456709747556361 0.012227200979425961 0 0.0019943011771109695 0.011819201297766488 0 0.0022749470392627487 0.011779071473697059 0 0.0023177026815974365 0.012174776092840681 0 0.0019943011771109695 0.011819201297766488 0 0.0021388112389791273 0.011550470818685342 0 0.0022749470392627487 0.011779071473697059 0 0.0019943011771109695 0.011819201297766488 0 0.0019943011771109695 0.011819201297766488 0 0.00159138133826295 0.011661246871449709 0 0.001713527513420946 0.012008051328915477 0 0.0019456709747556361 0.012227200979425961 0 0.001713527513420946 0.012008051328915477 0 0.0016343484378049658 0.012391711745803131 0 0.0019456709747556361 0.012227200979425961 0 0.0019943011771109695 0.011819201297766488 0 0.001713527513420946 0.012008051328915477 0 0.001713527513420946 0.012008051328915477 0 0.0013557576727760818 0.012054570843511856 0 0.0016343484378049658 0.012391711745803131 0 0.0012838728381818153 0.011541227418341004 0 0.00159138133826295 0.011661246871449709 0 0.0013557576727760818 0.012054570843511856 0 0.00159138133826295 0.011661246871449709 0 0.001713527513420946 0.012008051328915477 0 0.0013557576727760818 0.012054570843511856 0 0.001636205527701293 0.012790794271728936 0 0.0016111541617217894 0.013300695316625942 0 0.0012297392886588406 0.012705654240666484 0 0.0016343484378049658 0.012391711745803131 0 0.001636205527701293 0.012790794271728936 0 0.0012297392886588406 0.012705654240666484 0 0.0013557576727760818 0.012054570843511856 0 0.0016343484378049658 0.012391711745803131 0 0.0012297392886588406 0.012705654240666484 0 0.0019456709747556361 0.012227200979425961 0 0.0016343484378049658 0.012391711745803131 0 0.0020583839745275134 0.012763923249307418 0 0.0016343484378049658 0.012391711745803131 0 0.001636205527701293 0.012790794271728936 0 0.0020583839745275134 0.012763923249307418 0 0.0020583839745275134 0.012763923249307418 0 0.0025389503729691333 0.012542458574295473 0 0.0027213087521245345 0.013017224065675296 0 0.0023177026815974365 0.012174776092840681 0 0.0019456709747556361 0.012227200979425961 0 0.0020583839745275134 0.012763923249307418 0 0.0023177026815974365 0.012174776092840681 0 0.0020583839745275134 0.012763923249307418 0 0.0025389503729691333 0.012542458574295473 0 0.0027090828376176448 0.012118202584888826 0 0.0023177026815974365 0.012174776092840681 0 0.0025389503729691333 0.012542458574295473 0 0.0020583839745275134 0.012763923249307418 0 0.0022777537980393473 0.013466293240745074 0 0.0016111541617217894 0.013300695316625942 0 0.0020583839745275134 0.012763923249307418 0 0.0022777537980393473 0.013466293240745074 0 0.0027213087521245345 0.013017224065675296 0 0.001636205527701293 0.012790794271728936 0 0.0020583839745275134 0.012763923249307418 0 0.0016111541617217894 0.013300695316625942 0 0.0038074848512383241 0.011860707253614895 0 0.0035715396746643919 0.012487280637696748 0 0.0039673575192977302 0.012993980949284306 0 0.0032181790330116349 0.012679094296491963 0 0.0035715396746643919 0.012487280637696748 0 0.0033859586529369629 0.013051856606051324 0 0.0035715396746643919 0.012487280637696748 0 0.0033859586529369629 0.013051856606051324 0 0.0039673575192977302 0.012993980949284306 0 0.0035037949850007469 0.012095188928319303 0 0.0035715396746643919 0.012487280637696748 0 0.003267501155862669 0.012282562277382504 0 0.0032181790330116349 0.012679094296491963 0 0.0035715396746643919 0.012487280637696748 0 0.003267501155862669 0.012282562277382504 0 0.0032181790330116349 0.012679094296491963 0 0.003267501155862669 0.012282562277382504 0 0.002930064177695087 0.012417168778570738 0 0.0027090828376176448 0.012118202584888826 0 0.0025389503729691333 0.012542458574295473 0 0.002930064177695087 0.012417168778570738 0 0.0025389503729691333 0.012542458574295473 0 0.002930064177695087 0.012417168778570738 0 0.0027213087521245345 0.013017224065675296 0 0.0032181790330116349 0.012679094296491963 0 0.002930064177695087 0.012417168778570738 0 0.0027213087521245345 0.013017224065675296 0 0.0022777537980393473 0.013466293240745074 0 0.0027213087521245345 0.013017224065675296 0 0.0031543249223590325 0.013594645683664058 0 0.0027213087521245345 0.013017224065675296 0 0.0033859586529369629 0.013051856606051324 0 0.0031543249223590325 0.013594645683664058 0 0.0032181790330116349 0.012679094296491963 0 0.0027213087521245345 0.013017224065675296 0 0.0033859586529369629 0.013051856606051324 0 0.002581179530864747 0.014123977419443191 0 0.0017223061594515601 0.01118439809533036 0 0.0033859586529369629 0.013051856606051324 0 0.0031543249223590325 0.013594645683664058 0 0.0039673575192977302 0.012993980949284306 0 0.0017869831162985357 0.014121110169991622 0 0.0018845864081236162 0.014115494826397361 0 0.0017546485553230204 0.014193967023462969 0 0.0017869831162985357 0.014121110169991622 0 0.0018845864081236162 0.014115494826397361 0 0.0018295109273798369 0.014064278462660671 0 0.0018845864081236162 0.014115494826397361 0 0.0018295109273798369 0.014064278462660671 0 0.0019261992099934022 0.01399949003029703 0 0.0018295109273798369 0.014064278462660671 0 0.0019261992099934022 0.01399949003029703 0 0.0015350472417594485 0.01379978431447716 0 0.0019261992099934022 0.01399949003029703 0 0.0019366405309150952 0.014048928366198766 0 0.0019666295356741735 0.014134033736655883 0 0.0022777537980393473 0.013466293240745074 0 0.0031543249223590325 0.013594645683664058 0 0.002323641618453763 0.014113075785497172 0 0.002581179530864747 0.014123977419443191 0 0.0021347136024911346 0.014042679463974103 0 0.0018845864081236162 0.014115494826397361 0 0.0019261992099934022 0.01399949003029703 0 0.0019366405309150952 0.014048928366198766 0 0.0022777537980393473 0.013466293240745074 0 0.0018653828244861053 0.013923959321401847 0 0.002323641618453763 0.014113075785497172 0 0.0016111541617217894 0.013300695316625942 0 0.0018653828244861053 0.013923959321401847 0 0.0014161921195512941 0.013999405817968023 0 0.0022777537980393473 0.013466293240745074 0 0.0016111541617217894 0.013300695316625942 0 0.0018653828244861053 0.013923959321401847 0 0.0018653828244861053 0.013923959321401847 0 0.0017102676931844861 0.014311768747413139 0 0.0014161921195512941 0.013999405817968023 0 0.0017102676931844861 0.014311768747413139 0 0.0019366405309150952 0.014048928366198766 0 0.0019666295356741735 0.014134033736655883 0 0.0017520118291967533 0.014304149379404862 0 0.0021347136024911346 0.014042679463974103 0 0.0018653828244861053 0.013923959321401847 0 0.0017102676931844861 0.014311768747413139 0 0.002323641618453763 0.014113075785497172 0 0.0017102676931844861 0.014311768747413139 0 0.0017997316656982003 0.014537504426630704 0 0.0019666295356741735 0.014134033736655883 0 0.0017102676931844861 0.014311768747413139 0 0.0017997316656982003 0.014537504426630704 0 0.0013165577434438012 0.014710809175190277 0 0.0017997316656982003 0.014537504426630704 0 0.0015321541954828705 0.015026903994103412 0 0.0018043105789215697 0.014881017372704357 0 0.0017997316656982003 0.014537504426630704 0 0.0015321541954828705 0.015026903994103412 0 0.0013165577434438012 0.014710809175190277 0 0.0017997316656982003 0.014537504426630704 0 0.0019811108600637376 0.014174461147306373 0 0.0019666295356741735 0.014134033736655883 0 0.0017997316656982003 0.014537504426630704 0 0.0019811108600637376 0.014174461147306373 0 0.0018043105789215697 0.014881017372704357 0 0.0019811108600637376 0.014174461147306373 0 0.0019435647893967672 0.013604338728365339 0 0.0019666295356741735 0.014134033736655883 0 0.0019811108600637376 0.014174461147306373 0 0.0019435647893967672 0.013604338728365339 0 0.0019333233267489485 0.013633832393699452 0 0.0019261992099934022 0.01399949003029703 0 0.0019435647893967672 0.013604338728365339 0 0.0015350472417594485 0.01379978431447716 0 0.0019261992099934022 0.01399949003029703 0 0.0019435647893967672 0.013604338728365339 0 0.0019666295356741735 0.014134033736655883 0 -0.00060725416629499112 0.016538990586505844 0 -0.001630339888471202 0.015807150359975954 0 -0.00047202418398884703 0.015182188118438184 0 -0.001630339888471202 0.015807150359975954 0 -0.001636619864829175 0.016983494568649254 0 -0.0021773325495028691 0.01779939223076377 0 -0.0023620745010286149 0.018237858279683872 0 -0.0021773325495028691 0.01779939223076377 0 -0.0020858876454815109 0.018145971282666817 0 -0.0019810528626101409 0.017049375938732132 0 -0.0021785937798655701 0.017726342633185958 0 -0.00060725416629499112 0.016538990586505844 0 -0.001630339888471202 0.015807150359975954 0 -0.001636619864829175 0.016983494568649254 0 -0.00013789385954071951 0.015647369440472396 0 -0.0013309415002984515 0.016753635081324655 0 0.00038953617403436098 0.014737460969873644 0 -0.00065220047293073442 0.015657104596942695 0 -3.5825690382447089e-05 0.015550462996455952 0 -0.00060725416629499112 0.016538990586505844 0 -0.001636619864829175 0.016983494568649254 0 -0.0021195099897362837 0.017841400599287027 0 -0.001636619864829175 0.016983494568649254 0 -0.0021195099897362837 0.017841400599287027 0 -0.0021773325495028691 0.01779939223076377 0 -0.00065220047293073442 0.015657104596942695 0 -3.5825690382447089e-05 0.015550462996455952 0 -0.00024225852078589531 0.016173035592751312 0 -3.5825690382447089e-05 0.015550462996455952 0 0.00015054663240552711 0.015830166861441185 0 -0.00024225852078589531 0.016173035592751312 0 -3.5825690382447089e-05 0.015550462996455952 0 0.00033118215289433626 0.01544028183180883 0 0.00015054663240552711 0.015830166861441185 0 0.00033118215289433626 0.01544028183180883 0 0.00050716795653374218 0.015745354374236079 0 0.00015054663240552711 0.015830166861441185 0 0.00038953617403436098 0.014737460969873644 0 -3.5825690382447089e-05 0.015550462996455952 0 0.00033118215289433626 0.01544028183180883 0 0.00038953617403436098 0.014737460969873644 0 0.00033118215289433626 0.01544028183180883 0 0.00081766597129953762 0.015245467417834863 0 0.00033118215289433626 0.01544028183180883 0 0.00081766597129953762 0.015245467417834863 0 0.00050716795653374218 0.015745354374236079 0 0.00081766597129953762 0.015245467417834863 0 0.0013165577434438012 0.014710809175190277 0 0.0011998768917280043 0.015524048187583057 0 0.00081766597129953762 0.015245467417834863 0 0.0013165577434438012 0.014710809175190277 0 0.00091611862340847539 0.014716444542396208 0 0.0015321541954828705 0.015026903994103412 0 0.0013165577434438012 0.014710809175190277 0 0.0011998768917280043 0.015524048187583057 0 0.0017102676931844861 0.014311768747413139 0 0.0013165577434438012 0.014710809175190277 0 0.0010849973142560239 0.014248742520390132 0 0.00038953617403436098 0.014737460969873644 0 0.00091611862340847539 0.014716444542396208 0 0.0010849973142560239 0.014248742520390132 0 0.0013165577434438012 0.014710809175190277 0 0.00091611862340847539 0.014716444542396208 0 0.0010849973142560239 0.014248742520390132 0 -0.00013789385954071951 0.015647369440472396 0 0.00079465881605918578 0.01472238544038585 0 0.00038953617403436098 0.014737460969873644 0 0.00081766597129953762 0.015245467417834863 0 0.00091611862340847539 0.014716444542396208 0 0.00053560018016241993 0.015187180344705219 0 0.00021175571623877878 0.013934623905464766 0 -0.00047202418398884703 0.015182188118438184 0 0.00079465881605918578 0.01472238544038585 0 0.0013822799671072757 0.014067587346606212 0 0.0017102676931844861 0.014311768747413139 0 0.0010849973142560239 0.014248742520390132 0 0.0014161921195512941 0.013999405817968023 0 0.0014161921195512941 0.013999405817968023 0 0.00021175571623877878 0.013934623905464766 0 0.00082047502139540507 0.013321816103609127 0 0.00053560018016241993 0.015187180344705219 0 0.0014161921195512941 0.013999405817968023 0 0.00021175571623877878 0.013934623905464766 0 0.00021175571623877878 0.013934623905464766 0 -0.0007792572238531991 0.014182865404458614 0 -0.00047202418398884703 0.015182188118438184 0 -0.00060725416629499112 0.016538990586505844 0 0.00053560018016241993 0.015187180344705219 0 -0.00047202418398884703 0.015182188118438184 0 -0.001630339888471202 0.015807150359975954 0 -0.0007792572238531991 0.014182865404458614 0 -0.00047202418398884703 0.015182188118438184 0 -0.0019810528626101409 0.017049375938732132 0 -0.0015779797884742969 0.016330395158247 0 -0.0023620745010286149 0.018237858279683872 0 -0.0024283255595249015 0.018546587699917606 0 -0.0021817163943048208 0.018406333152974581 0 -0.0024283255595249015 0.018546587699917606 0 -0.0021817163943048208 0.018406333152974581 0 -0.002127852179160456 0.01865501589204949 0 -0.0024283255595249015 0.018546587699917606 0 -0.0022844121429825182 0.018791182509953496 0 -0.002127852179160456 0.01865501589204949 0 0.00021175571623877878 0.013934623905464766 0 -0.0007792572238531991 0.014182865404458614 0 -3.9072155172426152e-05 0.013141922472588104 0 -0.0024283255595249015 0.018546587699917606 0 -0.0022844121429825182 0.018791182509953496 0 -0.0024710023999643675 0.01877715156776532 0 -0.0015779797884742969 0.016330395158247 0 -0.0014272314048310688 0.016180141298366223 0 -0.0022844121429825182 0.018791182509953496 0 -0.0024710023999643675 0.01877715156776532 0 -0.0023645942604650977 0.018952908858462236 0 -0.0024710023999643675 0.01877715156776532 0 -0.002524829567123348 0.018965908497913589 0 -0.0023645942604650977 0.018952908858462236 0 -0.0022844121429825182 0.018791182509953496 0 -0.0022292180718062105 0.018966621282421124 0 -0.0023645942604650977 0.018952908858462236 0 0.0016111541617217894 0.013300695316625942 0 0.0014161921195512941 0.013999405817968023 0 0.00082047502139540507 0.013321816103609127 0 0.0016111541617217894 0.013300695316625942 0 0.00082047502139540507 0.013321816103609127 0 0.0012297392886588406 0.012705654240666484 0 0.00021175571623877878 0.013934623905464766 0 -3.9072155172426152e-05 0.013141922472588104 0 0.00082047502139540507 0.013321816103609127 0 -3.9072155172426152e-05 0.013141922472588104 0 0.00082047502139540507 0.013321816103609127 0 0.00058574883637010293 0.012951026176206854 0 -0.0014272314048310688 0.016180141298366223 0 -0.00010118328914703906 0.01489788043681485 0 -3.9072155172426152e-05 0.013141922472588104 0 0.00058574883637010293 0.012951026176206854 0 0.00035611298836935111 0.012518670794012291 0 0.00079659950192777131 0.013283303082100855 0 0.00076964114275550203 0.012510734489088004 0 0.00082047502139540507 0.013321816103609127 0 0.00058574883637010293 0.012951026176206854 0 0.00061312712713619923 0.012833381589018433 0 0.00082047502139540507 0.013321816103609127 0 0.0012297392886588406 0.012705654240666484 0 0.00090224918393950082 0.012135095104098664 0 0.0013557576727760818 0.012054570843511856 0 0.0012297392886588406 0.012705654240666484 0 0.00090224918393950082 0.012135095104098664 0 0.0012838728381818153 0.011541227418341004 0 0.0013557576727760818 0.012054570843511856 0 0.00090224918393950082 0.012135095104098664 0 0.00061312712713619923 0.012833381589018433 0 0.00069748042746989043 0.012893398877310074 0 0.00063303919740856948 0.013030022997848759 0 0.00030449049767046087 0.012479506649010387 0 -0.00010118328914703906 0.01489788043681485 0 0.00058574883637010293 0.012951026176206854 0 0.00061312712713619923 0.012833381589018433 0 0.00069748042746989043 0.012893398877310074 0 -0.0011420854981162014 0.016280229564321014 0 -0.00010118328914703906 0.01489788043681485 0 0.00069748042746989043 0.012893398877310074 0 0.00063303919740856948 0.013030022997848759 0 0.0006336752078771351 0.01320912203179817 0 -0.00010118328914703906 0.01489788043681485 0 0.0009193174628708082 0.012509348783570072 0 0.00041138923254487383 0.013238327253964347 0 0.00052607259905949368 0.013509389798335252 0 0.0006336752078771351 0.01320912203179817 0 0.00076964114275550203 0.012510734489088004 0 0.00080161464913798466 0.01209777998824412 0 0.0012838728381818153 0.011541227418341004 0 0.00090224918393950082 0.012135095104098664 0 0.0009988179229243957 0.010992737237672587 0 0.00061312712713619923 0.012833381589018433 0 0.00063303919740856948 0.013030022997848759 0 0.0005895891591556888 0.013205697384835889 0 0.00063303919740856948 0.013030022997848759 0 0.0006336752078771351 0.01320912203179817 0 0.0005895891591556888 0.013205697384835889 0 0.0012838728381818153 0.011541227418341004 0 0.001279345387605932 0.011184699650441448 0 0.0009988179229243957 0.010992737237672587 0 0.0013931434752826883 0.010938061150045243 0 0.001279345387605932 0.011184699650441448 0 0.0009988179229243957 0.010992737237672587 0 -0.0022292180718062105 0.018966621282421124 0 -0.0023645942604650977 0.018952908858462236 0 -0.0022499735011593486 0.019140771077025064 0 -0.0023645942604650977 0.018952908858462236 0 -0.0023902319440121129 0.019062313390258212 0 -0.0022499735011593486 0.019140771077025064 0 -0.002524829567123348 0.018965908497913589 0 -0.0023645942604650977 0.018952908858462236 0 -0.0023902319440121129 0.019062313390258212 0 -0.0024189701980211467 0.019190862673956324 0 -0.002524829567123348 0.018965908497913589 0 -0.0023902319440121129 0.019062313390258212 0 -0.0024189701980211467 0.019190862673956324 0 -0.0023902319440121129 0.019062313390258212 0 -0.0022499735011593486 0.019140771077025064 0 -0.0021876172013596579 0.019226680308537684 0 -0.0022594864817286672 0.019264295876903783 0 -0.0022499735011593486 0.019140771077025064 0 -0.0022594864817286672 0.019264295876903783 0 -0.0024189701980211467 0.019190862673956324 0 -0.0022499735011593486 0.019140771077025064 0 -0.002118202062064162 0.019261299321035086 0 -0.0021876172013596579 0.019226680308537684 0 -0.0021343596027792616 0.019184416100161965 0 -0.0021876172013596579 0.019226680308537684 0 -0.0022499735011593486 0.019140771077025064 0 -0.0021343596027792616 0.019184416100161965 0 -0.0021343596027792616 0.019184416100161965 0 -0.0020511043382287174 0.01916361027068041 0 -0.0020736707581236599 0.019243891825900465 0 -0.002118202062064162 0.019261299321035086 0 -0.0021343596027792616 0.019184416100161965 0 -0.0020736707581236599 0.019243891825900465 0 -0.0021343596027792616 0.019184416100161965 0 -0.0021512671418319213 0.019079252230812485 0 -0.0020511043382287174 0.01916361027068041 0 -0.0022499735011593486 0.019140771077025064 0 -0.0021343596027792616 0.019184416100161965 0 -0.0021512671418319213 0.019079252230812485 0 -0.0022292180718062105 0.018966621282421124 0 -0.0022499735011593486 0.019140771077025064 0 -0.0021512671418319213 0.019079252230812485 0 -0.0022292180718062105 0.018966621282421124 0 -0.0021512671418319213 0.019079252230812485 0 -0.0021065260595507064 0.018960695746460952 0 -0.0021512671418319213 0.019079252230812485 0 -0.0019958500739486362 0.019049393990679942 0 -0.0021065260595507064 0.018960695746460952 0 -0.0021512671418319213 0.019079252230812485 0 -0.0019958500739486362 0.019049393990679942 0 -0.0020511043382287174 0.01916361027068041 0 -0.0019958500739486362 0.019049393990679942 0 -0.0020511043382287174 0.01916361027068041 0 -0.0019634233453828423 0.019173349898947239 0 -0.0020511043382287174 0.01916361027068041 0 -0.002003474004010174 0.019243732896901296 0 -0.0019634233453828423 0.019173349898947239 0 -0.0020511043382287174 0.01916361027068041 0 -0.0020736707581236599 0.019243891825900465 0 -0.002003474004010174 0.019243732896901296 0 -0.0019094428127750369 0.019298801897846742 0 -0.002003474004010174 0.019243732896901296 0 -0.0019634233453828423 0.019173349898947239 0 -0.0019094428127750369 0.019298801897846742 0 -0.0019634233453828423 0.019173349898947239 0 -0.00186538022143105 0.019153079259140129 0 -0.0019280027526104985 0.019776750046152342 0 -0.0022939546637668349 0.019686410524247671 0 -0.0017076180711427314 0.019349832981314877 0 -0.0019094428127750369 0.019298801897846742 0 -0.0017076180711427314 0.019349832981314877 0 -0.00186538022143105 0.019153079259140129 0 -0.0022428122189129904 0.019431164877869996 0 -0.0016701968407195243 0.019352355316660731 0 -0.0019280027526104985 0.019776750046152342 0 -0.0017076180711427314 0.019349832981314877 0 -0.0015572324090025696 0.019558808191898935 0 -0.0017076180711427314 0.019349832981314877 0 -0.0017313308381319361 0.019077934124002188 0 -0.00186538022143105 0.019153079259140129 0 -0.0017313308381319361 0.019077934124002188 0 -0.00186538022143105 0.019153079259140129 0 -0.0018281458756422072 0.018927536980249925 0 -0.0019958500739486362 0.019049393990679942 0 -0.00186538022143105 0.019153079259140129 0 -0.0018281458756422072 0.018927536980249925 0 -0.0019958500739486362 0.019049393990679942 0 -0.0019634233453828423 0.019173349898947239 0 -0.00186538022143105 0.019153079259140129 0 -0.0019958500739486362 0.019049393990679942 0 -0.0018281458756422072 0.018927536980249925 0 -0.0020077781543765289 0.018856212902409162 0 -0.0017313308381319361 0.019077934124002188 0 -0.0018281458756422072 0.018927536980249925 0 -0.0016683756830294357 0.018910144781011502 0 -0.0018281458756422072 0.018927536980249925 0 -0.0016683756830294357 0.018910144781011502 0 -0.0017097145281856083 0.018738794148193256 0 -0.0018281458756422072 0.018927536980249925 0 -0.0017097145281856083 0.018738794148193256 0 -0.0018700944024192087 0.018705388878470956 0 -0.0018281458756422072 0.018927536980249925 0 -0.0020077781543765289 0.018856212902409162 0 -0.0018700944024192087 0.018705388878470956 0 -0.0020077781543765289 0.018856212902409162 0 -0.002127852179160456 0.01865501589204949 0 -0.0018700944024192087 0.018705388878470956 0 -0.0020077781543765289 0.018856212902409162 0 -0.0021430844423762927 0.018813851038393174 0 -0.002127852179160456 0.01865501589204949 0 -0.0022844121429825182 0.018791182509953496 0 -0.0021430844423762927 0.018813851038393174 0 -0.002127852179160456 0.01865501589204949 0 -0.0022844121429825182 0.018791182509953496 0 -0.0022292180718062105 0.018966621282421124 0 -0.0021430844423762927 0.018813851038393174 0 -0.0022292180718062105 0.018966621282421124 0 -0.0021430844423762927 0.018813851038393174 0 -0.0021065260595507064 0.018960695746460952 0 -0.0020077781543765289 0.018856212902409162 0 -0.0021430844423762927 0.018813851038393174 0 -0.0021065260595507064 0.018960695746460952 0 -0.0019958500739486362 0.019049393990679942 0 -0.0020077781543765289 0.018856212902409162 0 -0.0021065260595507064 0.018960695746460952 0 -0.0010409041484174596 0.030925707237826752 0 -0.0010342702704322926 0.030844776308683593 0 -0.00094980792091101964 0.030909017328166158 0 -0.0010409041484174596 0.030925707237826752 0 -0.00095583429518673196 0.031008664630580055 0 -0.00094980792091101964 0.030909017328166158 0 -0.0010120256006795547 0.030981760331782463 0 -0.0010409041484174596 0.030925707237826752 0 -0.00095583429518673196 0.031008664630580055 0 -0.00091440169564218905 0.031105051616181493 0 -0.0010120256006795547 0.030981760331782463 0 -0.00095583429518673196 0.031008664630580055 0 -0.0010641234956627569 0.031013650237852852 0 -0.0010120256006795547 0.030981760331782463 0 -0.0010409041484174596 0.030925707237826752 0 -0.0010641234956627569 0.031013650237852852 0 -0.0010409041484174596 0.030925707237826752 0 -0.001059643474306165 0.030920519595417417 0 -0.0010409041484174596 0.030925707237826752 0 -0.0010900734193526646 0.030848520119110469 0 -0.0010342702704322926 0.030844776308683593 0 -0.0010900734193526646 0.030848520119110469 0 -0.001059643474306165 0.030920519595417417 0 -0.0010399815049380455 0.030877777849392288 0 -0.0010409041484174596 0.030925707237826752 0 -0.0010900734193526646 0.030848520119110469 0 -0.001059643474306165 0.030920519595417417 0 -0.0012915658461086701 0.024966962264280211 0 -0.0014749816513656667 0.025375949122184962 0 -0.0017076180711427314 0.019349832981314877 0 -0.0015458009364814102 0.019132714250169651 0 -0.0015572324090025696 0.019558808191898935 0 -0.0017076180711427314 0.019349832981314877 0 -0.0017313308381319361 0.019077934124002188 0 -0.0015458009364814102 0.019132714250169651 0 -0.0017313308381319361 0.019077934124002188 0 -0.0015458009364814102 0.019132714250169651 0 -0.0016683756830294357 0.018910144781011502 0 -0.0013421814242319742 0.024807949372101394 0 -0.0013790845830567089 0.02490416982918069 0 -0.0016683756830294357 0.018910144781011502 0 -0.0015814647631607092 0.018920469556266726 0 -0.0016602059965063957 0.018781194198942246 0 -0.0015458009364814102 0.019132714250169651 0 -0.0016683756830294357 0.018910144781011502 0 -0.0015814647631607092 0.018920469556266726 0 -0.0012915658461086701 0.024966962264280211 0 -0.0013421814242319742 0.024807949372101394 0 -0.0010900734193526646 0.030848520119110469 0 -0.0011005055691917175 0.030753373900022293 0 -0.0010342702704322926 0.030844776308683593 0 -0.0011005055691917175 0.030753373900022293 0 -0.0010342526838840276 0.03074377315629866 0 -0.0010959131551070101 0.030603550655719652 0 -0.0011005055691917175 0.030753373900022293 0 -0.0010342702704322926 0.030844776308683593 0 -0.0010342526838840276 0.03074377315629866 0 -0.0010342702704322926 0.030844776308683593 0 -0.0010342526838840276 0.03074377315629866 0 -0.00093046252935598077 0.030780918907941327 0 -0.0010342702704322926 0.030844776308683593 0 -0.00093046252935598077 0.030780918907941327 0 -0.00094980792091101964 0.030909017328166158 0 -0.0048951970098588815 0.043224157775207342 0 -0.0051377803868388871 0.04275108840303378 0 -0.0050132228838000803 0.043039687685655727 0 -0.0028360090607630222 0.038475338822913735 0 -0.0032417391145664332 0.028773305383411777 0 -0.00092884396685640456 0.030595722864381517 0 -0.0010959131551070101 0.030603550655719652 0 -0.0010575739187955121 0.030389226201918442 0 -0.0010342526838840276 0.03074377315629866 0 -0.00093046252935598077 0.030780918907941327 0 -0.00092884396685640456 0.030595722864381517 0 -0.0028439073961488205 0.036594751784980166 0 -0.0028360090607630222 0.038475338822913735 0 -0.0010342526838840276 0.03074377315629866 0 -0.00092884396685640456 0.030595722864381517 0 -0.0010959131551070101 0.030603550655719652 0 -0.001673844058235548 0.018802265781024424 0 -0.0017162019019730966 0.018800362627038859 0 -0.0018178180827332748 0.018848908750023288 0 -0.0013790845830567089 0.02490416982918069 0 -0.0017741877242949985 0.023596561369635248 0 -0.0017162019019730966 0.018800362627038859 0 -0.0016864555242762018 0.018728566525576678 0 -0.0017054513092290666 0.018786404037519071 0 -0.0017162019019730966 0.018800362627038859 0 -0.0016602059965063957 0.018781194198942246 0 -0.0016864555242762018 0.018728566525576678 0 -0.0015814647631607092 0.018920469556266726 0 -0.001673844058235548 0.018802265781024424 0 -0.0016602059965063957 0.018781194198942246 0 -0.001673844058235548 0.018802265781024424 0 -0.0017162019019730966 0.018800362627038859 0 -0.0016602059965063957 0.018781194198942246 0 -0.0016683756830294357 0.018910144781011502 0 -0.0016602059965063957 0.018781194198942246 0 -0.0017097145281856083 0.018738794148193256 0 -0.0016602059965063957 0.018781194198942246 0 -0.0017097145281856083 0.018738794148193256 0 -0.0016864555242762018 0.018728566525576678 0 -0.0016864555242762018 0.018728566525576678 0 -0.0016867019354358907 0.018765576037472857 0 -0.0017054513092290666 0.018786404037519071 0 -0.0016864555242762018 0.018728566525576678 0 -0.0016867019354358907 0.018765576037472857 0 -0.001749050605767423 0.018589297485992588 0 -0.0024049764550898925 0.018060237820297642 0 -0.002182880176808258 0.018258971562394085 0 -0.0025868590380435734 0.018679904069457583 0 -0.0032336629321184007 0.018575350784465858 0 -0.0034088775263456136 0.018998113038325406 0 -0.0025868590380435734 0.018679904069457583 0 -0.0020459017133966769 0.018405567498561096 0 -0.0024911607319806203 0.018975504394081102 0 -0.0024049764550898925 0.018060237820297642 0 -0.0032336629321184007 0.018575350784465858 0 -0.0025868590380435734 0.018679904069457583 0 -0.0016867019354358907 0.018765576037472857 0 -0.0017054513092290666 0.018786404037519071 0 -0.0017563395456982251 0.018952713030592216 0 -0.0017054513092290666 0.018786404037519071 0 -0.0017567993575406738 0.018859789689913788 0 -0.0017563395456982251 0.018952713030592216 0 -0.0017162019019730966 0.018800362627038859 0 -0.0017054513092290666 0.018786404037519071 0 -0.0017567993575406738 0.018859789689913788 0 -0.0017162019019730966 0.018800362627038859 0 -0.0017859303624615983 0.018860044026649314 0 -0.0017567993575406738 0.018859789689913788 0 -0.0017162019019730966 0.018800362627038859 0 -0.0018178180827332748 0.018848908750023288 0 -0.0017859303624615983 0.018860044026649314 0 -0.0018178180827332748 0.018848908750023288 0 -0.0018198446826585243 0.018869221263626845 0 -0.0017859303624615983 0.018860044026649314 0 -0.0017741877242949985 0.023596561369635248 0 -0.0014557690450855757 0.022435301701068323 0 -0.0018178180827332748 0.018848908750023288 0 -0.0018198446826585243 0.018869221263626845 0 -0.0018485929936376221 0.018881638504790889 0 -0.0017859303624615983 0.018860044026649314 0 -0.0018332335632233877 0.018900219552136038 0 -0.0017937487661494722 0.018891762698897262 0 -0.0018198446826585243 0.018869221263626845 0 -0.0018332335632233877 0.018900219552136038 0 -0.0018485929936376221 0.018881638504790889 0 -0.0018198446826585243 0.018869221263626845 0 -0.0017859303624615983 0.018860044026649314 0 -0.0018332335632233877 0.018900219552136038 0 -0.0018332335632233877 0.018900219552136038 0 -0.001816251953477243 0.018926297042959561 0 -0.0018538722488627684 0.01894348696755957 0 -0.0017937487661494722 0.018891762698897262 0 -0.0017845145731167546 0.018914523837243451 0 -0.001816251953477243 0.018926297042959561 0 -0.0018332335632233877 0.018900219552136038 0 -0.0017937487661494722 0.018891762698897262 0 -0.001816251953477243 0.018926297042959561 0 -0.0017937487661494722 0.018891762698897262 0 -0.0017567993575406738 0.018859789689913788 0 -0.0017845145731167546 0.018914523837243451 0 -0.0017859303624615983 0.018860044026649314 0 -0.0017937487661494722 0.018891762698897262 0 -0.0017567993575406738 0.018859789689913788 0 -0.0024911607319806203 0.018975504394081102 0 -0.0029361708390958875 0.017542792540228364 0 -0.0032336629321184007 0.018575350784465858 0 -0.0035877346664499555 0.019539823488945601 0 -0.0034849458581012673 0.019236579510615796 0 -0.0017563395456982251 0.018952713030592216 0 -0.0018747335707727986 0.019013981385365742 0 -0.0019461446514179351 0.019081484680628025 0 -0.0017567993575406738 0.018859789689913788 0 -0.0017845145731167546 0.018914523837243451 0 -0.0017563395456982251 0.018952713030592216 0 -0.0017845145731167546 0.018914523837243451 0 -0.0017563395456982251 0.018952713030592216 0 -0.0018058457608250533 0.018947721594731952 0 -0.0032336629321184007 0.018575350784465858 0 -0.0034088775263456136 0.018998113038325406 0 -0.0034849458581012673 0.019236579510615796 0 -0.0017563395456982251 0.018952713030592216 0 -0.0018385115235912478 0.018976121187882607 0 -0.0018747335707727986 0.019013981385365742 0 -0.0017563395456982251 0.018952713030592216 0 -0.0018385115235912478 0.018976121187882607 0 -0.0018058457608250533 0.018947721594731952 0 -0.0018385115235912478 0.018976121187882607 0 -0.0018367217218176199 0.018956804380103647 0 -0.0018058457608250533 0.018947721594731952 0 -0.0018385115235912478 0.018976121187882607 0 -0.0018367217218176199 0.018956804380103647 0 -0.0018666594208165449 0.018974971260318253 0 -0.0017845145731167546 0.018914523837243451 0 -0.0018058457608250533 0.018947721594731952 0 -0.001816251953477243 0.018926297042959561 0 -0.0018367217218176199 0.018956804380103647 0 -0.0018058457608250533 0.018947721594731952 0 -0.001816251953477243 0.018926297042959561 0 -0.0018367217218176199 0.018956804380103647 0 -0.0018538722488627684 0.01894348696755957 0 -0.0018666594208165449 0.018974971260318253 0 -0.0018367217218176199 0.018956804380103647 0 -0.001816251953477243 0.018926297042959561 0 -0.0018538722488627684 0.01894348696755957 0 -0.0018900590358307361 0.018955340414554472 0 -0.0019042341295373584 0.018985422248761142 0 -0.0018666594208165449 0.018974971260318253 0 -0.0033482863747422141 0.020167662350010194 0 -0.0035583086342903963 0.021600873764907512 0 -0.0035877346664499555 0.019539823488945601 0 -0.0019267617690480786 0.019015893702572388 0 -0.0019577288937943859 0.01893795598720191 0 -0.0019461446514179351 0.019081484680628025 0 -0.0032417391145664332 0.028773305383411777 0 -0.0029361708390958875 0.017542792540228364 0 -0.0018900590358307361 0.018955340414554472 0 -0.0019042341295373584 0.018985422248761142 0 -0.0019577288937943859 0.01893795598720191 0 -0.0018538722488627684 0.01894348696755957 0 -0.0018900590358307361 0.018955340414554472 0 -0.0018666594208165449 0.018974971260318253 0 -0.0019042341295373584 0.018985422248761142 0 -0.0018774855455620863 0.018993907291495318 0 -0.0019042051202400102 0.01901865080432847 0 -0.0019042341295373584 0.018985422248761142 0 -0.0019042051202400102 0.01901865080432847 0 -0.0019267617690480786 0.019015893702572388 0 -0.0019042341295373584 0.018985422248761142 0 -0.0018666594208165449 0.018974971260318253 0 -0.0018774855455620863 0.018993907291495318 0 -0.0018385115235912478 0.018976121187882607 0 -0.0018666594208165449 0.018974971260318253 0 -0.0018774855455620863 0.018993907291495318 0 -0.0018385115235912478 0.018976121187882607 0 -0.0018774855455620863 0.018993907291495318 0 -0.0018747335707727986 0.019013981385365742 0 -0.0018747335707727986 0.019013981385365742 0 -0.0019201315047615861 0.019045361058913586 0 -0.0019461446514179351 0.019081484680628025 0 -0.0018774855455620863 0.018993907291495318 0 -0.0018747335707727986 0.019013981385365742 0 -0.0019042051202400102 0.01901865080432847 0 -0.0018747335707727986 0.019013981385365742 0 -0.0019042051202400102 0.01901865080432847 0 -0.0019201315047615861 0.019045361058913586 0 -0.0019042051202400102 0.01901865080432847 0 -0.0019201315047615861 0.019045361058913586 0 -0.0019267617690480786 0.019015893702572388 0 -0.0019201315047615861 0.019045361058913586 0 -0.0019267617690480786 0.019015893702572388 0 -0.0019461446514179351 0.019081484680628025 0 -0.0033482863747422141 0.020167662350010194 0 -0.0031705230203336395 0.019824508488080775 0 -0.0030386437257263091 0.020258504443490807 0 -0.0033482863747422141 0.020167662350010194 0 -0.0035877346664499555 0.019539823488945601 0 -0.0033807149995838288 0.019714294927655609 0 -0.0033482863747422141 0.020167662350010194 0 -0.0033807149995838288 0.019714294927655609 0 -0.0031705230203336395 0.019824508488080775 0 -0.0019042341295373584 0.018985422248761142 0 -0.0019267617690480786 0.019015893702572388 0 -0.0019577288937943859 0.01893795598720191 0 -0.0033482863747422141 0.020167662350010194 0 -0.0035583086342903963 0.021600873764907512 0 -0.0030386437257263091 0.020258504443490807 0 -0.00092884396685640456 0.030595722864381517 0 -0.0010575739187955121 0.030389226201918442 0 -0.00094929074714344009 0.030328775876002821 0 -0.0018900590358307361 0.018955340414554472 0 -0.0019577288937943859 0.01893795598720191 0 -0.0018761262920353151 0.018925494562787019 0 -0.0019577288937943859 0.01893795598720191 0 -0.0018761262920353151 0.018925494562787019 0 -0.0018485929936376221 0.018881638504790889 0 -0.0018538722488627684 0.01894348696755957 0 -0.0018900590358307361 0.018955340414554472 0 -0.0018761262920353151 0.018925494562787019 0 -0.0018332335632233877 0.018900219552136038 0 -0.0018538722488627684 0.01894348696755957 0 -0.0018761262920353151 0.018925494562787019 0 -0.0018332335632233877 0.018900219552136038 0 -0.0018761262920353151 0.018925494562787019 0 -0.0018485929936376221 0.018881638504790889 0 -0.0018384010874167545 0.018862990941698569 0 -0.0019577288937943859 0.01893795598720191 0 -0.0018485929936376221 0.018881638504790889 0 -0.0017741877242949985 0.023596561369635248 0 -0.0032417391145664332 0.028773305383411777 0 -0.0023620745010286149 0.018237858279683872 0 -0.0021817163943048208 0.018406333152974581 0 -0.0020858876454815109 0.018145971282666817 0 -0.0019324741313458957 0.018344100032419808 0 -0.0021817163943048208 0.018406333152974581 0 -0.0020858876454815109 0.018145971282666817 0 -0.0019324741313458957 0.018344100032419808 0 -0.0021817163943048208 0.018406333152974581 0 -0.002127852179160456 0.01865501589204949 0 -0.0019324741313458957 0.018344100032419808 0 -0.002127852179160456 0.01865501589204949 0 -0.0018700944024192087 0.018705388878470956 0 -0.0017097145281856083 0.018738794148193256 0 -0.0018700944024192087 0.018705388878470956 0 -0.0017782064226774873 0.018606870446011819 0 -0.0016864555242762018 0.018728566525576678 0 -0.0017782064226774873 0.018606870446011819 0 -0.001749050605767423 0.018589297485992588 0 -0.0017097145281856083 0.018738794148193256 0 -0.0016864555242762018 0.018728566525576678 0 -0.0017782064226774873 0.018606870446011819 0 -0.0019324741313458957 0.018344100032419808 0 -0.0018700944024192087 0.018705388878470956 0 -0.0017782064226774873 0.018606870446011819 0 -0.0019324741313458957 0.018344100032419808 0 -0.0017782064226774873 0.018606870446011819 0 -0.001749050605767423 0.018589297485992588 0 -0.0019324741313458957 0.018344100032419808 0 -0.0019564310148345236 0.018033343291232136 0 -0.001927177134407355 0.018002870125556257 0 -0.0019530201295810054 0.018351590127435223 0 -0.0018868344338529679 0.018328306421271784 0 -0.0020459017133966769 0.018405567498561096 0 -0.0018868344338529679 0.018328306421271784 0 -0.0019564310148345236 0.018033343291232136 0 -0.002182880176808258 0.018258971562394085 0 -0.0019853414273515008 0.018072592116199167 0 -0.0024049764550898925 0.018060237820297642 0 -0.0019564310148345236 0.018033343291232136 0 -0.002182880176808258 0.018258971562394085 0 -0.0019853414273515008 0.018072592116199167 0 -0.001927177134407355 0.018002870125556257 0 -0.0019359349197187641 0.017891609209161382 0 -0.0019564310148345236 0.018033343291232136 0 -0.0019853414273515008 0.018072592116199167 0 -0.001927177134407355 0.018002870125556257 0 -0.001927177134407355 0.018002870125556257 0 -0.0019504092773075939 0.017798534904386536 0 -0.0019359349197187641 0.017891609209161382 0 -0.001927177134407355 0.018002870125556257 0 -0.0020293257412710066 0.017942928762589749 0 -0.0019504092773075939 0.017798534904386536 0 -0.0019324741313458957 0.018344100032419808 0 -0.001927177134407355 0.018002870125556257 0 -0.0020858876454815109 0.018145971282666817 0 -0.001927177134407355 0.018002870125556257 0 -0.0020858876454815109 0.018145971282666817 0 -0.0020293257412710066 0.017942928762589749 0 -0.0021195099897362837 0.017841400599287027 0 -0.0021773325495028691 0.01779939223076377 0 -0.0019504092773075939 0.017798534904386536 0 -0.0021773325495028691 0.01779939223076377 0 -0.0020858876454815109 0.018145971282666817 0 -0.0020293257412710066 0.017942928762589749 0 -0.0021773325495028691 0.01779939223076377 0 -0.0020293257412710066 0.017942928762589749 0 -0.0019504092773075939 0.017798534904386536 0 -0.0021195099897362837 0.017841400599287027 0 -0.0019504092773075939 0.017798534904386536 0 -0.0017991745669863441 0.017532903085270255 0 -0.0013309415002984515 0.016753635081324655 0 -0.0017857402874915601 0.017428821249970815 0 -0.00065220047293073442 0.015657104596942695 0 -0.0017991745669863441 0.017532903085270255 0 -0.0006819719139070906 0.016812759718796644 0 -0.0017991745669863441 0.017532903085270255 0 -0.0010712154933660886 0.017616888371146638 0 -0.0006819719139070906 0.016812759718796644 0 -0.0010712154933660886 0.017616888371146638 0 -0.001550092069705681 0.018477414637051947 0 -0.00069729715012081675 0.018014927871150766 0 -0.0017991745669863441 0.017532903085270255 0 -0.0010712154933660886 0.017616888371146638 0 -0.001550092069705681 0.018477414637051947 0 -0.0024957146525579799 0.018336542510714135 0 -0.0015945507161708539 0.018497462675417017 0 -0.0017991745669863441 0.017532903085270255 0 -0.0020988640881633119 0.018090543825407431 0 -0.001550092069705681 0.018477414637051947 0 -0.0017991745669863441 0.017532903085270255 0 -0.0019359349197187641 0.017891609209161382 0 -0.0020988640881633119 0.018090543825407431 0 -0.0019504092773075939 0.017798534904386536 0 -0.0017991745669863441 0.017532903085270255 0 -0.0019359349197187641 0.017891609209161382 0 -0.0019359349197187641 0.017891609209161382 0 -0.0020578369121012621 0.018133123088976882 0 -0.0020988640881633119 0.018090543825407431 0 -0.0019853414273515008 0.018072592116199167 0 -0.0019359349197187641 0.017891609209161382 0 -0.0020578369121012621 0.018133123088976882 0 -0.002182880176808258 0.018258971562394085 0 -0.0019853414273515008 0.018072592116199167 0 -0.0020578369121012621 0.018133123088976882 0 -0.002182880176808258 0.018258971562394085 0 -0.0020578369121012621 0.018133123088976882 0 -0.0021385996417785198 0.018313974896200798 0 -0.004319056918942429 0.018675040603682965 0 -0.0029821907105530617 0.018495544891654954 0 -0.0044029659815240313 0.019032563510459767 0 -0.0032042767514702773 0.018494864773744523 0 -0.0024957146525579799 0.018336542510714135 0 -0.0020578369121012621 0.018133123088976882 0 -0.0021385996417785198 0.018313974896200798 0 -0.0020988640881633119 0.018090543825407431 0 -0.0029821907105530617 0.018495544891654954 0 -0.0030796534708919868 0.019981538661656882 0 -0.0044029659815240313 0.019032563510459767 0 -0.0029821907105530617 0.018495544891654954 0 -0.0030796534708919868 0.019981538661656882 0 -0.0021995901689496676 0.019549191841726425 0 -0.0044029659815240313 0.019032563510459767 0 -0.0044608016750919948 0.020559728358558516 0 -0.005616158905122336 0.020048388779584696 0 -0.0030796534708919868 0.019981538661656882 0 -0.0044029659815240313 0.019032563510459767 0 -0.0044608016750919948 0.020559728358558516 0 -0.0030796534708919868 0.019981538661656882 0 -0.0044608016750919948 0.020559728358558516 0 -0.0032578742347700918 0.022473080671628218 0 -0.0044608016750919948 0.020559728358558516 0 -0.0057354914272631039 0.021921474559383761 0 -0.0032578742347700918 0.022473080671628218 0 -0.0030796534708919868 0.019981538661656882 0 -0.0018527863815421622 0.020589745116459227 0 -0.0032578742347700918 0.022473080671628218 0 -0.0011087575380192771 0.020860569405334296 0 -0.0031947451079761256 0.022262203747822274 0 -0.00019376525323726391 0.021028191964252284 0 0.00049461990260228714 0.020628995662379791 0 -0.00059126699192537345 0.022512696920820283 0 -0.0030796534708919868 0.019981538661656882 0 -0.0018527863815421622 0.020589745116459227 0 -0.0021995901689496676 0.019549191841726425 0 -0.0018527863815421622 0.020589745116459227 0 -0.0014174521601067029 0.019346125626136152 0 -0.0021995901689496676 0.019549191841726425 0 -0.0011087575380192771 0.020860569405334296 0 2.5903741591868046e-05 0.01946255958448043 0 -0.00019376525323726391 0.021028191964252284 0 0.00049461990260228714 0.020628995662379791 0 0.00060343765759484985 0.019704650644727952 0 -0.0018527863815421622 0.020589745116459227 0 -0.0014174521601067029 0.019346125626136152 0 -0.00063040347674392784 0.019331514698604869 0 -0.00095476120075954087 0.018751018010222168 0 -0.001550092069705681 0.018477414637051947 0 -0.00069729715012081675 0.018014927871150766 0 -0.0014174521601067029 0.019346125626136152 0 -0.00095476120075954087 0.018751018010222168 0 -0.00063040347674392784 0.019331514698604869 0 -0.0014174521601067029 0.019346125626136152 0 -0.00095476120075954087 0.018751018010222168 0 -0.001550092069705681 0.018477414637051947 0 -0.0029821907105530617 0.018495544891654954 0 -0.001550092069705681 0.018477414637051947 0 -0.0021995901689496676 0.019549191841726425 0 -0.0014174521601067029 0.019346125626136152 0 -0.001550092069705681 0.018477414637051947 0 -0.0021995901689496676 0.019549191841726425 0 -0.0034121078427522614 0.018994178188337936 0 -0.0035835151472842336 0.018916245534429905 0 -0.0031682093917263518 0.019038443348088331 0 7.5876677326282806e-05 0.034672550974604824 0 0.0005263991554658921 0.034430138876314471 0 0.00071073489185325116 0.034750331175320642 0 -0.002915924653801413 0.023098536549263787 0 -0.0033329849966249772 0.036011429964980149 0 0.00040546005177953016 0.034796345827535255 0 -0.0033329849966249772 0.036011429964980149 0 -0.0034121078427522614 0.018994178188337936 0 -0.0034588061298842063 0.019033491140533824 0 -0.0034979916480076473 0.019007449875627386 0 -0.0034121078427522614 0.018994178188337936 0 -0.0034588061298842063 0.019033491140533824 0 -0.0034217365285709703 0.019037445778365275 0 -0.0034588061298842063 0.019033491140533824 0 -0.0034217365285709703 0.019037445778365275 0 -0.0034505841385429189 0.019077278945218393 0 -0.0034588061298842063 0.019033491140533824 0 -0.0034505841385429189 0.019077278945218393 0 -0.0034972555194123529 0.01905907636454196 0 -0.0034121078427522614 0.018994178188337936 0 -0.0033867300581185951 0.019034252068601487 0 -0.0033069693272158376 0.019024181410972209 0 -0.0034121078427522614 0.018994178188337936 0 -0.0033867300581185951 0.019034252068601487 0 -0.0034217365285709703 0.019037445778365275 0 -0.0033867300581185951 0.019034252068601487 0 -0.0034217365285709703 0.019037445778365275 0 -0.0034048073993252037 0.019063531544228695 0 -0.0034217365285709703 0.019037445778365275 0 -0.0034048073993252037 0.019063531544228695 0 -0.0034505841385429189 0.019077278945218393 0 -0.0034048073993252037 0.019063531544228695 0 -0.0033523222436016745 0.019054556456929831 0 -0.0033807456371603038 0.019088331683206786 0 -0.0033867300581185951 0.019034252068601487 0 -0.0034048073993252037 0.019063531544228695 0 -0.0033523222436016745 0.019054556456929831 0 -0.0034121078427522614 0.018994178188337936 0 -0.003259372871425162 0.019029416429100082 0 -0.0031682093917263518 0.019038443348088331 0 -0.0034121078427522614 0.018994178188337936 0 -0.0033069693272158376 0.019024181410972209 0 -0.003259372871425162 0.019029416429100082 0 -0.0033867300581185951 0.019034252068601487 0 -0.0033523222436016745 0.019054556456929831 0 -0.0033069693272158376 0.019024181410972209 0 -0.0033523222436016745 0.019054556456929831 0 -0.0033417123203963485 0.019104409288685127 0 -0.0033807456371603038 0.019088331683206786 0 -0.0033523222436016745 0.019054556456929831 0 -0.0032994729604259943 0.019058147246458292 0 -0.0033417123203963485 0.019104409288685127 0 -0.0033523222436016745 0.019054556456929831 0 -0.0032994729604259943 0.019058147246458292 0 -0.0033069693272158376 0.019024181410972209 0 -0.0032994729604259943 0.019058147246458292 0 -0.0033069693272158376 0.019024181410972209 0 -0.003259372871425162 0.019029416429100082 0 -0.0032181272225161044 0.019040629084475784 0 -0.003259372871425162 0.019029416429100082 0 -0.0031682093917263518 0.019038443348088331 0 -0.0032181272225161044 0.019040629084475784 0 -0.003259372871425162 0.019029416429100082 0 -0.0032544054593931634 0.019068915447296542 0 -0.0032994729604259943 0.019058147246458292 0 -0.003259372871425162 0.019029416429100082 0 -0.0032544054593931634 0.019068915447296542 0 -0.0032994729604259943 0.019058147246458292 0 -0.0032544054593931634 0.019068915447296542 0 -0.0032880790807248324 0.019119300093999456 0 -0.0032181272225161044 0.019040629084475784 0 -0.0032544054593931634 0.019068915447296542 0 -0.0031941957069977719 0.019084320051422382 0 -0.0032181272225161044 0.019040629084475784 0 -0.0031941957069977719 0.019084320051422382 0 -0.0031820937419130163 0.019039489347865816 0 -0.0032544054593931634 0.019068915447296542 0 -0.0031941957069977719 0.019084320051422382 0 -0.0032237869009693458 0.019141820086851072 0 -0.0031941957069977719 0.019084320051422382 0 -0.0032237869009693458 0.019141820086851072 0 -0.0031158040060297923 0.019154493045152154 0 -0.0032544054593931634 0.019068915447296542 0 -0.0032880790807248324 0.019119300093999456 0 -0.0032237869009693458 0.019141820086851072 0 -0.0032880790807248324 0.019119300093999456 0 -0.0033253233745209432 0.019172266905455582 0 -0.0032653501880023929 0.019199689111270842 0 -0.0032880790807248324 0.019119300093999456 0 -0.0032237869009693458 0.019141820086851072 0 -0.0032653501880023929 0.019199689111270842 0 -0.0032237869009693458 0.019141820086851072 0 -0.0031158040060297923 0.019154493045152154 0 -0.0031310344625062568 0.019262981858442402 0 -0.0033417123203963485 0.019104409288685127 0 -0.0033994720763524063 0.019128485068256443 0 -0.0033807456371603038 0.019088331683206786 0 -0.0032880790807248324 0.019119300093999456 0 -0.0033417123203963485 0.019104409288685127 0 -0.0033253233745209432 0.019172266905455582 0 -0.0032994729604259943 0.019058147246458292 0 -0.0032880790807248324 0.019119300093999456 0 -0.0033417123203963485 0.019104409288685127 0 -0.0033417123203963485 0.019104409288685127 0 -0.0033253233745209432 0.019172266905455582 0 -0.0033785983077200955 0.019166376134210624 0 -0.0033417123203963485 0.019104409288685127 0 -0.0033785983077200955 0.019166376134210624 0 -0.0033994720763524063 0.019128485068256443 0 -0.0033785983077200955 0.019166376134210624 0 -0.003406405902232209 0.019208754755824013 0 -0.0034316278056417747 0.01917753425911313 0 -0.0033785983077200955 0.019166376134210624 0 -0.003406405902232209 0.019208754755824013 0 -0.0033651044851954457 0.019231860941761096 0 -0.0033253233745209432 0.019172266905455582 0 -0.0033785983077200955 0.019166376134210624 0 -0.0033651044851954457 0.019231860941761096 0 -0.0033253233745209432 0.019172266905455582 0 -0.0033651044851954457 0.019231860941761096 0 -0.0033015653241513488 0.019263186853079848 0 -0.0033651044851954457 0.019231860941761096 0 -0.0033015653241513488 0.019263186853079848 0 -0.0033559209671766383 0.019322477273509182 0 -0.0033651044851954457 0.019231860941761096 0 -0.0034131983825163494 0.019283415917105376 0 -0.0033559209671766383 0.019322477273509182 0 -0.003406405902232209 0.019208754755824013 0 -0.0034131983825163494 0.019283415917105376 0 -0.0034448170074657274 0.019249658899450548 0 -0.003406405902232209 0.019208754755824013 0 -0.0033651044851954457 0.019231860941761096 0 -0.0034131983825163494 0.019283415917105376 0 -0.0032653501880023929 0.019199689111270842 0 -0.0033015653241513488 0.019263186853079848 0 -0.0031310344625062568 0.019262981858442402 0 -0.0032237869009693458 0.019141820086851072 0 -0.0032653501880023929 0.019199689111270842 0 -0.0031310344625062568 0.019262981858442402 0 -0.0033253233745209432 0.019172266905455582 0 -0.0032653501880023929 0.019199689111270842 0 -0.0033015653241513488 0.019263186853079848 0 -0.0033015653241513488 0.019263186853079848 0 -0.0032745317926725736 0.019371696257986258 0 -0.0033559209671766383 0.019322477273509182 0 -0.0033015653241513488 0.019263186853079848 0 -0.0032745317926725736 0.019371696257986258 0 -0.0031310344625062568 0.019262981858442402 0 -0.0032745317926725736 0.019371696257986258 0 -0.0031310344625062568 0.019262981858442402 0 -0.0031325689516163422 0.019518914782956337 0 -0.0033496138545091956 0.019470110862091657 0 -0.0032745317926725736 0.019371696257986258 0 -0.0031325689516163422 0.019518914782956337 0 -0.0033496138545091956 0.019470110862091657 0 -0.0032745317926725736 0.019371696257986258 0 -0.0034110111844113437 0.019386916498551614 0 -0.0032745317926725736 0.019371696257986258 0 -0.0033559209671766383 0.019322477273509182 0 -0.0034110111844113437 0.019386916498551614 0 -0.0033559209671766383 0.019322477273509182 0 -0.0034699799368873878 0.019348021474372576 0 -0.0034110111844113437 0.019386916498551614 0 -0.0034131983825163494 0.019283415917105376 0 -0.0034699799368873878 0.019348021474372576 0 -0.0034816058421737071 0.019298254561856396 0 -0.0034131983825163494 0.019283415917105376 0 -0.0033559209671766383 0.019322477273509182 0 -0.0034699799368873878 0.019348021474372576 0 -0.0034699799368873878 0.019348021474372576 0 -0.0034899818607591645 0.019458062882235463 0 -0.0035146076390287721 0.019404777169064562 0 -0.0033496138545091956 0.019470110862091657 0 -0.0034110111844113437 0.019386916498551614 0 -0.0034899818607591645 0.019458062882235463 0 -0.0034699799368873878 0.019348021474372576 0 -0.0034110111844113437 0.019386916498551614 0 -0.0034899818607591645 0.019458062882235463 0 -0.0033496138545091956 0.019470110862091657 0 -0.0034899818607591645 0.019458062882235463 0 -0.0035877346664499555 0.019539823488945601 0 -0.0034899818607591645 0.019458062882235463 0 -0.0035146076390287721 0.019404777169064562 0 -0.0035877346664499555 0.019539823488945601 0 -0.0035146076390287721 0.019404777169064562 0 -0.0035877346664499555 0.019539823488945601 0 -0.003532505810906944 0.019389961396531732 0 -0.0035877346664499555 0.019539823488945601 0 -0.0033807149995838288 0.019714294927655609 0 -0.0033177490447034784 0.019583139267678969 0 -0.0033177490447034784 0.019583139267678969 0 -0.0031705230203336395 0.019824508488080775 0 -0.0031325689516163422 0.019518914782956337 0 -0.0033807149995838288 0.019714294927655609 0 -0.0033177490447034784 0.019583139267678969 0 -0.0031705230203336395 0.019824508488080775 0 -0.0033496138545091956 0.019470110862091657 0 -0.0033177490447034784 0.019583139267678969 0 -0.0031325689516163422 0.019518914782956337 0 -0.0033496138545091956 0.019470110862091657 0 -0.0035877346664499555 0.019539823488945601 0 -0.0033177490447034784 0.019583139267678969 0 -0.0035877346664499555 0.019539823488945601 0 -0.0034849458581012673 0.019236579510615796 0 -0.003532505810906944 0.019389961396531732 0 -0.0035090221416428998 0.019298652055473629 0 -0.0034849458581012673 0.019236579510615796 0 -0.003532505810906944 0.019389961396531732 0 -0.0035090221416428998 0.019298652055473629 0 -0.0034849458581012673 0.019236579510615796 0 -0.0034978471859892081 0.019225722483982632 0 -0.0035146076390287721 0.019404777169064562 0 -0.003532505810906944 0.019389961396531732 0 -0.003510233371951495 0.019342457320620333 0 -0.0035090221416428998 0.019298652055473629 0 -0.003532505810906944 0.019389961396531732 0 -0.003510233371951495 0.019342457320620333 0 -0.0035090221416428998 0.019298652055473629 0 -0.003510233371951495 0.019342457320620333 0 -0.0034974303454351498 0.019249824869064007 0 -0.0034699799368873878 0.019348021474372576 0 -0.003510233371951495 0.019342457320620333 0 -0.0034816058421737071 0.019298254561856396 0 -0.0034699799368873878 0.019348021474372576 0 -0.0035146076390287721 0.019404777169064562 0 -0.003510233371951495 0.019342457320620333 0 -0.0034131983825163494 0.019283415917105376 0 -0.0034816058421737071 0.019298254561856396 0 -0.0034448170074657274 0.019249658899450548 0 -0.003510233371951495 0.019342457320620333 0 -0.0034816058421737071 0.019298254561856396 0 -0.0034974303454351498 0.019249824869064007 0 -0.0034816058421737071 0.019298254561856396 0 -0.0034974303454351498 0.019249824869064007 0 -0.0034679031043879766 0.019207230056016336 0 -0.0034974303454351498 0.019249824869064007 0 -0.0034978471859892081 0.019225722483982632 0 -0.0035020908740110422 0.019157213277060502 0 -0.0035090221416428998 0.019298652055473629 0 -0.0034974303454351498 0.019249824869064007 0 -0.0034978471859892081 0.019225722483982632 0 -0.0034878692144032167 0.01917088875135893 0 -0.0034988488921145057 0.019122108405603366 0 -0.0035020908740110422 0.019157213277060502 0 -0.0034974303454351498 0.019249824869064007 0 -0.0034878692144032167 0.01917088875135893 0 -0.0035020908740110422 0.019157213277060502 0 -0.0034974303454351498 0.019249824869064007 0 -0.0034878692144032167 0.01917088875135893 0 -0.0034679031043879766 0.019207230056016336 0 -0.0034878692144032167 0.01917088875135893 0 -0.0034769264742645477 0.019115999745192468 0 -0.0034988488921145057 0.019122108405603366 0 -0.0034816058421737071 0.019298254561856396 0 -0.0034448170074657274 0.019249658899450548 0 -0.0034679031043879766 0.019207230056016336 0 -0.0034878692144032167 0.01917088875135893 0 -0.0034679031043879766 0.019207230056016336 0 -0.0034533934564047282 0.019141371026770045 0 -0.0034679031043879766 0.019207230056016336 0 -0.0034316278056417747 0.01917753425911313 0 -0.0034533934564047282 0.019141371026770045 0 -0.003406405902232209 0.019208754755824013 0 -0.0034448170074657274 0.019249658899450548 0 -0.0034316278056417747 0.01917753425911313 0 -0.0034448170074657274 0.019249658899450548 0 -0.0034679031043879766 0.019207230056016336 0 -0.0034316278056417747 0.01917753425911313 0 -0.0034316278056417747 0.01917753425911313 0 -0.0033994720763524063 0.019128485068256443 0 -0.0034533934564047282 0.019141371026770045 0 -0.0033785983077200955 0.019166376134210624 0 -0.0034316278056417747 0.01917753425911313 0 -0.0033994720763524063 0.019128485068256443 0 -0.0033994720763524063 0.019128485068256443 0 -0.0034533934564047282 0.019141371026770045 0 -0.0034233810569836375 0.019103451188335008 0 -0.0034533934564047282 0.019141371026770045 0 -0.0034233810569836375 0.019103451188335008 0 -0.0034505841385429189 0.019077278945218393 0 -0.0034048073993252037 0.019063531544228695 0 -0.0034233810569836375 0.019103451188335008 0 -0.0034505841385429189 0.019077278945218393 0 -0.0034048073993252037 0.019063531544228695 0 -0.0034233810569836375 0.019103451188335008 0 -0.0033807456371603038 0.019088331683206786 0 -0.0033994720763524063 0.019128485068256443 0 -0.0034233810569836375 0.019103451188335008 0 -0.0033807456371603038 0.019088331683206786 0 -0.0034769264742645477 0.019115999745192468 0 -0.0034972555194123529 0.01905907636454196 0 -0.0034988488921145057 0.019122108405603366 0 -0.0034878692144032167 0.01917088875135893 0 -0.0034533934564047282 0.019141371026770045 0 -0.0034769264742645477 0.019115999745192468 0 -0.0034533934564047282 0.019141371026770045 0 -0.0034769264742645477 0.019115999745192468 0 -0.0034505841385429189 0.019077278945218393 0 -0.0034769264742645477 0.019115999745192468 0 -0.0034505841385429189 0.019077278945218393 0 -0.0034972555194123529 0.01905907636454196 0 -0.0034972555194123529 0.01905907636454196 0 -0.0035241475832038555 0.019066199569062834 0 -0.0035480247325480299 0.019010149677591657 0 -0.0034088775263456136 0.018998113038325406 0 -0.0035389647269227394 0.019064740532473902 0 -0.0039830380536630414 0.019042176793545387 0 -0.0034972555194123529 0.01905907636454196 0 -0.0035241475832038555 0.019066199569062834 0 -0.0034988488921145057 0.019122108405603366 0 -0.0035241475832038555 0.019066199569062834 0 -0.0035389647269227394 0.019064740532473902 0 -0.0035480247325480299 0.019010149677591657 0 -0.0035241475832038555 0.019066199569062834 0 -0.0035389647269227394 0.019064740532473902 0 -0.0034988488921145057 0.019122108405603366 0 -0.0035389647269227394 0.019064740532473902 0 -0.0034988488921145057 0.019122108405603366 0 -0.0035020908740110422 0.019157213277060502 0 -0.0034088775263456136 0.018998113038325406 0 -0.0035389647269227394 0.019064740532473902 0 -0.0034902828083579434 0.019098221207291839 0 -0.0034088775263456136 0.018998113038325406 0 -0.0034849458581012673 0.019236579510615796 0 -0.0034834315571274049 0.019149731005545446 0 -0.0034978471859892081 0.019225722483982632 0 -0.0035020908740110422 0.019157213277060502 0 -0.0034834315571274049 0.019149731005545446 0 -0.0035020908740110422 0.019157213277060502 0 -0.0034902828083579434 0.019098221207291839 0 -0.0034834315571274049 0.019149731005545446 0 -0.0035389647269227394 0.019064740532473902 0 -0.0035020908740110422 0.019157213277060502 0 -0.0034902828083579434 0.019098221207291839 0 -0.0034088775263456136 0.018998113038325406 0 -0.0034902828083579434 0.019098221207291839 0 -0.0034834315571274049 0.019149731005545446 0 -0.0034849458581012673 0.019236579510615796 0 -0.0034978471859892081 0.019225722483982632 0 -0.0034834315571274049 0.019149731005545446 0 -0.0035389647269227394 0.019064740532473902 0 -0.0036899695476908423 0.018956107401260049 0 -0.0035480247325480299 0.019010149677591657 0 -0.0036899695476908423 0.018956107401260049 0 -0.0035778809602243287 0.018945573590191615 0 -0.0035578826109898469 0.018868135254988622 0 -0.0036899695476908423 0.018956107401260049 0 -0.0035480247325480299 0.019010149677591657 0 -0.0035778809602243287 0.018945573590191615 0 -0.0034121078427522614 0.018994178188337936 0 -0.0035360940561635994 0.018949701796608057 0 -0.0035835151472842336 0.018916245534429905 0 -0.0034121078427522614 0.018994178188337936 0 -0.0034979916480076473 0.019007449875627386 0 -0.0035360940561635994 0.018949701796608057 0 -0.0034972555194123529 0.01905907636454196 0 -0.0035480247325480299 0.019010149677591657 0 -0.0034979916480076473 0.019007449875627386 0 -0.0035480247325480299 0.019010149677591657 0 -0.0034979916480076473 0.019007449875627386 0 -0.0035360940561635994 0.018949701796608057 0 -0.0034588061298842063 0.019033491140533824 0 -0.0034972555194123529 0.01905907636454196 0 -0.0034979916480076473 0.019007449875627386 0 -0.0035480247325480299 0.019010149677591657 0 -0.0035360940561635994 0.018949701796608057 0 -0.0035778809602243287 0.018945573590191615 0 -0.0035360940561635994 0.018949701796608057 0 -0.0035778809602243287 0.018945573590191615 0 -0.0035578826109898469 0.018868135254988622 0 -0.0036211148856153982 0.021989423942256409 0 -0.002915924653801413 0.023098536549263787 0 -0.0036899695476908423 0.018956107401260049 0 -0.0035578826109898469 0.018868135254988622 0 -0.0040944874947015783 0.018755339129671453 0 -0.0036899695476908423 0.018956107401260049 0 -0.0040944874947015783 0.018755339129671453 0 -0.0039830380536630414 0.019042176793545387 0 -0.002915924653801413 0.023098536549263787 0 -0.0059843168298189644 0.018395134777153044 0 -0.0035389647269227394 0.019064740532473902 0 -0.0036899695476908423 0.018956107401260049 0 -0.0039830380536630414 0.019042176793545387 0 -0.003435130896819506 0.018951768426404777 0 -0.0033189568130741818 0.01883033354229368 0 -0.0032042767514702773 0.018494864773744523 0 -0.0033189568130741818 0.01883033354229368 0 -0.002182880176808258 0.018258971562394085 0 -0.0021385996417785198 0.018313974896200798 0 -0.0025868590380435734 0.018679904069457583 0 -0.004319056918942429 0.018675040603682965 0 -0.0044029659815240313 0.019032563510459767 0 -0.0040944874947015783 0.018755339129671453 0 -0.004319056918942429 0.018675040603682965 0 -0.0040944874947015783 0.018755339129671453 0 -0.0039830380536630414 0.019042176793545387 0 -0.004133979355121737 0.019139803978361594 0 -0.0059843168298189644 0.018395134777153044 0 -0.0044029659815240313 0.019032563510459767 0 -0.00654981729634691 0.01893960377128762 0 -0.005616158905122336 0.020048388779584696 0 -0.00654981729634691 0.01893960377128762 0 -0.005616158905122336 0.020048388779584696 0 -0.0067965540262855256 0.020010236935027285 0 -0.0037372416125044687 0.02685908470199614 0 -0.0037994107818820253 0.027570253830025763 0 -0.005616158905122336 0.020048388779584696 0 -0.0057354914272631039 0.021921474559383761 0 -0.0067965540262855256 0.020010236935027285 0 -0.0020376805131508916 0.03188644317144676 0 -0.00082212973981398156 0.032669499995476081 0 -0.0007970414178464332 0.033978084016409872 0 -0.0044608016750919948 0.020559728358558516 0 -0.005616158905122336 0.020048388779584696 0 -0.0057354914272631039 0.021921474559383761 0 -0.00082212973981398156 0.032669499995476081 0 -0.0007970414178464332 0.033978084016409872 0 -0.00024117702839430982 0.033442768407492433 0 -0.00082212973981398156 0.032669499995476081 0 -0.00024117702839430982 0.033442768407492433 0 -0.00040526464462162931 0.032384828051048607 0 -0.0079275742525045864 0.018753298050546818 0 -0.00654981729634691 0.01893960377128762 0 -0.0067965540262855256 0.020010236935027285 0 -0.002915924653801413 0.023098536549263787 0 -0.0037994107818820253 0.027570253830025763 0 7.5876677326282806e-05 0.034672550974604824 0 0.0001353902108953191 0.034103766984371543 0 0.0005263991554658921 0.034430138876314471 0 7.5876677326282806e-05 0.034672550974604824 0 -0.0007970414178464332 0.033978084016409872 0 0.0001353902108953191 0.034103766984371543 0 -0.0007970414178464332 0.033978084016409872 0 0.0001353902108953191 0.034103766984371543 0 -0.00024117702839430982 0.033442768407492433 0 0.0001353902108953191 0.034103766984371543 0 -0.00024117702839430982 0.033442768407492433 0 0.00040993642101946247 0.033860776154598392 0 -0.00024117702839430982 0.033442768407492433 0 0.00040993642101946247 0.033860776154598392 0 -0.00040526464462162931 0.032384828051048607 0 0.00040993642101946247 0.033860776154598392 0 0.0006577484014281456 0.034531408400939587 0 0.0010196564786637049 0.034528390529852578 0 0.0001353902108953191 0.034103766984371543 0 0.00040993642101946247 0.033860776154598392 0 0.00046182405706314349 0.034274585644053529 0 0.00040993642101946247 0.033860776154598392 0 0.00046182405706314349 0.034274585644053529 0 0.0006577484014281456 0.034531408400939587 0 0.00046182405706314349 0.034274585644053529 0 0.0005263991554658921 0.034430138876314471 0 0.0006577484014281456 0.034531408400939587 0 0.0001353902108953191 0.034103766984371543 0 0.00046182405706314349 0.034274585644053529 0 0.0005263991554658921 0.034430138876314471 0 -5.2057814863105709e-07 0.031907096677756576 0 0.0010196564786637049 0.034528390529852578 0 0.00082965182591941548 0.031327231911990702 0 0.00040993642101946247 0.033860776154598392 0 -5.2057814863105709e-07 0.031907096677756576 0 0.0010196564786637049 0.034528390529852578 0 0.00040993642101946247 0.033860776154598392 0 -5.2057814863105709e-07 0.031907096677756576 0 -0.00040526464462162931 0.032384828051048607 0 -5.2057814863105709e-07 0.031907096677756576 0 -0.0007900622998823696 0.031027980666133517 0 -0.00040526464462162931 0.032384828051048607 0 -5.2057814863105709e-07 0.031907096677756576 0 -0.0007900622998823696 0.031027980666133517 0 -0.00046265684475123704 0.030984387679702373 0 -0.0007900622998823696 0.031027980666133517 0 -0.0009498299519849747 0.031543779201848893 0 -0.0014565154265097071 0.03022800970820945 0 -0.0007900622998823696 0.031027980666133517 0 -0.00040526464462162931 0.032384828051048607 0 -0.0009498299519849747 0.031543779201848893 0 -0.00082212973981398156 0.032669499995476081 0 -0.00040526464462162931 0.032384828051048607 0 -0.0009498299519849747 0.031543779201848893 0 -0.0020376805131508916 0.03188644317144676 0 -0.0009498299519849747 0.031543779201848893 0 -0.0014565154265097071 0.03022800970820945 0 -0.0020376805131508916 0.03188644317144676 0 -0.0014565154265097071 0.03022800970820945 0 -0.0021752982623064049 0.02798264804094807 0 -0.0020376805131508916 0.03188644317144676 0 -0.00082212973981398156 0.032669499995476081 0 -0.0009498299519849747 0.031543779201848893 0 -0.0014565154265097071 0.03022800970820945 0 -0.0018139553337292191 0.029308867390044901 0 -0.0014699274575379754 0.029924524222724101 0 -0.0007900622998823696 0.031027980666133517 0 -0.0014565154265097071 0.03022800970820945 0 -0.0014699274575379754 0.029924524222724101 0 -0.0014565154265097071 0.03022800970820945 0 -0.0018139553337292191 0.029308867390044901 0 -0.0021752982623064049 0.02798264804094807 0 -0.0014699274575379754 0.029924524222724101 0 -0.001090885950597461 0.030321522072671584 0 -0.00091845841280307333 0.030480835861736885 0 -0.001090885950597461 0.030321522072671584 0 -0.00070999321954275942 0.030494124603670018 0 -0.00091845841280307333 0.030480835861736885 0 -0.001090885950597461 0.030321522072671584 0 -0.00086744872889203141 0.030350164177551955 0 -0.0008891896561220667 0.030262974850829419 0 -0.001090885950597461 0.030321522072671584 0 -0.00086744872889203141 0.030350164177551955 0 -0.00070999321954275942 0.030494124603670018 0 -0.00086744872889203141 0.030350164177551955 0 -0.00070999321954275942 0.030494124603670018 0 -0.00068824496412246109 0.030291342562431035 0 -0.00070999321954275942 0.030494124603670018 0 -0.00039171475479235013 0.030706191449703032 0 -0.00091845841280307333 0.030480835861736885 0 -0.00039171475479235013 0.030706191449703032 0 -0.00091845841280307333 0.030480835861736885 0 -0.00046265684475123704 0.030984387679702373 0 -0.00070999321954275942 0.030494124603670018 0 -0.00039171475479235013 0.030706191449703032 0 -0.00045771860064998973 0.030425804997007224 0 -0.0007900622998823696 0.031027980666133517 0 -0.00091845841280307333 0.030480835861736885 0 -0.00046265684475123704 0.030984387679702373 0 -0.0007900622998823696 0.031027980666133517 0 -0.0014699274575379754 0.029924524222724101 0 -0.00091845841280307333 0.030480835861736885 0 -5.2057814863105709e-07 0.031907096677756576 0 -8.1273026140090166e-05 0.031053459046003498 0 0.00044045850478011827 0.031161746693607262 0 -5.2057814863105709e-07 0.031907096677756576 0 -0.00046265684475123704 0.030984387679702373 0 -8.1273026140090166e-05 0.031053459046003498 0 2.358449406658702e-05 0.03090874750501765 0 0.00044045850478011827 0.031161746693607262 0 0.00031740163987736808 0.03119163007785777 0 -0.00039171475479235013 0.030706191449703032 0 -0.00046265684475123704 0.030984387679702373 0 -8.1273026140090166e-05 0.031053459046003498 0 -0.00039171475479235013 0.030706191449703032 0 2.358449406658702e-05 0.03090874750501765 0 -8.1273026140090166e-05 0.031053459046003498 0 2.358449406658702e-05 0.03090874750501765 0 -8.1273026140090166e-05 0.031053459046003498 0 0.00044045850478011827 0.031161746693607262 0 0.00044045850478011827 0.031161746693607262 0 -0.00063933678753710162 0.031825323813714938 0 0.00057554788101304673 0.032020201008135199 0 -5.2057814863105709e-07 0.031907096677756576 0 0.00044045850478011827 0.031161746693607262 0 0.00082965182591941548 0.031327231911990702 0 -0.00058396423310697672 0.024070285330446799 0 -0.0015540811375863908 0.025596127247599479 0 0.00055825823457722836 0.024738882264650836 0 -0.0015540811375863908 0.025596127247599479 0 0.00055825823457722836 0.024738882264650836 0 -0.0014569384393272192 0.026474203481578518 0 -0.00058396423310697672 0.024070285330446799 0 -0.0013007449791610382 0.024657662902665432 0 -0.0015540811375863908 0.025596127247599479 0 -0.00058396423310697672 0.024070285330446799 0 -0.0013007449791610382 0.024657662902665432 0 -0.0011529951355699045 0.023799501797897339 0 -0.0017766758312127715 0.024969075293119758 0 -0.0013007449791610382 0.024657662902665432 0 -0.0011529951355699045 0.023799501797897339 0 -0.0017766758312127715 0.024969075293119758 0 -0.0013007449791610382 0.024657662902665432 0 -0.0015540811375863908 0.025596127247599479 0 -0.0017766758312127715 0.024969075293119758 0 -0.0015540811375863908 0.025596127247599479 0 -0.0024062510669429602 0.026369071661458358 0 0.00091812861655624317 0.023827452269656883 0 0.00051741582541336355 0.022246275579074059 0 0.0016239256621399566 0.020739078017217857 0 0.00034247716574751814 0.022696288847734503 0 0.0017529852642984966 0.020857096230838239 0 -6.5615960185458691e-05 0.023565128510793072 0 0.00034247716574751814 0.022696288847734503 0 -0.00058396423310697672 0.024070285330446799 0 0.00091812861655624317 0.023827452269656883 0 0.00051741582541336355 0.022246275579074059 0 -0.00058396423310697672 0.024070285330446799 0 0.00051741582541336355 0.022246275579074059 0 -0.00035366152783562467 0.022436586722194351 0 0.00090780353673296959 0.019987337651844048 0 0.00051741582541336355 0.022246275579074059 0 -0.00035366152783562467 0.022436586722194351 0 0.00090780353673296959 0.019987337651844048 0 0.00051741582541336355 0.022246275579074059 0 0.0016239256621399566 0.020739078017217857 0 0.00090780353673296959 0.019987337651844048 0 0.0013364139048951992 0.019722968060703519 0 0.0016239256621399566 0.020739078017217857 0 0.00090780353673296959 0.019987337651844048 0 -0.00035366152783562467 0.022436586722194351 0 -0.0015784686076640993 0.022691339596641311 0 0.00066967361427236602 0.020372239547977157 0 -0.0011059232558807697 0.022673622105362792 0 -0.00058396423310697672 0.024070285330446799 0 -0.00035366152783562467 0.022436586722194351 0 -0.0011529951355699045 0.023799501797897339 0 -0.00035366152783562467 0.022436586722194351 0 -0.0011529951355699045 0.023799501797897339 0 -0.0015784686076640993 0.022691339596641311 0 -0.0017766758312127715 0.024969075293119758 0 -0.0011529951355699045 0.023799501797897339 0 -0.0015784686076640993 0.022691339596641311 0 -0.00019376525323726391 0.021028191964252284 0 -0.00059126699192537345 0.022512696920820283 0 -0.0032578742347700918 0.022473080671628218 0 -0.00059126699192537345 0.022512696920820283 0 -0.0032578742347700918 0.022473080671628218 0 -0.003423680863091849 0.025383641268348703 0 -0.0011059232558807697 0.022673622105362792 0 -0.0033366102473408872 0.024904551509638866 0 -0.0015784686076640993 0.022691339596641311 0 -0.003423680863091849 0.025383641268348703 0 -0.0022814777086148249 0.025620667259687639 0 -0.0017766758312127715 0.024969075293119758 0 -0.0015784686076640993 0.022691339596641311 0 -0.0022814777086148249 0.025620667259687639 0 -0.0057354914272631039 0.021921474559383761 0 -0.0032578742347700918 0.022473080671628218 0 -0.003423680863091849 0.025383641268348703 0 -0.0020376805131508916 0.03188644317144676 0 -0.0021752982623064049 0.02798264804094807 0 -0.0027997472259359705 0.026882085025547755 0 -0.0057354914272631039 0.021921474559383761 0 -0.003423680863091849 0.025383641268348703 0 -0.0027997472259359705 0.026882085025547755 0 -0.0037372416125044687 0.02685908470199614 0 -0.0027554540070991989 0.027158900465227419 0 -0.0018139553337292191 0.029308867390044901 0 -0.0021752982623064049 0.02798264804094807 0 -0.0010237168138868802 0.030183152258144472 0 -0.0021752982623064049 0.02798264804094807 0 -0.0024062510669429602 0.026369071661458358 0 -0.0022802508080245112 0.026372107822897471 0 -0.0017766758312127715 0.024969075293119758 0 -0.0022814777086148249 0.025620667259687639 0 -0.0024062510669429602 0.026369071661458358 0 -0.0021752982623064049 0.02798264804094807 0 -0.0027997472259359705 0.026882085025547755 0 -0.0024062510669429602 0.026369071661458358 0 -0.003423680863091849 0.025383641268348703 0 -0.0022814777086148249 0.025620667259687639 0 -0.0027997472259359705 0.026882085025547755 0 -0.0022814777086148249 0.025620667259687639 0 -0.0027997472259359705 0.026882085025547755 0 -0.0024062510669429602 0.026369071661458358 0 -0.0015540811375863908 0.025596127247599479 0 -0.0024062510669429602 0.026369071661458358 0 -0.0022802508080245112 0.026372107822897471 0 -0.0022802508080245112 0.026372107822897471 0 -0.0017574529700007135 0.026189979316952064 0 -0.0021594546635429392 0.026042035187357305 0 -0.0021752982623064049 0.02798264804094807 0 -0.0022802508080245112 0.026372107822897471 0 -0.0017574529700007135 0.026189979316952064 0 -0.0018139553337292191 0.029308867390044901 0 -0.0014699274575379754 0.029924524222724101 0 -0.0010237168138868802 0.030183152258144472 0 -0.00201047666416693 0.028007263272294185 0 -0.0014779629581713599 0.028165284699352131 0 -0.0014699274575379754 0.029924524222724101 0 -0.001090885950597461 0.030321522072671584 0 -0.0010237168138868802 0.030183152258144472 0 -0.0014779629581713599 0.028165284699352131 0 -0.0013866305535795735 0.027727071374980407 0 -0.0010237168138868802 0.030183152258144472 0 -0.0010324099600188905 0.030256412629605954 0 -0.0011279647280686396 0.030215579230483413 0 -0.001090885950597461 0.030321522072671584 0 -0.0010237168138868802 0.030183152258144472 0 -0.0010324099600188905 0.030256412629605954 0 -0.001090885950597461 0.030321522072671584 0 -0.0010324099600188905 0.030256412629605954 0 -0.0008891896561220667 0.030262974850829419 0 -0.0017574529700007135 0.026189979316952064 0 -0.0021594546635429392 0.026042035187357305 0 -0.0016571473944415236 0.025255544926386028 0 -0.0013508458511477652 0.024433663988678477 0 -0.00093147294912680908 0.024614649668924314 0 -0.00094445724238481675 0.023731435906561914 0 -0.0016478740777614617 0.025194384823241132 0 -0.0012642894569942639 0.025223621927431706 0 -0.00093147294912680908 0.024614649668924314 0 -0.00094445724238481675 0.023731435906561914 0 -0.00048799815383090983 0.024325879666473031 0 -0.0015540811375863908 0.025596127247599479 0 -0.0022802508080245112 0.026372107822897471 0 -0.0014569384393272192 0.026474203481578518 0 -0.0022802508080245112 0.026372107822897471 0 -0.0021594546635429392 0.026042035187357305 0 -0.0014569384393272192 0.026474203481578518 0 -0.00043185218485917071 0.023137086083400406 0 -0.00094445724238481675 0.023731435906561914 0 -0.00017485142722567244 0.02356459459299785 0 -0.00094445724238481675 0.023731435906561914 0 -0.00048799815383090983 0.024325879666473031 0 -0.00017485142722567244 0.02356459459299785 0 0.00034247716574751814 0.022696288847734503 0 -0.0012642894569942639 0.025223621927431706 0 -0.00048799815383090983 0.024325879666473031 0 0.00014053511862365258 0.024531220697066723 0 -0.00017485142722567244 0.02356459459299785 0 0.00013130539014579297 0.023926814792427618 0 -0.00017219294595270071 0.023557397039546256 0 0.00018578583312117892 0.023385604757546637 0 0.00016140293498717657 0.023361423156268706 0 0.00025765066505474007 0.023275847592310588 0 0.00018578583312117892 0.023385604757546637 0 0.00016140293498717657 0.023361423156268706 0 -0.00017485142722567244 0.02356459459299785 0 0.002150063772738779 0.019677479453680768 0 0.0012790899286631435 0.01954333888616638 0 0.0016239256621399566 0.020739078017217857 0 -0.00043185218485917071 0.023137086083400406 0 0.00016140293498717657 0.023361423156268706 0 -0.00017485142722567244 0.02356459459299785 0 0.002150063772738779 0.019677479453680768 0 0.0010823942976081885 0.018629874849276754 0 0.0012790899286631435 0.01954333888616638 0 0.00034247716574751814 0.022696288847734503 0 0.00067534004968046479 0.020810750822482644 0 0.0010823942976081885 0.018629874849276754 0 0.0011302034652558783 0.018843862748747584 0 0.001114437091494403 0.018228562348031989 0 0.0010823942976081885 0.018629874849276754 0 0.0012790899286631435 0.01954333888616638 0 0.0011302034652558783 0.018843862748747584 0 0.0011302034652558783 0.018843862748747584 0 0.0012468755501394762 0.019246715921690472 0 0.0011368418664237951 0.018402311432245327 0 0.0012468755501394762 0.019246715921690472 0 0.0011368418664237951 0.018402311432245327 0 0.0011769489826408514 0.018428642635647103 0 0.0012790899286631435 0.01954333888616638 0 0.0011302034652558783 0.018843862748747584 0 0.0012468755501394762 0.019246715921690472 0 0.0012468755501394762 0.019246715921690472 0 0.0013364139048951992 0.019722968060703519 0 0.0016239256621399566 0.020739078017217857 0 0.0012790899286631435 0.01954333888616638 0 0.0012468755501394762 0.019246715921690472 0 0.0016239256621399566 0.020739078017217857 0 0.0012404301274184491 0.017752302246434221 0 0.0011735786312777391 0.017845947115525049 0 0.0013336096284393703 0.017259814261199505 0 0.0012404301274184491 0.017752302246434221 0 0.0015435184775483325 0.017016360216913367 0 0.0013336096284393703 0.017259814261199505 0 0.0012404301274184491 0.017752302246434221 0 0.0011368418664237951 0.018402311432245327 0 0.001114437091494403 0.018228562348031989 0 0.0012404301274184491 0.017752302246434221 0 0.0011368418664237951 0.018402311432245327 0 0.0011735786312777391 0.017845947115525049 0 0.0011368418664237951 0.018402311432245327 0 0.0011769489826408514 0.018428642635647103 0 0.0011735786312777391 0.017845947115525049 0 0.0011302034652558783 0.018843862748747584 0 0.0011368418664237951 0.018402311432245327 0 0.001114437091494403 0.018228562348031989 0 0.0012404301274184491 0.017752302246434221 0 0.001114437091494403 0.018228562348031989 0 0.0013345151348387182 0.017697098305234131 0 0.0012404301274184491 0.017752302246434221 0 0.0013345151348387182 0.017697098305234131 0 0.0015435184775483325 0.017016360216913367 0 0.0013345151348387182 0.017697098305234131 0 0.0011556457827357999 0.018039716198903936 0 0.0014789443501827479 0.017812468977862057 0 0.001114437091494403 0.018228562348031989 0 0.0013345151348387182 0.017697098305234131 0 0.0011556457827357999 0.018039716198903936 0 0.00016140293498717657 0.023361423156268706 0 0.00027055703364216175 0.023230911242714081 0 0.00025765066505474007 0.023275847592310588 0 0.00067534004968046479 0.020810750822482644 0 0.00068520812769720467 0.02066578634067473 0 0.0010823942976081885 0.018629874849276754 0 0.001114437091494403 0.018228562348031989 0 0.0011556457827357999 0.018039716198903936 0 0.00027055703364216175 0.023230911242714081 0 0.00025765066505474007 0.023275847592310588 0 0.00031170226521221522 0.023191421597859942 0 0.00027055703364216175 0.023230911242714081 0 0.00036324802741129458 0.0231225411044228 0 0.00031170226521221522 0.023191421597859942 0 0.00068520812769720467 0.02066578634067473 0 0.0009402046183952206 0.020458579846208719 0 0.0009402046183952206 0.020458579846208719 0 0.0011517893518429951 0.020643690595386729 0 0.0014789443501827479 0.017812468977862057 0 0.001930147521833145 0.017480626269977935 0 0.0021399631962180001 0.017936038610240151 0 0.00036324802741129458 0.0231225411044228 0 0.00040748137199637599 0.023086795704201787 0 0.00039449971944635582 0.023091709192973875 0 0.001930147521833145 0.017480626269977935 0 0.0024891315532873442 0.016959566075218452 0 0.0017356907096466785 0.017242456403270563 0 0.0014789443501827479 0.017812468977862057 0 0.001930147521833145 0.017480626269977935 0 0.0017356907096466785 0.017242456403270563 0 0.0013345151348387182 0.017697098305234131 0 0.0014789443501827479 0.017812468977862057 0 0.0017356907096466785 0.017242456403270563 0 0.0024891315532873442 0.016959566075218452 0 0.0027950573945049358 0.018070141990654164 0 0.0031796616205570284 0.017636773586095215 0 0.0021399631962180001 0.017936038610240151 0 0.0024891315532873442 0.016959566075218452 0 0.0027950573945049358 0.018070141990654164 0 0.001930147521833145 0.017480626269977935 0 0.0021399631962180001 0.017936038610240151 0 0.0024891315532873442 0.016959566075218452 0 0.0025237701446940305 0.01692339674996229 0 0.0029847008670415747 0.017046517224456648 0 0.0024891315532873442 0.016959566075218452 0 0.0027344744871787147 0.016112601374358819 0 0.0029834289090918528 0.016204238476157956 0 0.0024891315532873442 0.016959566075218452 0 0.002088779827219799 0.016481265119384782 0 0.0017356907096466785 0.017242456403270563 0 0.0024891315532873442 0.016959566075218452 0 0.002088779827219799 0.016481265119384782 0 0.0027344744871787147 0.016112601374358819 0 0.0013345151348387182 0.017697098305234131 0 0.0017356907096466785 0.017242456403270563 0 0.0015435184775483325 0.017016360216913367 0 0.002088779827219799 0.016481265119384782 0 0.0017356907096466785 0.017242456403270563 0 0.0015435184775483325 0.017016360216913367 0 0.002088779827219799 0.016481265119384782 0 0.0015435184775483325 0.017016360216913367 0 0.0018142576831801953 0.016040058989916648 0 0.0015435184775483325 0.017016360216913367 0 0.0015552662019408803 0.01643604682577373 0 0.0013336096284393703 0.017259814261199505 0 0.0015435184775483325 0.017016360216913367 0 0.0018142576831801953 0.016040058989916648 0 0.0015552662019408803 0.01643604682577373 0 0.0018142576831801953 0.016040058989916648 0 0.0018377194273527693 0.015481669965454527 0 0.0022144376211847118 0.01488263730260162 0 0.0018142576831801953 0.016040058989916648 0 0.0018377194273527693 0.015481669965454527 0 0.0015552662019408803 0.01643604682577373 0 0.0018377194273527693 0.015481669965454527 0 0.0015552662019408803 0.01643604682577373 0 0.0016600338872933393 0.015658317730062151 0 0.0015552662019408803 0.01643604682577373 0 0.0016600338872933393 0.015658317730062151 0 0.0013952456923557995 0.016503345772153285 0 0.0027344744871787147 0.016112601374358819 0 0.0022144376211847118 0.01488263730260162 0 0.0030623618929375013 0.015478794657702265 0 0.0021910957428181192 0.014751575932277217 0 0.002440230468823227 0.014409271974799669 0 0.002088779827219799 0.016481265119384782 0 0.0027344744871787147 0.016112601374358819 0 0.0022144376211847118 0.01488263730260162 0 0.002088779827219799 0.016481265119384782 0 0.0018142576831801953 0.016040058989916648 0 0.0022144376211847118 0.01488263730260162 0 0.0018377194273527693 0.015481669965454527 0 0.0022144376211847118 0.01488263730260162 0 0.0019697840435678442 0.014680265118105393 0 0.0022144376211847118 0.01488263730260162 0 0.0019429808021107701 0.013302217399759415 0 0.0019556957434536584 0.013598718138847245 0 0.0022144376211847118 0.01488263730260162 0 0.0019333233267489485 0.013633832393699452 0 0.0019556957434536584 0.013598718138847245 0 0.0022144376211847118 0.01488263730260162 0 0.0019697840435678442 0.014680265118105393 0 0.0019333233267489485 0.013633832393699452 0 0.0019811108600637376 0.014174461147306373 0 0.0019697840435678442 0.014680265118105393 0 0.0019333233267489485 0.013633832393699452 0 0.0018377194273527693 0.015481669965454527 0 0.0019697840435678442 0.014680265118105393 0 0.0016600338872933393 0.015658317730062151 0 0.0019697840435678442 0.014680265118105393 0 0.0016600338872933393 0.015658317730062151 0 0.0018043105789215697 0.014881017372704357 0 0.0019811108600637376 0.014174461147306373 0 0.0019697840435678442 0.014680265118105393 0 0.0018043105789215697 0.014881017372704357 0 0.0016600338872933393 0.015658317730062151 0 0.0018043105789215697 0.014881017372704357 0 0.0015459422362984736 0.015444327872829972 0 0.0015321541954828705 0.015026903994103412 0 0.0018043105789215697 0.014881017372704357 0 0.0015459422362984736 0.015444327872829972 0 0.0015459422362984736 0.015444327872829972 0 0.0013580222259257195 0.016103112721569796 0 0.0011998768917280043 0.015524048187583057 0 0.0015321541954828705 0.015026903994103412 0 0.0015459422362984736 0.015444327872829972 0 0.0011998768917280043 0.015524048187583057 0 0.0016600338872933393 0.015658317730062151 0 0.0013580222259257195 0.016103112721569796 0 0.0013952456923557995 0.016503345772153285 0 0.0016600338872933393 0.015658317730062151 0 0.0015459422362984736 0.015444327872829972 0 0.0013580222259257195 0.016103112721569796 0 0.0013580222259257195 0.016103112721569796 0 0.0013952456923557995 0.016503345772153285 0 0.0011415265018094539 0.016989216548651365 0 0.00087538898883280411 0.016994145666889986 0 0.0010243729965610945 0.016382162075562083 0 0.0011415265018094539 0.016989216548651365 0 0.0013580222259257195 0.016103112721569796 0 0.0010243729965610945 0.016382162075562083 0 0.0011415265018094539 0.016989216548651365 0 0.00087538898883280411 0.016994145666889986 0 0.0010243729965610945 0.016382162075562083 0 0.00067534629095833442 0.016607364629575936 0 0.0010243729965610945 0.016382162075562083 0 0.00080932001826122715 0.015957376000067511 0 0.00067534629095833442 0.016607364629575936 0 0.0010243729965610945 0.016382162075562083 0 0.0011998768917280043 0.015524048187583057 0 0.00080932001826122715 0.015957376000067511 0 0.0013580222259257195 0.016103112721569796 0 0.0010243729965610945 0.016382162075562083 0 0.0011998768917280043 0.015524048187583057 0 0.00081766597129953762 0.015245467417834863 0 0.0011998768917280043 0.015524048187583057 0 0.00080932001826122715 0.015957376000067511 0 0.00081766597129953762 0.015245467417834863 0 0.00080932001826122715 0.015957376000067511 0 0.00050716795653374218 0.015745354374236079 0 0.00080932001826122715 0.015957376000067511 0 0.00050716795653374218 0.015745354374236079 0 0.00048857811294126282 0.016271065948306459 0 0.0001470801450652455 0.016257959254817121 0 0.00015054663240552711 0.015830166861441185 0 -0.00024225852078589531 0.016173035592751312 0 0.00050716795653374218 0.015745354374236079 0 0.0001470801450652455 0.016257959254817121 0 0.00015054663240552711 0.015830166861441185 0 0.00050716795653374218 0.015745354374236079 0 0.0001470801450652455 0.016257959254817121 0 0.00048857811294126282 0.016271065948306459 0 0.0001470801450652455 0.016257959254817121 0 0.00048857811294126282 0.016271065948306459 0 0.0002570037500462822 0.01680931764010862 0 0.0001470801450652455 0.016257959254817121 0 -0.00016363167506837513 0.016712933798689902 0 0.0002570037500462822 0.01680931764010862 0 0.00080932001826122715 0.015957376000067511 0 0.00048857811294126282 0.016271065948306459 0 0.00067534629095833442 0.016607364629575936 0 0.00048857811294126282 0.016271065948306459 0 0.00067534629095833442 0.016607364629575936 0 0.0002570037500462822 0.01680931764010862 0 -0.00065220047293073442 0.015657104596942695 0 -0.00024225852078589531 0.016173035592751312 0 -0.0006819719139070906 0.016812759718796644 0 -0.00016363167506837513 0.016712933798689902 0 -0.0006819719139070906 0.016812759718796644 0 -0.0003143821298767549 0.017277018357022625 0 -0.00024225852078589531 0.016173035592751312 0 -0.00016363167506837513 0.016712933798689902 0 -0.0006819719139070906 0.016812759718796644 0 0.0001470801450652455 0.016257959254817121 0 -0.00024225852078589531 0.016173035592751312 0 -0.00016363167506837513 0.016712933798689902 0 -0.0010712154933660886 0.017616888371146638 0 -0.0006819719139070906 0.016812759718796644 0 -0.0003143821298767549 0.017277018357022625 0 -0.0003143821298767549 0.017277018357022625 0 -3.3139395772242118e-06 0.01758284251687852 0 0.0002570037500462822 0.01680931764010862 0 -0.00016363167506837513 0.016712933798689902 0 -0.0003143821298767549 0.017277018357022625 0 0.0002570037500462822 0.01680931764010862 0 -0.0003143821298767549 0.017277018357022625 0 -3.3139395772242118e-06 0.01758284251687852 0 -0.00069729715012081675 0.018014927871150766 0 -0.0010712154933660886 0.017616888371146638 0 -0.0003143821298767549 0.017277018357022625 0 -0.00069729715012081675 0.018014927871150766 0 0.00067534629095833442 0.016607364629575936 0 0.0002570037500462822 0.01680931764010862 0 0.00053143702163694826 0.017252562617401924 0 -3.3139395772242118e-06 0.01758284251687852 0 0.0002570037500462822 0.01680931764010862 0 0.00053143702163694826 0.017252562617401924 0 -3.3139395772242118e-06 0.01758284251687852 0 0.00053143702163694826 0.017252562617401924 0 0.00041510540675661654 0.017753805687179654 0 0.00087538898883280411 0.016994145666889986 0 0.00053143702163694826 0.017252562617401924 0 0.00087240390691782047 0.017513474453967913 0 0.00087538898883280411 0.016994145666889986 0 0.00067534629095833442 0.016607364629575936 0 0.00053143702163694826 0.017252562617401924 0 0.00053143702163694826 0.017252562617401924 0 0.00041510540675661654 0.017753805687179654 0 0.00087240390691782047 0.017513474453967913 0 0.00076459251819194012 0.01812669922892177 0 0.00072562590429165147 0.019192908038983464 0 0.0010385056700096436 0.017776317534865239 0 0.00041510540675661654 0.017753805687179654 0 0.00076459251819194012 0.01812669922892177 0 0.00087240390691782047 0.017513474453967913 0 0.00041510540675661654 0.017753805687179654 0 0.00076459251819194012 0.01812669922892177 0 -0.00017257893272638444 0.01825489256675631 0 0.00076459251819194012 0.01812669922892177 0 0.00087240390691782047 0.017513474453967913 0 0.0010385056700096436 0.017776317534865239 0 0.00079365353032428932 0.01834542059714259 0 2.5903741591868046e-05 0.01946255958448043 0 0.00076459251819194012 0.01812669922892177 0 -0.00017257893272638444 0.01825489256675631 0 -0.00063040347674392784 0.019331514698604869 0 -0.00095476120075954087 0.018751018010222168 0 -0.00069729715012081675 0.018014927871150766 0 -0.00017257893272638444 0.01825489256675631 0 -3.3139395772242118e-06 0.01758284251687852 0 -0.00069729715012081675 0.018014927871150766 0 -0.00017257893272638444 0.01825489256675631 0 -3.3139395772242118e-06 0.01758284251687852 0 0.00041510540675661654 0.017753805687179654 0 -0.00017257893272638444 0.01825489256675631 0 -0.00095476120075954087 0.018751018010222168 0 -0.00017257893272638444 0.01825489256675631 0 -0.00063040347674392784 0.019331514698604869 0 0.0012468755501394762 0.019246715921690472 0 0.0013364139048951992 0.019722968060703519 0 0.0012893124224907977 0.018881577239287413 0 0.00090780353673296959 0.019987337651844048 0 0.0013364139048951992 0.019722968060703519 0 0.0012893124224907977 0.018881577239287413 0 0.00066967361427236602 0.020372239547977157 0 0.00098647745086474629 0.019007330257098668 0 0.00049461990260228714 0.020628995662379791 0 0.00072562590429165147 0.019192908038983464 0 0.00060343765759484985 0.019704650644727952 0 0.00076459251819194012 0.01812669922892177 0 0.00072562590429165147 0.019192908038983464 0 0.00060343765759484985 0.019704650644727952 0 0.0012468755501394762 0.019246715921690472 0 0.0012893124224907977 0.018881577239287413 0 0.0011769489826408514 0.018428642635647103 0 0.00098647745086474629 0.019007330257098668 0 0.0010986056022742315 0.018043878582654146 0 0.0012893124224907977 0.018881577239287413 0 0.0011769489826408514 0.018428642635647103 0 0.0010385056700096436 0.017776317534865239 0 0.0011769489826408514 0.018428642635647103 0 0.0011735786312777391 0.017845947115525049 0 0.0010385056700096436 0.017776317534865239 0 0.0011735786312777391 0.017845947115525049 0 0.0012310523747726336 0.017299147875342969 0 0.0010385056700096436 0.017776317534865239 0 0.0015552662019408803 0.01643604682577373 0 0.0013336096284393703 0.017259814261199505 0 0.0012310523747726336 0.017299147875342969 0 0.0011735786312777391 0.017845947115525049 0 0.0013336096284393703 0.017259814261199505 0 0.0012310523747726336 0.017299147875342969 0 0.0015552662019408803 0.01643604682577373 0 0.0012310523747726336 0.017299147875342969 0 0.0013952456923557995 0.016503345772153285 0 0.0012310523747726336 0.017299147875342969 0 0.0013952456923557995 0.016503345772153285 0 0.0011415265018094539 0.016989216548651365 0 0.00087538898883280411 0.016994145666889986 0 0.0011415265018094539 0.016989216548651365 0 0.00087240390691782047 0.017513474453967913 0 0.0011415265018094539 0.016989216548651365 0 0.00087240390691782047 0.017513474453967913 0 0.0010385056700096436 0.017776317534865239 0 0.0012310523747726336 0.017299147875342969 0 0.0011415265018094539 0.016989216548651365 0 0.0010385056700096436 0.017776317534865239 0 0.00026398029039499291 0.053822325778039193 0 0.00042468191187399937 0.053862100108305597 0 0.00035059408277480245 0.053793692817568059 0 0.00026398029039499291 0.053822325778039193 0 0.00028552304624650021 0.054048848043280827 0 0.00042468191187399937 0.053862100108305597 0 8.3906128103271129e-09 0.055000066189534666 0 2.5066518188270766e-05 0.055010598842748337 0 1.4709147012462905e-07 0.055003669359623489 0 8.3906128103271129e-09 0.055000066189534666 0 2.5066518188270766e-05 0.055010598842748337 0 3.640427735779375e-08 0.055000006389298126 0 8.3906128103271129e-09 0.055000066189534666 0 1.4709147012462905e-07 0.055003669359623489 0 1.8823050394090561e-08 0.054999859382496644 0 0.00014848268936430559 0.054431564382564405 0 3.3076760549146807e-05 0.054646610417759062 0 0.00026398029039499291 0.053822325778039193 0 4.1399959226884176e-05 0.054272529074694272 0 0.00028552304624650021 0.054048848043280827 0 0.00028552304624650021 0.054048848043280827 0 0.00039679566837228587 0.054306642221862933 0 0.00042468191187399937 0.053862100108305597 0 4.1399959226884176e-05 0.054272529074694272 0 0.00028552304624650021 0.054048848043280827 0 0.00039679566837228587 0.054306642221862933 0 0.00027521146342773133 0.053675671740767192 0 0.00038414643342482888 0.053503618052808281 0 0.00018838999089954394 0.052985445268538885 0 0.00039779591917875345 0.05308371087492026 0 0.00025640579003358811 0.052999689073444281 0 0.00028831406980402407 0.052879072907533096 0 0.00039779591917875345 0.05308371087492026 0 0.00025640579003358811 0.052999689073444281 0 0.00028831406980402407 0.052879072907533096 0 0.00012722276034814645 0.053112797124664393 0 0.00016638431622534555 0.052729969139566291 0 0.00028831406980402407 0.052879072907533096 0 0.00012722276034814645 0.053112797124664393 0 0.00039779591917875345 0.05308371087492026 0 0.00012722276034814645 0.053112797124664393 0 0.00039779591917875345 0.05308371087492026 0 0.00022444658277855905 0.053695490778813894 0 0.00022444658277855905 0.053695490778813894 0 0.00022507312018258199 0.054046983294772262 0 0.00035059408277480245 0.053793692817568059 0 0.00042468191187399937 0.053862100108305597 0 0.00022444658277855905 0.053695490778813894 0 0.00035059408277480245 0.053793692817568059 0 0.00038414643342482888 0.053503618052808281 0 0.00023688133900228359 0.053698357465780111 0 0.00012722276034814645 0.053112797124664393 0 0.00022444658277855905 0.053695490778813894 0 -3.4227050545915756e-05 0.053703080546891588 0 0.00022444658277855905 0.053695490778813894 0 5.039465083896831e-05 0.054187212970823316 0 -3.4227050545915756e-05 0.053703080546891588 0 5.039465083896831e-05 0.054187212970823316 0 -0.00018092545061497173 0.053950170229378112 0 -3.4227050545915756e-05 0.053703080546891588 0 0.00022444658277855905 0.053695490778813894 0 0.00022507312018258199 0.054046983294772262 0 5.039465083896831e-05 0.054187212970823316 0 0.00022507312018258199 0.054046983294772262 0 0.00044690242769166176 0.053921122703471207 0 0.00035059408277480245 0.053793692817568059 0 0.00010472344374943132 0.055010307215982532 0 5.135087358331942e-05 0.054916147704536025 0 0.00025140883568387117 0.054601623546996263 0 0.00026016663374752591 0.054467994290963578 0 0.0002566376870250486 0.054584725489116963 0 0.00022507312018258199 0.054046983294772262 0 0.00044690242769166176 0.053921122703471207 0 0.00025140883568387117 0.054601623546996263 0 0.00026398029039499291 0.053822325778039193 0 0.00044690242769166176 0.053921122703471207 0 0.00035059408277480245 0.053793692817568059 0 0.00014848268936430559 0.054431564382564405 0 0.00026016663374752591 0.054467994290963578 0 2.5066518188270766e-05 0.055010598842748337 0 0.00010472344374943132 0.055010307215982532 0 3.640427735779375e-08 0.055000006389298126 0 0.00010472344374943132 0.055010307215982532 0 3.640427735779375e-08 0.055000006389298126 0 5.135087358331942e-05 0.054916147704536025 0 3.640427735779375e-08 0.055000006389298126 0 5.135087358331942e-05 0.054916147704536025 0 5.1236169323117328e-08 0.054999665458583445 0 5.135087358331942e-05 0.054916147704536025 0 5.1236169323117328e-08 0.054999665458583445 0 0.00025140883568387117 0.054601623546996263 0 0.00025140883568387117 0.054601623546996263 0 0.00014165706240743092 0.054791358738531873 0 0.00013919881487631578 0.054621403927644398 0 5.1236169323117328e-08 0.054999665458583445 0 0.00014165706240743092 0.054791358738531873 0 2.1713182103878551e-07 0.054999348623901122 0 5.1236169323117328e-08 0.054999665458583445 0 0.00025140883568387117 0.054601623546996263 0 0.00014165706240743092 0.054791358738531873 0 0.00014165706240743092 0.054791358738531873 0 2.1713182103878551e-07 0.054999348623901122 0 0.00014282972445025339 0.054760045088169423 0 0.00014165706240743092 0.054791358738531873 0 0.00014282972445025339 0.054760045088169423 0 0.00013919881487631578 0.054621403927644398 0 0.00014282972445025339 0.054760045088169423 0 0.00011992642353309399 0.054760616019754509 0 9.8098590447906369e-05 0.054763091333058317 0 2.2267506211853319e-08 0.054999944140417041 0 7.0267100616458345e-05 0.054892087717539187 0 2.1713182103878551e-07 0.054999348623901122 0 0.00014282972445025339 0.054760045088169423 0 0.00011992642353309399 0.054760616019754509 0 4.1302244443367133e-10 0.054999998065722443 0 3.4602580026499367e-10 0.055000000065374963 0 6.1420331192372927e-07 0.054999156263318756 0 -0.00016800502413057209 0.054612138508069369 0 -0.00027736872267487204 0.054502509392311271 0 -0.00031532099344637726 0.054517658808955545 0 -0.00012763326660827668 0.054696111469875686 0 -0.0003381473139658736 0.054500767749616229 0 -2.0863141308039061e-05 0.054663184530878733 0 2.4275213417175022e-05 0.05473662343951969 0 7.3412003539901182e-05 0.054690093310082191 0 -2.0863141308039061e-05 0.054663184530878733 0 -0.0001181582952230018 0.054735425807622758 0 2.4275213417175022e-05 0.05473662343951969 0 -2.0863141308039061e-05 0.054663184530878733 0 -0.0001181582952230018 0.054735425807622758 0 -0.00012243977963090837 0.054531566158108162 0 4.3024488057128762e-05 0.054818826296038868 0 -0.0001181582952230018 0.054735425807622758 0 2.4275213417175022e-05 0.05473662343951969 0 -0.00012763326660827668 0.054696111469875686 0 -0.00018855467300799795 0.054611146423791605 0 0.00014282972445025339 0.054760045088169423 0 9.8098590447906369e-05 0.054763091333058317 0 7.3412003539901182e-05 0.054690093310082191 0 4.3024488057128762e-05 0.054818826296038868 0 2.4275213417175022e-05 0.05473662343951969 0 9.8098590447906369e-05 0.054763091333058317 0 2.4275213417175022e-05 0.05473662343951969 0 9.8098590447906369e-05 0.054763091333058317 0 7.3412003539901182e-05 0.054690093310082191 0 0.00014282972445025339 0.054760045088169423 0 7.3412003539901182e-05 0.054690093310082191 0 0.00013919881487631578 0.054621403927644398 0 7.3412003539901182e-05 0.054690093310082191 0 -6.1864640254535669e-06 0.05457306263241786 0 0.00013919881487631578 0.054621403927644398 0 -6.1864640254535669e-06 0.05457306263241786 0 -0.000142930348725362 0.054298216938460042 0 0.00013919881487631578 0.054621403927644398 0 -2.0863141308039061e-05 0.054663184530878733 0 7.3412003539901182e-05 0.054690093310082191 0 -6.1864640254535669e-06 0.05457306263241786 0 -2.0863141308039061e-05 0.054663184530878733 0 -6.1864640254535669e-06 0.05457306263241786 0 -0.00012243977963090837 0.054531566158108162 0 -6.1864640254535669e-06 0.05457306263241786 0 -0.00012243977963090837 0.054531566158108162 0 -0.000142930348725362 0.054298216938460042 0 -8.1741915154763672e-05 0.054434896005242719 0 0.00013919881487631578 0.054621403927644398 0 5.039465083896831e-05 0.054187212970823316 0 -0.00011859464046571281 0.054379184111362062 0 0.00012149314860705118 0.054571872932586037 0 -8.1741915154763672e-05 0.054434896005242719 0 5.039465083896831e-05 0.054187212970823316 0 -0.00022266999666257429 0.054196631067300285 0 0.00025140883568387117 0.054601623546996263 0 0.00013919881487631578 0.054621403927644398 0 5.039465083896831e-05 0.054187212970823316 0 0.00022507312018258199 0.054046983294772262 0 0.00025140883568387117 0.054601623546996263 0 5.039465083896831e-05 0.054187212970823316 0 5.039465083896831e-05 0.054187212970823316 0 -0.00022266999666257429 0.054196631067300285 0 -0.00018092545061497173 0.053950170229378112 0 -0.00022266999666257429 0.054196631067300285 0 -0.00018092545061497173 0.053950170229378112 0 -0.00049317269443581945 0.0539440005523633 0 -0.00022266999666257429 0.054196631067300285 0 -0.00049317269443581945 0.0539440005523633 0 -0.00044637900006048808 0.054296890805601065 0 -8.1741915154763672e-05 0.054434896005242719 0 -0.00022266999666257429 0.054196631067300285 0 -0.00044637900006048808 0.054296890805601065 0 -0.00011859464046571281 0.054379184111362062 0 -0.00047935479575884367 0.05417921168599639 0 -0.000142930348725362 0.054298216938460042 0 -0.00049954999277596534 0.054067735589416389 0 -0.00035982240470015998 0.054394099810797666 0 -0.00012243977963090837 0.054531566158108162 0 -0.000142930348725362 0.054298216938460042 0 -0.00035982240470015998 0.054394099810797666 0 -0.0001181582952230018 0.054735425807622758 0 -0.00012243977963090837 0.054531566158108162 0 -0.00035982240470015998 0.054394099810797666 0 -0.00049954999277596534 0.054067735589416389 0 -0.0005452380257525768 0.054344909622361499 0 -0.00068884810324190595 0.054136900839062446 0 -0.00049954999277596534 0.054067735589416389 0 -0.00035982240470015998 0.054394099810797666 0 -0.0005452380257525768 0.054344909622361499 0 -0.00035982240470015998 0.054394099810797666 0 -0.0005452380257525768 0.054344909622361499 0 -0.00040917449118975174 0.054494871698544597 0 -0.0005452380257525768 0.054344909622361499 0 -0.00058212645702803312 0.054548904463317803 0 -0.00040917449118975174 0.054494871698544597 0 -0.00042975941355133482 0.054603727001061142 0 -0.00058212645702803312 0.054548904463317803 0 -0.00040917449118975174 0.054494871698544597 0 -0.00040917449118975174 0.054494871698544597 0 -0.00037136563331949517 0.054549927050036542 0 -0.00031532099344637726 0.054517658808955545 0 -0.00035982240470015998 0.054394099810797666 0 -0.00040917449118975174 0.054494871698544597 0 -0.00031532099344637726 0.054517658808955545 0 -0.00027736872267487204 0.054502509392311271 0 -0.00035982240470015998 0.054394099810797666 0 -0.00031532099344637726 0.054517658808955545 0 -0.00042975941355133482 0.054603727001061142 0 -0.00040917449118975174 0.054494871698544597 0 -0.00037136563331949517 0.054549927050036542 0 -0.00034167359370080631 0.054598767057056012 0 -0.00037136563331949517 0.054549927050036542 0 -0.00031532099344637726 0.054517658808955545 0 -0.00018855467300799795 0.054611146423791605 0 -0.00034951538106523346 0.054423902571556937 0 -0.00087423876188112964 0.054673272636086796 0 -0.00085254239748937266 0.054300415921966688 0 -0.0013223571403923266 0.05444141884181436 0 -0.0012308446563341101 0.053814463592624158 0 -0.0016241919759705529 0.053624282613425819 0 -0.00087423876188112964 0.054673272636086796 0 -0.00058212645702803312 0.054548904463317803 0 -0.00085254239748937266 0.054300415921966688 0 -0.0005452380257525768 0.054344909622361499 0 -0.00058212645702803312 0.054548904463317803 0 -0.00085254239748937266 0.054300415921966688 0 -0.00085254239748937266 0.054300415921966688 0 -0.00068884810324190595 0.054136900839062446 0 -0.00088627220533363314 0.053832698051596205 0 -0.0005452380257525768 0.054344909622361499 0 -0.00085254239748937266 0.054300415921966688 0 -0.00068884810324190595 0.054136900839062446 0 -0.00085254239748937266 0.054300415921966688 0 -0.0012012327394146849 0.05404609079684887 0 -0.0013223571403923266 0.05444141884181436 0 -0.00085254239748937266 0.054300415921966688 0 -0.00088627220533363314 0.053832698051596205 0 -0.0012012327394146849 0.05404609079684887 0 -0.00092022841585013681 0.053974840480656892 0 -0.001482868345754537 0.053721514597543818 0 -0.00088627220533363314 0.053832698051596205 0 -0.0014245795731957858 0.053606114583566428 0 -0.0012012327394146849 0.05404609079684887 0 -0.00047935479575884367 0.05417921168599639 0 -0.00092022841585013681 0.053974840480656892 0 -0.00049317269443581945 0.0539440005523633 0 -0.00044637900006048808 0.054296890805601065 0 -0.00094652226097263455 0.054120611555978443 0 -0.00049954999277596534 0.054067735589416389 0 -0.00068884810324190595 0.054136900839062446 0 -0.00088627220533363314 0.053832698051596205 0 -0.00049317269443581945 0.0539440005523633 0 -0.00094652226097263455 0.054120611555978443 0 -0.0009184467429263145 0.053690934708518039 0 -0.00094652226097263455 0.054120611555978443 0 -0.0009184467429263145 0.053690934708518039 0 -0.0013688442875413496 0.053562093693876538 0 -0.00094652226097263455 0.054120611555978443 0 -0.0013688442875413496 0.053562093693876538 0 -0.0015444258274369392 0.053854503109734574 0 -0.0009184467429263145 0.053690934708518039 0 -0.0011898830294576571 0.0532637967874331 0 -0.0013688442875413496 0.053562093693876538 0 -0.0011509112256648869 0.053549485744936072 0 -0.00082982018588956578 0.053296858417587037 0 -0.0013494270749338435 0.05306445611970937 0 -0.00082982018588956578 0.053296858417587037 0 -0.00061965326698619472 0.053585016357077762 0 -0.00046979977877937684 0.053113392893601452 0 -0.0011509112256648869 0.053549485744936072 0 -0.00082982018588956578 0.053296858417587037 0 -0.00061965326698619472 0.053585016357077762 0 -0.0011749769084660152 0.053408843899788346 0 -0.00067152747430762713 0.053554131851714988 0 -0.00049317269443581945 0.0539440005523633 0 -0.0009184467429263145 0.053690934708518039 0 -0.00061965326698619472 0.053585016357077762 0 -0.0009184467429263145 0.053690934708518039 0 -0.0011898830294576571 0.0532637967874331 0 -0.00061965326698619472 0.053585016357077762 0 -0.00018092545061497173 0.053950170229378112 0 -0.00049317269443581945 0.0539440005523633 0 -0.00061965326698619472 0.053585016357077762 0 -0.00018092545061497173 0.053950170229378112 0 -0.00061965326698619472 0.053585016357077762 0 -0.0001898855744651655 0.053386763923045817 0 -0.00018092545061497173 0.053950170229378112 0 -3.4227050545915756e-05 0.053703080546891588 0 -0.0001898855744651655 0.053386763923045817 0 0.00012722276034814645 0.053112797124664393 0 -3.4227050545915756e-05 0.053703080546891588 0 -0.0001898855744651655 0.053386763923045817 0 -0.00061965326698619472 0.053585016357077762 0 -0.0001898855744651655 0.053386763923045817 0 -0.00046979977877937684 0.053113392893601452 0 -0.0001898855744651655 0.053386763923045817 0 -7.0497117506506722e-05 0.052837347972631059 0 -0.00046979977877937684 0.053113392893601452 0 0.00012722276034814645 0.053112797124664393 0 -0.0001898855744651655 0.053386763923045817 0 -7.0497117506506722e-05 0.052837347972631059 0 0.00012722276034814645 0.053112797124664393 0 0.00016638431622534555 0.052729969139566291 0 -7.0497117506506722e-05 0.052837347972631059 0 0.00016638431622534555 0.052729969139566291 0 -7.0497117506506722e-05 0.052837347972631059 0 5.3705900379915924e-05 0.052257134750552867 0 -7.0497117506506722e-05 0.052837347972631059 0 -0.00034239663052950195 0.052546070635802918 0 -0.00046979977877937684 0.053113392893601452 0 -7.0497117506506722e-05 0.052837347972631059 0 -0.00034239663052950195 0.052546070635802918 0 5.3705900379915924e-05 0.052257134750552867 0 -0.00034239663052950195 0.052546070635802918 0 -0.00081664109141483295 0.052859690371181024 0 -0.0008759475683210498 0.052266780964595499 0 -0.00081664109141483295 0.052859690371181024 0 -0.0014981040630762648 0.052473553397554273 0 -0.0008759475683210498 0.052266780964595499 0 -0.00081664109141483295 0.052859690371181024 0 -0.0014981040630762648 0.052473553397554273 0 -0.0013494270749338435 0.05306445611970937 0 -0.00082982018588956578 0.053296858417587037 0 -0.00081664109141483295 0.052859690371181024 0 -0.0013494270749338435 0.05306445611970937 0 -0.00082982018588956578 0.053296858417587037 0 -0.00081664109141483295 0.052859690371181024 0 -0.00046979977877937684 0.053113392893601452 0 -0.00034239663052950195 0.052546070635802918 0 -0.00081664109141483295 0.052859690371181024 0 -0.00046979977877937684 0.053113392893601452 0 -0.0020271660204725342 0.05275601620775567 0 -0.0014981040630762648 0.052473553397554273 0 -0.0013494270749338435 0.05306445611970937 0 -0.0014981040630762648 0.052473553397554273 0 -0.0020333784362101454 0.052283626235372367 0 -0.0020098343782082488 0.051818811863214458 0 -0.0020271660204725342 0.05275601620775567 0 -0.0014981040630762648 0.052473553397554273 0 -0.0020333784362101454 0.052283626235372367 0 -0.0020271660204725342 0.05275601620775567 0 -0.0020333784362101454 0.052283626235372367 0 -0.002381215539562857 0.052267339856125326 0 -0.0020333784362101454 0.052283626235372367 0 -0.002381215539562857 0.052267339856125326 0 -0.0023126126295197938 0.051996647392267933 0 -0.002381215539562857 0.052267339856125326 0 -0.002605704361720054 0.052285732566083133 0 -0.0024286568268723327 0.052651587753091089 0 -0.002381215539562857 0.052267339856125326 0 -0.002605704361720054 0.052285732566083133 0 -0.0025401855947980285 0.052019363538456549 0 -0.002605704361720054 0.052285732566083133 0 -0.0026585658154547197 0.052508501875475656 0 -0.0024286568268723327 0.052651587753091089 0 -0.0027523441735816455 0.052316229993186872 0 -0.002605704361720054 0.052285732566083133 0 -0.0027410614996386177 0.052063416649139646 0 -0.0027523441735816455 0.052316229993186872 0 -0.002605704361720054 0.052285732566083133 0 -0.0026585658154547197 0.052508501875475656 0 -0.0026585658154547197 0.052508501875475656 0 -0.0024286568268723327 0.052651587753091089 0 -0.002560914604420587 0.052787225520726518 0 -0.0026585658154547197 0.052508501875475656 0 -0.002560914604420587 0.052787225520726518 0 -0.0027178874431525711 0.052644620167177789 0 -0.0020271660204725342 0.05275601620775567 0 -0.0024286568268723327 0.052651587753091089 0 -0.0023975956384431484 0.053110652649455484 0 -0.0020271660204725342 0.05275601620775567 0 -0.002381215539562857 0.052267339856125326 0 -0.0024286568268723327 0.052651587753091089 0 -0.0024286568268723327 0.052651587753091089 0 -0.0023975956384431484 0.053110652649455484 0 -0.002560914604420587 0.052787225520726518 0 -0.0023975956384431484 0.053110652649455484 0 -0.002560914604420587 0.052787225520726518 0 -0.0026077152401099831 0.052875199878694823 0 -0.0022713787762286912 0.053034958423260281 0 -0.0025796982965375021 0.052904636072317705 0 -0.002560914604420587 0.052787225520726518 0 -0.0026077152401099831 0.052875199878694823 0 -0.0027178874431525711 0.052644620167177789 0 -0.0021638656786358932 0.052959483912041895 0 -0.0023759217883531857 0.053201658959072667 0 -0.0026077152401099831 0.052875199878694823 0 -0.0021638656786358932 0.052959483912041895 0 -0.0023759217883531857 0.053201658959072667 0 -0.0021033261742196556 0.053241299914760315 0 -0.0021638656786358932 0.052959483912041895 0 -0.0021033261742196556 0.053241299914760315 0 -0.0017520365814287836 0.05306824935440254 0 -0.0021033261742196556 0.053241299914760315 0 -0.0017520365814287836 0.05306824935440254 0 -0.0018125396078272598 0.053402798153862785 0 -0.0020271660204725342 0.05275601620775567 0 -0.0023975956384431484 0.053110652649455484 0 -0.0018313224372641962 0.053377431618444597 0 -0.0022713787762286912 0.053034958423260281 0 -0.0017845229788781014 0.053221471866178205 0 -0.0020271660204725342 0.05275601620775567 0 -0.0018313224372641962 0.053377431618444597 0 -0.0013494270749338435 0.05306445611970937 0 -0.0011509112256648869 0.053549485744936072 0 -0.0018313224372641962 0.053377431618444597 0 -0.0013494270749338435 0.05306445611970937 0 -0.0017520365814287836 0.05306824935440254 0 -0.0013688442875413496 0.053562093693876538 0 -0.0018125396078272598 0.053402798153862785 0 -0.0011898830294576571 0.0532637967874331 0 -0.0017520365814287836 0.05306824935440254 0 -0.0013688442875413496 0.053562093693876538 0 -0.0011749769084660152 0.053408843899788346 0 -0.0017845229788781014 0.053221471866178205 0 -0.0013688442875413496 0.053562093693876538 0 -0.0018125396078272598 0.053402798153862785 0 -0.0015444258274369392 0.053854503109734574 0 -0.0018125396078272598 0.053402798153862785 0 -0.0015444258274369392 0.053854503109734574 0 -0.0020433801103516137 0.053439053367776934 0 -0.0021033261742196556 0.053241299914760315 0 -0.0018125396078272598 0.053402798153862785 0 -0.0020433801103516137 0.053439053367776934 0 -0.001482868345754537 0.053721514597543818 0 -0.0019959831720794551 0.05349074925131285 0 -0.0014245795731957858 0.053606114583566428 0 -0.0018557076999995013 0.05402511917279193 0 -0.0020433801103516137 0.053439053367776934 0 -0.0014245795731957858 0.053606114583566428 0 -0.0012012327394146849 0.05404609079684887 0 -0.0018557076999995013 0.05402511917279193 0 -0.0012012327394146849 0.05404609079684887 0 -0.0018557076999995013 0.05402511917279193 0 -0.0013223571403923266 0.05444141884181436 0 -0.0020479176507096825 0.053452403025515023 0 -0.0016241919759705529 0.053624282613425819 0 -0.002036998122275176 0.052965468921806341 0 -0.0021609433683948674 0.052844175548898552 0 -0.0019240291037624889 0.052794826632312247 0 -0.0022929856135685432 0.052851540813061898 0 -0.0021609433683948674 0.052844175548898552 0 -0.0022487216560067081 0.05279680813995271 0 -0.0022929856135685432 0.052851540813061898 0 -0.0021609433683948674 0.052844175548898552 0 -0.0019240291037624889 0.052794826632312247 0 -0.002243781568663593 0.052712267617765138 0 -0.0022487216560067081 0.05279680813995271 0 -0.0022749635897613505 0.052936330357164413 0 -0.002243781568663593 0.052712267617765138 0 -0.0022226974744247925 0.052901842456881024 0 -0.002110296923283685 0.052466369456596128 0 -0.002243781568663593 0.052712267617765138 0 -0.00221022012918452 0.052607416140274414 0 -0.002110296923283685 0.052466369456596128 0 -0.00221022012918452 0.052607416140274414 0 -0.0022533135208938704 0.052539834875823359 0 -0.002110296923283685 0.052466369456596128 0 -0.002243781568663593 0.052712267617765138 0 -0.0022346106507671174 0.052717377134770448 0 -0.0022487216560067081 0.05279680813995271 0 -0.002243781568663593 0.052712267617765138 0 -0.00221022012918452 0.052607416140274414 0 -0.0022346106507671174 0.052717377134770448 0 -0.0021748568747794357 0.052871394000273027 0 -0.0021609433683948674 0.052844175548898552 0 -0.0022487216560067081 0.05279680813995271 0 -0.0021748568747794357 0.052871394000273027 0 -0.0022139388979191491 0.052829792344509879 0 -0.0022487216560067081 0.05279680813995271 0 -0.0022139388979191491 0.052829792344509879 0 -0.0022346106507671174 0.052717377134770448 0 -0.0022487216560067081 0.05279680813995271 0 -0.0022929856135685432 0.052851540813061898 0 -0.0022749635897613505 0.052936330357164413 0 -0.0022891217207246296 0.053364134515424565 0 -0.0022929856135685432 0.052851540813061898 0 -0.0022487216560067081 0.05279680813995271 0 -0.0022749635897613505 0.052936330357164413 0 -0.0022749635897613505 0.052936330357164413 0 -0.0022226974744247925 0.052901842456881024 0 -0.0022389047433229183 0.053165286211623829 0 -0.002243781568663593 0.052712267617765138 0 -0.0022749635897613505 0.052936330357164413 0 -0.0022226974744247925 0.052901842456881024 0 -0.0022226974744247925 0.052901842456881024 0 -0.0022389047433229183 0.053165286211623829 0 -0.0021356703835843137 0.053194289673778733 0 -0.0022749635897613505 0.052936330357164413 0 -0.0022389047433229183 0.053165286211623829 0 -0.0022891217207246296 0.053364134515424565 0 -0.0022389047433229183 0.053165286211623829 0 -0.002300234187881966 0.053306347764758226 0 -0.0021356703835843137 0.053194289673778733 0 -0.0022389047433229183 0.053165286211623829 0 -0.0022891217207246296 0.053364134515424565 0 -0.002300234187881966 0.053306347764758226 0 -0.0022891217207246296 0.053364134515424565 0 -0.002300234187881966 0.053306347764758226 0 -0.0022415431493979896 0.053327146423080285 0 -0.0020479176507096825 0.053452403025515023 0 -0.0022451141102686201 0.05338220268431005 0 -0.0018557076999995013 0.05402511917279193 0 -0.0022891217207246296 0.053364134515424565 0 -0.0020433801103516137 0.053439053367776934 0 -0.0022891217207246296 0.053364134515424565 0 -0.0020433801103516137 0.053439053367776934 0 -0.0022415431493979896 0.053327146423080285 0 -0.0021033261742196556 0.053241299914760315 0 -0.0020433801103516137 0.053439053367776934 0 -0.0022415431493979896 0.053327146423080285 0 -0.0023759217883531857 0.053201658959072667 0 -0.002300234187881966 0.053306347764758226 0 -0.0022415431493979896 0.053327146423080285 0 -0.0023759217883531857 0.053201658959072667 0 -0.0021033261742196556 0.053241299914760315 0 -0.0022415431493979896 0.053327146423080285 0 -0.0023759217883531857 0.053201658959072667 0 -0.002300234187881966 0.053306347764758226 0 -0.0025442046652254082 0.053253402042992642 0 -0.0024916951919436063 0.048158605602969841 0 -0.0041664242195011761 0.049304110899236045 0 -0.003818051562098617 0.047954471505510979 0 -0.0024916951919436063 0.048158605602969841 0 -0.003818051562098617 0.047954471505510979 0 -0.0034982681827211677 0.046945823630764563 0 -0.0024916951919436063 0.048158605602969841 0 -0.0021453863315364723 0.050306506529327395 0 -0.0033736245402065878 0.050252900467362541 0 -0.0024916951919436063 0.048158605602969841 0 -0.0033736245402065878 0.050252900467362541 0 -0.0041664242195011761 0.049304110899236045 0 -0.0025106534659731783 0.050709235215540133 0 -0.0021833412704278404 0.05170673396232426 0 -0.002300234187881966 0.053306347764758226 0 -0.0025442046652254082 0.053253402042992642 0 -0.0021356703835843137 0.053194289673778733 0 -0.0022226974744247925 0.052901842456881024 0 -0.0021356703835843137 0.053194289673778733 0 -0.002110296923283685 0.052466369456596128 0 -0.0021833412704278404 0.05170673396232426 0 -0.0020941283962840739 0.052377421383529674 0 -0.0021453863315364723 0.050306506529327395 0 -0.0029040488647653407 0.051501362355010613 0 -0.002110296923283685 0.052466369456596128 0 -0.0021453863315364723 0.050306506529327395 0 -0.0033736245402065878 0.050252900467362541 0 -0.0029040488647653407 0.051501362355010613 0 -0.0033736245402065878 0.050252900467362541 0 -0.0029040488647653407 0.051501362355010613 0 -0.0038398205153000477 0.05141676063599767 0 -0.0029040488647653407 0.051501362355010613 0 -0.0033049763691614261 0.052128514343783738 0 -0.0027775855178524987 0.052099900853394034 0 -0.0029040488647653407 0.051501362355010613 0 -0.0038398205153000477 0.05141676063599767 0 -0.0033049763691614261 0.052128514343783738 0 -0.0038398205153000477 0.05141676063599767 0 -0.0033049763691614261 0.052128514343783738 0 -0.0039749980461942312 0.052161023826875652 0 -0.0035535826656898604 0.052818356066400465 0 -0.0033049763691614261 0.052128514343783738 0 -0.0039749980461942312 0.052161023826875652 0 -0.0033049763691614261 0.052128514343783738 0 -0.0027775855178524987 0.052099900853394034 0 -0.0029147601047368669 0.052501790906868094 0 -0.0027775855178524987 0.052099900853394034 0 -0.0029147601047368669 0.052501790906868094 0 -0.0024580230994823583 0.052390865936763058 0 -0.0029040488647653407 0.051501362355010613 0 -0.0027775855178524987 0.052099900853394034 0 -0.002110296923283685 0.052466369456596128 0 -0.0027775855178524987 0.052099900853394034 0 -0.002110296923283685 0.052466369456596128 0 -0.0024580230994823583 0.052390865936763058 0 -0.0023192532985088759 0.052712987316586968 0 -0.0022533135208938704 0.052539834875823359 0 -0.0024580230994823583 0.052390865936763058 0 -0.0022533135208938704 0.052539834875823359 0 -0.002110296923283685 0.052466369456596128 0 -0.0024580230994823583 0.052390865936763058 0 -0.0046076432027571642 0.052675385394558294 0 -0.0057724981311143286 0.051622380691994811 0 -0.0046953034907342523 0.05149872783764084 0 -0.0046076432027571642 0.052675385394558294 0 -0.0039749980461942312 0.052161023826875652 0 -0.0046953034907342523 0.05149872783764084 0 -0.0038398205153000477 0.05141676063599767 0 -0.0039749980461942312 0.052161023826875652 0 -0.0046953034907342523 0.05149872783764084 0 -0.0046953034907342523 0.05149872783764084 0 -0.0044633981045539579 0.050508352797603143 0 -0.0051881114967472905 0.050692185310438349 0 -0.0038398205153000477 0.05141676063599767 0 -0.0046953034907342523 0.05149872783764084 0 -0.0044633981045539579 0.050508352797603143 0 -0.0033736245402065878 0.050252900467362541 0 -0.0038398205153000477 0.05141676063599767 0 -0.0044633981045539579 0.050508352797603143 0 -0.0044633981045539579 0.050508352797603143 0 -0.0051881114967472905 0.050692185310438349 0 -0.0049779101803986885 0.04989891874437679 0 -0.0057724981311143286 0.051622380691994811 0 -0.0051881114967472905 0.050692185310438349 0 -0.0058061764206565432 0.049999231855299413 0 -0.0057724981311143286 0.051622380691994811 0 -0.0046953034907342523 0.05149872783764084 0 -0.0051881114967472905 0.050692185310438349 0 -0.0046711966485470779 0.040889648831393427 0 -0.0048922112261579566 0.041746790787485208 0 -0.0046976216391490643 0.041768862158482079 0 -0.0051881114967472905 0.050692185310438349 0 -0.0058061764206565432 0.049999231855299413 0 -0.0049779101803986885 0.04989891874437679 0 -0.0034593086173122949 0.04131347228914909 0 -0.0027996285619096084 0.035273418525901476 0 -0.0034593086173122949 0.04131347228914909 0 -0.0055942727136159952 0.046909372822868306 0 -0.0058061764206565432 0.049999231855299413 0 -0.0050977716751792841 0.049085577134942313 0 -0.0057509686143774478 0.047960792932961203 0 -0.0048922112261579566 0.041746790787485208 0 -0.0046976216391490643 0.041768862158482079 0 -0.005056456107735972 0.042618076459975139 0 -0.0028439073961488205 0.036594751784980166 0 -0.0027996285619096084 0.035273418525901476 0 -0.0055942727136159952 0.046909372822868306 0 -0.0053428364912025536 0.045049688731758547 0 -0.0058061764206565432 0.049999231855299413 0 -0.0049779101803986885 0.04989891874437679 0 -0.0050977716751792841 0.049085577134942313 0 -0.0033736245402065878 0.050252900467362541 0 -0.0044633981045539579 0.050508352797603143 0 -0.0041664242195011761 0.049304110899236045 0 -0.0044633981045539579 0.050508352797603143 0 -0.0049779101803986885 0.04989891874437679 0 -0.0041664242195011761 0.049304110899236045 0 -0.0050977716751792841 0.049085577134942313 0 -0.0041664242195011761 0.049304110899236045 0 -0.0046287245388540689 0.048191820945660789 0 -0.0049779101803986885 0.04989891874437679 0 -0.0050977716751792841 0.049085577134942313 0 -0.0041664242195011761 0.049304110899236045 0 -0.0041664242195011761 0.049304110899236045 0 -0.0046287245388540689 0.048191820945660789 0 -0.003818051562098617 0.047954471505510979 0 -0.0050977716751792841 0.049085577134942313 0 -0.0046287245388540689 0.048191820945660789 0 -0.0057509686143774478 0.047960792932961203 0 -0.0046287245388540689 0.048191820945660789 0 -0.0049243670034372052 0.047426969043371923 0 -0.0057509686143774478 0.047960792932961203 0 -0.0046287245388540689 0.048191820945660789 0 -0.0049243670034372052 0.047426969043371923 0 -0.004313157169516281 0.047083936254071895 0 -0.003818051562098617 0.047954471505510979 0 -0.004313157169516281 0.047083936254071895 0 -0.0034982681827211677 0.046945823630764563 0 -0.0046287245388540689 0.048191820945660789 0 -0.003818051562098617 0.047954471505510979 0 -0.004313157169516281 0.047083936254071895 0 -0.0047119809621004767 0.042647908124321232 0 -0.0046976216391490643 0.041768862158482079 0 -0.005056456107735972 0.042618076459975139 0 -0.0049243670034372052 0.047426969043371923 0 -0.0057509686143774478 0.047960792932961203 0 -0.0049477091794610248 0.04669267863346304 0 -0.0047119809621004767 0.042647908124321232 0 -0.005056456107735972 0.042618076459975139 0 -0.0049120018087521165 0.042932148363296521 0 -0.0053428364912025536 0.045049688731758547 0 -0.0051916139769804378 0.044397396255739477 0 -0.0047119809621004767 0.042647908124321232 0 -0.0048951970098588815 0.043224157775207342 0 -0.0049120018087521165 0.042932148363296521 0 -0.0057509686143774478 0.047960792932961203 0 -0.00546061941631027 0.045586438555622201 0 -0.0049477091794610248 0.04669267863346304 0 -0.005056456107735972 0.042618076459975139 0 -0.0049120018087521165 0.042932148363296521 0 -0.004994880264467619 0.043161506612066906 0 -0.0048951970098588815 0.043224157775207342 0 -0.0049120018087521165 0.042932148363296521 0 -0.004994880264467619 0.043161506612066906 0 -0.0051916139769804378 0.044397396255739477 0 -0.0047878111346432812 0.043265330331890589 0 -0.0048951970098588815 0.043224157775207342 0 -0.004994880264467619 0.043161506612066906 0 -0.0049050938104741671 0.043164859195051794 0 -0.004994880264467619 0.043161506612066906 0 -0.0049050938104741671 0.043164859195051794 0 -0.0046941152792482257 0.043198341672859679 0 -0.0048951970098588815 0.043224157775207342 0 -0.0050132228838000803 0.043039687685655727 0 -0.0049050938104741671 0.043164859195051794 0 -0.00546061941631027 0.045586438555622201 0 -0.0043241559934828712 0.043802848501378541 0 -0.0046941152792482257 0.043198341672859679 0 -0.0042504325953766813 0.044710634667267338 0 -0.0038265577783468353 0.044865876496284172 0 -0.0039737909172731789 0.043390511830826706 0 -0.00546061941631027 0.045586438555622201 0 -0.0042504325953766813 0.044710634667267338 0 -0.0043241559934828712 0.043802848501378541 0 -0.00546061941631027 0.045586438555622201 0 -0.0042504325953766813 0.044710634667267338 0 -0.0041354952244846421 0.045854004467644892 0 -0.0042504325953766813 0.044710634667267338 0 -0.0038265577783468353 0.044865876496284172 0 -0.0041354952244846421 0.045854004467644892 0 -0.00546061941631027 0.045586438555622201 0 -0.0041354952244846421 0.045854004467644892 0 -0.0049477091794610248 0.04669267863346304 0 -0.0041354952244846421 0.045854004467644892 0 -0.0049477091794610248 0.04669267863346304 0 -0.004313157169516281 0.047083936254071895 0 -0.0049243670034372052 0.047426969043371923 0 -0.0049477091794610248 0.04669267863346304 0 -0.004313157169516281 0.047083936254071895 0 -0.0041354952244846421 0.045854004467644892 0 -0.004313157169516281 0.047083936254071895 0 -0.0034982681827211677 0.046945823630764563 0 -0.0025442046652254082 0.053253402042992642 0 -0.0026231423644319956 0.053072304420543011 0 -0.0029329476146071789 0.052936326341124433 0 -0.0025106534659731783 0.050709235215540133 0 -0.0030586553975863011 0.049057588541945092 0 -0.0024916951919436063 0.048158605602969841 0 -0.0034982681827211677 0.046945823630764563 0 -0.0030346418931169669 0.045641861590126037 0 -0.0026231423644319956 0.053072304420543011 0 -0.00274838168502813 0.052870249776436597 0 -0.0029329476146071789 0.052936326341124433 0 -0.0041354952244846421 0.045854004467644892 0 -0.0034982681827211677 0.046945823630764563 0 -0.0030346418931169669 0.045641861590126037 0 -0.0023759217883531857 0.053201658959072667 0 -0.0025442046652254082 0.053253402042992642 0 -0.0026231423644319956 0.053072304420543011 0 -0.0023759217883531857 0.053201658959072667 0 -0.0026231423644319956 0.053072304420543011 0 -0.0026077152401099831 0.052875199878694823 0 -0.0026231423644319956 0.053072304420543011 0 -0.0026077152401099831 0.052875199878694823 0 -0.00274838168502813 0.052870249776436597 0 -0.0026077152401099831 0.052875199878694823 0 -0.00274838168502813 0.052870249776436597 0 -0.0028178441814840074 0.052686318048948341 0 -0.0026077152401099831 0.052875199878694823 0 -0.0028178441814840074 0.052686318048948341 0 -0.0027178874431525711 0.052644620167177789 0 -0.0029329476146071789 0.052936326341124433 0 -0.0029386208088224303 0.052719098936707655 0 -0.0032318792569934109 0.052337803033682601 0 -0.0038265577783468353 0.044865876496284172 0 -0.0030346418931169669 0.045641861590126037 0 -0.0039737909172731789 0.043390511830826706 0 -0.0030586553975863011 0.049057588541945092 0 -0.0034112871340927077 0.048932931364457539 0 -0.0038265577783468353 0.044865876496284172 0 -0.0041354952244846421 0.045854004467644892 0 -0.0030346418931169669 0.045641861590126037 0 -0.00274838168502813 0.052870249776436597 0 -0.0029329476146071789 0.052936326341124433 0 -0.0029386208088224303 0.052719098936707655 0 -0.00274838168502813 0.052870249776436597 0 -0.0028178441814840074 0.052686318048948341 0 -0.0029386208088224303 0.052719098936707655 0 -0.0028178441814840074 0.052686318048948341 0 -0.0029386208088224303 0.052719098936707655 0 -0.0029485072528361773 0.052580245009923129 0 -0.0029386208088224303 0.052719098936707655 0 -0.0029485072528361773 0.052580245009923129 0 -0.0030971523995255647 0.052521128980494283 0 -0.0024081118842973689 0.05353742070659722 0 -0.0034112871340927077 0.048932931364457539 0 -0.0028178441814840074 0.052686318048948341 0 -0.0029485072528361773 0.052580245009923129 0 -0.002873963695163908 0.052531666844645435 0 -0.0029901642698499918 0.052455753500161462 0 -0.002873963695163908 0.052531666844645435 0 -0.0028942434452434249 0.052430255122598003 0 -0.0029485072528361773 0.052580245009923129 0 -0.0029901642698499918 0.052455753500161462 0 -0.002873963695163908 0.052531666844645435 0 -0.0029901642698499918 0.052455753500161462 0 -0.0030971523995255647 0.052521128980494283 0 -0.0031235217094696005 0.052432078025219861 0 -0.0029485072528361773 0.052580245009923129 0 -0.0029901642698499918 0.052455753500161462 0 -0.0030971523995255647 0.052521128980494283 0 -0.0028178441814840074 0.052686318048948341 0 -0.0027178874431525711 0.052644620167177789 0 -0.002873963695163908 0.052531666844645435 0 -0.0027178874431525711 0.052644620167177789 0 -0.002873963695163908 0.052531666844645435 0 -0.0028137538532937139 0.052427476764495856 0 -0.002873963695163908 0.052531666844645435 0 -0.0028137538532937139 0.052427476764495856 0 -0.0028942434452434249 0.052430255122598003 0 -0.0026585658154547197 0.052508501875475656 0 -0.0027178874431525711 0.052644620167177789 0 -0.0028137538532937139 0.052427476764495856 0 -0.0027523441735816455 0.052316229993186872 0 -0.0029039134442136586 0.052312656599220221 0 -0.0027410614996386177 0.052063416649139646 0 -0.0027523441735816455 0.052316229993186872 0 -0.0028137538532937139 0.052427476764495856 0 -0.0029039134442136586 0.052312656599220221 0 -0.0027523441735816455 0.052316229993186872 0 -0.0026585658154547197 0.052508501875475656 0 -0.0028137538532937139 0.052427476764495856 0 -0.0028137538532937139 0.052427476764495856 0 -0.0028942434452434249 0.052430255122598003 0 -0.0029039134442136586 0.052312656599220221 0 -0.004687432993333792 0.051198029075204543 0 -0.0046878441471608278 0.051121619559657092 0 -0.0046847977944076283 0.051106688491239304 0 -0.0029901642698499918 0.052455753500161462 0 -0.0029039134442136586 0.052312656599220221 0 -0.0031235217094696005 0.052432078025219861 0 -0.0039081823962738215 0.052174023859185126 0 -0.0043253886526318395 0.04790880470397612 0 -0.004687432993333792 0.051198029075204543 0 -0.0046878441471608278 0.051121619559657092 0 -0.0046949789446763483 0.051174301848809903 0 -0.0029901642698499918 0.052455753500161462 0 -0.0028942434452434249 0.052430255122598003 0 -0.0029039134442136586 0.052312656599220221 0 -0.0067199404992164856 0.047215368856029415 0 -0.00670688712758766 0.047241513003470847 0 -0.0067319178035768531 0.047330126442351295 0 -0.0064757731811616913 0.045558125391849176 0 -0.0064328618605711332 0.045779706230772294 0 -0.0064757731811616913 0.045558125391849176 0 -0.0043253886526318395 0.04790880470397612 0 -0.0062993586000206422 0.04138216333273368 0 -0.0026325296594634745 0.045439267845879261 0 -0.0033898922679655736 0.04585266870126347 0 -0.0043489304962799485 0.040351145417544573 0 -0.0062993586000206422 0.04138216333273368 0 -0.0026325296594634745 0.045439267845879261 0 -0.0042558713900004855 0.042147395710854636 0 -0.0046131760132420534 0.042634630171016159 0 -0.0040287853156102298 0.042560742219654592 0 -0.0033720142556427262 0.036648943650056123 0 -0.0036708662270123222 0.045717775190787673 0 -0.0033720142556427262 0.036648943650056123 0 -0.0050871797023820629 0.032627073391990141 0 -0.0066794047723187436 0.047200280838721576 0 -0.00670688712758766 0.047241513003470847 0 -0.006696162395110168 0.047282240061153981 0 -0.006710137580683409 0.047223730320221292 0 -0.0066794047723187436 0.047200280838721576 0 -0.00670688712758766 0.047241513003470847 0 -0.0064757731811616913 0.045558125391849176 0 -0.0033720142556427262 0.036648943650056123 0 -0.0051377803868388871 0.04275108840303378 0 -0.0042558713900004855 0.042147395710854636 0 -0.0046131760132420534 0.042634630171016159 0 -0.0016063279264210066 0.020515796070266965 0 -0.002371115748615225 0.020136305912114887 0 -0.0024128355181529818 0.019495264870362836 0 -0.0016063279264210066 0.020515796070266965 0 -0.002371115748615225 0.020136305912114887 0 -0.0027781699480707691 0.020595241780704543 0 -0.0035583086342903963 0.021600873764907512 0 -0.0016063279264210066 0.020515796070266965 0 -0.0027781699480707691 0.020595241780704543 0 -0.0032417391145664332 0.028773305383411777 0 -0.0033720142556427262 0.036648943650056123 0 -0.0031705230203336395 0.019824508488080775 0 -0.0030386437257263091 0.020258504443490807 0 -0.0028266142265406893 0.019814950413934579 0 -0.002371115748615225 0.020136305912114887 0 -0.0027570908329065309 0.020197467925716372 0 -0.0028266142265406893 0.019814950413934579 0 -0.0027570908329065309 0.020197467925716372 0 -0.0030386437257263091 0.020258504443490807 0 -0.0028266142265406893 0.019814950413934579 0 -0.002371115748615225 0.020136305912114887 0 -0.0027570908329065309 0.020197467925716372 0 -0.0027781699480707691 0.020595241780704543 0 -0.0027570908329065309 0.020197467925716372 0 -0.0030386437257263091 0.020258504443490807 0 -0.0027781699480707691 0.020595241780704543 0 -0.0035583086342903963 0.021600873764907512 0 -0.0030386437257263091 0.020258504443490807 0 -0.0027781699480707691 0.020595241780704543 0 -0.0050132228838000803 0.043039687685655727 0 -0.0049050938104741671 0.043164859195051794 0 -0.0046941152792482257 0.043198341672859679 0 -0.0050132228838000803 0.043039687685655727 0 -0.0046131760132420534 0.042634630171016159 0 -0.0040287853156102298 0.042560742219654592 0 -0.0050328290613230074 0.042198650212830723 0 -0.0036708662270123222 0.045717775190787673 0 -0.0050132228838000803 0.043039687685655727 0 -0.0044649364667241542 0.043192216015934051 0 -0.0046941152792482257 0.043198341672859679 0 -0.0051377803868388871 0.04275108840303378 0 -0.0050132228838000803 0.043039687685655727 0 -0.0046131760132420534 0.042634630171016159 0 -0.0042504325953766813 0.044710634667267338 0 -0.0043241559934828712 0.043802848501378541 0 -0.0039737909172731789 0.043390511830826706 0 -0.0043241559934828712 0.043802848501378541 0 -0.0039737909172731789 0.043390511830826706 0 -0.0044649364667241542 0.043192216015934051 0 -0.0034112871340927077 0.048932931364457539 0 -0.0043253886526318395 0.04790880470397612 0 -0.0034112871340927077 0.048932931364457539 0 -0.0036708662270123222 0.045717775190787673 0 -0.0028958763364055982 0.048610844427421904 0 -0.0037569515497593632 0.046060487990105439 0 -0.0043493417719702495 0.04638427436486034 0 -0.0043253886526318395 0.04790880470397612 0 -0.0036708662270123222 0.045717775190787673 0 -0.0043241559934828712 0.043802848501378541 0 -0.0044649364667241542 0.043192216015934051 0 -0.0046941152792482257 0.043198341672859679 0 -0.0067128936916789235 0.047361022803670612 0 -0.0067893200141256179 0.047472739809409692 0 -0.0068197335645683553 0.047487596987457956 0 -0.0067128936916789235 0.047361022803670612 0 -0.006782718984284293 0.04750323359990382 0 -0.0067893200141256179 0.047472739809409692 0 -0.0067128936916789235 0.047361022803670612 0 -0.0064912046587930882 0.047303870892932968 0 -0.0068197335645683553 0.047487596987457956 0 -0.0033329849966249772 0.036011429964980149 0 -0.0036475382999568953 0.041787884445718439 0 0.0004165260381412307 0.034401353869212087 0 0.00048145469378892402 0.034139713606515069 0 -0.0003511369651926529 0.034506122618106955 0 -0.0069423894021804888 0.047496943248634092 0 -0.0033329849966249772 0.036011429964980149 0 0.0005263991554658921 0.034430138876314471 0 0.0004165260381412307 0.034401353869212087 0 0.00048145469378892402 0.034139713606515069 0 -0.0030945606829026174 0.018918654511289122 0 -0.0031820937419130163 0.019039489347865816 0 -0.0031061376124112672 0.019092344960776782 0 -0.0031941957069977719 0.019084320051422382 0 -0.0031820937419130163 0.019039489347865816 0 -0.0031061376124112672 0.019092344960776782 0 -0.0032181272225161044 0.019040629084475784 0 -0.0031682093917263518 0.019038443348088331 0 -0.0031820937419130163 0.019039489347865816 0 -0.0033329849966249772 0.036011429964980149 0 -0.0014315329318332125 0.032382953778630548 0 -0.0066917364126945957 0.047298181797871638 0 -0.0067042760002863546 0.047145417244562747 0 -0.0066891984671629268 0.047246225236956665 0 -0.0033329849966249772 0.036011429964980149 0 -0.0050871797023820629 0.032627073391990141 0 -0.0030945606829026174 0.018918654511289122 0 -0.0029268553896734904 0.019230285967641206 0 -0.0024128355181529818 0.019495264870362836 0 -0.0030945606829026174 0.018918654511289122 0 -0.0031061376124112672 0.019092344960776782 0 -0.0029268553896734904 0.019230285967641206 0 -0.0031941957069977719 0.019084320051422382 0 -0.0031158040060297923 0.019154493045152154 0 -0.0031061376124112672 0.019092344960776782 0 -0.0031158040060297923 0.019154493045152154 0 -0.0031061376124112672 0.019092344960776782 0 -0.0029268553896734904 0.019230285967641206 0 -0.0029268553896734904 0.019230285967641206 0 -0.0031310344625062568 0.019262981858442402 0 -0.0028497500780738723 0.019479723257936191 0 -0.0031158040060297923 0.019154493045152154 0 -0.0029268553896734904 0.019230285967641206 0 -0.0031310344625062568 0.019262981858442402 0 -0.0031310344625062568 0.019262981858442402 0 -0.0031325689516163422 0.019518914782956337 0 -0.0028497500780738723 0.019479723257936191 0 -0.0028497500780738723 0.019479723257936191 0 -0.0028266142265406893 0.019814950413934579 0 -0.0024128355181529818 0.019495264870362836 0 -0.0029268553896734904 0.019230285967641206 0 -0.0028497500780738723 0.019479723257936191 0 -0.0024128355181529818 0.019495264870362836 0 -0.0031325689516163422 0.019518914782956337 0 -0.0028497500780738723 0.019479723257936191 0 -0.0028266142265406893 0.019814950413934579 0 -0.0031705230203336395 0.019824508488080775 0 -0.0031325689516163422 0.019518914782956337 0 -0.0028266142265406893 0.019814950413934579 0 -0.002371115748615225 0.020136305912114887 0 -0.0028266142265406893 0.019814950413934579 0 -0.0024128355181529818 0.019495264870362836 0 -0.0066794047723187436 0.047200280838721576 0 -0.0066891984671629268 0.047246225236956665 0 -0.006696162395110168 0.047282240061153981 0 -0.0069423894021804888 0.047496943248634092 0 -0.0067071398932018302 0.047456330734580734 0 -0.0066917364126945957 0.047298181797871638 0 -0.0067414989642915505 0.047390774585032602 0 -0.006782718984284293 0.04750323359990382 0 -0.0066917364126945957 0.047298181797871638 0 -0.0066891984671629268 0.047246225236956665 0 -0.006696162395110168 0.047282240061153981 0 -0.0066917364126945957 0.047298181797871638 0 -0.006696162395110168 0.047282240061153981 0 -0.0067414989642915505 0.047390774585032602 0 -0.006696162395110168 0.047282240061153981 0 -0.0067414989642915505 0.047390774585032602 0 -0.0067319178035768531 0.047330126442351295 0 -0.00670688712758766 0.047241513003470847 0 -0.006696162395110168 0.047282240061153981 0 -0.0067319178035768531 0.047330126442351295 0 -0.0064757731811616913 0.045558125391849176 0 -0.0057183994049252885 0.049853736706953165 0 -0.0067199404992164856 0.047215368856029415 0 -0.0067319178035768531 0.047330126442351295 0 -0.0068069573315912733 0.047593117986073206 0 -0.0067414989642915505 0.047390774585032602 0 -0.0067319178035768531 0.047330126442351295 0 -0.0068069573315912733 0.047593117986073206 0 -0.0067414989642915505 0.047390774585032602 0 -0.006782718984284293 0.04750323359990382 0 -0.0068069573315912733 0.047593117986073206 0 -0.006782718984284293 0.04750323359990382 0 -0.0068069573315912733 0.047593117986073206 0 -0.0067520280903807092 0.047663961348134776 0 -0.0046949789446763483 0.051174301848809903 0 -0.0044289397999226886 0.051025226344647755 0 -0.004464786930508122 0.05125279529017332 0 -0.0057183994049252885 0.049853736706953165 0 -0.0053100265773806787 0.049488185595490786 0 -0.0068069573315912733 0.047593117986073206 0 -0.0067520280903807092 0.047663961348134776 0 -0.0063196649446228071 0.048119124937638848 0 -0.0039081823962738215 0.052174023859185126 0 -0.0035381720641815043 0.051585677461484264 0 -0.004687432993333792 0.051198029075204543 0 -0.0046949789446763483 0.051174301848809903 0 -0.004464786930508122 0.05125279529017332 0 -0.0067520280903807092 0.047663961348134776 0 -0.0067098654438324358 0.047609940553525874 0 -0.0063196649446228071 0.048119124937638848 0 -0.0067098654438324358 0.047609940553525874 0 -0.006512845741741909 0.047558772739851769 0 -0.0063196649446228071 0.048119124937638848 0 -0.0067520280903807092 0.047663961348134776 0 -0.0067098654438324358 0.047609940553525874 0 -0.0068239722141247676 0.047541188377885117 0 -0.006782718984284293 0.04750323359990382 0 -0.0067893200141256179 0.047472739809409692 0 -0.0068239722141247676 0.047541188377885117 0 -0.006782718984284293 0.04750323359990382 0 -0.0067520280903807092 0.047663961348134776 0 -0.0068239722141247676 0.047541188377885117 0 -0.0067893200141256179 0.047472739809409692 0 -0.0068239722141247676 0.047541188377885117 0 -0.0068197335645683553 0.047487596987457956 0 -0.0017068523671181885 0.03595182925022207 0 -0.00035211752716747194 0.035897363979774471 0 -0.0019825537306542495 0.038237361229104164 0 -0.0042034051130189027 0.041348650726188305 0 -0.0036475382999568953 0.041787884445718439 0 -0.0068239722141247676 0.047541188377885117 0 -0.0069122548525678736 0.047074580943012 0 -0.0068197335645683553 0.047487596987457956 0 -0.0067098654438324358 0.047609940553525874 0 -0.0068239722141247676 0.047541188377885117 0 -0.0069122548525678736 0.047074580943012 0 -0.0067098654438324358 0.047609940553525874 0 -0.0069122548525678736 0.047074580943012 0 -0.006512845741741909 0.047558772739851769 0 -0.0017068523671181885 0.03595182925022207 0 -0.00035211752716747194 0.035897363979774471 0 -0.0003511369651926529 0.034506122618106955 0 0.0004165260381412307 0.034401353869212087 0 -0.0003511369651926529 0.034506122618106955 0 0.00018573452337395616 0.034655607811841432 0 -0.00035211752716747194 0.035897363979774471 0 -0.0003511369651926529 0.034506122618106955 0 0.00018573452337395616 0.034655607811841432 0 0.0004165260381412307 0.034401353869212087 0 0.00018573452337395616 0.034655607811841432 0 0.0006577484014281456 0.034531408400939587 0 0.0005263991554658921 0.034430138876314471 0 0.0004165260381412307 0.034401353869212087 0 0.0006577484014281456 0.034531408400939587 0 -0.00035211752716747194 0.035897363979774471 0 0.0006577484014281456 0.034531408400939587 0 0.0010196564786637049 0.034528390529852578 0 -0.00035211752716747194 0.035897363979774471 0 0.00018573452337395616 0.034655607811841432 0 0.0006577484014281456 0.034531408400939587 0 -0.00035211752716747194 0.035897363979774471 0 0.0010196564786637049 0.034528390529852578 0 -0.00020957984430384143 0.036985716473333624 0 -0.00035211752716747194 0.035897363979774471 0 -0.00020957984430384143 0.036985716473333624 0 -0.001241335337772258 0.038311309278440883 0 -0.00020957984430384143 0.036985716473333624 0 -0.00067428900107579181 0.038873199924341219 0 -0.001241335337772258 0.038311309278440883 0 0.0010202016007528154 0.034573820858031963 0 0.00076716662346751655 0.034887189033554006 0 0.0010196564786637049 0.034528390529852578 0 -0.00020957984430384143 0.036985716473333624 0 0.00088571529943949016 0.038407457759651854 0 0.00088571529943949016 0.038407457759651854 0 -0.00067428900107579181 0.038873199924341219 0 -0.00042886808207836185 0.039624108191440029 0 -0.00020957984430384143 0.036985716473333624 0 0.00088571529943949016 0.038407457759651854 0 -0.00067428900107579181 0.038873199924341219 0 -0.00067428900107579181 0.038873199924341219 0 -0.00042886808207836185 0.039624108191440029 0 -0.00098830356297137487 0.039605226072763573 0 0.00076716662346751655 0.034887189033554006 0 -0.00025098531166748035 0.035879586600683432 0 0.00088571529943949016 0.038407457759651854 0 -0.00042886808207836185 0.039624108191440029 0 -5.0300320519660729e-05 0.039764271303732703 0 0.00044045850478011827 0.031161746693607262 0 0.00082965182591941548 0.031327231911990702 0 -0.00063933678753710162 0.031825323813714938 0 -0.0014678108435403395 0.039882039768228801 0 -0.0014321422367061856 0.03932700589449753 0 -0.0023017059175426211 0.039682000857868577 0 -0.0014678108435403395 0.039882039768228801 0 -0.00098830356297137487 0.039605226072763573 0 -0.0014321422367061856 0.03932700589449753 0 -0.00067428900107579181 0.038873199924341219 0 -0.00098830356297137487 0.039605226072763573 0 -0.0014321422367061856 0.03932700589449753 0 -0.00067428900107579181 0.038873199924341219 0 -0.0014321422367061856 0.03932700589449753 0 -0.001241335337772258 0.038311309278440883 0 -0.0014321422367061856 0.03932700589449753 0 -0.001241335337772258 0.038311309278440883 0 -0.0023017059175426211 0.039682000857868577 0 -0.00035211752716747194 0.035897363979774471 0 -0.001241335337772258 0.038311309278440883 0 -0.0019825537306542495 0.038237361229104164 0 -0.001241335337772258 0.038311309278440883 0 -0.0019825537306542495 0.038237361229104164 0 -0.0023017059175426211 0.039682000857868577 0 -0.0017068523671181885 0.03595182925022207 0 -0.0019825537306542495 0.038237361229104164 0 -0.0029033624654069314 0.038378651356105208 0 -0.0019825537306542495 0.038237361229104164 0 -0.0029033624654069314 0.038378651356105208 0 -0.0028727352953505014 0.04039510612593316 0 -0.0029033624654069314 0.038378651356105208 0 -0.0028727352953505014 0.04039510612593316 0 -0.0030002781093689201 0.042177407261119224 0 -0.0043425590674081044 0.041938670178662978 0 -0.002963433774350334 0.041953230814055158 0 -0.0019825537306542495 0.038237361229104164 0 -0.0028727352953505014 0.04039510612593316 0 -0.0023017059175426211 0.039682000857868577 0 -0.0028727352953505014 0.04039510612593316 0 -0.0023017059175426211 0.039682000857868577 0 -0.0025938832573857936 0.040430757658016105 0 -0.0023017059175426211 0.039682000857868577 0 -0.0025938832573857936 0.040430757658016105 0 -0.002460644280898748 0.040233506649556071 0 -0.0025938832573857936 0.040430757658016105 0 -0.0022262901722173993 0.039867212965586936 0 -0.002460644280898748 0.040233506649556071 0 -0.0014678108435403395 0.039882039768228801 0 -0.0023017059175426211 0.039682000857868577 0 -0.002460644280898748 0.040233506649556071 0 -0.0019427441214857708 0.040743051069707971 0 -0.0014270543512940157 0.040352400858696083 0 -0.0022262901722173993 0.039867212965586936 0 -0.0019427441214857708 0.040743051069707971 0 -0.001115702578610223 0.040883193065082833 0 -0.0014270543512940157 0.040352400858696083 0 -0.001115702578610223 0.040883193065082833 0 -0.0014270543512940157 0.040352400858696083 0 -0.00056976962792127848 0.040525391750560524 0 -0.0025938832573857936 0.040430757658016105 0 -0.0019427441214857708 0.040743051069707971 0 -0.0022262901722173993 0.039867212965586936 0 -0.0025938832573857936 0.040430757658016105 0 -0.0019427441214857708 0.040743051069707971 0 -0.0024020847921281388 0.041254098610173616 0 -0.0028727352953505014 0.04039510612593316 0 -0.0025938832573857936 0.040430757658016105 0 -0.0024020847921281388 0.041254098610173616 0 -0.0019427441214857708 0.040743051069707971 0 -0.0024020847921281388 0.041254098610173616 0 -0.0011790498935318179 0.041510550302645541 0 -0.0019427441214857708 0.040743051069707971 0 -0.001115702578610223 0.040883193065082833 0 -0.0011790498935318179 0.041510550302645541 0 -0.0024020847921281388 0.041254098610173616 0 -0.00092916529217849898 0.042758316405813776 0 -0.0030002781093689201 0.042177407261119224 0 -0.0024020847921281388 0.041254098610173616 0 -0.0011790498935318179 0.041510550302645541 0 -0.00092916529217849898 0.042758316405813776 0 -0.0028727352953505014 0.04039510612593316 0 -0.0024020847921281388 0.041254098610173616 0 -0.0030002781093689201 0.042177407261119224 0 -0.0061782870525347172 0.045525084705179533 0 -0.0030002781093689201 0.042177407261119224 0 -0.0026223354180016662 0.045242010631633259 0 -0.00092916529217849898 0.042758316405813776 0 -0.0030002781093689201 0.042177407261119224 0 -0.0026223354180016662 0.045242010631633259 0 -0.00092916529217849898 0.042758316405813776 0 -0.00079107321152208359 0.045505705689694073 0 -0.0026223354180016662 0.045242010631633259 0 -0.00079107321152208359 0.045505705689694073 0 -0.0027566779026398413 0.046943915991960752 0 -0.0026223354180016662 0.045242010631633259 0 -0.0016188899215504582 0.048312052391266624 0 -0.0030450227748662247 0.048025702279696027 0 -0.0027566779026398413 0.046943915991960752 0 -0.00079107321152208359 0.045505705689694073 0 -0.0016188899215504582 0.048312052391266624 0 -0.0027566779026398413 0.046943915991960752 0 -0.0016735644454016949 0.050049971536508045 0 -0.0021975636437929595 0.050692810785610221 0 -0.0012099284277286365 0.050603329373233391 0 -0.0016188899215504582 0.048312052391266624 0 -0.0013694494577579451 0.049596020613834745 0 -0.00084854172888371214 0.049824881944021571 0 -0.0013694494577579451 0.049596020613834745 0 -0.0017597819735806442 0.048858678130881635 0 -0.0016735644454016949 0.050049971536508045 0 -0.0016188899215504582 0.048312052391266624 0 -0.0013694494577579451 0.049596020613834745 0 -0.0017597819735806442 0.048858678130881635 0 -0.0016188899215504582 0.048312052391266624 0 -0.0017597819735806442 0.048858678130881635 0 -0.0030450227748662247 0.048025702279696027 0 -0.0017597819735806442 0.048858678130881635 0 -0.0016735644454016949 0.050049971536508045 0 -0.0021975636437929595 0.050692810785610221 0 -0.0013694494577579451 0.049596020613834745 0 -0.0016735644454016949 0.050049971536508045 0 -0.0012099284277286365 0.050603329373233391 0 -0.0017597819735806442 0.048858678130881635 0 -0.0034947826333002426 0.050447280304949688 0 -0.0021975636437929595 0.050692810785610221 0 -0.0030450227748662247 0.048025702279696027 0 -0.0040391997481525697 0.047204468253301615 0 -0.0047622857361929631 0.048390764780519159 0 -0.0018273495080838218 0.048760352755311681 0 -0.0039974704416148856 0.04938762202955263 0 -0.0017597819735806442 0.048858678130881635 0 -0.0030450227748662247 0.048025702279696027 0 -0.0047622857361929631 0.048390764780519159 0 -0.0061782870525347172 0.045525084705179533 0 -0.0040391997481525697 0.047204468253301615 0 -0.0026223354180016662 0.045242010631633259 0 -0.0030450227748662247 0.048025702279696027 0 -0.0040391997481525697 0.047204468253301615 0 -0.0027566779026398413 0.046943915991960752 0 -0.0040391997481525697 0.047204468253301615 0 -0.0027566779026398413 0.046943915991960752 0 -0.0026223354180016662 0.045242010631633259 0 -0.0061782870525347172 0.045525084705179533 0 -0.0061161737640442132 0.047433564904578306 0 -0.0051616507167577576 0.047455638933140976 0 -0.0061782870525347172 0.045525084705179533 0 -0.0040391997481525697 0.047204468253301615 0 -0.0051616507167577576 0.047455638933140976 0 -0.0069122548525678736 0.047074580943012 0 -0.0061782870525347172 0.045525084705179533 0 -0.0061161737640442132 0.047433564904578306 0 -0.0042034051130189027 0.041348650726188305 0 -0.0043425590674081044 0.041938670178662978 0 -0.0069122548525678736 0.047074580943012 0 -0.0061161737640442132 0.047433564904578306 0 -0.006512845741741909 0.047558772739851769 0 -0.0061161737640442132 0.047433564904578306 0 -0.006512845741741909 0.047558772739851769 0 -0.0063196649446228071 0.048119124937638848 0 -0.0061161737640442132 0.047433564904578306 0 -0.0047622857361929631 0.048390764780519159 0 -0.0051616507167577576 0.047455638933140976 0 -0.0040391997481525697 0.047204468253301615 0 -0.0047622857361929631 0.048390764780519159 0 -0.0051616507167577576 0.047455638933140976 0 -0.0039974704416148856 0.04938762202955263 0 -0.0053100265773806787 0.049488185595490786 0 -0.0061161737640442132 0.047433564904578306 0 -0.0047622857361929631 0.048390764780519159 0 -0.0063196649446228071 0.048119124937638848 0 -0.0034947826333002426 0.050447280304949688 0 -0.0037419158074151371 0.051143699714702173 0 -0.0044289397999226886 0.051025226344647755 0 -0.0037419158074151371 0.051143699714702173 0 -0.0044289397999226886 0.051025226344647755 0 -0.004464786930508122 0.05125279529017332 0 -0.002605704361720054 0.052285732566083133 0 -0.0027410614996386177 0.052063416649139646 0 -0.0025401855947980285 0.052019363538456549 0 -0.0025474630983472737 0.051565942356146394 0 -0.0027410614996386177 0.052063416649139646 0 -0.0025401855947980285 0.052019363538456549 0 -0.0030918114403912047 0.051316371978254165 0 -0.0035381720641815043 0.051585677461484264 0 -0.0025474630983472737 0.051565942356146394 0 -0.0025401855947980285 0.052019363538456549 0 -0.0023126126295197938 0.051996647392267933 0 -0.002381215539562857 0.052267339856125326 0 -0.0025401855947980285 0.052019363538456549 0 -0.0023126126295197938 0.051996647392267933 0 -0.0025474630983472737 0.051565942356146394 0 -0.0023126126295197938 0.051996647392267933 0 -0.0020098343782082488 0.051818811863214458 0 -0.0020333784362101454 0.052283626235372367 0 -0.0023126126295197938 0.051996647392267933 0 -0.0020098343782082488 0.051818811863214458 0 -0.0014981040630762648 0.052473553397554273 0 -0.0020098343782082488 0.051818811863214458 0 -0.0013037666084849654 0.051706743937005972 0 -0.0013037666084849654 0.051706743937005972 0 -0.0021975636437929595 0.050692810785610221 0 -0.0012099284277286365 0.050603329373233391 0 -0.0020098343782082488 0.051818811863214458 0 -0.0013037666084849654 0.051706743937005972 0 -0.0021975636437929595 0.050692810785610221 0 -0.0034947826333002426 0.050447280304949688 0 -0.0037419158074151371 0.051143699714702173 0 -0.0021975636437929595 0.050692810785610221 0 -0.0030918114403912047 0.051316371978254165 0 -0.0022094997533339995 0.050732129880869316 0 -0.0025474630983472737 0.051565942356146394 0 -0.0020098343782082488 0.051818811863214458 0 -0.0021975636437929595 0.050692810785610221 0 -0.00052913520621996777 0.051561948203678744 0 -2.5746330501954825e-05 0.05169449782341657 0 -0.00030042003205019499 0.050778394948453882 0 -0.00052913520621996777 0.051561948203678744 0 5.3705900379915924e-05 0.052257134750552867 0 -2.5746330501954825e-05 0.05169449782341657 0 -0.0013037666084849654 0.051706743937005972 0 -0.00052913520621996777 0.051561948203678744 0 -0.0012099284277286365 0.050603329373233391 0 -0.0014981040630762648 0.052473553397554273 0 -0.0013037666084849654 0.051706743937005972 0 -0.0008759475683210498 0.052266780964595499 0 -0.0013037666084849654 0.051706743937005972 0 -0.00052913520621996777 0.051561948203678744 0 -0.0008759475683210498 0.052266780964595499 0 -0.00034239663052950195 0.052546070635802918 0 -0.00052913520621996777 0.051561948203678744 0 -0.0008759475683210498 0.052266780964595499 0 -0.00034239663052950195 0.052546070635802918 0 -0.00052913520621996777 0.051561948203678744 0 5.3705900379915924e-05 0.052257134750552867 0 0.00016638431622534555 0.052729969139566291 0 5.3705900379915924e-05 0.052257134750552867 0 0.00029664394742013163 0.052653009795754026 0 5.3705900379915924e-05 0.052257134750552867 0 0.00053696797891743774 0.052007045639972084 0 0.00029664394742013163 0.052653009795754026 0 5.3705900379915924e-05 0.052257134750552867 0 -2.5746330501954825e-05 0.05169449782341657 0 0.00053696797891743774 0.052007045639972084 0 0.00053696797891743774 0.052007045639972084 0 7.6699308813638376e-05 0.050308178971980956 0 -0.00030042003205019499 0.050778394948453882 0 -2.5746330501954825e-05 0.05169449782341657 0 0.00053696797891743774 0.052007045639972084 0 -0.00030042003205019499 0.050778394948453882 0 0.00053696797891743774 0.052007045639972084 0 0.00017640344671040226 0.052771951694104605 0 0.00029664394742013163 0.052653009795754026 0 0.00053696797891743774 0.052007045639972084 0 0.00017640344671040226 0.052771951694104605 0 9.4982673324685185e-05 0.053584570547509092 0 0.00058758140455769073 0.051849885607854619 0 0.00053720684428772505 0.052106276239471699 0 0.00017640344671040226 0.052771951694104605 0 9.4982673324685185e-05 0.053584570547509092 0 -2.0484605121916268e-05 0.053436681208802864 0 0.0011719509310294674 0.049983109645702101 0 7.6699308813638376e-05 0.050308178971980956 0 0.00017104702161606708 0.049335390000980299 0 0.00053696797891743774 0.052007045639972084 0 0.0011719509310294674 0.049983109645702101 0 7.6699308813638376e-05 0.050308178971980956 0 -0.00030042003205019499 0.050778394948453882 0 -0.00084854172888371214 0.049824881944021571 0 -0.00070863200773769259 0.049697256246071089 0 7.6699308813638376e-05 0.050308178971980956 0 -0.00030042003205019499 0.050778394948453882 0 -0.00070863200773769259 0.049697256246071089 0 7.6699308813638376e-05 0.050308178971980956 0 -0.00070863200773769259 0.049697256246071089 0 0.00017104702161606708 0.049335390000980299 0 -0.00052913520621996777 0.051561948203678744 0 -0.00030042003205019499 0.050778394948453882 0 -0.00084854172888371214 0.049824881944021571 0 -0.00052913520621996777 0.051561948203678744 0 -0.0012099284277286365 0.050603329373233391 0 -0.00084854172888371214 0.049824881944021571 0 -0.0013694494577579451 0.049596020613834745 0 -0.0012099284277286365 0.050603329373233391 0 -0.00084854172888371214 0.049824881944021571 0 -0.0016188899215504582 0.048312052391266624 0 -0.00084854172888371214 0.049824881944021571 0 -0.00070863200773769259 0.049697256246071089 0 -0.00079107321152208359 0.045505705689694073 0 -0.0016188899215504582 0.048312052391266624 0 0.0008558260734829984 0.045485240569240942 0 -0.0016187135858958339 0.048352499855713861 0 -0.00012764540549649073 0.047666368213901793 0 -0.00079107321152208359 0.045505705689694073 0 0.0008558260734829984 0.045485240569240942 0 0.00095990905702403502 0.044052462974613509 0 -0.00092916529217849898 0.042758316405813776 0 -0.00079107321152208359 0.045505705689694073 0 0.00095990905702403502 0.044052462974613509 0 -0.00012764540549649073 0.047666368213901793 0 0.0010735425555746813 0.046282613248841253 0 0.00095990905702403502 0.044052462974613509 0 0.0015202437822366616 0.043968183942877555 0 0.0017265542247678707 0.043985990535660775 0 0.0008558260734829984 0.045485240569240942 0 0.00095990905702403502 0.044052462974613509 0 0.0017265542247678707 0.043985990535660775 0 0.00095990905702403502 0.044052462974613509 0 0.00059727818419080619 0.043059561189360496 0 0.0015202437822366616 0.043968183942877555 0 0.00059727818419080619 0.043059561189360496 0 0.0015202437822366616 0.043968183942877555 0 0.0010560599508680681 0.042811656251932839 0 -0.00092916529217849898 0.042758316405813776 0 0.00059727818419080619 0.043059561189360496 0 -0.00029663549524682213 0.042130521372614832 0 -0.00092916529217849898 0.042758316405813776 0 0.00095990905702403502 0.044052462974613509 0 0.00059727818419080619 0.043059561189360496 0 -0.0011790498935318179 0.041510550302645541 0 -0.00092916529217849898 0.042758316405813776 0 -0.00029663549524682213 0.042130521372614832 0 -0.001115702578610223 0.040883193065082833 0 -0.0011790498935318179 0.041510550302645541 0 -0.00032492788859688127 0.041255357440400708 0 -0.0011790498935318179 0.041510550302645541 0 -0.00029663549524682213 0.042130521372614832 0 -0.00032492788859688127 0.041255357440400708 0 -0.00029663549524682213 0.042130521372614832 0 0.0003794678060604742 0.04198871067301567 0 -0.00032492788859688127 0.041255357440400708 0 0.00059727818419080619 0.043059561189360496 0 -0.00029663549524682213 0.042130521372614832 0 0.0003794678060604742 0.04198871067301567 0 0.0010560599508680681 0.042811656251932839 0 0.0012402565684714604 0.041400375329250359 0 0.0018332250924966455 0.044539647995984484 0 0.00059727818419080619 0.043059561189360496 0 0.0010560599508680681 0.042811656251932839 0 0.0003794678060604742 0.04198871067301567 0 0.0015202437822366616 0.043968183942877555 0 0.0010560599508680681 0.042811656251932839 0 0.0018332250924966455 0.044539647995984484 0 0.0010560599508680681 0.042811656251932839 0 0.001131471926317249 0.041410409277610895 0 0.0012402565684714604 0.041400375329250359 0 0.0010560599508680681 0.042811656251932839 0 0.0003794678060604742 0.04198871067301567 0 0.001131471926317249 0.041410409277610895 0 0.0019463681544349737 0.044558514167313421 0 0.0021705989498683018 0.045411294435514761 0 0.00029711991376399669 0.041374603502237838 0 0.001131471926317249 0.041410409277610895 0 9.0345553427128564e-05 0.040838212306868078 0 0.001131471926317249 0.041410409277610895 0 0.00089899344795492527 0.041583395987110722 0 0.00092713737630542364 0.041552743974509351 0 0.001131471926317249 0.041410409277610895 0 0.0012402565684714604 0.041400375329250359 0 0.00089899344795492527 0.041583395987110722 0 0.0003794678060604742 0.04198871067301567 0 0.00029711991376399669 0.041374603502237838 0 0.001131471926317249 0.041410409277610895 0 0.0028917066662252785 0.047746106646500808 0 0.0028759354229933166 0.048709321535726054 0 0.003101060602498948 0.049104561774709524 0 0.0028917066662252785 0.047746106646500808 0 0.0023787942142908906 0.048037151741017289 0 0.0017931306843222787 0.04674924786937025 0 0.0028917066662252785 0.047746106646500808 0 0.0023787942142908906 0.048037151741017289 0 0.0027004876892617858 0.048226686873691679 0 0.0028917066662252785 0.047746106646500808 0 0.0027004876892617858 0.048226686873691679 0 0.0028759354229933166 0.048709321535726054 0 0.0023787942142908906 0.048037151741017289 0 0.0027004876892617858 0.048226686873691679 0 0.00258874080275672 0.048398400685478932 0 0.0023787942142908906 0.048037151741017289 0 0.00258874080275672 0.048398400685478932 0 0.0021735729066003281 0.048568025902111629 0 0.00258874080275672 0.048398400685478932 0 0.0028759354229933166 0.048709321535726054 0 0.002542240033255959 0.048732933905440742 0 0.0027004876892617858 0.048226686873691679 0 0.00258874080275672 0.048398400685478932 0 0.0028759354229933166 0.048709321535726054 0 0.00258874080275672 0.048398400685478932 0 0.0021735729066003281 0.048568025902111629 0 0.002542240033255959 0.048732933905440742 0 0.00099968269098243512 0.041328581918659194 0 0.00050067087960985321 0.040868073370390209 0 0.001131471926317249 0.041410409277610895 0 9.0345553427128564e-05 0.040838212306868078 0 -3.2482816593625278e-05 0.040053960636229839 0 9.0345553427128564e-05 0.040838212306868078 0 -0.00027450150923281278 0.04034691586811312 0 -3.2482816593625278e-05 0.040053960636229839 0 9.0345553427128564e-05 0.040838212306868078 0 -0.00027450150923281278 0.04034691586811312 0 -0.00056976962792127848 0.040525391750560524 0 -0.0014270543512940157 0.040352400858696083 0 -0.00056976962792127848 0.040525391750560524 0 -0.00095354157115784316 0.039970716590807108 0 -0.00027450150923281278 0.04034691586811312 0 -0.00056976962792127848 0.040525391750560524 0 -0.00052706628418073946 0.04003545793128202 0 -0.001115702578610223 0.040883193065082833 0 -0.00056976962792127848 0.040525391750560524 0 -0.00032492788859688127 0.041255357440400708 0 9.0345553427128564e-05 0.040838212306868078 0 -0.00056976962792127848 0.040525391750560524 0 -0.00032492788859688127 0.041255357440400708 0 0.0003794678060604742 0.04198871067301567 0 0.00029711991376399669 0.041374603502237838 0 -0.00032492788859688127 0.041255357440400708 0 0.00029711991376399669 0.041374603502237838 0 9.0345553427128564e-05 0.040838212306868078 0 -0.00032492788859688127 0.041255357440400708 0 -9.9174748742727171e-05 0.048670741175400441 0 0.0010290328079273642 0.048231560884196244 0 0.00018375165961766299 0.046353927367285865 0 -9.9174748742727171e-05 0.048670741175400441 0 -0.00032917997463598284 0.049118687434193627 0 0.00034884103454588803 0.049146683865346784 0 -9.9174748742727171e-05 0.048670741175400441 0 -0.0011227531483195747 0.048981937764836898 0 -0.00032917997463598284 0.049118687434193627 0 -9.9174748742727171e-05 0.048670741175400441 0 0.0010290328079273642 0.048231560884196244 0 0.00034884103454588803 0.049146683865346784 0 0.0010290328079273642 0.048231560884196244 0 0.001591387505495259 0.0489048094747844 0 0.00034884103454588803 0.049146683865346784 0 0.0018056813218887532 0.048205250927539925 0 0.0010290328079273642 0.048231560884196244 0 0.001591387505495259 0.0489048094747844 0 0.0021735729066003281 0.048568025902111629 0 0.0018056813218887532 0.048205250927539925 0 0.001591387505495259 0.0489048094747844 0 0.0023787942142908906 0.048037151741017289 0 0.0021735729066003281 0.048568025902111629 0 0.0018056813218887532 0.048205250927539925 0 0.0023787942142908906 0.048037151741017289 0 0.0018056813218887532 0.048205250927539925 0 0.0017931306843222787 0.04674924786937025 0 0.0018056813218887532 0.048205250927539925 0 0.0010290328079273642 0.048231560884196244 0 0.0017931306843222787 0.04674924786937025 0 0.0019463681544349737 0.044558514167313421 0 0.0018126662705683313 0.044402620036407707 0 0.0028917066662252785 0.047746106646500808 0 0.0017931306843222787 0.04674924786937025 0 0.0018332250924966455 0.044539647995984484 0 0.0017931306843222787 0.04674924786937025 0 0.0018332250924966455 0.044539647995984484 0 0.00018375165961766299 0.046353927367285865 0 0.0010290328079273642 0.048231560884196244 0 0.0017931306843222787 0.04674924786937025 0 0.00018375165961766299 0.046353927367285865 0 0.0018332250924966455 0.044539647995984484 0 0.00018375165961766299 0.046353927367285865 0 0.00061871688239833794 0.044802381928621883 0 0.00018375165961766299 0.046353927367285865 0 -0.00033495894669128531 0.043840408954003797 0 -0.0011227531483195747 0.048981937764836898 0 0.00023072223221844461 0.049203065585195251 0 -0.0013913726105472862 0.048723995246898008 0 -9.9174748742727171e-05 0.048670741175400441 0 0.00018375165961766299 0.046353927367285865 0 -0.0011227531483195747 0.048981937764836898 0 0.00018375165961766299 0.046353927367285865 0 0.00061871688239833794 0.044802381928621883 0 -0.00033495894669128531 0.043840408954003797 0 0.00061871688239833794 0.044802381928621883 0 -0.00033495894669128531 0.043840408954003797 0 0.0012513616884540632 0.044250481424254896 0 -0.00088172879844797768 0.053429684963278545 0 -0.00095725784321869375 0.053406636196683448 0 -0.00060664819016761256 0.053530753919052522 0 0.00023072223221844461 0.049203065585195251 0 -0.00028649474926669099 0.049682637009520032 0 -0.00088172879844797768 0.053429684963278545 0 -0.00095725784321869375 0.053406636196683448 0 -0.0012232329346479266 0.053335399059010628 0 -0.00033495894669128531 0.043840408954003797 0 0.0012513616884540632 0.044250481424254896 0 0.0017265542247678707 0.043985990535660775 0 0.0015202437822366616 0.043968183942877555 0 0.0018332250924966455 0.044539647995984484 0 0.0012513616884540632 0.044250481424254896 0 0.0018332250924966455 0.044539647995984484 0 0.00061871688239833794 0.044802381928621883 0 0.0012513616884540632 0.044250481424254896 0 0.0015202437822366616 0.043968183942877555 0 0.0012513616884540632 0.044250481424254896 0 0.0017265542247678707 0.043985990535660775 0 9.4982673324685185e-05 0.053584570547509092 0 -0.00095725784321869375 0.053406636196683448 0 -0.00060664819016761256 0.053530753919052522 0 0.00023072223221844461 0.049203065585195251 0 0.0010735425555746813 0.046282613248841253 0 0.00053720684428772505 0.052106276239471699 0 0.00023072223221844461 0.049203065585195251 0 0.0011719509310294674 0.049983109645702101 0 0.0014833448307253927 0.048632090106711559 0 0.00017104702161606708 0.049335390000980299 0 9.4982673324685185e-05 0.053584570547509092 0 -0.00018083386220506254 0.053689476057480846 0 -0.00060664819016761256 0.053530753919052522 0 -0.00018083386220506254 0.053689476057480846 0 -8.5949556677913943e-05 0.053670397024761424 0 -1.3415435575058775e-05 0.053778605910176601 0 -8.5949556677913943e-05 0.053670397024761424 0 -0.00060664819016761256 0.053530753919052522 0 -0.00051621776930678334 0.053301114236580231 0 -0.00018083386220506254 0.053689476057480846 0 -8.5949556677913943e-05 0.053670397024761424 0 -0.00060664819016761256 0.053530753919052522 0 -8.5949556677913943e-05 0.053670397024761424 0 0.00018597471403266982 0.054036790326259874 0 0.00069420295599489511 0.053553506399836151 0 -8.5949556677913943e-05 0.053670397024761424 0 0.00018597471403266982 0.054036790326259874 0 -1.3415435575058775e-05 0.053778605910176601 0 0.00069420295599489511 0.053553506399836151 0 -0.00015741164172785357 0.053115377135142 0 -0.0007479384972156317 0.051425513225425303 0 -8.5949556677913943e-05 0.053670397024761424 0 0.00069420295599489511 0.053553506399836151 0 -0.00015741164172785357 0.053115377135142 0 -0.00051621776930678334 0.053301114236580231 0 -0.00066570244173182094 0.052989963954449132 0 -0.00075273951883191601 0.053411665592424558 0 -0.0012232329346479266 0.053335399059010628 0 -0.00066570244173182094 0.052989963954449132 0 -0.00075273951883191601 0.053411665592424558 0 -0.00088172879844797768 0.053429684963278545 0 -0.00060664819016761256 0.053530753919052522 0 -0.00075273951883191601 0.053411665592424558 0 -0.00060664819016761256 0.053530753919052522 0 -0.00051621776930678334 0.053301114236580231 0 -0.00075273951883191601 0.053411665592424558 0 -0.00088172879844797768 0.053429684963278545 0 -0.0012232329346479266 0.053335399059010628 0 -0.00075273951883191601 0.053411665592424558 0 -8.5949556677913943e-05 0.053670397024761424 0 -0.00051621776930678334 0.053301114236580231 0 -0.00015741164172785357 0.053115377135142 0 -0.00051621776930678334 0.053301114236580231 0 -0.00066570244173182094 0.052989963954449132 0 -0.00015741164172785357 0.053115377135142 0 -0.00066570244173182094 0.052989963954449132 0 -0.00015741164172785357 0.053115377135142 0 -0.0007479384972156317 0.051425513225425303 0 -0.0012232329346479266 0.053335399059010628 0 -0.00066570244173182094 0.052989963954449132 0 -0.0007479384972156317 0.051425513225425303 0 -0.0015212488181748718 0.053529073323563887 0 -0.0012232329346479266 0.053335399059010628 0 -0.0007479384972156317 0.051425513225425303 0 -0.0015212488181748718 0.053529073323563887 0 -0.0007479384972156317 0.051425513225425303 0 -0.0011227531483195747 0.048981937764836898 0 -0.0007479384972156317 0.051425513225425303 0 0.0004118580724469249 0.049395918976908593 0 -0.0011227531483195747 0.048981937764836898 0 0.00066205928076666328 0.053333726174671726 0 0.00050967086338667242 0.052354523798560454 0 0.00069420295599489511 0.053553506399836151 0 -0.0007479384972156317 0.051425513225425303 0 0.0004118580724469249 0.049395918976908593 0 0.0004118580724469249 0.049395918976908593 0 -0.0011227531483195747 0.048981937764836898 0 -0.00045146010790135624 0.049109081176879191 0 -0.0011227531483195747 0.048981937764836898 0 -0.00032917997463598284 0.049118687434193627 0 -0.00045146010790135624 0.049109081176879191 0 -9.8048592923371814e-10 0.05499994108708775 0 0.00017790116858527533 0.054896732626726077 0 0.00012232748260346564 0.054582942680159903 0 0.00053761348137996209 0.054849548603109567 0 0.00017790116858527533 0.054896732626726077 0 0.00012232748260346564 0.054582942680159903 0 0.00053761348137996209 0.054849548603109567 0 0.00017790116858527533 0.054896732626726077 0 0.00028148429105622413 0.054967734490158904 0 0.00069420295599489511 0.053553506399836151 0 0.00053761348137996209 0.054849548603109567 0 0.00012232748260346564 0.054582942680159903 0 -9.8048592923371814e-10 0.05499994108708775 0 0.00012232748260346564 0.054582942680159903 0 -2.6618843966362113e-08 0.054999017157399382 0 -2.6618843966362113e-08 0.054999017157399382 0 0.00021657389357484637 0.054346299554565748 0 4.6924948874272581e-07 0.054999350154256062 0 0.00012232748260346564 0.054582942680159903 0 -2.6618843966362113e-08 0.054999017157399382 0 0.00021657389357484637 0.054346299554565748 0 0.00069420295599489511 0.053553506399836151 0 0.00012232748260346564 0.054582942680159903 0 0.00021657389357484637 0.054346299554565748 0 0.00018597471403266982 0.054036790326259874 0 0.00021657389357484637 0.054346299554565748 0 6.9942405922618966e-05 0.054442761851417533 0 0.00018597471403266982 0.054036790326259874 0 0.00069420295599489511 0.053553506399836151 0 0.00021657389357484637 0.054346299554565748 0 0.00021657389357484637 0.054346299554565748 0 4.6924948874272581e-07 0.054999350154256062 0 6.9942405922618966e-05 0.054442761851417533 0 4.6924948874272581e-07 0.054999350154256062 0 -9.7456394233927314e-07 0.054997368735232574 0 6.9942405922618966e-05 0.054442761851417533 0 -9.7456394233927314e-07 0.054997368735232574 0 3.3100804656279634e-05 0.054214706512878234 0 6.9942405922618966e-05 0.054442761851417533 0 9.5146149351109591e-05 0.053957122472036052 0 6.9942405922618966e-05 0.054442761851417533 0 0.00010208685285017379 0.053814461510524915 0 3.3100804656279634e-05 0.054214706512878234 0 9.5146149351109591e-05 0.053957122472036052 0 6.9942405922618966e-05 0.054442761851417533 0 9.5146149351109591e-05 0.053957122472036052 0 0.00016897523240030308 0.053512872245087557 0 0.00014397150207240623 0.053596791495094449 0 3.3100804656279634e-05 0.054214706512878234 0 9.5146149351109591e-05 0.053957122472036052 0 0.00014397150207240623 0.053596791495094449 0 0.00018597471403266982 0.054036790326259874 0 6.9942405922618966e-05 0.054442761851417533 0 0.00010208685285017379 0.053814461510524915 0 -1.3415435575058775e-05 0.053778605910176601 0 -2.0484605121916268e-05 0.053436681208802864 0 0.00010208685285017379 0.053814461510524915 0 0.00018597471403266982 0.054036790326259874 0 -1.3415435575058775e-05 0.053778605910176601 0 0.00010208685285017379 0.053814461510524915 0 9.4982673324685185e-05 0.053584570547509092 0 -0.00018083386220506254 0.053689476057480846 0 -2.0484605121916268e-05 0.053436681208802864 0 -0.00018083386220506254 0.053689476057480846 0 -1.3415435575058775e-05 0.053778605910176601 0 -2.0484605121916268e-05 0.053436681208802864 0 0.00017640344671040226 0.052771951694104605 0 -2.0484605121916268e-05 0.053436681208802864 0 0.0001742861257326044 0.053184930041263692 0 -2.0484605121916268e-05 0.053436681208802864 0 0.0001742861257326044 0.053184930041263692 0 0.00010208685285017379 0.053814461510524915 0 0.0001742861257326044 0.053184930041263692 0 0.00010208685285017379 0.053814461510524915 0 0.00016897523240030308 0.053512872245087557 0 9.5146149351109591e-05 0.053957122472036052 0 0.00010208685285017379 0.053814461510524915 0 0.00016897523240030308 0.053512872245087557 0 0.00016897523240030308 0.053512872245087557 0 0.00024593414923168219 0.053146506483155394 0 0.00014397150207240623 0.053596791495094449 0 0.0001742861257326044 0.053184930041263692 0 0.00016897523240030308 0.053512872245087557 0 0.00024593414923168219 0.053146506483155394 0 0.00017640344671040226 0.052771951694104605 0 0.0001742861257326044 0.053184930041263692 0 0.00029664394742013163 0.052653009795754026 0 0.0001742861257326044 0.053184930041263692 0 0.00024593414923168219 0.053146506483155394 0 0.00029664394742013163 0.052653009795754026 0 0.00028831406980402407 0.052879072907533096 0 0.00016638431622534555 0.052729969139566291 0 0.00029664394742013163 0.052653009795754026 0 0.00028831406980402407 0.052879072907533096 0 0.00024593414923168219 0.053146506483155394 0 0.00029664394742013163 0.052653009795754026 0 0.00028831406980402407 0.052879072907533096 0 0.00024593414923168219 0.053146506483155394 0 0.00025640579003358811 0.052999689073444281 0 0.00024593414923168219 0.053146506483155394 0 0.00025640579003358811 0.052999689073444281 0 0.00014775584061354406 0.053232325877263245 0 0.00027521146342773133 0.053675671740767192 0 3.0294931884542163e-05 0.05420685714848128 0 0.00018838999089954394 0.052985445268538885 0 0.00025640579003358811 0.052999689073444281 0 0.00014775584061354406 0.053232325877263245 0 0.00018838999089954394 0.052985445268538885 0 0.00014775584061354406 0.053232325877263245 0 -0.00016188862429974981 0.053473917716832041 0 1.4709147012462905e-07 0.055003669359623489 0 1.8823050394090561e-08 0.054999859382496644 0 -1.4428612686719198e-06 0.054979938550953296 0 3.3076760549146807e-05 0.054646610417759062 0 -7.9041492104417479e-06 0.054945051400817575 0 4.1399959226884176e-05 0.054272529074694272 0 0.00039679566837228587 0.054306642221862933 0 0.00011253785391856189 0.054963595021712094 0 4.1399959226884176e-05 0.054272529074694272 0 -1.4428612686719198e-06 0.054979938550953296 0 0.00011253785391856189 0.054963595021712094 0 2.631130567432103e-09 0.054999615245648455 0 3.0294931884542163e-05 0.05420685714848128 0 -9.7456394233927314e-07 0.054997368735232574 0 3.3100804656279634e-05 0.054214706512878234 0 -0.00016188862429974981 0.053473917716832041 0 -5.0750663091379017e-08 0.055000086589410413 0 1.8823050394090561e-08 0.054999859382496644 0 -1.4428612686719198e-06 0.054979938550953296 0 -5.0750663091379017e-08 0.055000086589410413 0 -1.4428612686719198e-06 0.054979938550953296 0 0.00011253785391856189 0.054963595021712094 0 3.3100804656279634e-05 0.054214706512878234 0 -0.00016188862429974981 0.053473917716832041 0 0.00014397150207240623 0.053596791495094449 0 0.00024593414923168219 0.053146506483155394 0 0.00014775584061354406 0.053232325877263245 0 0.00014397150207240623 0.053596791495094449 0 0.00014775584061354406 0.053232325877263245 0 -0.00016188862429974981 0.053473917716832041 0 0.00014397150207240623 0.053596791495094449 0 6.6679616552039271e-05 0.053145104390748231 0 -0.00050552496041715502 0.054081346881758835 0 3.2499870297151641e-05 0.054671904110443564 0 2.2885727389475712e-07 0.054998773015200189 0 6.6679616552039271e-05 0.053145104390748231 0 3.2499870297151641e-05 0.054671904110443564 0 2.2885727389475712e-07 0.054998773015200189 0 6.6679616552039271e-05 0.053145104390748231 0 3.1142718899681007e-07 0.054997148478296301 0 6.6679616552039271e-05 0.053145104390748231 0 -0.001560351553393525 0.053449875391762602 0 -0.0013715280217315344 0.04930219055483559 0 -0.0018126305783275911 0.049529481667031888 0 -0.0014886594331011457 0.049299178863472272 0 6.6679616552039271e-05 0.053145104390748231 0 -0.001560351553393525 0.053449875391762602 0 -0.00050552496041715502 0.054081346881758835 0 -0.00050552496041715502 0.054081346881758835 0 -0.0011665183612980794 0.054817554893169043 0 -0.00037071457837162025 0.054756240310829811 0 -0.0022833845483725148 0.045473699200903064 0 -0.0020031158010680675 0.044222229207933096 0 -0.001337915374131815 0.044555203409690498 0 -0.001560351553393525 0.053449875391762602 0 -0.00050552496041715502 0.054081346881758835 0 -0.0011665183612980794 0.054817554893169043 0 -0.0018126305783275911 0.049529481667031888 0 -0.0017294164241544294 0.049241991785184146 0 -0.00069758321881805503 0.055108305460614335 0 -0.00026319950631745073 0.055024476716888683 0 -0.00037071457837162025 0.054756240310829811 0 -0.0011665183612980794 0.054817554893169043 0 -0.00069758321881805503 0.055108305460614335 0 -0.00037071457837162025 0.054756240310829811 0 -0.00026319950631745073 0.055024476716888683 0 -0.00037071457837162025 0.054756240310829811 0 -8.3029194036934043e-05 0.054922325672062587 0 -0.00026319950631745073 0.055024476716888683 0 -8.3029194036934043e-05 0.054922325672062587 0 -4.8491797591756997e-05 0.05509910568112502 0 -0.00050552496041715502 0.054081346881758835 0 -0.00037071457837162025 0.054756240310829811 0 3.2499870297151641e-05 0.054671904110443564 0 -0.00037071457837162025 0.054756240310829811 0 3.2499870297151641e-05 0.054671904110443564 0 -8.3029194036934043e-05 0.054922325672062587 0 2.2885727389475712e-07 0.054998773015200189 0 3.2499870297151641e-05 0.054671904110443564 0 1.1185107821831857e-07 0.054999771393019224 0 3.2499870297151641e-05 0.054671904110443564 0 1.1185107821831857e-07 0.054999771393019224 0 -8.3029194036934043e-05 0.054922325672062587 0 1.1185107821831857e-07 0.054999771393019224 0 -8.3029194036934043e-05 0.054922325672062587 0 -4.8491797591756997e-05 0.05509910568112502 0 -7.780847729826834e-09 0.054999974229329007 0 9.728271273001838e-06 0.055001987337270561 0 3.0123287372359925e-08 0.055000073472321456 0 5.5550324658843728e-08 0.054999923390398019 0 -4.8470997054938661e-05 0.055158915153706627 0 9.728271273001838e-06 0.055001987337270561 0 -3.1470976133091179e-06 0.055020014010168733 0 2.4929329634362671e-05 0.055023181483101126 0 9.728271273001838e-06 0.055001987337270561 0 3.0123287372359925e-08 0.055000073472321456 0 2.4929329634362671e-05 0.055023181483101126 0 -0.00026319950631745073 0.055024476716888683 0 -4.8491797591756997e-05 0.05509910568112502 0 -0.00038020859070458571 0.055273020219530782 0 -4.8470997054938661e-05 0.055158915153706627 0 -0.00074596749389917508 0.054115035262358079 0 -4.8491797591756997e-05 0.05509910568112502 0 -0.00038020859070458571 0.055273020219530782 0 -0.00028687600704624866 0.055388723787406495 0 0.00010993973029819193 0.05506111314557461 0 2.4929329634362671e-05 0.055023181483101126 0 0.00010353005992733968 0.055022836898426179 0 -0.00074596749389917508 0.054115035262358079 0 0.00020943440922497551 0.054851365224299481 0 -0.00074596749389917508 0.054115035262358079 0 -0.00063473781324206887 0.052912121676293944 0 0.00010993973029819193 0.05506111314557461 0 0.00010353005992733968 0.055022836898426179 0 0.00020106463396625982 0.055036908104418997 0 3.0123287372359925e-08 0.055000073472321456 0 2.4929329634362671e-05 0.055023181483101126 0 1.0304038244486052e-07 0.055000041554931468 0 2.4929329634362671e-05 0.055023181483101126 0 1.0304038244486052e-07 0.055000041554931468 0 0.00010353005992733968 0.055022836898426179 0 1.0304038244486052e-07 0.055000041554931468 0 0.00010353005992733968 0.055022836898426179 0 0.00013072542690446191 0.054992122767300852 0 0.00010353005992733968 0.055022836898426179 0 0.00021258754137329496 0.055009163796534255 0 0.00013072542690446191 0.054992122767300852 0 0.00010353005992733968 0.055022836898426179 0 0.00021258754137329496 0.055009163796534255 0 0.00020106463396625982 0.055036908104418997 0 0.00017790116858527533 0.054896732626726077 0 0.00013072542690446191 0.054992122767300852 0 0.00028148429105622413 0.054967734490158904 0 0.00021258754137329496 0.055009163796534255 0 0.00013072542690446191 0.054992122767300852 0 0.00028148429105622413 0.054967734490158904 0 -9.8048592923371814e-10 0.05499994108708775 0 0.00017790116858527533 0.054896732626726077 0 0.00013072542690446191 0.054992122767300852 0 -9.8048592923371814e-10 0.05499994108708775 0 1.0304038244486052e-07 0.055000041554931468 0 0.00013072542690446191 0.054992122767300852 0 -0.00035759647202227956 0.049371797359762631 0 -0.00053066830534582771 0.0492164204435405 0 -0.00051112471967483606 0.049663397730588067 0 -0.00035759647202227956 0.049371797359762631 0 -0.00045146010790135624 0.049109081176879191 0 -0.00053066830534582771 0.0492164204435405 0 -0.00035759647202227956 0.049371797359762631 0 -0.00032917997463598284 0.049118687434193627 0 7.7421481726485473e-05 0.049634001963094483 0 -0.00035759647202227956 0.049371797359762631 0 -0.00025891702776316736 0.049864191928357872 0 7.7421481726485473e-05 0.049634001963094483 0 -0.00035759647202227956 0.049371797359762631 0 -0.00032917997463598284 0.049118687434193627 0 -0.00045146010790135624 0.049109081176879191 0 0.00053761348137996209 0.054849548603109567 0 0.00028148429105622413 0.054967734490158904 0 0.00030291248963229046 0.055002683755076172 0 0.00050967086338667242 0.052354523798560454 0 -0.00063056108147004617 0.051395037653844275 0 0.0004118580724469249 0.049395918976908593 0 -0.00045146010790135624 0.049109081176879191 0 -0.00053066830534582771 0.0492164204435405 0 0.0004118580724469249 0.049395918976908593 0 -0.00053066830534582771 0.0492164204435405 0 -0.00056003993038801145 0.049136481311822446 0 0.00021258754137329496 0.055009163796534255 0 0.00028148429105622413 0.054967734490158904 0 0.00030291248963229046 0.055002683755076172 0 -0.00013506350975788588 0.049847928216697451 0 -0.00063056108147004617 0.051395037653844275 0 -0.00098207019488427195 0.049689074391097647 0 -0.00057479347485946521 0.050295287407810793 0 -0.00051112471967483606 0.049663397730588067 0 -0.00063056108147004617 0.051395037653844275 0 -0.00092074061609020302 0.050430529161342476 0 -0.00098207019488427195 0.049689074391097647 0 -0.00057479347485946521 0.050295287407810793 0 -0.00079573084340876885 0.05110032793988474 0 -0.00098365519834565083 0.050120484095669188 0 -0.00079573084340876885 0.05110032793988474 0 -0.0014402783127786748 0.050749020284467011 0 -0.00053066830534582771 0.0492164204435405 0 -0.00098207019488427195 0.049689074391097647 0 -0.00051112471967483606 0.049663397730588067 0 0.00021258754137329496 0.055009163796534255 0 0.00030291248963229046 0.055002683755076172 0 0.00020106463396625982 0.055036908104418997 0 -0.00063056108147004617 0.051395037653844275 0 -0.00063473781324206887 0.052912121676293944 0 -0.00057479347485946521 0.050295287407810793 0 -0.00051112471967483606 0.049663397730588067 0 -0.00025891702776316736 0.049864191928357872 0 -0.00035759647202227956 0.049371797359762631 0 -0.00051112471967483606 0.049663397730588067 0 -0.00025891702776316736 0.049864191928357872 0 -0.00025891702776316736 0.049864191928357872 0 9.7315641966067015e-05 0.050446589056076456 0 7.7421481726485473e-05 0.049634001963094483 0 -0.00057479347485946521 0.050295287407810793 0 -0.00025891702776316736 0.049864191928357872 0 9.7315641966067015e-05 0.050446589056076456 0 -0.00057479347485946521 0.050295287407810793 0 -0.00026122098072684841 0.050789946478961616 0 9.7315641966067015e-05 0.050446589056076456 0 -0.00057641748821576607 0.050433782856738621 0 -0.00043964763453217267 0.051199767546645215 0 -0.00057479347485946521 0.050295287407810793 0 -0.00026122098072684841 0.050789946478961616 0 -0.00051608911022765086 0.051223660613539772 0 -0.00026122098072684841 0.050789946478961616 0 -5.843033732358666e-05 0.051205482017513258 0 9.7315641966067015e-05 0.050446589056076456 0 -0.00057479347485946521 0.050295287407810793 0 -0.00050986858618507294 0.051349301692533149 0 -0.00079573084340876885 0.05110032793988474 0 -0.0010194636046001494 0.049489940915139585 0 -0.00099543313497714556 0.049694902141118907 0 -0.00029301406516869723 0.049440369878910394 0 -0.00043964763453217267 0.051199767546645215 0 -0.00070689333808749289 0.050663365449852407 0 -0.00070689333808749289 0.050663365449852407 0 -0.00060001073505102081 0.047879893779421583 0 -0.00026122098072684841 0.050789946478961616 0 -0.00051608911022765086 0.051223660613539772 0 -5.843033732358666e-05 0.051205482017513258 0 -0.00043964763453217267 0.051199767546645215 0 -0.00060001073505102081 0.047879893779421583 0 -0.0019314859777854816 0.051428408912634206 0 -0.00079573084340876885 0.05110032793988474 0 -0.0014402783127786748 0.050749020284467011 0 -0.0019314859777854816 0.051428408912634206 0 -0.00050986858618507294 0.051349301692533149 0 -0.00079573084340876885 0.05110032793988474 0 -0.00074596749389917508 0.054115035262358079 0 -0.00043964763453217267 0.051199767546645215 0 -0.00069758321881805503 0.055108305460614335 0 -0.00026319950631745073 0.055024476716888683 0 -0.00038020859070458571 0.055273020219530782 0 -0.00077245072880191448 0.056257780145156172 0 -0.00070689333808749289 0.050663365449852407 0 -0.00038020859070458571 0.055273020219530782 0 -0.00028687600704624866 0.055388723787406495 0 -0.00062908360228025497 0.055305234999081743 0 -0.00069758321881805503 0.055108305460614335 0 -0.00038020859070458571 0.055273020219530782 0 -0.00095434183063864168 0.05548571684713452 0 -0.00038020859070458571 0.055273020219530782 0 -0.00062908360228025497 0.055305234999081743 0 -0.00063144201434696162 0.055279796401052003 0 -0.0011665183612980794 0.054817554893169043 0 -0.00069758321881805503 0.055108305460614335 0 -0.00095434183063864168 0.05548571684713452 0 -0.0017294164241544294 0.049241991785184146 0 -0.00070689333808749289 0.050663365449852407 0 -0.0020031158010680675 0.044222229207933096 0 -0.0019911934771704993 0.043436159984913916 0 -0.0017607304171587818 0.043766416416053139 0 -0.0019911934771704993 0.043436159984913916 0 -0.001754560939186068 0.043323993557111889 0 -0.0017607304171587818 0.043766416416053139 0 -0.001754560939186068 0.043323993557111889 0 -0.0012606867425273864 0.043848624141852158 0 -0.00083386357385982967 0.043239874437656672 0 -0.001754560939186068 0.043323993557111889 0 -0.0017607304171587818 0.043766416416053139 0 -0.0012606867425273864 0.043848624141852158 0 -0.0012606867425273864 0.043848624141852158 0 -0.00083386357385982967 0.043239874437656672 0 -0.00031409941141007894 0.043832616807510147 0 6.2731167543515797e-05 0.045818942103064531 0 -8.2609775052865943e-05 0.045740183462068526 0 0.0002596063630001362 0.045600144056061997 0 0.00053263787177878542 0.048378641734993351 0 0.0014395933990726485 0.048221256026769875 0 -0.00045558238680894349 0.045922880255695957 0 6.2731167543515797e-05 0.045818942103064531 0 -8.2609775052865943e-05 0.045740183462068526 0 -5.843033732358666e-05 0.051205482017513258 0 0.0010646054845801669 0.050951047420783546 0 9.7315641966067015e-05 0.050446589056076456 0 -0.00060001073505102081 0.047879893779421583 0 -0.00048820602115325052 0.044146541359365701 0 -0.00060001073505102081 0.047879893779421583 0 0.00053263787177878542 0.048378641734993351 0 0.0010646054845801669 0.050951047420783546 0 9.7315641966067015e-05 0.050446589056076456 0 0.00076703580579111038 0.050022928702080888 0 9.7315641966067015e-05 0.050446589056076456 0 0.00076703580579111038 0.050022928702080888 0 7.7421481726485473e-05 0.049634001963094483 0 0.00076703580579111038 0.050022928702080888 0 7.7421481726485473e-05 0.049634001963094483 0 0.00058576417467071768 0.049571108298786998 0 0.0010646054845801669 0.050951047420783546 0 0.0016608365710438792 0.05004718312660679 0 0.0024476057776150759 0.05061860482794104 0 0.0010646054845801669 0.050951047420783546 0 0.00076703580579111038 0.050022928702080888 0 0.0016608365710438792 0.05004718312660679 0 0.00076703580579111038 0.050022928702080888 0 0.0016608365710438792 0.05004718312660679 0 0.0012452814061444813 0.049482065877192297 0 0.0016608365710438792 0.05004718312660679 0 0.0012452814061444813 0.049482065877192297 0 0.0019948913297355847 0.049394244392285715 0 0.0012452814061444813 0.049482065877192297 0 0.0019948913297355847 0.049394244392285715 0 0.001591387505495259 0.0489048094747844 0 0.0019948913297355847 0.049394244392285715 0 0.001591387505495259 0.0489048094747844 0 0.0022466984288959657 0.048962472238087529 0 0.0021735729066003281 0.048568025902111629 0 0.001591387505495259 0.0489048094747844 0 0.0022466984288959657 0.048962472238087529 0 0.0012452814061444813 0.049482065877192297 0 0.001591387505495259 0.0489048094747844 0 0.00034884103454588803 0.049146683865346784 0 -0.00032917997463598284 0.049118687434193627 0 0.00034884103454588803 0.049146683865346784 0 7.7421481726485473e-05 0.049634001963094483 0 0.00034884103454588803 0.049146683865346784 0 7.7421481726485473e-05 0.049634001963094483 0 0.00058576417467071768 0.049571108298786998 0 0.0012452814061444813 0.049482065877192297 0 0.00034884103454588803 0.049146683865346784 0 0.00058576417467071768 0.049571108298786998 0 0.00076703580579111038 0.050022928702080888 0 0.0012452814061444813 0.049482065877192297 0 0.00058576417467071768 0.049571108298786998 0 0.00092331541828258822 0.041720177587009057 0 0.00089899344795492527 0.041583395987110722 0 0.00091220833317344279 0.041806100588212998 0 0.0021705989498683018 0.045411294435514761 0 0.0012099154552271353 0.045845652773429058 0 0.003101060602498948 0.049104561774709524 0 0.0031641094629163802 0.049776277915218915 0 0.0037380607119065464 0.050128403409156072 0 -0.00056872491175780711 0.040700320352291451 0 0.00050067087960985321 0.040868073370390209 0 0.00092331541828258822 0.041720177587009057 0 0.00094633396120032446 0.041715066882690201 0 0.00092713737630542364 0.041552743974509351 0 -0.00012638487990446231 0.040743571855942531 0 -0.00056872491175780711 0.040700320352291451 0 -0.00087926282781595523 0.039325641633863408 0 -0.00052706628418073946 0.04003545793128202 0 -3.2482816593625278e-05 0.040053960636229839 0 -0.00056976962792127848 0.040525391750560524 0 -0.00095354157115784316 0.039970716590807108 0 -0.00052706628418073946 0.04003545793128202 0 -0.00087926282781595523 0.039325641633863408 0 -0.00095354157115784316 0.039970716590807108 0 -0.00052706628418073946 0.04003545793128202 0 -0.00027450150923281278 0.04034691586811312 0 -0.00052706628418073946 0.04003545793128202 0 -3.2482816593625278e-05 0.040053960636229839 0 0.00092331541828258822 0.041720177587009057 0 0.00089899344795492527 0.041583395987110722 0 0.00092713737630542364 0.041552743974509351 0 0.0028759354229933166 0.048709321535726054 0 0.003101060602498948 0.049104561774709524 0 0.002871479595326402 0.049093906020516949 0 0.002871479595326402 0.049093906020516949 0 0.0026232854034714359 0.049180518935560934 0 0.0028635607177384978 0.049363600539693755 0 0.0028759354229933166 0.048709321535726054 0 0.002871479595326402 0.049093906020516949 0 0.0026232854034714359 0.049180518935560934 0 0.003101060602498948 0.049104561774709524 0 0.002871479595326402 0.049093906020516949 0 0.0028635607177384978 0.049363600539693755 0 0.0019948913297355847 0.049394244392285715 0 0.0022466984288959657 0.048962472238087529 0 0.0026232854034714359 0.049180518935560934 0 0.0021735729066003281 0.048568025902111629 0 0.0022466984288959657 0.048962472238087529 0 0.002542240033255959 0.048732933905440742 0 0.0022466984288959657 0.048962472238087529 0 0.002542240033255959 0.048732933905440742 0 0.0026232854034714359 0.049180518935560934 0 0.0028759354229933166 0.048709321535726054 0 0.002542240033255959 0.048732933905440742 0 0.0026232854034714359 0.049180518935560934 0 0.0016608365710438792 0.05004718312660679 0 0.0019948913297355847 0.049394244392285715 0 0.0025173685427261755 0.049751036812212442 0 0.0019948913297355847 0.049394244392285715 0 0.0026232854034714359 0.049180518935560934 0 0.0025173685427261755 0.049751036812212442 0 0.003101060602498948 0.049104561774709524 0 0.0028635607177384978 0.049363600539693755 0 0.0031641094629163802 0.049776277915218915 0 0.0028635607177384978 0.049363600539693755 0 0.0025173685427261755 0.049751036812212442 0 0.0031641094629163802 0.049776277915218915 0 0.0026232854034714359 0.049180518935560934 0 0.0028635607177384978 0.049363600539693755 0 0.0025173685427261755 0.049751036812212442 0 0.0025173685427261755 0.049751036812212442 0 0.0024476057776150759 0.05061860482794104 0 0.0031641094629163802 0.049776277915218915 0 0.0016608365710438792 0.05004718312660679 0 0.0025173685427261755 0.049751036812212442 0 0.0024476057776150759 0.05061860482794104 0 0.0014395933990726485 0.048221256026769875 0 0.0012099154552271353 0.045845652773429058 0 0.0024476057776150759 0.05061860482794104 0 0.0031641094629163802 0.049776277915218915 0 0.0037380607119065464 0.050128403409156072 0 0.0002596063630001362 0.045600144056061997 0 0.00055740371932566288 0.045496627148876756 0 0.00040917114559499575 0.045628663198021689 0 0.00092331541828258822 0.041720177587009057 0 0.00093552136622913451 0.041729021127723427 0 0.00091220833317344279 0.041806100588212998 0 0.00055740371932566288 0.045496627148876756 0 0.00055222912373075405 0.04563049116846056 0 0.00040917114559499575 0.045628663198021689 0 0.00055740371932566288 0.045496627148876756 0 0.00055222912373075405 0.04563049116846056 0 0.00066064873470275578 0.045681291050356843 0 0.00055222912373075405 0.04563049116846056 0 0.00051486450440828095 0.045684838333195227 0 0.00066064873470275578 0.045681291050356843 0 8.6773383454189615e-05 0.045285370657957055 0 0.00029302253385671343 0.044084706209684195 0 0.00055222912373075405 0.04563049116846056 0 0.00040917114559499575 0.045628663198021689 0 0.00050261274137799908 0.045740076009147791 0 0.00029302253385671343 0.044084706209684195 0 0.00017151542683074231 0.043053598057751205 0 6.2731167543515797e-05 0.045818942103064531 0 0.0002596063630001362 0.045600144056061997 0 0.00040917114559499575 0.045628663198021689 0 6.2731167543515797e-05 0.045818942103064531 0 0.00040917114559499575 0.045628663198021689 0 0.00050261274137799908 0.045740076009147791 0 -0.00048820602115325052 0.044146541359365701 0 0.00029302253385671343 0.044084706209684195 0 -0.00083386357385982967 0.043239874437656672 0 6.9721941354059338e-05 0.043194885675055458 0 -0.00031409941141007894 0.043832616807510147 0 -0.00010466934642675769 0.042332566117416537 0 -0.0003170414723147348 0.042583853773211611 0 -4.0753345238744372e-05 0.04253770354380134 0 0.00029302253385671343 0.044084706209684195 0 -0.00028479142526307807 0.042986081983200287 0 -0.00010466934642675769 0.042332566117416537 0 -4.0753345238744372e-05 0.04253770354380134 0 -3.2405525568362068e-06 0.042425901246331603 0 -4.0753345238744372e-05 0.04253770354380134 0 -0.00010568398924240518 0.042971611644041556 0 5.884898855509411e-05 0.042767941445488386 0 -0.0003170414723147348 0.042583853773211611 0 -4.0753345238744372e-05 0.04253770354380134 0 -0.00010568398924240518 0.042971611644041556 0 -0.00010568398924240518 0.042971611644041556 0 2.4910950909661204e-05 0.043607132868023112 0 5.884898855509411e-05 0.042767941445488386 0 -0.00063047401469693346 0.043370901295280644 0 2.4910950909661204e-05 0.043607132868023112 0 -0.00032870086466212339 0.044275693764885771 0 -0.00010568398924240518 0.042971611644041556 0 -0.00063047401469693346 0.043370901295280644 0 2.4910950909661204e-05 0.043607132868023112 0 -0.0003170414723147348 0.042583853773211611 0 -0.00010568398924240518 0.042971611644041556 0 -0.00063047401469693346 0.043370901295280644 0 -0.00028479142526307807 0.042986081983200287 0 -0.00062927424315423013 0.044000961871789937 0 -0.0012606867425273864 0.043848624141852158 0 -0.001337915374131815 0.044555203409690498 0 -0.00067158639881589725 0.044473968671717622 0 -0.0012606867425273864 0.043848624141852158 0 -0.00031409941141007894 0.043832616807510147 0 -0.00067158639881589725 0.044473968671717622 0 -0.0020031158010680675 0.044222229207933096 0 -0.0017607304171587818 0.043766416416053139 0 -0.0012606867425273864 0.043848624141852158 0 -0.0020031158010680675 0.044222229207933096 0 -0.0012606867425273864 0.043848624141852158 0 -0.001337915374131815 0.044555203409690498 0 -0.00062927424315423013 0.044000961871789937 0 -0.00085581353823766036 0.0449766822813484 0 -0.001337915374131815 0.044555203409690498 0 -0.00067158639881589725 0.044473968671717622 0 -0.00083033164796595684 0.04514281646066743 0 -0.00063047401469693346 0.043370901295280644 0 -0.00083033164796595684 0.04514281646066743 0 -0.00032870086466212339 0.044275693764885771 0 -0.0022833845483725148 0.045473699200903064 0 -0.001337915374131815 0.044555203409690498 0 -0.00083033164796595684 0.04514281646066743 0 -0.00083033164796595684 0.04514281646066743 0 -0.00052065403880746089 0.046808929945542546 0 -0.0013715280217315344 0.04930219055483559 0 -0.0022833845483725148 0.045473699200903064 0 -0.00083033164796595684 0.04514281646066743 0 -0.0013715280217315344 0.04930219055483559 0 -0.00083033164796595684 0.04514281646066743 0 2.1110431153014183e-05 0.044840630064143218 0 -0.00052065403880746089 0.046808929945542546 0 9.0741876815619784e-07 0.044583712111914066 0 0.00020009124350380656 0.043527590759029115 0 2.1110431153014183e-05 0.044840630064143218 0 0.00020155883273596174 0.043409211221485007 0 0.00019378706958152786 0.044051893941789967 0 2.1110431153014183e-05 0.044840630064143218 0 2.4910950909661204e-05 0.043607132868023112 0 0.00019230248834878859 0.043529658067052508 0 2.1110431153014183e-05 0.044840630064143218 0 2.4910950909661204e-05 0.043607132868023112 0 -0.00032870086466212339 0.044275693764885771 0 -0.00083033164796595684 0.04514281646066743 0 2.1110431153014183e-05 0.044840630064143218 0 -0.00032870086466212339 0.044275693764885771 0 0.00015317997303532815 0.04249611550301028 0 0.00020009124350380656 0.043527590759029115 0 6.5433730231062448e-05 0.042572098157660339 0 0.00011326459330180683 0.042910362298005142 0 0.00019230248834878859 0.043529658067052508 0 2.4910950909661204e-05 0.043607132868023112 0 0.00011326459330180683 0.042910362298005142 0 0.00019230248834878859 0.043529658067052508 0 0.00025007741720847569 0.042395719702881779 0 0.00020155883273596174 0.043409211221485007 0 0.00024615519099150599 0.042738193001243416 0 0.00025007741720847569 0.042395719702881779 0 0.00018521163024661438 0.041997161619795234 0 0.00024615519099150599 0.042738193001243416 0 0.00018521163024661438 0.041997161619795234 0 6.5385775836191947e-05 0.041456124596450566 0 -2.7760375937778529e-05 0.041863593755392066 0 0.00018521163024661438 0.041997161619795234 0 6.5385775836191947e-05 0.041456124596450566 0 0.00013365803650605153 0.041619712309668884 0 6.5385775836191947e-05 0.041456124596450566 0 -2.7760375937778529e-05 0.041863593755392066 0 -0.00010790660826647436 0.041444862148452027 0 6.5433730231062448e-05 0.042572098157660339 0 -2.7760375937778529e-05 0.041863593755392066 0 -0.00014709317055125776 0.041946160409966675 0 0.00025007741720847569 0.042395719702881779 0 0.00018521163024661438 0.041997161619795234 0 -2.7760375937778529e-05 0.041863593755392066 0 0.00015317997303532815 0.04249611550301028 0 -4.7273281069060954e-06 0.041979786332622032 0 6.5433730231062448e-05 0.042572098157660339 0 -0.00014709317055125776 0.041946160409966675 0 -3.1759350418351209e-05 0.04236626342028136 0 -2.7760375937778529e-05 0.041863593755392066 0 -0.00014709317055125776 0.041946160409966675 0 -0.00037057735058837352 0.041533709551569958 0 -0.00014709317055125776 0.041946160409966675 0 -0.00028203288792193876 0.041957099759015085 0 -0.00037057735058837352 0.041533709551569958 0 -0.00014709317055125776 0.041946160409966675 0 -3.1759350418351209e-05 0.04236626342028136 0 -0.00028203288792193876 0.041957099759015085 0 -3.1759350418351209e-05 0.04236626342028136 0 2.2260641994001421e-05 0.042421666181736289 0 -0.00028203288792193876 0.041957099759015085 0 6.5433730231062448e-05 0.042572098157660339 0 0.00011326459330180683 0.042910362298005142 0 -3.1759350418351209e-05 0.04236626342028136 0 2.4910950909661204e-05 0.043607132868023112 0 0.00011326459330180683 0.042910362298005142 0 5.884898855509411e-05 0.042767941445488386 0 0.00011326459330180683 0.042910362298005142 0 -3.1759350418351209e-05 0.04236626342028136 0 5.884898855509411e-05 0.042767941445488386 0 -3.1759350418351209e-05 0.04236626342028136 0 5.884898855509411e-05 0.042767941445488386 0 2.2260641994001421e-05 0.042421666181736289 0 -4.0753345238744372e-05 0.04253770354380134 0 5.884898855509411e-05 0.042767941445488386 0 2.2260641994001421e-05 0.042421666181736289 0 -4.0753345238744372e-05 0.04253770354380134 0 2.2260641994001421e-05 0.042421666181736289 0 -3.2405525568362068e-06 0.042425901246331603 0 2.2260641994001421e-05 0.042421666181736289 0 2.8048010569756258e-05 0.042419742824514661 0 -3.2405525568362068e-06 0.042425901246331603 0 2.2260641994001421e-05 0.042421666181736289 0 2.8048010569756258e-05 0.042419742824514661 0 -0.00028203288792193876 0.041957099759015085 0 -0.00065243840144925164 0.041627839820334918 0 -0.00017837297916240173 0.04215552827499177 0 2.8048010569756258e-05 0.042419742824514661 0 -6.1834520049721959e-05 0.042610052672658619 0 -0.00028203288792193876 0.041957099759015085 0 -0.0020066578020520986 0.04051721418900301 0 -0.0018927843388685949 0.04034916992133987 0 -0.0016322810901299269 0.040552637650445103 0 0.0012099154552271353 0.045845652773429058 0 0.00017151542683074231 0.043053598057751205 0 -0.00010466934642675769 0.042332566117416537 0 -3.2405525568362068e-06 0.042425901246331603 0 2.2491865107068971e-05 0.04236193634587225 0 2.8048010569756258e-05 0.042419742824514661 0 -3.2405525568362068e-06 0.042425901246331603 0 2.2491865107068971e-05 0.04236193634587225 0 2.8048010569756258e-05 0.042419742824514661 0 -6.1834520049721959e-05 0.042610052672658619 0 0.00014043114931158534 0.042600311461491805 0 -0.00065243840144925164 0.041627839820334918 0 0.00017151542683074231 0.043053598057751205 0 -6.3914625574177731e-05 0.042409383690184772 0 0.00017151542683074231 0.043053598057751205 0 0.00095926669064587975 0.041888614249611225 0 0.00093227068801808783 0.04189380656083122 0 0.00094566529253252603 0.041834069519020828 0 -0.00065243840144925164 0.041627839820334918 0 -0.0006029693507609051 0.04107752362383469 0 -0.0022375902291484622 0.040195019281472004 0 -0.002126282975332535 0.040348963772504097 0 -0.0019554954769121342 0.04010554737486189 0 0.00091220833317344279 0.041806100588212998 0 0.00093227068801808783 0.04189380656083122 0 0.00094566529253252603 0.041834069519020828 0 0.00093552136622913451 0.041729021127723427 0 0.00091220833317344279 0.041806100588212998 0 0.00094566529253252603 0.041834069519020828 0 -0.00056872491175780711 0.040700320352291451 0 -0.0006029693507609051 0.04107752362383469 0 -0.002126282975332535 0.040348963772504097 0 -0.0018927843388685949 0.04034916992133987 0 -0.0019554954769121342 0.04010554737486189 0 -0.0018927843388685949 0.04034916992133987 0 -0.0019554954769121342 0.04010554737486189 0 -0.0017011015215266717 0.040233593556599619 0 -0.0020066578020520986 0.04051721418900301 0 -0.002126282975332535 0.040348963772504097 0 -0.0018927843388685949 0.04034916992133987 0 -0.00087926282781595523 0.039325641633863408 0 -0.00095354157115784316 0.039970716590807108 0 -0.0022262901722173993 0.039867212965586936 0 -0.00056872491175780711 0.040700320352291451 0 -0.0022463942539128474 0.039903163315548357 0 -0.0014270543512940157 0.040352400858696083 0 -0.00095354157115784316 0.039970716590807108 0 -0.0022262901722173993 0.039867212965586936 0 -0.0014678108435403395 0.039882039768228801 0 -0.0015988163854055791 0.039985180955014465 0 -0.0013729683037559358 0.040146160226626558 0 -0.0015284334492478766 0.039919039482251673 0 -0.0019659278223175358 0.040081624964796954 0 -0.0015988163854055791 0.039985180955014465 0 -0.0017011015215266717 0.040233593556599619 0 -0.0013729683037559358 0.040146160226626558 0 -0.0022463942539128474 0.039903163315548357 0 -0.0019659278223175358 0.040081624964796954 0 -0.0019554954769121342 0.04010554737486189 0 -0.0015988163854055791 0.039985180955014465 0 -0.0017011015215266717 0.040233593556599619 0 -0.0018927843388685949 0.04034916992133987 0 -0.0017011015215266717 0.040233593556599619 0 -0.0016322810901299269 0.040552637650445103 0 -0.0017011015215266717 0.040233593556599619 0 -0.0013729683037559358 0.040146160226626558 0 -0.0016322810901299269 0.040552637650445103 0 -0.0013729683037559358 0.040146160226626558 0 -0.0016322810901299269 0.040552637650445103 0 -0.00080417110109133572 0.040611420458372946 0 -0.0003794529184122395 0.04139592713248464 0 -0.00051552473043689191 0.041226628488450885 0 -0.00080417110109133572 0.040611420458372946 0 -0.0011592691167665969 0.040853421458277389 0 -0.00068885958736761592 0.040693761608509522 0 -0.00065243840144925164 0.041627839820334918 0 -0.0011592691167665969 0.040853421458277389 0 -0.00075419220144975964 0.041486307427493138 0 -0.0003794529184122395 0.04139592713248464 0 -0.00028203288792193876 0.041957099759015085 0 -0.0003794529184122395 0.04139592713248464 0 -0.00028203288792193876 0.041957099759015085 0 -0.00051552473043689191 0.041226628488450885 0 -0.00028203288792193876 0.041957099759015085 0 -0.00051552473043689191 0.041226628488450885 0 -0.00037057735058837352 0.041533709551569958 0 -0.00051552473043689191 0.041226628488450885 0 -0.00057789849950706578 0.04099236232826909 0 -0.00037057735058837352 0.041533709551569958 0 -0.00051552473043689191 0.041226628488450885 0 -0.00057789849950706578 0.04099236232826909 0 -0.00080417110109133572 0.040611420458372946 0 -0.00057789849950706578 0.04099236232826909 0 -0.00080417110109133572 0.040611420458372946 0 -0.00059348202859912057 0.040104739736232159 0 -0.0013729683037559358 0.040146160226626558 0 -0.00080417110109133572 0.040611420458372946 0 -0.00082161813643272653 0.039975545601263998 0 -0.00080417110109133572 0.040611420458372946 0 -0.00082161813643272653 0.039975545601263998 0 -0.00059348202859912057 0.040104739736232159 0 -0.00042886808207836185 0.039624108191440029 0 -0.00098830356297137487 0.039605226072763573 0 -0.00082161813643272653 0.039975545601263998 0 -0.0014678108435403395 0.039882039768228801 0 -0.00098830356297137487 0.039605226072763573 0 -0.00082161813643272653 0.039975545601263998 0 -0.0014678108435403395 0.039882039768228801 0 -0.0013729683037559358 0.040146160226626558 0 -0.00082161813643272653 0.039975545601263998 0 -0.00063933678753710162 0.031825323813714938 0 0.00086850428640793381 0.035650901885253002 0 0.00057554788101304673 0.032020201008135199 0 -0.00042886808207836185 0.039624108191440029 0 -0.00082161813643272653 0.039975545601263998 0 -0.00041123263456419284 0.039750436034050193 0 -0.00042886808207836185 0.039624108191440029 0 -5.0300320519660729e-05 0.039764271303732703 0 -0.00041123263456419284 0.039750436034050193 0 -0.00041123263456419284 0.039750436034050193 0 -0.00062617346452082886 0.039089794038285448 0 -0.00059348202859912057 0.040104739736232159 0 -0.00082161813643272653 0.039975545601263998 0 -0.00041123263456419284 0.039750436034050193 0 -0.00059348202859912057 0.040104739736232159 0 -0.00025098531166748035 0.035879586600683432 0 -0.00063335119290786849 0.038835097230721378 0 -0.00063933678753710162 0.031825323813714938 0 -0.00062617346452082886 0.039089794038285448 0 0.00086850428640793381 0.035650901885253002 0 -5.0300320519660729e-05 0.039764271303732703 0 -0.00041123263456419284 0.039750436034050193 0 -0.00062617346452082886 0.039089794038285448 0 -0.00062617346452082886 0.039089794038285448 0 -0.00048865144523033762 0.040455570632244399 0 0.00035922977066686531 0.040228727222893779 0 -0.00062617346452082886 0.039089794038285448 0 -0.00059348202859912057 0.040104739736232159 0 -0.00048865144523033762 0.040455570632244399 0 -0.00057789849950706578 0.04099236232826909 0 -0.00048865144523033762 0.040455570632244399 0 -0.00044383340802367331 0.041194373852144014 0 -0.00057789849950706578 0.04099236232826909 0 -0.00059348202859912057 0.040104739736232159 0 -0.00048865144523033762 0.040455570632244399 0 0.00035922977066686531 0.040228727222893779 0 -9.047120427325583e-05 0.041067772739009092 0 0.00064880715322057864 0.040933796576981596 0 -0.00048865144523033762 0.040455570632244399 0 0.00035922977066686531 0.040228727222893779 0 -9.047120427325583e-05 0.041067772739009092 0 -9.047120427325583e-05 0.041067772739009092 0 0.0002202201410564088 0.041245924580507382 0 0.00064880715322057864 0.040933796576981596 0 -9.047120427325583e-05 0.041067772739009092 0 -0.00014279562214666107 0.04134209820072314 0 0.0002202201410564088 0.041245924580507382 0 -0.00014279562214666107 0.04134209820072314 0 -2.8754416214342959e-05 0.04139723852622975 0 0.0002202201410564088 0.041245924580507382 0 -9.047120427325583e-05 0.041067772739009092 0 -0.00014279562214666107 0.04134209820072314 0 -0.00033640653649483703 0.041362013132539718 0 -0.00014279562214666107 0.04134209820072314 0 -0.00033640653649483703 0.041362013132539718 0 -0.00037117359913182497 0.041370708094684877 0 -0.00014279562214666107 0.04134209820072314 0 -0.00037117359913182497 0.041370708094684877 0 -2.8754416214342959e-05 0.04139723852622975 0 -0.00030751789900566753 0.041379993254942973 0 -0.00037117359913182497 0.041370708094684877 0 -2.8754416214342959e-05 0.04139723852622975 0 -0.00033640653649483703 0.041362013132539718 0 -0.00039094902397381981 0.041425004673451019 0 -0.000522038329115549 0.041296089751649744 0 -0.00033640653649483703 0.041362013132539718 0 -0.00044383340802367331 0.041194373852144014 0 -0.00039094902397381981 0.041425004673451019 0 -0.00048865144523033762 0.040455570632244399 0 -9.047120427325583e-05 0.041067772739009092 0 -0.00044383340802367331 0.041194373852144014 0 -9.047120427325583e-05 0.041067772739009092 0 -0.00033640653649483703 0.041362013132539718 0 -0.00044383340802367331 0.041194373852144014 0 -0.00057789849950706578 0.04099236232826909 0 -0.00044383340802367331 0.041194373852144014 0 -0.00042221871422776951 0.04137811686552257 0 -0.00057789849950706578 0.04099236232826909 0 -0.00042221871422776951 0.04137811686552257 0 -0.00037057735058837352 0.041533709551569958 0 -2.7760375937778529e-05 0.041863593755392066 0 -0.00037057735058837352 0.041533709551569958 0 -0.00025528827536826595 0.041544618768495127 0 -0.00042221871422776951 0.04137811686552257 0 -0.00037057735058837352 0.041533709551569958 0 -0.00025528827536826595 0.041544618768495127 0 -0.00044383340802367331 0.041194373852144014 0 -0.00042221871422776951 0.04137811686552257 0 -0.00039094902397381981 0.041425004673451019 0 -0.00042221871422776951 0.04137811686552257 0 -0.00025528827536826595 0.041544618768495127 0 -0.00039094902397381981 0.041425004673451019 0 -0.00025528827536826595 0.041544618768495127 0 -0.00039094902397381981 0.041425004673451019 0 -0.00030972396162289549 0.041219963148464128 0 -0.00025528827536826595 0.041544618768495127 0 -0.00010790660826647436 0.041444862148452027 0 -0.00030972396162289549 0.041219963148464128 0 -2.7760375937778529e-05 0.041863593755392066 0 -0.00025528827536826595 0.041544618768495127 0 -0.00010790660826647436 0.041444862148452027 0 6.5385775836191947e-05 0.041456124596450566 0 -0.00010790660826647436 0.041444862148452027 0 -6.4806322770167042e-05 0.040895844387873942 0 -0.00010790660826647436 0.041444862148452027 0 -6.4806322770167042e-05 0.040895844387873942 0 -0.00030972396162289549 0.041219963148464128 0 -6.4806322770167042e-05 0.040895844387873942 0 -0.00030972396162289549 0.041219963148464128 0 -0.00032158640770264541 0.040515798979404473 0 -0.00030972396162289549 0.041219963148464128 0 -0.00066344087226537533 0.040887724954848499 0 -0.000522038329115549 0.041296089751649744 0 -0.00030972396162289549 0.041219963148464128 0 -0.00066344087226537533 0.040887724954848499 0 -0.00032158640770264541 0.040515798979404473 0 -0.00066344087226537533 0.040887724954848499 0 -0.00076994907898627414 0.040208312228706862 0 -0.00032158640770264541 0.040515798979404473 0 -0.00066344087226537533 0.040887724954848499 0 -0.0007985799488698527 0.041015724271474076 0 -0.000522038329115549 0.041296089751649744 0 -0.00066344087226537533 0.040887724954848499 0 -0.0007985799488698527 0.041015724271474076 0 -0.0010656844325090441 0.040510605196897677 0 -0.00066344087226537533 0.040887724954848499 0 -0.0010656844325090441 0.040510605196897677 0 -0.00076994907898627414 0.040208312228706862 0 -0.0010635342660870331 0.040878689952224788 0 -0.0007985799488698527 0.041015724271474076 0 -0.0010656844325090441 0.040510605196897677 0 -0.0010635342660870331 0.040878689952224788 0 -0.0007985799488698527 0.041015724271474076 0 -0.00058330471840500658 0.041239982131422465 0 -0.00033640653649483703 0.041362013132539718 0 -0.00037117359913182497 0.041370708094684877 0 -0.000522038329115549 0.041296089751649744 0 -0.0007985799488698527 0.041015724271474076 0 -0.00058330471840500658 0.041239982131422465 0 -0.000522038329115549 0.041296089751649744 0 -0.00058330471840500658 0.041239982131422465 0 -0.00030751789900566753 0.041379993254942973 0 -0.00037117359913182497 0.041370708094684877 0 -0.00058330471840500658 0.041239982131422465 0 -0.00037117359913182497 0.041370708094684877 0 -0.000522038329115549 0.041296089751649744 0 -0.00039094902397381981 0.041425004673451019 0 -0.00030972396162289549 0.041219963148464128 0 -0.000522038329115549 0.041296089751649744 0 -0.00058882993618440585 0.036551582874245647 0 -0.00062931548905535933 0.035146129846682458 0 -0.00063930501727122639 0.035295262943280614 0 -0.00058882993618440585 0.036551582874245647 0 -0.0016494888155476357 0.039832572325075824 0 -0.00074536058180025341 0.039165783173754479 0 -0.00046493224031430582 0.036404797203241621 0 -0.0012689199906198746 0.037951951620935016 0 -0.00034600420348555459 0.038436153444275638 0 -0.00074536058180025341 0.039165783173754479 0 -0.00033301293824019988 0.039561242133755427 0 -0.00034600420348555459 0.038436153444275638 0 -0.00058882993618440585 0.036551582874245647 0 -0.00074536058180025341 0.039165783173754479 0 -0.00034600420348555459 0.038436153444275638 0 -0.00058882993618440585 0.036551582874245647 0 -0.00010252000362165422 0.038660968735961483 0 -0.00062931548905535933 0.035146129846682458 0 -9.8203813504028648e-05 0.033726388979544074 0 -6.2036564073842662e-05 0.033221303835242612 0 -0.00062931548905535933 0.035146129846682458 0 -0.00063930501727122639 0.035295262943280614 0 -0.00067526848264770959 0.035290741482641663 0 -0.00062931548905535933 0.035146129846682458 0 -6.2036564073842662e-05 0.033221303835242612 0 -0.00043244788101015375 0.031725748813393351 0 -0.0007193140402547445 0.034919586459803163 0 -0.00035717596550525213 0.033325578439383656 0 -0.00062931548905535933 0.035146129846682458 0 -9.8203813504028648e-05 0.033726388979544074 0 -0.00017010551248155997 0.033811547102555767 0 -9.8203813504028648e-05 0.033726388979544074 0 -0.00017010551248155997 0.033811547102555767 0 0.00027506043693072303 0.032841423379060368 0 -9.8203813504028648e-05 0.033726388979544074 0 -6.2036564073842662e-05 0.033221303835242612 0 0.00027506043693072303 0.032841423379060368 0 -6.2036564073842662e-05 0.033221303835242612 0 0.00019915099477408146 0.032296403359865666 0 0.00027506043693072303 0.032841423379060368 0 -6.2036564073842662e-05 0.033221303835242612 0 0.00019915099477408146 0.032296403359865666 0 -0.00043244788101015375 0.031725748813393351 0 -0.00070416024562528433 0.035413861281998762 0 -0.00063930501727122639 0.035295262943280614 0 -0.00067526848264770959 0.035290741482641663 0 -0.0010635342660870331 0.040878689952224788 0 -0.0016494888155476357 0.039832572325075824 0 -0.0010656844325090441 0.040510605196897677 0 0.00034103499204059658 0.031091433810401695 0 -0.00043244788101015375 0.031725748813393351 0 0.00016619082210453449 0.031604158025471375 0 -0.00041926194784454432 0.035106969418791871 0 -0.0012689199906198746 0.037951951620935016 0 -0.00041926194784454432 0.035106969418791871 0 -0.00035717596550525213 0.033325578439383656 0 0.00019915099477408146 0.032296403359865666 0 -0.00043244788101015375 0.031725748813393351 0 0.00016619082210453449 0.031604158025471375 0 -0.0016494888155476357 0.039832572325075824 0 -0.0010656844325090441 0.040510605196897677 0 -0.0011044400152489496 0.039939675651229134 0 -0.0010656844325090441 0.040510605196897677 0 -0.00076994907898627414 0.040208312228706862 0 -0.0011044400152489496 0.039939675651229134 0 -0.0016494888155476357 0.039832572325075824 0 -0.0011044400152489496 0.039939675651229134 0 -0.00074536058180025341 0.039165783173754479 0 -0.00076994907898627414 0.040208312228706862 0 -0.0011044400152489496 0.039939675651229134 0 -0.00074536058180025341 0.039165783173754479 0 -0.00076994907898627414 0.040208312228706862 0 -0.00074536058180025341 0.039165783173754479 0 -0.00033301293824019988 0.039561242133755427 0 -0.00076994907898627414 0.040208312228706862 0 -0.00033301293824019988 0.039561242133755427 0 -0.00032158640770264541 0.040515798979404473 0 -6.4806322770167042e-05 0.040895844387873942 0 -0.00032158640770264541 0.040515798979404473 0 -4.3220378712155158e-05 0.039901404778864086 0 -0.00033301293824019988 0.039561242133755427 0 -0.00032158640770264541 0.040515798979404473 0 -4.3220378712155158e-05 0.039901404778864086 0 6.5385775836191947e-05 0.041456124596450566 0 -6.4806322770167042e-05 0.040895844387873942 0 3.971403666472927e-05 0.040665076594757106 0 -6.4806322770167042e-05 0.040895844387873942 0 -4.3220378712155158e-05 0.039901404778864086 0 3.971403666472927e-05 0.040665076594757106 0 3.971403666472927e-05 0.040665076594757106 0 -0.00011909057313018486 0.039363479089323514 0 -8.5044574719646013e-05 0.040713440409636342 0 -4.3220378712155158e-05 0.039901404778864086 0 3.971403666472927e-05 0.040665076594757106 0 -0.00011909057313018486 0.039363479089323514 0 -4.3220378712155158e-05 0.039901404778864086 0 -0.00011909057313018486 0.039363479089323514 0 -0.00010252000362165422 0.038660968735961483 0 -0.00033301293824019988 0.039561242133755427 0 -4.3220378712155158e-05 0.039901404778864086 0 -0.00010252000362165422 0.038660968735961483 0 -0.00034600420348555459 0.038436153444275638 0 -0.00033301293824019988 0.039561242133755427 0 -0.00010252000362165422 0.038660968735961483 0 -0.00011909057313018486 0.039363479089323514 0 -0.00010252000362165422 0.038660968735961483 0 -0.00022812740036221591 0.037891175456079021 0 -0.00058882993618440585 0.036551582874245647 0 -0.00010252000362165422 0.038660968735961483 0 -0.00022812740036221591 0.037891175456079021 0 -0.00022812740036221591 0.037891175456079021 0 -0.00046258583953321715 0.039562483558354754 0 -0.00023090994289947186 0.038937331683938745 0 -0.00011909057313018486 0.039363479089323514 0 -0.00022812740036221591 0.037891175456079021 0 -0.00046258583953321715 0.039562483558354754 0 -0.00011909057313018486 0.039363479089323514 0 -0.00046258583953321715 0.039562483558354754 0 -8.5044574719646013e-05 0.040713440409636342 0 -0.00046258583953321715 0.039562483558354754 0 -0.00023090994289947186 0.038937331683938745 0 -0.00084451314475059581 0.039849546060875873 0 -7.5687193793797574e-05 0.036497045546605884 0 -0.00020336870191336374 0.03753966026780467 0 -7.5687193793797574e-05 0.036497045546605884 0 -0.00029042940149285956 0.035441288703395753 0 0.00036299541544344914 0.034135078354161408 0 -0.00022749231736528345 0.035065171705938092 0 -0.00027916284263454066 0.033646987196588839 0 0.00036299541544344914 0.034135078354161408 0 -0.00027916284263454066 0.033646987196588839 0 0.00016374271374143591 0.033797583007430958 0 -0.00058882993618440585 0.036551582874245647 0 -0.00022812740036221591 0.037891175456079021 0 -0.00022749231736528345 0.035065171705938092 0 -0.00022812740036221591 0.037891175456079021 0 -0.00023090994289947186 0.038937331683938745 0 -0.00022749231736528345 0.035065171705938092 0 -0.00058882993618440585 0.036551582874245647 0 -0.00062931548905535933 0.035146129846682458 0 -0.00022749231736528345 0.035065171705938092 0 -0.00017010551248155997 0.033811547102555767 0 -0.00027916284263454066 0.033646987196588839 0 -4.7080456592489237e-05 0.0327907269299757 0 -0.00022749231736528345 0.035065171705938092 0 -0.00017010551248155997 0.033811547102555767 0 -0.00027916284263454066 0.033646987196588839 0 -0.00062931548905535933 0.035146129846682458 0 -0.00022749231736528345 0.035065171705938092 0 -0.00017010551248155997 0.033811547102555767 0 -0.00027916284263454066 0.033646987196588839 0 -4.7080456592489237e-05 0.0327907269299757 0 -0.00014448088027433219 0.032130410037555727 0 -0.00039218902249746318 0.033013042646750264 0 -0.00070874800157775782 0.032682915785247173 0 -0.00014448088027433219 0.032130410037555727 0 -0.00027916284263454066 0.033646987196588839 0 -0.00039218902249746318 0.033013042646750264 0 -0.00014448088027433219 0.032130410037555727 0 -0.00039218902249746318 0.033013042646750264 0 0.00016374271374143591 0.033797583007430958 0 -0.00030799933704988132 0.032883401631090013 0 -0.00027916284263454066 0.033646987196588839 0 -0.00039218902249746318 0.033013042646750264 0 0.00016374271374143591 0.033797583007430958 0 0.00016374271374143591 0.033797583007430958 0 -0.00030799933704988132 0.032883401631090013 0 0.00026878769542743828 0.033906993018229283 0 -0.00039218902249746318 0.033013042646750264 0 -0.00030799933704988132 0.032883401631090013 0 -0.00070874800157775782 0.032682915785247173 0 -0.00017825042519299433 0.030339368019574684 0 -5.1364212986628861e-05 0.029385698569966794 0 -0.00030799933704988132 0.032883401631090013 0 -0.00031535671902341891 0.030659718334116765 0 -0.00070874800157775782 0.032682915785247173 0 -0.00031535671902341891 0.030659718334116765 0 0.00022820647086290401 0.026115392271011884 0 0.00031242224368665627 0.026349688515943836 0 -0.00030799933704988132 0.032883401631090013 0 -0.00031535671902341891 0.030659718334116765 0 0.00026878769542743828 0.033906993018229283 0 -0.00031535671902341891 0.030659718334116765 0 -5.0329254835642933e-07 0.027958027849611225 0 -1.2011408303637884e-07 0.031206793310598061 0 -0.00031535671902341891 0.030659718334116765 0 -5.0329254835642933e-07 0.027958027849611225 0 0.00031242224368665627 0.026349688515943836 0 -0.00031535671902341891 0.030659718334116765 0 -1.2011408303637884e-07 0.031206793310598061 0 0.00010568299049450657 0.033133878188232949 0 -1.2011408303637884e-07 0.031206793310598061 0 0.00010568299049450657 0.033133878188232949 0 1.7237044042040417e-07 0.034455534276674499 0 -0.00031535671902341891 0.030659718334116765 0 0.00010568299049450657 0.033133878188232949 0 0.00026878769542743828 0.033906993018229283 0 0.00010568299049450657 0.033133878188232949 0 4.5525082167387534e-05 0.035656265201450446 0 1.7237044042040417e-07 0.034455534276674499 0 0.00010568299049450657 0.033133878188232949 0 4.5525082167387534e-05 0.035656265201450446 0 0.00026878769542743828 0.033906993018229283 0 4.5525082167387534e-05 0.035656265201450446 0 0.00026878769542743828 0.033906993018229283 0 0.00017530023454230797 0.035264865229824777 0 0.00016374271374143591 0.033797583007430958 0 0.00026878769542743828 0.033906993018229283 0 0.00017530023454230797 0.035264865229824777 0 0.00036299541544344914 0.034135078354161408 0 0.00016374271374143591 0.033797583007430958 0 0.00017530023454230797 0.035264865229824777 0 -0.00084451314475059581 0.039849546060875873 0 -0.00024114768113345266 0.03855208754178218 0 -7.1272264718018195e-05 0.040968510867016916 0 -0.00020336870191336374 0.03753966026780467 0 -0.00015722624325588178 0.038289380244304172 0 -0.00024114768113345266 0.03855208754178218 0 0.00012084897773657065 0.040646115961448882 0 -7.1272264718018195e-05 0.040968510867016916 0 4.5525082167387534e-05 0.035656265201450446 0 0.00017530023454230797 0.035264865229824777 0 -0.00024114768113345266 0.03855208754178218 0 4.5525082167387534e-05 0.035656265201450446 0 -0.00024114768113345266 0.03855208754178218 0 -4.6949679945266534e-06 0.03702330979674142 0 -0.00024114768113345266 0.03855208754178218 0 -4.6949679945266534e-06 0.03702330979674142 0 8.5414802617936854e-05 0.039409467637751952 0 -4.6949679945266534e-06 0.03702330979674142 0 2.8925998004437069e-08 0.037703984295382673 0 8.5414802617936854e-05 0.039409467637751952 0 -4.6949679945266534e-06 0.03702330979674142 0 2.8925998004437069e-08 0.037703984295382673 0 1.7237044042040417e-07 0.034455534276674499 0 4.5525082167387534e-05 0.035656265201450446 0 -4.6949679945266534e-06 0.03702330979674142 0 1.7237044042040417e-07 0.034455534276674499 0 2.7322477560007553e-07 0.040952361772822035 0 8.5414802617936854e-05 0.039409467637751952 0 0.00015139597432804779 0.042550163243683832 0 8.5414802617936854e-05 0.039409467637751952 0 0.00018946171947170973 0.041837138540869706 0 0.00015139597432804779 0.042550163243683832 0 2.8925998004437069e-08 0.037703984295382673 0 2.7322477560007553e-07 0.040952361772822035 0 8.5414802617936854e-05 0.039409467637751952 0 8.5414802617936854e-05 0.039409467637751952 0 0.00018946171947170973 0.041837138540869706 0 0.00012084897773657065 0.040646115961448882 0 -0.00024114768113345266 0.03855208754178218 0 8.5414802617936854e-05 0.039409467637751952 0 0.00012084897773657065 0.040646115961448882 0 0.00012084897773657065 0.040646115961448882 0 0.00019026548722674529 0.04266092537571646 0 -7.1272264718018195e-05 0.040968510867016916 0 0.00018946171947170973 0.041837138540869706 0 0.00019026548722674529 0.04266092537571646 0 0.00014614906056694354 0.043752026917658546 0 0.00018946171947170973 0.041837138540869706 0 0.00012084897773657065 0.040646115961448882 0 0.00019026548722674529 0.04266092537571646 0 0.00019026548722674529 0.04266092537571646 0 0.00017014787311143062 0.043590125290475991 0 0.00010553131066290202 0.04227631954571761 0 0.00019026548722674529 0.04266092537571646 0 0.00010553131066290202 0.04227631954571761 0 -7.1272264718018195e-05 0.040968510867016916 0 -0.00046258583953321715 0.039562483558354754 0 -0.00084451314475059581 0.039849546060875873 0 -0.00029648334761429011 0.040664178850851787 0 -0.00084451314475059581 0.039849546060875873 0 -7.1272264718018195e-05 0.040968510867016916 0 -0.00029648334761429011 0.040664178850851787 0 -0.00046258583953321715 0.039562483558354754 0 -0.00029648334761429011 0.040664178850851787 0 -8.5044574719646013e-05 0.040713440409636342 0 0.00010553131066290202 0.04227631954571761 0 -0.00029648334761429011 0.040664178850851787 0 -8.5044574719646013e-05 0.040713440409636342 0 0.00010553131066290202 0.04227631954571761 0 -7.1272264718018195e-05 0.040968510867016916 0 -0.00029648334761429011 0.040664178850851787 0 0.00010553131066290202 0.04227631954571761 0 -8.5044574719646013e-05 0.040713440409636342 0 0.00013365803650605153 0.041619712309668884 0 3.971403666472927e-05 0.040665076594757106 0 -8.5044574719646013e-05 0.040713440409636342 0 0.00013365803650605153 0.041619712309668884 0 6.5385775836191947e-05 0.041456124596450566 0 3.971403666472927e-05 0.040665076594757106 0 0.00013365803650605153 0.041619712309668884 0 0.00018521163024661438 0.041997161619795234 0 0.00013365803650605153 0.041619712309668884 0 0.00024615519099150599 0.042738193001243416 0 0.00010553131066290202 0.04227631954571761 0 0.00013365803650605153 0.041619712309668884 0 0.00024615519099150599 0.042738193001243416 0 0.00020155883273596174 0.043409211221485007 0 0.00024615519099150599 0.042738193001243416 0 0.00019378706958152786 0.044051893941789967 0 0.00017014787311143062 0.043590125290475991 0 0.00010553131066290202 0.04227631954571761 0 0.00019378706958152786 0.044051893941789967 0 0.00010553131066290202 0.04227631954571761 0 0.00024615519099150599 0.042738193001243416 0 0.00019378706958152786 0.044051893941789967 0 2.3598218955747576e-05 0.045175482075569304 0 -6.0033304405990377e-05 0.04549658084649618 0 -0.00022176695339061974 0.046535434401028128 0 0.00019378706958152786 0.044051893941789967 0 2.3598218955747576e-05 0.045175482075569304 0 -6.0033304405990377e-05 0.04549658084649618 0 0.00017014787311143062 0.043590125290475991 0 0.00019378706958152786 0.044051893941789967 0 2.3598218955747576e-05 0.045175482075569304 0 2.1110431153014183e-05 0.044840630064143218 0 0.00019378706958152786 0.044051893941789967 0 -6.0033304405990377e-05 0.04549658084649618 0 2.1110431153014183e-05 0.044840630064143218 0 -6.0033304405990377e-05 0.04549658084649618 0 -0.00052065403880746089 0.046808929945542546 0 -6.0033304405990377e-05 0.04549658084649618 0 -0.00052065403880746089 0.046808929945542546 0 -0.00022176695339061974 0.046535434401028128 0 -0.00052065403880746089 0.046808929945542546 0 -0.00059240180139845237 0.048668365148239641 0 -0.0013715280217315344 0.04930219055483559 0 -0.00052065403880746089 0.046808929945542546 0 -0.00059240180139845237 0.048668365148239641 0 -0.00022176695339061974 0.046535434401028128 0 -0.00059240180139845237 0.048668365148239641 0 -0.00022176695339061974 0.046535434401028128 0 -0.00015035229913846357 0.046380056262712632 0 -0.00059240180139845237 0.048668365148239641 0 -0.00015035229913846357 0.046380056262712632 0 -0.00021846311019554094 0.047638501583122543 0 -0.00059240180139845237 0.048668365148239641 0 -0.00021846311019554094 0.047638501583122543 0 -0.00010171788215559747 0.049766526472727911 0 -0.00015035229913846357 0.046380056262712632 0 -0.00021846311019554094 0.047638501583122543 0 -1.7676552891440162e-05 0.045593093219373014 0 -0.00015035229913846357 0.046380056262712632 0 6.5720015663242541e-05 0.044715453979792291 0 -1.7676552891440162e-05 0.045593093219373014 0 2.3598218955747576e-05 0.045175482075569304 0 -0.00022176695339061974 0.046535434401028128 0 -0.00015035229913846357 0.046380056262712632 0 2.3598218955747576e-05 0.045175482075569304 0 -0.00015035229913846357 0.046380056262712632 0 6.5720015663242541e-05 0.044715453979792291 0 0.00017014787311143062 0.043590125290475991 0 2.3598218955747576e-05 0.045175482075569304 0 6.5720015663242541e-05 0.044715453979792291 0 0.00019026548722674529 0.04266092537571646 0 0.00017014787311143062 0.043590125290475991 0 6.5720015663242541e-05 0.044715453979792291 0 0.00019026548722674529 0.04266092537571646 0 6.5720015663242541e-05 0.044715453979792291 0 0.00014614906056694354 0.043752026917658546 0 0.00014614906056694354 0.043752026917658546 0 0.00010743533836801235 0.044766806667958008 0 -1.7676552891440162e-05 0.045593093219373014 0 6.5720015663242541e-05 0.044715453979792291 0 0.00014614906056694354 0.043752026917658546 0 -1.7676552891440162e-05 0.045593093219373014 0 0.00014614906056694354 0.043752026917658546 0 0.00010743533836801235 0.044766806667958008 0 0.00015139597432804779 0.042550163243683832 0 0.00018946171947170973 0.041837138540869706 0 0.00014614906056694354 0.043752026917658546 0 0.00015139597432804779 0.042550163243683832 0 0.00010743533836801235 0.044766806667958008 0 0.00015139597432804779 0.042550163243683832 0 3.8116144471151551e-07 0.044200888824969205 0 2.7322477560007553e-07 0.040952361772822035 0 0.00015139597432804779 0.042550163243683832 0 3.8116144471151551e-07 0.044200888824969205 0 0.00010743533836801235 0.044766806667958008 0 3.8116144471151551e-07 0.044200888824969205 0 0.0001624815193410793 0.046178196040669424 0 3.8116144471151551e-07 0.044200888824969205 0 3.4614958203085474e-07 0.047448533586548838 0 0.0001624815193410793 0.046178196040669424 0 0.0001624815193410793 0.046178196040669424 0 8.0095000357543542e-05 0.047230041053545654 0 0.00020836539625319317 0.047565699740741527 0 3.4614958203085474e-07 0.047448533586548838 0 0.0001624815193410793 0.046178196040669424 0 0.00020836539625319317 0.047565699740741527 0 0.0001624815193410793 0.046178196040669424 0 8.0095000357543542e-05 0.047230041053545654 0 -2.2629388248545326e-05 0.046342912565809274 0 0.00010743533836801235 0.044766806667958008 0 0.0001624815193410793 0.046178196040669424 0 -2.2629388248545326e-05 0.046342912565809274 0 -0.00021846311019554094 0.047638501583122543 0 -1.7676552891440162e-05 0.045593093219373014 0 -2.2629388248545326e-05 0.046342912565809274 0 0.00010743533836801235 0.044766806667958008 0 -1.7676552891440162e-05 0.045593093219373014 0 -2.2629388248545326e-05 0.046342912565809274 0 -0.00021846311019554094 0.047638501583122543 0 -2.2629388248545326e-05 0.046342912565809274 0 -7.566089552296411e-05 0.047503894371636796 0 8.0095000357543542e-05 0.047230041053545654 0 -2.2629388248545326e-05 0.046342912565809274 0 -7.566089552296411e-05 0.047503894371636796 0 -0.00021846311019554094 0.047638501583122543 0 -7.566089552296411e-05 0.047503894371636796 0 -5.9533574207594356e-05 0.048721635892162871 0 -7.566089552296411e-05 0.047503894371636796 0 -5.9533574207594356e-05 0.048721635892162871 0 2.5065400437942508e-05 0.048089171211918622 0 -5.9533574207594356e-05 0.048721635892162871 0 2.5065400437942508e-05 0.048089171211918622 0 0.00045406436521363316 0.050345208064617591 0 8.0095000357543542e-05 0.047230041053545654 0 -7.566089552296411e-05 0.047503894371636796 0 2.5065400437942508e-05 0.048089171211918622 0 0.00045406436521363316 0.050345208064617591 0 0.00022378307141383979 0.053417524751759628 0 0.00010187394887494196 0.052068857183438809 0 0.00033671842206251635 0.050738895711032871 0 0.00075454230225343569 0.050590786526221239 0 0.00040392701031035223 0.048624388450659771 0 0.00088741603732960493 0.048338780702369029 0 0.00034760208396297863 0.048023189373691044 0 0.00045406436521363316 0.050345208064617591 0 0.00040392701031035223 0.048624388450659771 0 0.00088741603732960493 0.048338780702369029 0 2.5065400437942508e-05 0.048089171211918622 0 0.00040392701031035223 0.048624388450659771 0 0.00034760208396297863 0.048023189373691044 0 2.5065400437942508e-05 0.048089171211918622 0 0.00045406436521363316 0.050345208064617591 0 0.00040392701031035223 0.048624388450659771 0 0.00045406436521363316 0.050345208064617591 0 0.00088741603732960493 0.048338780702369029 0 0.0010638572437482389 0.048303631692730185 0 0.00088741603732960493 0.048338780702369029 0 0.00043048326440765116 0.047996267335320884 0 0.00016446259009702949 0.047865693730519791 0 0.00043048326440765116 0.047996267335320884 0 0.00026880669739614161 0.047905788097610882 0 0.00016446259009702949 0.047865693730519791 0 0.00088741603732960493 0.048338780702369029 0 0.00043048326440765116 0.047996267335320884 0 0.00034760208396297863 0.048023189373691044 0 0.00034760208396297863 0.048023189373691044 0 0.00026880669739614161 0.047905788097610882 0 0.00015709828305250352 0.047655904536140756 0 0.00043048326440765116 0.047996267335320884 0 0.00034760208396297863 0.048023189373691044 0 0.00026880669739614161 0.047905788097610882 0 0.00026880669739614161 0.047905788097610882 0 0.00015709828305250352 0.047655904536140756 0 0.00020836539625319317 0.047565699740741527 0 8.0095000357543542e-05 0.047230041053545654 0 2.5065400437942508e-05 0.048089171211918622 0 0.00015709828305250352 0.047655904536140756 0 2.5065400437942508e-05 0.048089171211918622 0 0.00034760208396297863 0.048023189373691044 0 0.00015709828305250352 0.047655904536140756 0 8.0095000357543542e-05 0.047230041053545654 0 0.00015709828305250352 0.047655904536140756 0 0.00020836539625319317 0.047565699740741527 0 0.00026880669739614161 0.047905788097610882 0 0.00020836539625319317 0.047565699740741527 0 0.0001038893041438486 0.049047799423903103 0 0.0001038893041438486 0.049047799423903103 0 -8.9644461858490185e-05 0.050162474968807595 0 -0.00016245566797106774 0.050552516028070038 0 -2.5970628253638312e-05 0.048697102326504919 0 0.00026808940890819794 0.050652937723399724 0 0.00026880669739614161 0.047905788097610882 0 0.0001038893041438486 0.049047799423903103 0 0.00016446259009702949 0.047865693730519791 0 0.0001038893041438486 0.049047799423903103 0 -8.9644461858490185e-05 0.050162474968807595 0 9.7669789170089941e-07 0.050697766457544084 0 3.4614958203085474e-07 0.047448533586548838 0 0.00020836539625319317 0.047565699740741527 0 0.0001038893041438486 0.049047799423903103 0 3.4614958203085474e-07 0.047448533586548838 0 0.0001038893041438486 0.049047799423903103 0 9.7669789170089941e-07 0.050697766457544084 0 3.4050946363269569e-08 0.053945609608606448 0 -0.00036640637886914878 0.053351140084170946 0 -1.6084320132450494e-05 0.054763206366719254 0 -1.0044893907450912e-06 0.053949882134472341 0 -0.00041952972933926333 0.055009672897429529 0 -1.6084320132450494e-05 0.054763206366719254 0 8.8542393276528844e-08 0.05499984187876697 0 -0.0001859049742214804 0.055168687529794799 0 -1.6084320132450494e-05 0.054763206366719254 0 4.6657048951045281e-07 0.054998395279866975 0 -1.0044893907450912e-06 0.053949882134472341 0 -1.6084320132450494e-05 0.054763206366719254 0 8.8542393276528844e-08 0.05499984187876697 0 4.6657048951045281e-07 0.054998395279866975 0 9.7669789170089941e-07 0.050697766457544084 0 -2.4971497208079307e-06 0.053941897562094346 0 -0.00020472771805652757 0.050980608320426841 0 -8.9644461858490185e-05 0.050162474968807595 0 9.7669789170089941e-07 0.050697766457544084 0 -0.00020472771805652757 0.050980608320426841 0 -0.00036640637886914878 0.053351140084170946 0 0.00026808940890819794 0.050652937723399724 0 -0.00041952972933926333 0.055009672897429529 0 -0.0001859049742214804 0.055168687529794799 0 -0.00051893369510074515 0.055303549031398773 0 -8.9644461858490185e-05 0.050162474968807595 0 -0.00020472771805652757 0.050980608320426841 0 -0.00016245566797106774 0.050552516028070038 0 -0.0001859049742214804 0.055168687529794799 0 -0.00051893369510074515 0.055303549031398773 0 -0.00041440681183719971 0.055385142327725581 0 9.1896020353076814e-11 0.055000005344595988 0 -9.6270526630985392e-07 0.054997838354476365 0 -2.3552898413171306e-09 0.054999985485059265 0 -0.00034585275594603402 0.055318904541823394 0 0.00020024783062882979 0.052579117860595291 0 -1.6084320132450494e-05 0.054763206366719254 0 -0.00041952972933926333 0.055009672897429529 0 -0.0001859049742214804 0.055168687529794799 0 1.278046162031238e-07 0.054999819688060982 0 -0.00034585275594603402 0.055318904541823394 0 -9.6270526630985392e-07 0.054997838354476365 0 -2.3552898413171306e-09 0.054999985485059265 0 -3.6465246653110001e-07 0.054995025560324658 0 0.00020024783062882979 0.052579117860595291 0 4.6394082950882132e-07 0.055001028449678732 0 -3.6465246653110001e-07 0.054995025560324658 0 1.1036017229053244e-07 0.054985810366889695 0 -6.3021953524311409e-10 0.054999993580065507 0 -6.370399229883198e-05 0.053514218053429187 0 -3.8493334774575821e-07 0.054995709923203608 0 -5.033802738392334e-05 0.053909889401348124 0 -2.3552898413171306e-09 0.054999985485059265 0 -3.6465246653110001e-07 0.054995025560324658 0 -6.3021953524311409e-10 0.054999993580065507 0 -9.6270526630985392e-07 0.054997838354476365 0 -3.6465246653110001e-07 0.054995025560324658 0 1.1036017229053244e-07 0.054985810366889695 0 0.0011728275656637485 0.047359730160283421 0 0.00026808940890819794 0.050652937723399724 0 0.00088741603732960493 0.048338780702369029 0 0.0013582730301882743 0.047546942127401293 0 0.0010638572437482389 0.048303631692730185 0 0.0013582730301882743 0.047546942127401293 0 0.001566876898025771 0.047736041995667479 0 0.0010638572437482389 0.048303631692730185 0 0.00026808940890819794 0.050652937723399724 0 0.00020024783062882979 0.052579117860595291 0 -6.370399229883198e-05 0.053514218053429187 0 -2.114862663311909e-05 0.053578490270307803 0 -5.033802738392334e-05 0.053909889401348124 0 0.00020024783062882979 0.052579117860595291 0 0.00075454230225343569 0.050590786526221239 0 -6.370399229883198e-05 0.053514218053429187 0 0.00022378307141383979 0.053417524751759628 0 -2.114862663311909e-05 0.053578490270307803 0 -7.0424867894944919e-05 0.053209438891699205 0 -5.033802738392334e-05 0.053909889401348124 0 -4.7669423681878732e-05 0.053317832663149115 0 -7.0424867894944919e-05 0.053209438891699205 0 0.00022378307141383979 0.053417524751759628 0 -2.114862663311909e-05 0.053578490270307803 0 -7.0424867894944919e-05 0.053209438891699205 0 -2.114862663311909e-05 0.053578490270307803 0 -5.033802738392334e-05 0.053909889401348124 0 -7.0424867894944919e-05 0.053209438891699205 0 0.00022378307141383979 0.053417524751759628 0 0.00010187394887494196 0.052068857183438809 0 -7.0424867894944919e-05 0.053209438891699205 0 0.00010187394887494196 0.052068857183438809 0 -4.7669423681878732e-05 0.053317832663149115 0 -3.8493334774575821e-07 0.054995709923203608 0 -5.033802738392334e-05 0.053909889401348124 0 -4.7669423681878732e-05 0.053317832663149115 0 -3.8493334774575821e-07 0.054995709923203608 0 -2.8839044972962929e-09 0.054997434303173783 0 -4.7669423681878732e-05 0.053317832663149115 0 -2.8839044972962929e-09 0.054997434303173783 0 3.5868403490750946e-05 0.053030560064079919 0 -4.7669423681878732e-05 0.053317832663149115 0 0.00010187394887494196 0.052068857183438809 0 -4.7669423681878732e-05 0.053317832663149115 0 0.00011361811838574519 0.051500204508900679 0 3.5868403490750946e-05 0.053030560064079919 0 -4.7669423681878732e-05 0.053317832663149115 0 0.00011361811838574519 0.051500204508900679 0 0.00045406436521363316 0.050345208064617591 0 0.00010187394887494196 0.052068857183438809 0 0.00011361811838574519 0.051500204508900679 0 0.00045406436521363316 0.050345208064617591 0 0.00011361811838574519 0.051500204508900679 0 -0.00010171788215559747 0.049766526472727911 0 -0.00021846311019554094 0.047638501583122543 0 -5.9533574207594356e-05 0.048721635892162871 0 -0.00010171788215559747 0.049766526472727911 0 -5.9533574207594356e-05 0.048721635892162871 0 0.00045406436521363316 0.050345208064617591 0 -0.00010171788215559747 0.049766526472727911 0 -0.00059240180139845237 0.048668365148239641 0 -0.00010171788215559747 0.049766526472727911 0 -0.00029073205457462675 0.050794634823518092 0 0.00011361811838574519 0.051500204508900679 0 -0.00010171788215559747 0.049766526472727911 0 -0.00029073205457462675 0.050794634823518092 0 3.5868403490750946e-05 0.053030560064079919 0 0.00011361811838574519 0.051500204508900679 0 -0.00029073205457462675 0.050794634823518092 0 6.6679616552039271e-05 0.053145104390748231 0 -0.0013715280217315344 0.04930219055483559 0 -4.6951063646020222e-05 0.052438805133968577 0 -0.00029073205457462675 0.050794634823518092 0 -0.0013715280217315344 0.04930219055483559 0 -4.6951063646020222e-05 0.052438805133968577 0 -0.00059240180139845237 0.048668365148239641 0 -0.00029073205457462675 0.050794634823518092 0 -0.0013715280217315344 0.04930219055483559 0 6.6679616552039271e-05 0.053145104390748231 0 -4.6951063646020222e-05 0.052438805133968577 0 3.1142718899681007e-07 0.054997148478296301 0 -2.8839044972962929e-09 0.054997434303173783 0 3.5868403490750946e-05 0.053030560064079919 0 3.1142718899681007e-07 0.054997148478296301 0 3.5868403490750946e-05 0.053030560064079919 0 -0.00029073205457462675 0.050794634823518092 0 -4.6951063646020222e-05 0.052438805133968577 0 3.5868403490750946e-05 0.053030560064079919 0 -4.6951063646020222e-05 0.052438805133968577 0 3.1142718899681007e-07 0.054997148478296301 0 0.00015797640729728197 0.025725604470062547 0 0.00028604194710654907 0.025624166213717419 0 0.00024939785885524397 0.025617997382631621 0 0.0002539740836413919 0.02564082023851063 0 0.00015797640729728197 0.025725604470062547 0 0.00028604194710654907 0.025624166213717419 0 -0.0029600250027131186 0.02508222478904306 0 -0.002373956347155661 0.025467204815333246 0 -0.0025470847070358858 0.024796924786357054 0 -0.001444938607824341 0.025820859242275333 0 -0.0011214887849749977 0.025528125475645064 0 -0.002373956347155661 0.025467204815333246 0 -0.0021435146957453259 0.02494205210511612 0 -0.0025470847070358858 0.024796924786357054 0 0.00028604194710654907 0.025624166213717419 0 0.0003088312301787101 0.025606546454636885 0 0.00024939785885524397 0.025617997382631621 0 -0.0011214887849749977 0.025528125475645064 0 -0.0009531387895647201 0.025761580883745465 0 -0.002373956347155661 0.025467204815333246 0 -0.001803255936158639 0.025251524232888081 0 -0.0017860251392202786 0.025762996401176352 0 0.00015797640729728197 0.025725604470062547 0 0.00024939785885524397 0.025617997382631621 0 -0.00010276131887608316 0.025763694804313064 0 -0.001803255936158639 0.025251524232888081 0 -0.0017860251392202786 0.025762996401176352 0 -0.0013320847810874795 0.025542131912946738 0 -0.002373956347155661 0.025467204815333246 0 -0.001803255936158639 0.025251524232888081 0 -0.0021435146957453259 0.02494205210511612 0 -0.0021435146957453259 0.02494205210511612 0 -0.0021706113005531286 0.024515818895154903 0 -0.0025470847070358858 0.024796924786357054 0 -0.0021435146957453259 0.02494205210511612 0 -0.0018362357507911082 0.024677503171610094 0 -0.0021706113005531286 0.024515818895154903 0 -0.001803255936158639 0.025251524232888081 0 -0.0021435146957453259 0.02494205210511612 0 -0.0018362357507911082 0.024677503171610094 0 -0.001803255936158639 0.025251524232888081 0 -0.0018362357507911082 0.024677503171610094 0 -0.0014191242834671171 0.024974141734855106 0 -0.0018362357507911082 0.024677503171610094 0 -0.0017318276474851588 0.024272775256635484 0 -0.0013051119537815562 0.024324906450179519 0 -0.0018362357507911082 0.024677503171610094 0 -0.0019856271080480568 0.02433094174540968 0 -0.0017318276474851588 0.024272775256635484 0 -0.0018362357507911082 0.024677503171610094 0 -0.0019856271080480568 0.02433094174540968 0 -0.0021706113005531286 0.024515818895154903 0 -0.0019856271080480568 0.02433094174540968 0 -0.0017318276474851588 0.024272775256635484 0 -0.00194723711838389 0.024041787776900182 0 -0.0022524429041641219 0.024744214846145442 0 -0.0015127443883137413 0.023257817109234614 0 -0.0021706113005531286 0.024515818895154903 0 -0.0024185949046921502 0.024203269077638222 0 -0.0020101842765790569 0.024019671783135771 0 -0.0019856271080480568 0.02433094174540968 0 -0.0021706113005531286 0.024515818895154903 0 -0.002133135519482271 0.024024687712369198 0 -0.0024185949046921502 0.024203269077638222 0 -0.0027021287138425808 0.024225082566582207 0 -0.0025308521834960934 0.024452238630720151 0 -0.0027021287138425808 0.024225082566582207 0 -0.0025308521834960934 0.024452238630720151 0 -0.0028393134127556643 0.024492476193857055 0 -0.0021706113005531286 0.024515818895154903 0 -0.0024185949046921502 0.024203269077638222 0 -0.0025308521834960934 0.024452238630720151 0 -0.0021706113005531286 0.024515818895154903 0 -0.0025308521834960934 0.024452238630720151 0 -0.0025470847070358858 0.024796924786357054 0 -0.0025308521834960934 0.024452238630720151 0 -0.0025470847070358858 0.024796924786357054 0 -0.0028393134127556643 0.024492476193857055 0 -0.0029600250027131186 0.02508222478904306 0 -0.0028393134127556643 0.024492476193857055 0 -0.0031883428427058038 0.024498262515882267 0 -0.0029600250027131186 0.02508222478904306 0 -0.0025470847070358858 0.024796924786357054 0 -0.0028393134127556643 0.024492476193857055 0 -0.0028393134127556643 0.024492476193857055 0 -0.0030432416495579256 0.024126242662088657 0 -0.0031883428427058038 0.024498262515882267 0 -0.0027021287138425808 0.024225082566582207 0 -0.0028393134127556643 0.024492476193857055 0 -0.0030432416495579256 0.024126242662088657 0 0.00036248323778288657 0.015279652566093056 0 0.00021253485170210249 0.01537267250666704 0 0.00029726512039936339 0.016063334279983896 0 -0.0031883428427058038 0.024498262515882267 0 -0.0034566583475706611 0.024152567554549274 0 -0.0035369363208272845 0.02467037720789312 0 -0.0030432416495579256 0.024126242662088657 0 -0.0031883428427058038 0.024498262515882267 0 -0.0034566583475706611 0.024152567554549274 0 -0.0015500465610601743 0.019876566354063381 0 -0.00024426789972579403 0.021442150366967096 0 0.00021253485170210249 0.01537267250666704 0 -0.00037112118403500623 0.015647537333576395 0 0.00029726512039936339 0.016063334279983896 0 0.00036248323778288657 0.015279652566093056 0 0.00021253485170210249 0.01537267250666704 0 0.00016814177136584551 0.015253508103329814 0 0.00021253485170210249 0.01537267250666704 0 0.00016814177136584551 0.015253508103329814 0 0.00010262412678670316 0.015265320790918638 0 0.00010262412678670316 0.015265320790918638 0 5.3486994303831391e-05 0.01530776350706982 0 5.2065404687132462e-05 0.01526055525959852 0 0.00021253485170210249 0.01537267250666704 0 0.00010262412678670316 0.015265320790918638 0 5.3486994303831391e-05 0.01530776350706982 0 0.00016814177136584551 0.015253508103329814 0 0.00010262412678670316 0.015265320790918638 0 9.6933168235034954e-05 0.015147231215876083 0 0.00010262412678670316 0.015265320790918638 0 5.3249134096350992e-05 0.015202287674237661 0 5.2065404687132462e-05 0.01526055525959852 0 0.00017490587977142424 0.015459662840087214 0 0.00029544829617908464 0.016240180357429718 0 0.0012388241250485444 0.018946784409644923 0 0.00085790430866405129 0.01899925950077885 0 0.00097887270851678494 0.019255948354398564 0 0.00029544829617908464 0.016240180357429718 0 -0.00024426789972579403 0.021442150366967096 0 0.00087664729437633129 0.01870538979076309 0 0.0012388241250485444 0.018946784409644923 0 0.00085790430866405129 0.01899925950077885 0 -0.0029600250027131186 0.02508222478904306 0 -0.0031883428427058038 0.024498262515882267 0 -0.0035369363208272845 0.02467037720789312 0 -0.001444938607824341 0.025820859242275333 0 -0.00024426789972579403 0.021442150366967096 0 -0.00013533605522959543 0.015187999640220464 0 -6.5458701956513745e-05 0.015219271837441862 0 -9.437990269534817e-05 0.015321529608258744 0 -2.857852200553897e-05 0.011366840050742519 0 -8.7830947440235103e-05 0.01351567800355675 0 0.00023805639669602531 0.0073539112468143739 0 -7.9597786576670914e-06 0.0070241412559203025 0 -0.00057995448765632671 0.0076532106675098049 0 0.00029544829617908464 0.016240180357429718 0 -1.3343243448413092e-05 0.017315840920634585 0 5.3486994303831391e-05 0.01530776350706982 0 -1.1725137595803978e-05 0.015265423520953288 0 -9.437990269534817e-05 0.015321529608258744 0 -6.5458701956513745e-05 0.015219271837441862 0 -1.1725137595803978e-05 0.015265423520953288 0 -9.437990269534817e-05 0.015321529608258744 0 -0.00013533605522959543 0.015187999640220464 0 -6.5458701956513745e-05 0.015219271837441862 0 -1.1531155426124575e-05 0.01510789240203997 0 -6.5458701956513745e-05 0.015219271837441862 0 5.8727585309451787e-06 0.015212135317662278 0 -1.1531155426124575e-05 0.01510789240203997 0 -6.5458701956513745e-05 0.015219271837441862 0 5.8727585309451787e-06 0.015212135317662278 0 -1.1725137595803978e-05 0.015265423520953288 0 5.8727585309451787e-06 0.015212135317662278 0 5.2065404687132462e-05 0.01526055525959852 0 -1.1725137595803978e-05 0.015265423520953288 0 5.8727585309451787e-06 0.015212135317662278 0 5.3249134096350992e-05 0.015202287674237661 0 5.2065404687132462e-05 0.01526055525959852 0 5.3486994303831391e-05 0.01530776350706982 0 5.2065404687132462e-05 0.01526055525959852 0 -1.1725137595803978e-05 0.015265423520953288 0 0.00087664729437633129 0.01870538979076309 0 0.00085790430866405129 0.01899925950077885 0 0.00049161372287967204 0.018874749037442667 0 0.00085790430866405129 0.01899925950077885 0 0.00049161372287967204 0.018874749037442667 0 0.000703021182954497 0.019261279395768788 0 -1.3343243448413092e-05 0.017315840920634585 0 -8.7830947440235103e-05 0.01351567800355675 0 0.00049161372287967204 0.018874749037442667 0 0.0003473034655331676 0.019297036620977068 0 0.000703021182954497 0.019261279395768788 0 0.00049161372287967204 0.018874749037442667 0 0.0003473034655331676 0.019297036620977068 0 0.00012394548330939227 0.019026505031465073 0 -0.00013533605522959543 0.015187999640220464 0 -9.437990269534817e-05 0.015321529608258744 0 -0.00020152441504024497 0.015350676670085947 0 0.0003473034655331676 0.019297036620977068 0 0.000703021182954497 0.019261279395768788 0 0.00066894118743455468 0.019666898119418751 0 0.000703021182954497 0.019261279395768788 0 0.00066894118743455468 0.019666898119418751 0 0.00088819630108785577 0.019498179836055764 0 0.00085790430866405129 0.01899925950077885 0 0.000703021182954497 0.019261279395768788 0 0.00097887270851678494 0.019255948354398564 0 0.000703021182954497 0.019261279395768788 0 0.00097887270851678494 0.019255948354398564 0 0.00088819630108785577 0.019498179836055764 0 0.00066894118743455468 0.019666898119418751 0 0.0010860436784432947 0.01988716892637199 0 0.00082178440651697372 0.020021282340480645 0 0.0003473034655331676 0.019297036620977068 0 0.00066894118743455468 0.019666898119418751 0 0.00021482047521497282 0.019668591475537053 0 0.00066894118743455468 0.019666898119418751 0 0.00014743472525419651 0.019750023327359166 0 0.00051996980769472925 0.020202038978674848 0 0.00067165198126685596 0.01964493849453719 0 0.0001009493681136824 0.019844231932019715 0 0.00025899137447654073 0.025561929645726029 0 0.00026722874031990558 0.025599764102204298 0 0.00028604194710654907 0.025624166213717419 0 0.0002539740836413919 0.02564082023851063 0 0.00025899137447654073 0.025561929645726029 0 0.00028604194710654907 0.025624166213717419 0 0.0012388241250485444 0.018946784409644923 0 0.00097887270851678494 0.019255948354398564 0 0.0011486970244277044 0.019496129612291288 0 -0.00024426789972579403 0.021442150366967096 0 0.0008590928357503526 0.02239353781017514 0 0.00097887270851678494 0.019255948354398564 0 0.00088819630108785577 0.019498179836055764 0 0.0011503155468184441 0.019471320279007942 0 0.00032867325489409674 0.019375534956307207 0 0.0008590928357503526 0.02239353781017514 0 0.0008590928357503526 0.02239353781017514 0 0.00078518943150857664 0.021319263289139669 0 0.00088819630108785577 0.019498179836055764 0 0.0011503155468184441 0.019471320279007942 0 0.0010860436784432947 0.01988716892637199 0 0.00066894118743455468 0.019666898119418751 0 0.00088819630108785577 0.019498179836055764 0 0.0010860436784432947 0.01988716892637199 0 0.0008590928357503526 0.02239353781017514 0 0.00035499327176161322 0.024758047885273388 0 0.00039896766863378795 0.02323209402714644 0 0.00040056923788784845 0.023219972381464601 0 0.00036917608376967244 0.023229218545076785 0 0.00026722874031990558 0.025599764102204298 0 0.00028604194710654907 0.025624166213717419 0 0.0003088312301787101 0.025606546454636885 0 0.00040056923788784845 0.023219972381464601 0 0.00036917608376967244 0.023229218545076785 0 0.00039264557744473066 0.023210252298855476 0 0.00036917608376967244 0.023229218545076785 0 0.00039264557744473066 0.023210252298855476 0 0.0003655389218257577 0.023195429321497624 0 0.00078518943150857664 0.021319263289139669 0 0.00076963783830720338 0.022184016866122019 0 0.0010860436784432947 0.01988716892637199 0 0.0010103373195228327 0.020331405677535618 0 0.00082178440651697372 0.020021282340480645 0 0.00040056923788784845 0.023219972381464601 0 0.00039264557744473066 0.023210252298855476 0 0.00041845471498388337 0.023204093434669643 0 0.00039264557744473066 0.023210252298855476 0 0.00041562854046229284 0.023206515602606319 0 0.00041845471498388337 0.023204093434669643 0 0.00039264557744473066 0.023210252298855476 0 0.00041562854046229284 0.023206515602606319 0 0.00038768417200278307 0.023195101661889709 0 0.00076963783830720338 0.022184016866122019 0 0.00039671387662421639 0.023209565145929065 0 0.00041562854046229284 0.023206515602606319 0 0.00043529726145077327 0.023214521339909887 0 0.00041243315588987927 0.02310297216892946 0 0.00041562854046229284 0.023206515602606319 0 0.00038324748922005392 0.023165901598053412 0 0.00038768417200278307 0.023195101661889709 0 0.00073018871317878133 0.022247675723962846 0 0.00076963783830720338 0.022184016866122019 0 0.00041562854046229284 0.023206515602606319 0 0.00038324748922005392 0.023165901598053412 0 0.00041243315588987927 0.02310297216892946 0 0.00038324748922005392 0.023165901598053412 0 0.0003580613619643944 0.023153610801600846 0 0.00041243315588987927 0.02310297216892946 0 0.00038324748922005392 0.023165901598053412 0 0.0003655389218257577 0.023195429321497624 0 0.0003580613619643944 0.023153610801600846 0 0.0003655389218257577 0.023195429321497624 0 0.0003580613619643944 0.023153610801600846 0 0.00031954859777557536 0.023203865602274693 0 0.00038324748922005392 0.023165901598053412 0 0.0003655389218257577 0.023195429321497624 0 0.00038768417200278307 0.023195101661889709 0 0.00039264557744473066 0.023210252298855476 0 0.0003655389218257577 0.023195429321497624 0 0.00038768417200278307 0.023195101661889709 0 0.00014743472525419651 0.019750023327359166 0 0.00051996980769472925 0.020202038978674848 0 4.3315371557386097e-05 0.020076062242178158 0 0.00038082759877987874 0.021118196419054512 0 -1.9164511350106536e-05 0.02106988414245126 0 0.00026569225109307335 0.022137839146631307 0 -9.1813319304529645e-06 0.02232132539414175 0 -8.6593609597043446e-05 0.022004061216561763 0 0.0010103373195228327 0.020331405677535618 0 0.00082178440651697372 0.020021282340480645 0 0.00051996980769472925 0.020202038978674848 0 0.00066894118743455468 0.019666898119418751 0 0.00082178440651697372 0.020021282340480645 0 0.00051996980769472925 0.020202038978674848 0 0.00076963783830720338 0.022184016866122019 0 0.00038082759877987874 0.021118196419054512 0 0.00070301740170515103 0.022237226421488721 0 0.00026569225109307335 0.022137839146631307 0 0.00037980301427267723 0.022547593900012423 0 0.00026569225109307335 0.022137839146631307 0 0.00037980301427267723 0.022547593900012423 0 0.00017640201540473121 0.022603898291192779 0 0.00070301740170515103 0.022237226421488721 0 0.00037980301427267723 0.022547593900012423 0 0.00045835777253844029 0.022982764558401623 0 -9.1813319304529645e-06 0.02232132539414175 0 0.00017640201540473121 0.022603898291192779 0 -9.301136685248404e-05 0.022610644143209749 0 0.00026569225109307335 0.022137839146631307 0 -9.1813319304529645e-06 0.02232132539414175 0 0.00017640201540473121 0.022603898291192779 0 7.7099061527937003e-05 0.022779728228788307 0 -8.8014486492746421e-08 0.022958934994365 0 -9.301136685248404e-05 0.022610644143209749 0 7.7099061527937003e-05 0.022779728228788307 0 0.00017640201540473121 0.022603898291192779 0 -9.301136685248404e-05 0.022610644143209749 0 7.7099061527937003e-05 0.022779728228788307 0 0.00017640201540473121 0.022603898291192779 0 0.00025019381776970781 0.022892952043959643 0 0.00037980301427267723 0.022547593900012423 0 0.0003252334138908037 0.022777952820176858 0 0.00045835777253844029 0.022982764558401623 0 0.00017640201540473121 0.022603898291192779 0 0.0003252334138908037 0.022777952820176858 0 0.00025019381776970781 0.022892952043959643 0 0.0003252334138908037 0.022777952820176858 0 0.00045835777253844029 0.022982764558401623 0 0.00025019381776970781 0.022892952043959643 0 0.00037980301427267723 0.022547593900012423 0 0.00017640201540473121 0.022603898291192779 0 0.0003252334138908037 0.022777952820176858 0 0.00040748137199637599 0.023086795704201787 0 0.00045835777253844029 0.022982764558401623 0 0.00025019381776970781 0.022892952043959643 0 0.0027950573945049358 0.018070141990654164 0 0.00302976781800404 0.018166851042845985 0 0.0031796616205570284 0.017636773586095215 0 0.0011517893518429951 0.020643690595386729 0 0.0022047003838370342 0.019540199609474063 0 0.0021399631962180001 0.017936038610240151 0 0.0027950573945049358 0.018070141990654164 0 0.0030548665851710456 0.018214477625191048 0 0.00040748137199637599 0.023086795704201787 0 0.00025019381776970781 0.022892952043959643 0 -8.8014486492746421e-08 0.022958934994365 0 7.7099061527937003e-05 0.022779728228788307 0 0.00025019381776970781 0.022892952043959643 0 -8.8014486492746421e-08 0.022958934994365 0 0.0024718138399689106 0.018755137273044183 0 0.0022047003838370342 0.019540199609474063 0 0.0003580613619643944 0.023153610801600846 0 0.00041243315588987927 0.02310297216892946 0 0.00039449971944635582 0.023091709192973875 0 0.00045835777253844029 0.022982764558401623 0 0.00041243315588987927 0.02310297216892946 0 0.00039449971944635582 0.023091709192973875 0 0.00043529726145077327 0.023214521339909887 0 0.00045835777253844029 0.022982764558401623 0 0.00041243315588987927 0.02310297216892946 0 0.00040748137199637599 0.023086795704201787 0 0.00045835777253844029 0.022982764558401623 0 0.00039449971944635582 0.023091709192973875 0 0.00036324802741129458 0.0231225411044228 0 0.00039449971944635582 0.023091709192973875 0 0.00031170226521221522 0.023191421597859942 0 0.0003580613619643944 0.023153610801600846 0 0.00039449971944635582 0.023091709192973875 0 0.00031170226521221522 0.023191421597859942 0 0.0003580613619643944 0.023153610801600846 0 0.00031170226521221522 0.023191421597859942 0 0.00031954859777557536 0.023203865602274693 0 0.00031170226521221522 0.023191421597859942 0 0.00027865911383409396 0.023242404072324547 0 0.00031954859777557536 0.023203865602274693 0 0.00025765066505474007 0.023275847592310588 0 0.00031170226521221522 0.023191421597859942 0 0.00027865911383409396 0.023242404072324547 0 0.00027715350763786976 0.024174440872002968 0 0.00030050586862216558 0.024252294200920104 0 0.00027945406703649289 0.025098426402988764 0 0.0003324075554202281 0.025447670574196148 0 5.3382013832446668e-05 0.025500625299099241 0 0.0003324075554202281 0.025447670574196148 0 0.00024939785885524397 0.025617997382631621 0 5.3382013832446668e-05 0.025500625299099241 0 0.0003088312301787101 0.025606546454636885 0 0.0003324075554202281 0.025447670574196148 0 0.00024939785885524397 0.025617997382631621 0 0.00036917608376967244 0.023229218545076785 0 0.0003655389218257577 0.023195429321497624 0 0.00031954859777557536 0.023203865602274693 0 0.00035499327176161322 0.024758047885273388 0 0.00030050586862216558 0.024252294200920104 0 5.3382013832446668e-05 0.025500625299099241 0 -0.00021185829694066874 0.025234256589346155 0 -0.00055093407253948505 0.02573014958799745 0 0.00024939785885524397 0.025617997382631621 0 -0.00010276131887608316 0.025763694804313064 0 5.3382013832446668e-05 0.025500625299099241 0 -0.00010276131887608316 0.025763694804313064 0 5.3382013832446668e-05 0.025500625299099241 0 -0.00055093407253948505 0.02573014958799745 0 -0.0009531387895647201 0.025761580883745465 0 -0.00096460274186813014 0.025770716243296403 0 0.00027945406703649289 0.025098426402988764 0 5.3382013832446668e-05 0.025500625299099241 0 -0.00021185829694066874 0.025234256589346155 0 0.00018578583312117892 0.023385604757546637 0 0.00025765066505474007 0.023275847592310588 0 0.00027865911383409396 0.023242404072324547 0 0.00013130539014579297 0.023926814792427618 0 0.00027715350763786976 0.024174440872002968 0 0.00014053511862365258 0.024531220697066723 0 0.00027945406703649289 0.025098426402988764 0 -0.00021185829694066874 0.025234256589346155 0 -0.00048799815383090983 0.024325879666473031 0 0.00014053511862365258 0.024531220697066723 0 -0.00053669421376173118 0.024914851057109028 0 0.00014053511862365258 0.024531220697066723 0 -0.00021185829694066874 0.025234256589346155 0 -0.00053669421376173118 0.024914851057109028 0 -0.00093147294912680908 0.024614649668924314 0 -0.00048799815383090983 0.024325879666473031 0 -0.00053669421376173118 0.024914851057109028 0 -0.00053669421376173118 0.024914851057109028 0 -0.00070978777240390345 0.025386436113378437 0 -0.0010116312519710636 0.025089885775931575 0 -0.00021185829694066874 0.025234256589346155 0 -0.00053669421376173118 0.024914851057109028 0 -0.00070978777240390345 0.025386436113378437 0 -0.00070978777240390345 0.025386436113378437 0 -0.0010556551529560321 0.025362953671991879 0 -0.0012065788971850288 0.025601907500275817 0 -0.0010556551529560321 0.025362953671991879 0 -0.0012650825986789465 0.025481351147871222 0 -0.0012065788971850288 0.025601907500275817 0 -0.00070978777240390345 0.025386436113378437 0 -0.0010556551529560321 0.025362953671991879 0 -0.0010116312519710636 0.025089885775931575 0 -0.0010556551529560321 0.025362953671991879 0 -0.0010116312519710636 0.025089885775931575 0 -0.0013272306106694772 0.025357463547779707 0 -0.00093147294912680908 0.024614649668924314 0 -0.0010116312519710636 0.025089885775931575 0 -0.0012996538383541676 0.025050762521668702 0 -0.00093147294912680908 0.024614649668924314 0 -0.00053669421376173118 0.024914851057109028 0 -0.0010116312519710636 0.025089885775931575 0 -0.0010116312519710636 0.025089885775931575 0 -0.0012996538383541676 0.025050762521668702 0 -0.0013272306106694772 0.025357463547779707 0 -0.0013508458511477652 0.024433663988678477 0 -0.00093147294912680908 0.024614649668924314 0 -0.0012996538383541676 0.025050762521668702 0 -0.0016478740777614617 0.025194384823241132 0 -0.0016704235061536059 0.025245539303048882 0 -0.0021594546635429392 0.026042035187357305 0 -0.0016333187837138177 0.025252865435392426 0 -0.0016571473944415236 0.025255544926386028 0 -0.0013508458511477652 0.024433663988678477 0 -0.0016333187837138177 0.025252865435392426 0 -0.0012996538383541676 0.025050762521668702 0 -0.0016333187837138177 0.025252865435392426 0 -0.0012996538383541676 0.025050762521668702 0 -0.0014411860553994319 0.025316733451915444 0 -0.0010324099600188905 0.030256412629605954 0 -0.0009567643007587066 0.030177834636145533 0 -0.0008891896561220667 0.030262974850829419 0 -0.0010324099600188905 0.030256412629605954 0 -0.001046611283917232 0.030161383654148895 0 -0.0009567643007587066 0.030177834636145533 0 -0.0010324099600188905 0.030256412629605954 0 -0.0011279647280686396 0.030215579230483413 0 -0.001046611283917232 0.030161383654148895 0 -0.0011279647280686396 0.030215579230483413 0 -0.001046611283917232 0.030161383654148895 0 -0.0010725666211121785 0.02996041318309154 0 -0.001046611283917232 0.030161383654148895 0 -0.00095775950737272888 0.030076829136459138 0 -0.0010725666211121785 0.02996041318309154 0 -0.0009567643007587066 0.030177834636145533 0 -0.0008891896561220667 0.030262974850829419 0 -0.0008330889122358659 0.030071626485530738 0 -0.001046611283917232 0.030161383654148895 0 -0.0009567643007587066 0.030177834636145533 0 -0.00095775950737272888 0.030076829136459138 0 -0.0009567643007587066 0.030177834636145533 0 -0.00095775950737272888 0.030076829136459138 0 -0.0008330889122358659 0.030071626485530738 0 -0.0010725666211121785 0.02996041318309154 0 -0.001065800524032174 0.029735236660540489 0 -0.0013868238459684259 0.029395246135209364 0 -0.0011279647280686396 0.030215579230483413 0 -0.0010725666211121785 0.02996041318309154 0 -0.0013868238459684259 0.029395246135209364 0 -0.000857533214297878 0.029913197866322985 0 -0.00087280747052735619 0.029722038006610815 0 -0.00067504758377507246 0.029827902923178062 0 -0.00095775950737272888 0.030076829136459138 0 -0.000857533214297878 0.029913197866322985 0 -0.0008330889122358659 0.030071626485530738 0 -0.00095775950737272888 0.030076829136459138 0 -0.000857533214297878 0.029913197866322985 0 -0.00096964775927504629 0.029908753970138618 0 -0.000857533214297878 0.029913197866322985 0 -0.00096964775927504629 0.029908753970138618 0 -0.00087280747052735619 0.029722038006610815 0 -0.00096964775927504629 0.029908753970138618 0 -0.001065800524032174 0.029735236660540489 0 -0.00087280747052735619 0.029722038006610815 0 -0.00096964775927504629 0.029908753970138618 0 -0.0010725666211121785 0.02996041318309154 0 -0.001065800524032174 0.029735236660540489 0 -0.00095775950737272888 0.030076829136459138 0 -0.00096964775927504629 0.029908753970138618 0 -0.0010725666211121785 0.02996041318309154 0 -0.0010055796250214659 0.029529286452706738 0 -0.001065800524032174 0.029735236660540489 0 -0.0013868238459684259 0.029395246135209364 0 -0.0010055796250214659 0.029529286452706738 0 -0.001065800524032174 0.029735236660540489 0 -0.00087280747052735619 0.029722038006610815 0 -0.0010055796250214659 0.029529286452706738 0 -0.00087280747052735619 0.029722038006610815 0 -0.00082321154315939497 0.029495446535352521 0 -0.00087280747052735619 0.029722038006610815 0 -0.00082321154315939497 0.029495446535352521 0 -0.00064753145417719858 0.029572518844569146 0 -0.0016333187837138177 0.025252865435392426 0 -0.0014411860553994319 0.025316733451915444 0 -0.0013873477919590211 0.025572271718789272 0 -0.0013866305535795735 0.027727071374980407 0 -0.0013860268548458409 0.027460552932915133 0 -0.0016333187837138177 0.025252865435392426 0 -0.0016571473944415236 0.025255544926386028 0 -0.0013873477919590211 0.025572271718789272 0 -0.0013272306106694772 0.025357463547779707 0 -0.0014411860553994319 0.025316733451915444 0 -0.0013873477919590211 0.025572271718789272 0 -0.0012996538383541676 0.025050762521668702 0 -0.0013272306106694772 0.025357463547779707 0 -0.0014411860553994319 0.025316733451915444 0 -0.0013272306106694772 0.025357463547779707 0 -0.0012650825986789465 0.025481351147871222 0 -0.0013873477919590211 0.025572271718789272 0 -0.0010556551529560321 0.025362953671991879 0 -0.0013272306106694772 0.025357463547779707 0 -0.0012650825986789465 0.025481351147871222 0 -0.0012650825986789465 0.025481351147871222 0 -0.0012065788971850288 0.025601907500275817 0 -0.0013873477919590211 0.025572271718789272 0 -0.0013860268548458409 0.027460552932915133 0 -0.0013003148417839797 0.026780714506324965 0 -0.0013868238459684259 0.029395246135209364 0 -0.00091552077139652388 0.028767043784686822 0 -0.001465440284727832 0.027827598300409071 0 -0.0012065788971850288 0.025601907500275817 0 -0.0013873477919590211 0.025572271718789272 0 -0.0012122740757450222 0.025739637567629637 0 -0.00082321154315939497 0.029495446535352521 0 -0.00092122728280422236 0.029263965348053426 0 -0.00061408114444151424 0.029334449697512879 0 -0.00092122728280422236 0.029263965348053426 0 -0.00063571075080657289 0.029062454574786744 0 -0.00061408114444151424 0.029334449697512879 0 -0.00082321154315939497 0.029495446535352521 0 -0.00064753145417719858 0.029572518844569146 0 -0.00061408114444151424 0.029334449697512879 0 -0.0010055796250214659 0.029529286452706738 0 -0.00082321154315939497 0.029495446535352521 0 -0.00092122728280422236 0.029263965348053426 0 -0.0010055796250214659 0.029529286452706738 0 -0.0013868238459684259 0.029395246135209364 0 -0.00092122728280422236 0.029263965348053426 0 -0.0013868238459684259 0.029395246135209364 0 -0.00092122728280422236 0.029263965348053426 0 -0.00091552077139652388 0.028767043784686822 0 -0.00091552077139652388 0.028767043784686822 0 -0.00062208042732307201 0.028710607726336757 0 -0.00063571075080657289 0.029062454574786744 0 -0.00092122728280422236 0.029263965348053426 0 -0.00091552077139652388 0.028767043784686822 0 -0.00063571075080657289 0.029062454574786744 0 -0.00062208042732307201 0.028710607726336757 0 -0.00063571075080657289 0.029062454574786744 0 -0.00044662408666522655 0.028852960532640661 0 -0.00091552077139652388 0.028767043784686822 0 -0.00056188440764305052 0.028171808706538123 0 -0.001465440284727832 0.027827598300409071 0 -0.00056188440764305052 0.028171808706538123 0 -0.001465440284727832 0.027827598300409071 0 -0.00058073034342633566 0.027016825125925435 0 -0.00091552077139652388 0.028767043784686822 0 -0.00062208042732307201 0.028710607726336757 0 -0.00056188440764305052 0.028171808706538123 0 -0.00040942478947066389 0.028539912685880662 0 -0.00056188440764305052 0.028171808706538123 0 -0.00023756799370169796 0.028373205865432002 0 -0.00062208042732307201 0.028710607726336757 0 -0.00040942478947066389 0.028539912685880662 0 -0.00056188440764305052 0.028171808706538123 0 -0.00062208042732307201 0.028710607726336757 0 -0.00040942478947066389 0.028539912685880662 0 -0.00044662408666522655 0.028852960532640661 0 -0.00056188440764305052 0.028171808706538123 0 -0.00023756799370169796 0.028373205865432002 0 -0.00018608588708661806 0.028116611241949956 0 -0.00056188440764305052 0.028171808706538123 0 -0.00018608588708661806 0.028116611241949956 0 -5.6685093200815497e-05 0.02760079167001828 0 -0.0013873477919590211 0.025572271718789272 0 -0.0012144305578906276 0.025758640141009922 0 -0.0012122740757450222 0.025739637567629637 0 -0.0012144305578906276 0.025758640141009922 0 -0.0012122740757450222 0.025739637567629637 0 -0.0011784704494854979 0.025717405112689228 0 -0.0012122740757450222 0.025739637567629637 0 -0.0013184089086492308 0.025859687872402375 0 -0.0011784704494854979 0.025717405112689228 0 -0.00021185829694066874 0.025234256589346155 0 -0.00070978777240390345 0.025386436113378437 0 -0.00055093407253948505 0.02573014958799745 0 -0.0012105152461949387 0.025604757210607461 0 -0.00096460274186813014 0.025770716243296403 0 -0.0012065788971850288 0.025601907500275817 0 -0.0012122740757450222 0.025739637567629637 0 -0.0013184089086492308 0.025859687872402375 0 -0.00070978777240390345 0.025386436113378437 0 -0.0012065788971850288 0.025601907500275817 0 -0.00055093407253948505 0.02573014958799745 0 -0.00062617346452082886 0.039089794038285448 0 0.00086850428640793381 0.035650901885253002 0 0.0017092509908794356 0.038514247415916004 0 0.00086850428640793381 0.035650901885253002 0 0.003003212822799584 0.035806424292378868 0 0.0017092509908794356 0.038514247415916004 0 0.00086850428640793381 0.035650901885253002 0 0.00057554788101304673 0.032020201008135199 0 0.003003212822799584 0.035806424292378868 0 0.00044045850478011827 0.031161746693607262 0 0.00057554788101304673 0.032020201008135199 0 0.00031740163987736808 0.03119163007785777 0 0.00057554788101304673 0.032020201008135199 0 0.00031740163987736808 0.03119163007785777 0 0.00033455953510087578 0.030371472475870426 0 0.00052380682297972412 0.031972908134468958 0 0.0016997199011633223 0.03316193775296386 0 0.00031740163987736808 0.03119163007785777 0 -0.00012622615670405905 0.030579808644949139 0 0.00033455953510087578 0.030371472475870426 0 2.358449406658702e-05 0.03090874750501765 0 0.00031740163987736808 0.03119163007785777 0 -0.00012622615670405905 0.030579808644949139 0 -0.00039171475479235013 0.030706191449703032 0 2.358449406658702e-05 0.03090874750501765 0 -0.00012622615670405905 0.030579808644949139 0 -0.00012622615670405905 0.030579808644949139 0 0.00033455953510087578 0.030371472475870426 0 -0.00010096957141402082 0.030213939715685315 0 0.003003212822799584 0.035806424292378868 0 0.004202173520217416 0.037959317292841091 0 0.0017092509908794356 0.038514247415916004 0 0.00033455953510087578 0.030371472475870426 0 -5.6727253936198052e-05 0.029917130982685912 0 2.1574723644467862e-05 0.029728993578004782 0 0.00033455953510087578 0.030371472475870426 0 -5.6727253936198052e-05 0.029917130982685912 0 -0.00010096957141402082 0.030213939715685315 0 0.0016997199011633223 0.03316193775296386 0 0.0012082334727947623 0.033000116593903693 0 -5.6727253936198052e-05 0.029917130982685912 0 -0.00012479142652784282 0.029622115633966606 0 -0.00028234935303434329 0.029974467555245202 0 -5.6727253936198052e-05 0.029917130982685912 0 -0.00012479142652784282 0.029622115633966606 0 0.00012673478100463375 0.029623852323845755 0 0.0011667599323813547 0.030605734128850259 0 0.0012082334727947623 0.033000116593903693 0 -0.00012479142652784282 0.029622115633966606 0 -0.00031246854261206362 0.029722831336161635 0 -0.00026864639919903981 0.029409064111498847 0 -0.00012479142652784282 0.029622115633966606 0 -0.00031246854261206362 0.029722831336161635 0 -0.00028234935303434329 0.029974467555245202 0 -0.00031246854261206362 0.029722831336161635 0 -0.00028234935303434329 0.029974467555245202 0 -0.00049150362997344007 0.029909274820988829 0 -0.00028234935303434329 0.029974467555245202 0 -0.00049192247721827986 0.030169617930730815 0 -0.00049150362997344007 0.029909274820988829 0 -0.00028234935303434329 0.029974467555245202 0 -0.00030699855670497634 0.030267760355218998 0 -0.00049192247721827986 0.030169617930730815 0 -5.6727253936198052e-05 0.029917130982685912 0 -0.00028234935303434329 0.029974467555245202 0 -0.00010096957141402082 0.030213939715685315 0 -0.00028234935303434329 0.029974467555245202 0 -0.00010096957141402082 0.030213939715685315 0 -0.00030699855670497634 0.030267760355218998 0 -0.00012622615670405905 0.030579808644949139 0 -0.00010096957141402082 0.030213939715685315 0 -0.00030699855670497634 0.030267760355218998 0 -0.00012622615670405905 0.030579808644949139 0 -0.00030699855670497634 0.030267760355218998 0 -0.00045771860064998973 0.030425804997007224 0 -0.00039171475479235013 0.030706191449703032 0 -0.00012622615670405905 0.030579808644949139 0 -0.00045771860064998973 0.030425804997007224 0 -0.00070999321954275942 0.030494124603670018 0 -0.00045771860064998973 0.030425804997007224 0 -0.00068824496412246109 0.030291342562431035 0 -0.00045771860064998973 0.030425804997007224 0 -0.00049192247721827986 0.030169617930730815 0 -0.00068824496412246109 0.030291342562431035 0 -0.00030699855670497634 0.030267760355218998 0 -0.00045771860064998973 0.030425804997007224 0 -0.00049192247721827986 0.030169617930730815 0 -0.00049192247721827986 0.030169617930730815 0 -0.00068824496412246109 0.030291342562431035 0 -0.00068186790743679482 0.030101032711380649 0 -0.00086744872889203141 0.030350164177551955 0 -0.00068824496412246109 0.030291342562431035 0 -0.0008891896561220667 0.030262974850829419 0 -0.00068824496412246109 0.030291342562431035 0 -0.0008891896561220667 0.030262974850829419 0 -0.00068186790743679482 0.030101032711380649 0 -0.0008891896561220667 0.030262974850829419 0 -0.00068186790743679482 0.030101032711380649 0 -0.0008330889122358659 0.030071626485530738 0 -0.00068186790743679482 0.030101032711380649 0 -0.0008330889122358659 0.030071626485530738 0 -0.00067504758377507246 0.029827902923178062 0 -0.000857533214297878 0.029913197866322985 0 -0.0008330889122358659 0.030071626485530738 0 -0.00067504758377507246 0.029827902923178062 0 -0.00068186790743679482 0.030101032711380649 0 -0.00067504758377507246 0.029827902923178062 0 -0.00049150362997344007 0.029909274820988829 0 -0.00049192247721827986 0.030169617930730815 0 -0.00068186790743679482 0.030101032711380649 0 -0.00049150362997344007 0.029909274820988829 0 -0.00067504758377507246 0.029827902923178062 0 -0.00049150362997344007 0.029909274820988829 0 -0.00046904844193410201 0.029640203523162878 0 -0.00031246854261206362 0.029722831336161635 0 -0.00049150362997344007 0.029909274820988829 0 -0.00046904844193410201 0.029640203523162878 0 -0.00031246854261206362 0.029722831336161635 0 -0.00046904844193410201 0.029640203523162878 0 -0.00026864639919903981 0.029409064111498847 0 -0.00046904844193410201 0.029640203523162878 0 -0.00064753145417719858 0.029572518844569146 0 -0.00043526708021430236 0.029365974420550504 0 -0.00087280747052735619 0.029722038006610815 0 -0.00067504758377507246 0.029827902923178062 0 -0.00064753145417719858 0.029572518844569146 0 -0.00067504758377507246 0.029827902923178062 0 -0.00046904844193410201 0.029640203523162878 0 -0.00064753145417719858 0.029572518844569146 0 -0.00043526708021430236 0.029365974420550504 0 -0.00027872956001480115 0.029153163873095068 0 -0.00043679220603064299 0.02910930602881015 0 -0.00061408114444151424 0.029334449697512879 0 -0.00043526708021430236 0.029365974420550504 0 -0.00043679220603064299 0.02910930602881015 0 -0.00063571075080657289 0.029062454574786744 0 -0.00061408114444151424 0.029334449697512879 0 -0.00043679220603064299 0.02910930602881015 0 -0.00064753145417719858 0.029572518844569146 0 -0.00061408114444151424 0.029334449697512879 0 -0.00043526708021430236 0.029365974420550504 0 -0.00046904844193410201 0.029640203523162878 0 -0.00043526708021430236 0.029365974420550504 0 -0.00026864639919903981 0.029409064111498847 0 -0.00043526708021430236 0.029365974420550504 0 -0.00026864639919903981 0.029409064111498847 0 -0.00027872956001480115 0.029153163873095068 0 -0.00026864639919903981 0.029409064111498847 0 -0.00027872956001480115 0.029153163873095068 0 -3.9635686162680984e-05 0.029021564102256116 0 -0.00026584060534902421 0.028876558139395079 0 -0.00020414247247728393 0.028543205338495886 0 -3.9635686162680984e-05 0.029021564102256116 0 -0.00027872956001480115 0.029153163873095068 0 -0.00026584060534902421 0.028876558139395079 0 -3.9635686162680984e-05 0.029021564102256116 0 -0.00026584060534902421 0.028876558139395079 0 -0.00043679220603064299 0.02910930602881015 0 -0.00044662408666522655 0.028852960532640661 0 -0.00026584060534902421 0.028876558139395079 0 -0.00044662408666522655 0.028852960532640661 0 -0.00020414247247728393 0.028543205338495886 0 -0.00027872956001480115 0.029153163873095068 0 -0.00026584060534902421 0.028876558139395079 0 -0.00043679220603064299 0.02910930602881015 0 -0.00063571075080657289 0.029062454574786744 0 -0.00043679220603064299 0.02910930602881015 0 -0.00044662408666522655 0.028852960532640661 0 -0.00040942478947066389 0.028539912685880662 0 -0.00044662408666522655 0.028852960532640661 0 -0.00020414247247728393 0.028543205338495886 0 0.00045438817889500294 0.031535334749357706 0 0.00055205164383655169 0.031653495209638428 0 0.0005887122778807653 0.031507447930645506 0 -0.00020414247247728393 0.028543205338495886 0 -0.00023756799370169796 0.028373205865432002 0 -7.9504381311692633e-05 0.028189371727820507 0 -0.00040942478947066389 0.028539912685880662 0 -0.00020414247247728393 0.028543205338495886 0 -0.00023756799370169796 0.028373205865432002 0 -0.00023756799370169796 0.028373205865432002 0 -0.00018608588708661806 0.028116611241949956 0 -7.9504381311692633e-05 0.028189371727820507 0 0.00036521119250313886 0.029585687789221462 0 -0.00038386664685093112 0.028178522729581237 0 -0.00018608588708661806 0.028116611241949956 0 -7.9504381311692633e-05 0.028189371727820507 0 -5.6685093200815497e-05 0.02760079167001828 0 -0.00020414247247728393 0.028543205338495886 0 -7.9504381311692633e-05 0.028189371727820507 0 -3.9635686162680984e-05 0.029021564102256116 0 0.00036521119250313886 0.029585687789221462 0 -1.5618514718502218e-05 0.030031201621374962 0 0.00055205164383655169 0.031653495209638428 0 0.00072257104147675365 0.031587202217522203 0 0.0005887122778807653 0.031507447930645506 0 0.00055205164383655169 0.031653495209638428 0 0.00066679906692273215 0.031783468703069674 0 0.00072257104147675365 0.031587202217522203 0 -0.00012479142652784282 0.029622115633966606 0 -0.00026864639919903981 0.029409064111498847 0 -3.9635686162680984e-05 0.029021564102256116 0 -0.00012479142652784282 0.029622115633966606 0 -3.9635686162680984e-05 0.029021564102256116 0 0.00012673478100463375 0.029623852323845755 0 -1.5618514718502218e-05 0.030031201621374962 0 0.0012082334727947623 0.033000116593903693 0 0.0012082334727947623 0.033000116593903693 0 0.0016529028043763324 0.036210821900590336 0 0.004202173520217416 0.037959317292841091 0 0.0024690765506532797 0.040329331171580031 0 0.0017092509908794356 0.038514247415916004 0 0.00035922977066686531 0.040228727222893779 0 0.0024690765506532797 0.040329331171580031 0 0.00064880715322057864 0.040933796576981596 0 0.00035922977066686531 0.040228727222893779 0 0.0024690765506532797 0.040329331171580031 0 0.0017092509908794356 0.038514247415916004 0 -0.00062617346452082886 0.039089794038285448 0 0.00035922977066686531 0.040228727222893779 0 0.0017092509908794356 0.038514247415916004 0 -2.8754416214342959e-05 0.04139723852622975 0 0.00087788697315966595 0.041371018593520499 0 -0.00026492375236186923 0.041422007250900741 0 0.00071425650953533106 0.031378755334575723 0 0.00073936900777590506 0.031419241085268612 0 0.00041336933245264627 0.031736818364175357 0 0.00084430021999869014 0.036194392324497844 0 1.8131280105818212e-05 0.036886457036623035 0 -2.8754416214342959e-05 0.04139723852622975 0 0.0002202201410564088 0.041245924580507382 0 0.00087788697315966595 0.041371018593520499 0 0.0024690765506532797 0.040329331171580031 0 0.00064880715322057864 0.040933796576981596 0 0.00087788697315966595 0.041371018593520499 0 0.0002202201410564088 0.041245924580507382 0 0.00064880715322057864 0.040933796576981596 0 0.00087788697315966595 0.041371018593520499 0 0.0016529028043763324 0.036210821900590336 0 0.00084430021999869014 0.036194392324497844 0 0.00072257104147675365 0.031587202217522203 0 0.00071425650953533106 0.031378755334575723 0 0.0006663095760537813 0.031414262353600682 0 0.00071425650953533106 0.031378755334575723 0 0.0006663095760537813 0.031414262353600682 0 0.00073936900777590506 0.031419241085268612 0 0.0006663095760537813 0.031414262353600682 0 0.00073936900777590506 0.031419241085268612 0 0.00064209414622205135 0.031321517450493733 0 0.00073936900777590506 0.031419241085268612 0 0.00064209414622205135 0.031321517450493733 0 0.00068883447778120927 0.031238375540711606 0 0.00075716121156835887 0.028866455191331724 0 0.0010493506907403062 0.027935759184218097 0 0.00064209414622205135 0.031321517450493733 0 0.00053181469175005559 0.031362683605224165 0 0.00061715931132188032 0.031189091789431234 0 0.0006663095760537813 0.031414262353600682 0 0.00064209414622205135 0.031321517450493733 0 0.00053181469175005559 0.031362683605224165 0 0.00072257104147675365 0.031587202217522203 0 0.0006663095760537813 0.031414262353600682 0 0.0005887122778807653 0.031507447930645506 0 0.0006663095760537813 0.031414262353600682 0 0.0005887122778807653 0.031507447930645506 0 0.00053181469175005559 0.031362683605224165 0 0.00047156205587634844 0.028020065520370268 0 0.00020350206252454928 0.02690940497843124 0 0.0010078795504866085 0.026200171889085685 0 0.00036521119250313886 0.029585687789221462 0 0.00075716121156835887 0.028866455191331724 0 0.00045438817889500294 0.031535334749357706 0 0.0005887122778807653 0.031507447930645506 0 0.00053181469175005559 0.031362683605224165 0 0.00020350206252454928 0.02690940497843124 0 0.0010078795504866085 0.026200171889085685 0 -9.5936535798472495e-05 0.026176234771117208 0 0.00047156205587634844 0.028020065520370268 0 0.00020350206252454928 0.02690940497843124 0 -5.6685093200815497e-05 0.02760079167001828 0 0.0010078795504866085 0.026200171889085685 0 -9.5936535798472495e-05 0.026176234771117208 0 0.00025247765942609069 0.025172017490288363 0 0.0010078795504866085 0.026200171889085685 0 0.0013395827107942531 0.025017444757818388 0 0.00025247765942609069 0.025172017490288363 0 0.00067327788208052571 0.024294866103145612 0 0.0013395827107942531 0.025017444757818388 0 0.00025247765942609069 0.025172017490288363 0 0.0010493506907403062 0.027935759184218097 0 0.00080337002197107717 0.028325237607549979 0 0.00067327788208052571 0.024294866103145612 0 0.0013395827107942531 0.025017444757818388 0 0.0016275307583502889 0.024065196964749954 0 0.00061715931132188032 0.031189091789431234 0 0.00080877715039885157 0.031128352349916854 0 0.00073476301948184109 0.031057385680855708 0 0.00064209414622205135 0.031321517450493733 0 0.00061715931132188032 0.031189091789431234 0 0.00068883447778120927 0.031238375540711606 0 0.00061715931132188032 0.031189091789431234 0 0.00068883447778120927 0.031238375540711606 0 0.00074582991303123887 0.031145740002456727 0 0.00073936900777590506 0.031419241085268612 0 0.00072962481429356845 0.031178995754329149 0 0.00074629704410566166 0.031104989144104353 0 0.00073936900777590506 0.031419241085268612 0 0.00068883447778120927 0.031238375540711606 0 0.00072962481429356845 0.031178995754329149 0 0.00068883447778120927 0.031238375540711606 0 0.00072962481429356845 0.031178995754329149 0 0.00074582991303123887 0.031145740002456727 0 0.00072962481429356845 0.031178995754329149 0 0.00074582991303123887 0.031145740002456727 0 0.00072672344700099305 0.031127310475647266 0 0.00061715931132188032 0.031189091789431234 0 0.00074582991303123887 0.031145740002456727 0 0.00080877715039885157 0.031128352349916854 0 0.0014612743977365176 0.030609208881360754 0 0.00080337002197107717 0.028325237607549979 0 0.00080877715039885157 0.031128352349916854 0 0.00068661527524998287 0.031130116885305096 0 0.00077879868419742889 0.03123218412079205 0 0.00074582991303123887 0.031145740002456727 0 0.00080877715039885157 0.031128352349916854 0 0.00068661527524998287 0.031130116885305096 0 0.00074582991303123887 0.031145740002456727 0 0.00068661527524998287 0.031130116885305096 0 0.00072672344700099305 0.031127310475647266 0 0.00068661527524998287 0.031130116885305096 0 0.00074629704410566166 0.031104989144104353 0 0.00072672344700099305 0.031127310475647266 0 0.00034103499204059658 0.031091433810401695 0 0.00068661527524998287 0.031130116885305096 0 0.00074629704410566166 0.031104989144104353 0 -0.00041926194784454432 0.035106969418791871 0 0.0008748549160052107 0.031039521331784729 0 0.00068661527524998287 0.031130116885305096 0 0.00064099834306459284 0.031312550172321721 0 0.00077879868419742889 0.03123218412079205 0 0.00034103499204059658 0.031091433810401695 0 0.00068661527524998287 0.031130116885305096 0 0.00064099834306459284 0.031312550172321721 0 -0.00041926194784454432 0.035106969418791871 0 1.8131280105818212e-05 0.036886457036623035 0 0.0006058246360241276 0.031618832434153372 0 0.0008748549160052107 0.031039521331784729 0 -0.0010635342660870331 0.040878689952224788 0 -0.00058330471840500658 0.041239982131422465 0 -0.00026492375236186923 0.041422007250900741 0 -4.9464091931709078e-05 0.032772879018319358 0 0.00052647669635931093 0.031963617689613005 0 0.00041336933245264627 0.031736818364175357 0 0.00073936900777590506 0.031419241085268612 0 0.00052647669635931093 0.031963617689613005 0 0.00041336933245264627 0.031736818364175357 0 0.00072962481429356845 0.031178995754329149 0 0.00074629704410566166 0.031104989144104353 0 0.00072672344700099305 0.031127310475647266 0 -0.00058330471840500658 0.041239982131422465 0 -0.00030751789900566753 0.041379993254942973 0 -0.00026492375236186923 0.041422007250900741 0 -0.00030751789900566753 0.041379993254942973 0 -2.8754416214342959e-05 0.04139723852622975 0 -0.00026492375236186923 0.041422007250900741 0 -0.0011395093267624599 0.025282955881859592 0 -0.0013320847810874795 0.025542131912946738 0 -0.00101114541536617 0.025727447212215003 0 -0.001803255936158639 0.025251524232888081 0 -0.0013320847810874795 0.025542131912946738 0 -0.0014191242834671171 0.024974141734855106 0 -0.0011395093267624599 0.025282955881859592 0 -0.0013320847810874795 0.025542131912946738 0 -0.0014191242834671171 0.024974141734855106 0 -0.0017860251392202786 0.025762996401176352 0 -0.0013184089086492308 0.025859687872402375 0 -0.0013320847810874795 0.025542131912946738 0 -0.0013184089086492308 0.025859687872402375 0 -0.0013320847810874795 0.025542131912946738 0 -0.0011784704494854979 0.025717405112689228 0 -0.0013320847810874795 0.025542131912946738 0 -0.0011784704494854979 0.025717405112689228 0 -0.00101114541536617 0.025727447212215003 0 -0.0013003148417839797 0.026780714506324965 0 -0.0010944209836878016 0.025833596981107217 0 -0.001465440284727832 0.027827598300409071 0 -0.00058073034342633566 0.027016825125925435 0 -0.00101114541536617 0.025727447212215003 0 -0.0012144305578906276 0.025758640141009922 0 -0.0011784704494854979 0.025717405112689228 0 -0.00101114541536617 0.025727447212215003 0 0.00020350206252454928 0.02690940497843124 0 -5.6685093200815497e-05 0.02760079167001828 0 -0.00058073034342633566 0.027016825125925435 0 -0.00056188440764305052 0.028171808706538123 0 -5.6685093200815497e-05 0.02760079167001828 0 -0.00058073034342633566 0.027016825125925435 0 0.00020350206252454928 0.02690940497843124 0 -0.00058073034342633566 0.027016825125925435 0 -9.5936535798472495e-05 0.026176234771117208 0 -0.00058073034342633566 0.027016825125925435 0 -9.5936535798472495e-05 0.026176234771117208 0 -0.00101114541536617 0.025727447212215003 0 -9.5936535798472495e-05 0.026176234771117208 0 -0.00101114541536617 0.025727447212215003 0 -0.000568095612577501 0.025044116481938123 0 -0.0011395093267624599 0.025282955881859592 0 -0.00101114541536617 0.025727447212215003 0 -0.000568095612577501 0.025044116481938123 0 -0.000568095612577501 0.025044116481938123 0 0.00025247765942609069 0.025172017490288363 0 -0.00020699708963749819 0.024355778342820759 0 -9.5936535798472495e-05 0.026176234771117208 0 -0.000568095612577501 0.025044116481938123 0 0.00025247765942609069 0.025172017490288363 0 0.00067327788208052571 0.024294866103145612 0 -0.00020699708963749819 0.024355778342820759 0 0.00023676845306922053 0.023707270841412241 0 0.00067327788208052571 0.024294866103145612 0 0.00025247765942609069 0.025172017490288363 0 -0.00020699708963749819 0.024355778342820759 0 -0.000568095612577501 0.025044116481938123 0 -0.00020699708963749819 0.024355778342820759 0 -0.0009070979238303752 0.02469988192583385 0 -0.00020699708963749819 0.024355778342820759 0 -0.0009070979238303752 0.02469988192583385 0 -0.00074304377559763493 0.024053889610078684 0 -0.0009070979238303752 0.02469988192583385 0 -0.0013051119537815562 0.024324906450179519 0 -0.00074304377559763493 0.024053889610078684 0 -0.0011395093267624599 0.025282955881859592 0 -0.000568095612577501 0.025044116481938123 0 -0.0009070979238303752 0.02469988192583385 0 -0.0011395093267624599 0.025282955881859592 0 -0.0009070979238303752 0.02469988192583385 0 -0.0014191242834671171 0.024974141734855106 0 -0.0018362357507911082 0.024677503171610094 0 -0.0014191242834671171 0.024974141734855106 0 -0.0013051119537815562 0.024324906450179519 0 -0.0009070979238303752 0.02469988192583385 0 -0.0014191242834671171 0.024974141734855106 0 -0.0013051119537815562 0.024324906450179519 0 -0.0017318276474851588 0.024272775256635484 0 -0.0013051119537815562 0.024324906450179519 0 -0.0015449770348454608 0.023910863208539451 0 -0.0013051119537815562 0.024324906450179519 0 -0.0015449770348454608 0.023910863208539451 0 -0.00082961981632511176 0.023432138234256283 0 -0.0015449770348454608 0.023910863208539451 0 -0.0015123807997246199 0.023403342322234209 0 -0.00082961981632511176 0.023432138234256283 0 -0.00082706332994042682 0.023332396142953547 0 -0.0010620142946867208 0.022943348816158272 0 -0.0015123807997246199 0.023403342322234209 0 -0.00082961981632511176 0.023432138234256283 0 -0.0013188460472405223 0.022810429255173448 0 -0.00036698712360057356 0.022918298278461698 0 -0.00082961981632511176 0.023432138234256283 0 -0.00085284936347918949 0.022737556819371087 0 -0.00036698712360057356 0.022918298278461698 0 -0.00082961981632511176 0.023432138234256283 0 -0.00026479238468437075 0.023572901021420744 0 -0.00082961981632511176 0.023432138234256283 0 -0.00074304377559763493 0.024053889610078684 0 -0.00026479238468437075 0.023572901021420744 0 -0.0013051119537815562 0.024324906450179519 0 -0.00082961981632511176 0.023432138234256283 0 -0.00074304377559763493 0.024053889610078684 0 -0.00020699708963749819 0.024355778342820759 0 -0.00074304377559763493 0.024053889610078684 0 -0.00026479238468437075 0.023572901021420744 0 -0.00020699708963749819 0.024355778342820759 0 -0.00026479238468437075 0.023572901021420744 0 0.00023676845306922053 0.023707270841412241 0 -0.00026479238468437075 0.023572901021420744 0 0.00023676845306922053 0.023707270841412241 0 0.00019512540217036357 0.022936306566794778 0 0.00019276299211981867 0.025632066408554394 0 0.00084771263348473898 0.026818534926089186 0 0.00023676845306922053 0.023707270841412241 0 0.00019512540217036357 0.022936306566794778 0 0.00082039751245053475 0.023479211018070302 0 -0.00036698712360057356 0.022918298278461698 0 -0.00026479238468437075 0.023572901021420744 0 0.00019512540217036357 0.022936306566794778 0 -0.00036698712360057356 0.022918298278461698 0 0.00019512540217036357 0.022936306566794778 0 -0.00021819148438565673 0.02234273202612919 0 4.5324098048034544e-06 0.028292179005898057 0 0.00042390731807243152 0.026850518771617371 0 -0.0003255138688053002 0.02519075420255228 0 0.00019276299211981867 0.025632066408554394 0 -0.00014805718354973086 0.023761998861158765 0 4.5324098048034544e-06 0.028292179005898057 0 0.00042390731807243152 0.026850518771617371 0 0.0007419798660057461 0.028511589472205095 0 0.00042390731807243152 0.026850518771617371 0 -0.0003255138688053002 0.02519075420255228 0 0.00031882849457864101 0.022865611550001056 0 0.00050056203963013866 0.026381746801022884 0 -0.00025964339940354436 0.023249706120194807 0 -0.00040483979906873408 0.02196642953544356 0 -0.00014805718354973086 0.023761998861158765 0 -0.00036537112583319469 0.021562971693842393 0 -0.00048001250272903981 0.02220098960610746 0 -0.00021819148438565673 0.02234273202612919 0 -0.00036537112583319469 0.021562971693842393 0 -0.0003255138688053002 0.02519075420255228 0 0.00031882849457864101 0.022865611550001056 0 -0.00036537112583319469 0.021562971693842393 0 -0.00062259024906337237 0.021869015228508339 0 -0.00046737455046005574 0.020373769793147686 0 -0.00036537112583319469 0.021562971693842393 0 -0.00062259024906337237 0.021869015228508339 0 -0.00048001250272903981 0.02220098960610746 0 -0.00062259024906337237 0.021869015228508339 0 -0.00085284936347918949 0.022737556819371087 0 -0.0012876841740498319 0.021991683155347271 0 -0.00062259024906337237 0.021869015228508339 0 -0.00048001250272903981 0.02220098960610746 0 -0.00085284936347918949 0.022737556819371087 0 -0.00036698712360057356 0.022918298278461698 0 -0.00048001250272903981 0.02220098960610746 0 -0.00021819148438565673 0.02234273202612919 0 -0.00036698712360057356 0.022918298278461698 0 -0.00048001250272903981 0.02220098960610746 0 -0.00085284936347918949 0.022737556819371087 0 0.00027506043693072303 0.032841423379060368 0 0.00066123455177129913 0.031937280857194925 0 0.00031120327453534099 0.032575820964528157 0 -0.00017010551248155997 0.033811547102555767 0 0.00027506043693072303 0.032841423379060368 0 0.00031120327453534099 0.032575820964528157 0 0.00066123455177129913 0.031937280857194925 0 0.00069826318381153725 0.031684965979517102 0 0.00031120327453534099 0.032575820964528157 0 0.00027506043693072303 0.032841423379060368 0 0.00066123455177129913 0.031937280857194925 0 0.00040763226361181429 0.032235844624069532 0 0.00019915099477408146 0.032296403359865666 0 0.00027506043693072303 0.032841423379060368 0 0.00040763226361181429 0.032235844624069532 0 0.00066123455177129913 0.031937280857194925 0 0.00040763226361181429 0.032235844624069532 0 0.00047018954477921158 0.031825873552143294 0 0.00019915099477408146 0.032296403359865666 0 0.00040763226361181429 0.032235844624069532 0 0.00047018954477921158 0.031825873552143294 0 0.00019915099477408146 0.032296403359865666 0 0.00016619082210453449 0.031604158025471375 0 0.00047018954477921158 0.031825873552143294 0 0.00047018954477921158 0.031825873552143294 0 0.00045530219189825004 0.031450121398427469 0 0.00065503785583061658 0.031554810391522817 0 0.00016619082210453449 0.031604158025471375 0 0.00047018954477921158 0.031825873552143294 0 0.00045530219189825004 0.031450121398427469 0 0.00034103499204059658 0.031091433810401695 0 0.00016619082210453449 0.031604158025471375 0 0.00045530219189825004 0.031450121398427469 0 0.00034103499204059658 0.031091433810401695 0 0.00045530219189825004 0.031450121398427469 0 0.00064099834306459284 0.031312550172321721 0 0.00064099834306459284 0.031312550172321721 0 0.00083292033311639689 0.031434672762484052 0 0.00077879868419742889 0.03123218412079205 0 0.00045530219189825004 0.031450121398427469 0 0.00064099834306459284 0.031312550172321721 0 0.00065503785583061658 0.031554810391522817 0 0.00064099834306459284 0.031312550172321721 0 0.00065503785583061658 0.031554810391522817 0 0.00083292033311639689 0.031434672762484052 0 0.00066123455177129913 0.031937280857194925 0 0.00047018954477921158 0.031825873552143294 0 0.00065503785583061658 0.031554810391522817 0 0.00066123455177129913 0.031937280857194925 0 0.00065503785583061658 0.031554810391522817 0 0.00083292033311639689 0.031434672762484052 0 0.00080877715039885157 0.031128352349916854 0 0.00077879868419742889 0.03123218412079205 0 0.00089018346271823375 0.031233322941482719 0 0.00083292033311639689 0.031434672762484052 0 0.00077879868419742889 0.03123218412079205 0 0.00089018346271823375 0.031233322941482719 0 0.00080877715039885157 0.031128352349916854 0 0.00090510052109570418 0.031175463140773123 0 0.00094863464072205913 0.031156897879897259 0 0.00080877715039885157 0.031128352349916854 0 0.00090510052109570418 0.031175463140773123 0 0.00089018346271823375 0.031233322941482719 0 0.00090510052109570418 0.031175463140773123 0 0.00089018346271823375 0.031233322941482719 0 0.0009301814053169164 0.031160408628886815 0 0.00090510052109570418 0.031175463140773123 0 0.0009301814053169164 0.031160408628886815 0 0.00093335037313349123 0.031163629907134546 0 0.0009301814053169164 0.031160408628886815 0 0.00098292613574424339 0.031049737434603885 0 0.00093335037313349123 0.031163629907134546 0 0.00083292033311639689 0.031434672762484052 0 0.00089018346271823375 0.031233322941482719 0 0.00098292613574424339 0.031049737434603885 0 0.00089018346271823375 0.031233322941482719 0 0.0009301814053169164 0.031160408628886815 0 0.00098292613574424339 0.031049737434603885 0 0.00083292033311639689 0.031434672762484052 0 0.00098292613574424339 0.031049737434603885 0 0.00089968215829992597 0.031297079477098089 0 0.00098292613574424339 0.031049737434603885 0 0.00089968215829992597 0.031297079477098089 0 0.0010118308392633563 0.030586374267212901 0 0.00066123455177129913 0.031937280857194925 0 0.00083292033311639689 0.031434672762484052 0 0.00089968215829992597 0.031297079477098089 0 0.00089968215829992597 0.031297079477098089 0 0.00069826318381153725 0.031684965979517102 0 0.00088920892211863801 0.030864167839593705 0 0.00066123455177129913 0.031937280857194925 0 0.00089968215829992597 0.031297079477098089 0 0.00069826318381153725 0.031684965979517102 0 0.00089968215829992597 0.031297079477098089 0 0.0010118308392633563 0.030586374267212901 0 0.00088920892211863801 0.030864167839593705 0 0.00098292613574424339 0.031049737434603885 0 0.0010118308392633563 0.030586374267212901 0 0.00069310648930422157 0.030315203136021332 0 0.0010118308392633563 0.030586374267212901 0 0.00069310648930422157 0.030315203136021332 0 0.001058239127411164 0.029574375739975043 0 0.00098292613574424339 0.031049737434603885 0 0.00093335037313349123 0.031163629907134546 0 0.00069310648930422157 0.030315203136021332 0 0.00093335037313349123 0.031163629907134546 0 0.00091210448531518047 0.031217182990710333 0 0.00069310648930422157 0.030315203136021332 0 0.00080337002197107717 0.028325237607549979 0 0.00084771263348473898 0.026818534926089186 0 0.00090510052109570418 0.031175463140773123 0 0.00093335037313349123 0.031163629907134546 0 0.00094863464072205913 0.031156897879897259 0 0.00072676723098879072 0.028666746334317164 0 0.00080337002197107717 0.028325237607549979 0 0.00067327788208052571 0.024294866103145612 0 0.0016275307583502889 0.024065196964749954 0 0.00082039751245053475 0.023479211018070302 0 0.00067327788208052571 0.024294866103145612 0 0.00023676845306922053 0.023707270841412241 0 0.00082039751245053475 0.023479211018070302 0 4.5324098048034544e-06 0.028292179005898057 0 0.00069310648930422157 0.030315203136021332 0 0.0007419798660057461 0.028511589472205095 0 0.00069310648930422157 0.030315203136021332 0 0.0007419798660057461 0.028511589472205095 0 0.001058239127411164 0.029574375739975043 0 0.00042390731807243152 0.026850518771617371 0 0.0012765418494041765 0.027424959841397017 0 0.00030339209290587742 0.024126401472988061 0 0.0007419798660057461 0.028511589472205095 0 0.0012765418494041765 0.027424959841397017 0 0.001058239127411164 0.029574375739975043 0 0.00042390731807243152 0.026850518771617371 0 0.0007419798660057461 0.028511589472205095 0 0.0012765418494041765 0.027424959841397017 0 0.0012765418494041765 0.027424959841397017 0 0.001058239127411164 0.029574375739975043 0 0.0008660044015272551 0.030113146584816949 0 0.001058239127411164 0.029574375739975043 0 0.00088920892211863801 0.030864167839593705 0 0.0008660044015272551 0.030113146584816949 0 0.0010118308392633563 0.030586374267212901 0 0.001058239127411164 0.029574375739975043 0 0.00088920892211863801 0.030864167839593705 0 0.00088920892211863801 0.030864167839593705 0 0.0005152825400050725 0.031556939119080779 0 0.0008660044015272551 0.030113146584816949 0 0.00069826318381153725 0.031684965979517102 0 0.00088920892211863801 0.030864167839593705 0 0.0005152825400050725 0.031556939119080779 0 0.0005152825400050725 0.031556939119080779 0 0.0008660044015272551 0.030113146584816949 0 -0.00014448088027433219 0.032130410037555727 0 0.0005152825400050725 0.031556939119080779 0 -4.7080456592489237e-05 0.0327907269299757 0 -0.00014448088027433219 0.032130410037555727 0 0.0005152825400050725 0.031556939119080779 0 -4.7080456592489237e-05 0.0327907269299757 0 0.00031120327453534099 0.032575820964528157 0 0.00069826318381153725 0.031684965979517102 0 0.0005152825400050725 0.031556939119080779 0 0.00031120327453534099 0.032575820964528157 0 -0.00017010551248155997 0.033811547102555767 0 -4.7080456592489237e-05 0.0327907269299757 0 0.00031120327453534099 0.032575820964528157 0 0.00022820647086290401 0.026115392271011884 0 0.0015663684642631375 0.024756104418476386 0 0.00031242224368665627 0.026349688515943836 0 -5.1364212986628861e-05 0.029385698569966794 0 0.00087087397105932581 0.028293413891671736 0 -0.00070874800157775782 0.032682915785247173 0 -0.00014448088027433219 0.032130410037555727 0 0.00049084093195571777 0.031739368582367936 0 0.0008660044015272551 0.030113146584816949 0 -0.00014448088027433219 0.032130410037555727 0 0.00049084093195571777 0.031739368582367936 0 0.0015663684642631375 0.024756104418476386 0 0.0010383287639960932 0.024215806509860958 0 0.00083786190852464155 0.023951271171522681 0 0.0010770839049323653 0.027680866289765422 0 0.00087087397105932581 0.028293413891671736 0 0.0012765418494041765 0.027424959841397017 0 0.0008660044015272551 0.030113146584816949 0 0.00049084093195571777 0.031739368582367936 0 0.0012765418494041765 0.027424959841397017 0 0.0015663684642631375 0.024756104418476386 0 0.0010383287639960932 0.024215806509860958 0 0.0012765418494041765 0.027424959841397017 0 0.0010383287639960932 0.024215806509860958 0 0.00030339209290587742 0.024126401472988061 0 0.0010383287639960932 0.024215806509860958 0 0.00030339209290587742 0.024126401472988061 0 0.00044487014860813685 0.02215243790297252 0 0.0010383287639960932 0.024215806509860958 0 0.00083786190852464155 0.023951271171522681 0 0.00044487014860813685 0.02215243790297252 0 9.725212653333358e-07 0.021460727236394934 0 0.00083786190852464155 0.023951271171522681 0 0.00044487014860813685 0.02215243790297252 0 9.725212653333358e-07 0.021460727236394934 0 0.00083786190852464155 0.023951271171522681 0 1.4196611827873486e-06 0.024708958977337749 0 0.0015663684642631375 0.024756104418476386 0 0.00083786190852464155 0.023951271171522681 0 0.00031242224368665627 0.026349688515943836 0 0.00083786190852464155 0.023951271171522681 0 1.4196611827873486e-06 0.024708958977337749 0 0.00031242224368665627 0.026349688515943836 0 -5.0329254835642933e-07 0.027958027849611225 0 1.4196611827873486e-06 0.024708958977337749 0 0.00031242224368665627 0.026349688515943836 0 -0.0011066019031737014 0.019828226649510783 0 -0.00024783969152549244 0.02115828872659108 0 -0.00029833734041793378 0.01762357759462272 0 -0.0011066019031737014 0.019828226649510783 0 -0.00081630807106109426 0.023546336529405482 0 -0.00024783969152549244 0.02115828872659108 0 -0.00036537112583319469 0.021562971693842393 0 0.00027140877249030507 0.019521793334594941 0 -0.00046737455046005574 0.020373769793147686 0 -0.00038856998790796177 0.019680844401792331 0 -0.00025964339940354436 0.023249706120194807 0 -0.00036537112583319469 0.021562971693842393 0 0.00027140877249030507 0.019521793334594941 0 0.00031882849457864101 0.022865611550001056 0 -0.00081630807106109426 0.023546336529405482 0 0.00030339209290587742 0.024126401472988061 0 -0.00024783969152549244 0.02115828872659108 0 0.00042390731807243152 0.026850518771617371 0 -0.00081630807106109426 0.023546336529405482 0 0.00030339209290587742 0.024126401472988061 0 0.00030339209290587742 0.024126401472988061 0 -0.00024783969152549244 0.02115828872659108 0 0.00044487014860813685 0.02215243790297252 0 -0.00024783969152549244 0.02115828872659108 0 9.8378822964225303e-05 0.019994444150687869 0 0.00044487014860813685 0.02215243790297252 0 -0.00024783969152549244 0.02115828872659108 0 9.8378822964225303e-05 0.019994444150687869 0 -0.00029833734041793378 0.01762357759462272 0 9.725212653333358e-07 0.021460727236394934 0 9.8378822964225303e-05 0.019994444150687869 0 0.00044487014860813685 0.02215243790297252 0 9.725212653333358e-07 0.021460727236394934 0 9.8378822964225303e-05 0.019994444150687869 0 3.5184947980024002e-07 0.018212513790697774 0 9.8378822964225303e-05 0.019994444150687869 0 3.5184947980024002e-07 0.018212513790697774 0 -0.00029833734041793378 0.01762357759462272 0 3.5184947980024002e-07 0.018212513790697774 0 -0.00029833734041793378 0.01762357759462272 0 -1.192314676142402e-06 0.014964775136208072 0 -0.0011066019031737014 0.019828226649510783 0 -0.00029833734041793378 0.01762357759462272 0 -0.00095877344066058116 0.015843146673754624 0 -0.00029833734041793378 0.01762357759462272 0 -1.192314676142402e-06 0.014964775136208072 0 -0.00028841694230885307 0.014646554270591495 0 -0.00028841694230885307 0.014646554270591495 0 1.4865776274274568e-06 0.011715199315237613 0 -0.00095877344066058116 0.015843146673754624 0 -1.192314676142402e-06 0.014964775136208072 0 -0.00028841694230885307 0.014646554270591495 0 1.4865776274274568e-06 0.011715199315237613 0 1.4865776274274568e-06 0.011715199315237613 0 -0.00095877344066058116 0.015843146673754624 0 -0.0002286867201619914 0.011794719860041276 0 0.00036534833662299227 0.016213676444932046 0 -0.0002286867201619914 0.011794719860041276 0 -0.001577658319679846 0.01494483214305449 0 -0.00024295188697641152 0.015929574643748078 0 -0.00044910870434730323 0.012362032681364253 0 -0.00029833734041793378 0.01762357759462272 0 -0.00028841694230885307 0.014646554270591495 0 -0.00095877344066058116 0.015843146673754624 0 -7.6268098599228954e-07 0.0084655392143267207 0 -0.002001116163267154 0.0088045674660299587 0 -3.8589001987159441e-06 0.0084600830477307501 0 -0.00085965092069844077 0.0037016927139619667 0 1.0024764212339402e-06 0.0052684476422011819 0 -8.3954536145208456e-06 0.0084732326879883024 0 -0.0002286867201619914 0.011794719860041276 0 -0.0037144901224488865 0.014383494943368415 0 1.4865776274274568e-06 0.011715199315237613 0 -8.3954536145208456e-06 0.0084732326879883024 0 -0.0002286867201619914 0.011794719860041276 0 -0.0002286867201619914 0.011794719860041276 0 -0.001577658319679846 0.01494483214305449 0 -0.0037144901224488865 0.014383494943368415 0 -0.001577658319679846 0.01494483214305449 0 -0.0037144901224488865 0.014383494943368415 0 -0.0028289278655984997 0.016294053509744666 0 -0.001577658319679846 0.01494483214305449 0 -0.0028289278655984997 0.016294053509744666 0 -0.0013504160379922494 0.016979994067469584 0 -0.0028289278655984997 0.016294053509744666 0 -0.0013504160379922494 0.016979994067469584 0 -0.0022673564672922313 0.017281005253933935 0 -0.0013504160379922494 0.016979994067469584 0 -0.0014753680918498269 0.017688626056283824 0 -0.0022673564672922313 0.017281005253933935 0 -0.0014753680918498269 0.017688626056283824 0 -0.0022673564672922313 0.017281005253933935 0 -0.0019840802208250029 0.018135909420923677 0 -0.0028289278655984997 0.016294053509744666 0 -0.0022673564672922313 0.017281005253933935 0 -0.0033723314558394613 0.017067179238588477 0 -0.0022673564672922313 0.017281005253933935 0 -0.0033723314558394613 0.017067179238588477 0 -0.0027693827079075502 0.018089111378187007 0 -0.00038856998790796177 0.019680844401792331 0 -0.00024295188697641152 0.015929574643748078 0 0.00027140877249030507 0.019521793334594941 0 0.00036534833662299227 0.016213676444932046 0 -0.00026194874563295113 0.018604161687358716 0 0.00036534833662299227 0.016213676444932046 0 -0.0013504160379922494 0.016979994067469584 0 -0.00026194874563295113 0.018604161687358716 0 0.00036534833662299227 0.016213676444932046 0 -0.001577658319679846 0.01494483214305449 0 -0.0013504160379922494 0.016979994067469584 0 -0.0013240541461159183 0.017320930832866462 0 -0.00075743980599115137 0.018566072465607607 0 -0.0013504160379922494 0.016979994067469584 0 -0.0014753680918498269 0.017688626056283824 0 -0.00074124713014815788 0.017681420869377493 0 -0.0013504160379922494 0.016979994067469584 0 -0.00026194874563295113 0.018604161687358716 0 -0.00091719258338310576 0.019791994874854751 0 -0.00026194874563295113 0.018604161687358716 0 -0.00091719258338310576 0.019791994874854751 0 -0.00046737455046005574 0.020373769793147686 0 0.00027140877249030507 0.019521793334594941 0 -0.00026194874563295113 0.018604161687358716 0 -0.00046737455046005574 0.020373769793147686 0 -0.00061239554243643145 0.020653847003394392 0 -0.00096508994179781544 0.020789934620734755 0 -0.00091719258338310576 0.019791994874854751 0 -0.00046737455046005574 0.020373769793147686 0 -0.00058558121287573251 0.020625706813793526 0 -0.00062259024906337237 0.021869015228508339 0 -0.00046737455046005574 0.020373769793147686 0 -0.0012876841740498319 0.021991683155347271 0 -0.00075743980599115137 0.018566072465607607 0 -0.00096508994179781544 0.020789934620734755 0 -0.0010620142946867208 0.022943348816158272 0 -0.00096508994179781544 0.020789934620734755 0 -0.0013188460472405223 0.022810429255173448 0 -0.00182677998007971 0.022136856789622409 0 -0.0020680204352421473 0.023049104466129084 0 -0.00096508994179781544 0.020789934620734755 0 -0.0011096691000758215 0.021396481727439427 0 0.0001114496630918116 0.018706607548466696 0 -0.000853009354833728 0.019463660483756914 0 -0.00023688581404199532 0.020095062778821355 0 -0.000853009354833728 0.019463660483756914 0 -0.0011287177565401712 0.01860012599844953 0 -0.0019059737895518862 0.019612875352589865 0 -0.000853009354833728 0.019463660483756914 0 -0.0019059737895518862 0.019612875352589865 0 -0.0011286790073988216 0.020320328408018555 0 0.0001114496630918116 0.018706607548466696 0 -0.000853009354833728 0.019463660483756914 0 -0.0011287177565401712 0.01860012599844953 0 -0.00074124713014815788 0.017681420869377493 0 0.0001114496630918116 0.018706607548466696 0 -0.0011287177565401712 0.01860012599844953 0 -0.0014753680918498269 0.017688626056283824 0 -0.00074124713014815788 0.017681420869377493 0 -0.0011287177565401712 0.01860012599844953 0 -0.0011287177565401712 0.01860012599844953 0 -0.0019840802208250029 0.018135909420923677 0 -0.0019059737895518862 0.019612875352589865 0 -0.0014753680918498269 0.017688626056283824 0 -0.0011287177565401712 0.01860012599844953 0 -0.0019840802208250029 0.018135909420923677 0 -0.0022673564672922313 0.017281005253933935 0 -0.0019840802208250029 0.018135909420923677 0 -0.0027693827079075502 0.018089111378187007 0 -0.0033723314558394613 0.017067179238588477 0 -0.0027693827079075502 0.018089111378187007 0 -0.0036153804633244978 0.019033863645421964 0 -0.0019840802208250029 0.018135909420923677 0 -0.0027693827079075502 0.018089111378187007 0 -0.0026897752242592281 0.018951133610094595 0 -0.0027693827079075502 0.018089111378187007 0 -0.0026897752242592281 0.018951133610094595 0 -0.0036153804633244978 0.019033863645421964 0 -0.0026897752242592281 0.018951133610094595 0 -0.0019059737895518862 0.019612875352589865 0 -0.0031482454858837907 0.019973072505490855 0 -0.0026897752242592281 0.018951133610094595 0 -0.0031482454858837907 0.019973072505490855 0 -0.0036153804633244978 0.019033863645421964 0 -0.0019840802208250029 0.018135909420923677 0 -0.0026897752242592281 0.018951133610094595 0 -0.0019059737895518862 0.019612875352589865 0 -0.0019059737895518862 0.019612875352589865 0 -0.0017007262880579656 0.020616187401647459 0 -0.0011286790073988216 0.020320328408018555 0 -0.0019059737895518862 0.019612875352589865 0 -0.002297684056475856 0.020318188537702453 0 -0.0017007262880579656 0.020616187401647459 0 -0.002297684056475856 0.020318188537702453 0 -0.0017007262880579656 0.020616187401647459 0 -0.0022587966006730135 0.021140758149402951 0 -0.0031592727010164904 0.020513411813818973 0 -0.0028168795742382793 0.020984754766201378 0 -0.0038806752037856703 0.020673798712204892 0 -0.0019059737895518862 0.019612875352589865 0 -0.002297684056475856 0.020318188537702453 0 -0.0031482454858837907 0.019973072505490855 0 -0.002297684056475856 0.020318188537702453 0 -0.0031482454858837907 0.019973072505490855 0 -0.0028371877238599326 0.020442677344883184 0 -0.002297684056475856 0.020318188537702453 0 -0.0028371877238599326 0.020442677344883184 0 -0.0028168795742382793 0.020984754766201378 0 -0.0028371877238599326 0.020442677344883184 0 -0.0031592727010164904 0.020513411813818973 0 -0.0028168795742382793 0.020984754766201378 0 -0.0031482454858837907 0.019973072505490855 0 -0.0031592727010164904 0.020513411813818973 0 -0.0038806752037856703 0.020673798712204892 0 -0.0031482454858837907 0.019973072505490855 0 -0.0028371877238599326 0.020442677344883184 0 -0.0031592727010164904 0.020513411813818973 0 -0.0030432416495579256 0.024126242662088657 0 -0.0029074230163822208 0.023752031439440231 0 -0.0033592349902639065 0.023579863914236356 0 -0.0028390913393316411 0.022381677550534575 0 -0.0025476899218602523 0.017604128170760961 0 -0.002297684056475856 0.020318188537702453 0 -0.0028168795742382793 0.020984754766201378 0 -0.0022587966006730135 0.021140758149402951 0 -0.0028390913393316411 0.022381677550534575 0 -0.0024374281501339918 0.022442020885073338 0 -0.0027021287138425808 0.024225082566582207 0 -0.0030432416495579256 0.024126242662088657 0 -0.0026843413856988433 0.023840002304629099 0 -0.0030432416495579256 0.024126242662088657 0 -0.0029074230163822208 0.023752031439440231 0 -0.0026843413856988433 0.023840002304629099 0 -0.0024185949046921502 0.024203269077638222 0 -0.0026843413856988433 0.023840002304629099 0 -0.0020101842765790569 0.024019671783135771 0 -0.0024374281501339918 0.022442020885073338 0 -0.0015127443883137413 0.023257817109234614 0 -0.0017007262880579656 0.020616187401647459 0 -0.0022587966006730135 0.021140758149402951 0 -0.00061277796293469065 0.021506163893663884 0 -0.0024185949046921502 0.024203269077638222 0 -0.0027021287138425808 0.024225082566582207 0 -0.0026843413856988433 0.023840002304629099 0 -0.0017007262880579656 0.020616187401647459 0 -0.00061277796293469065 0.021506163893663884 0 -0.0011286790073988216 0.020320328408018555 0 -0.0022764269747311771 0.023962298835532261 0 -0.0018224026075665328 0.023705438077549473 0 -0.0020680204352421473 0.023049104466129084 0 -0.0019856271080480568 0.02433094174540968 0 -0.002133135519482271 0.024024687712369198 0 -0.00194723711838389 0.024041787776900182 0 -0.0022764269747311771 0.023962298835532261 0 -0.00194723711838389 0.024041787776900182 0 -0.0018224026075665328 0.023705438077549473 0 -0.0015127443883137413 0.023257817109234614 0 -0.0019039998637824557 0.02355732241691948 0 -0.0015449770348454608 0.023910863208539451 0 -0.00194723711838389 0.024041787776900182 0 -0.0018224026075665328 0.023705438077549473 0 -0.0017318276474851588 0.024272775256635484 0 -0.0015449770348454608 0.023910863208539451 0 -0.00194723711838389 0.024041787776900182 0 -0.0015449770348454608 0.023910863208539451 0 -0.0015123807997246199 0.023403342322234209 0 -0.0018224026075665328 0.023705438077549473 0 -0.0015123807997246199 0.023403342322234209 0 -0.0013188460472405223 0.022810429255173448 0 -0.0020680204352421473 0.023049104466129084 0 -0.0015123807997246199 0.023403342322234209 0 -0.0018224026075665328 0.023705438077549473 0 -0.0020680204352421473 0.023049104466129084 0 -0.00061277796293469065 0.021506163893663884 0 -0.00023688581404199532 0.020095062778821355 0 -0.0011286790073988216 0.020320328408018555 0 -0.000853009354833728 0.019463660483756914 0 -0.00023688581404199532 0.020095062778821355 0 -0.0011286790073988216 0.020320328408018555 0 -0.0015127443883137413 0.023257817109234614 0 -0.0011096691000758215 0.021396481727439427 0 0.0006646832473091339 0.0084812969689228666 0 0.00095075312060814981 0.0032525469165776296 0 -2.9628917685426965e-05 0.01488623366154603 0 6.1803088641840319e-05 0.015020445362223073 0 0.00015293001936372773 0.014945399995796121 0 0.0004200243361375539 0.012815138443735967 0 0.00034538457399603561 0.012959798762380315 0 -0.00062390869673072341 0.012712214133449999 0 0.0006646832473091339 0.0084812969689228666 0 9.6914003902907431e-05 0.013869521864013915 0 0.0006646832473091339 0.0084812969689228666 0 0.0015501963590708063 0.0067375889838208174 0 0.0033939469705838252 -0.0014892533525257918 0 0.0036238859017939458 -0.0025212211344793978 0 0.0028448526097078677 -0.0016174147283026016 0 0.0034723006406419269 -0.00080909322929374164 0 0.001467741479430995 0.0020844511720543154 0 0.0018012066089713487 -0.0027865226567966458 0 0.0019820901983394362 -0.002975636608206171 0 0.0012028336173991339 -0.0029471212526145179 0 0.0036238859017939458 -0.0025212211344793978 0 0.0027953563560715899 -0.0016495239531436907 0 0.0022120299769240819 -0.0027884804185900293 0 0.00095075312060814981 0.0032525469165776296 0 0.001467741479430995 0.0020844511720543154 0 0.0015501963590708063 0.0067375889838208174 0 0.001467741479430995 0.0020844511720543154 0 0.0003373448869650626 0.0045598257225557748 0 -0.00022670102122754503 0.0056407800748160932 0 0.0012327637681544394 0.005995146969757701 0 0.0003373448869650626 0.0045598257225557748 0 0.0021967323706358413 0.0049529718803048052 0 0.0012327637681544394 0.005995146969757701 0 0.00095075312060814981 0.0032525469165776296 0 0.00072033027179068483 0.0011333358670448303 0 0.0018005448125701924 -0.0028074121982089415 0 0.0003711159384384921 -0.0024138932362050619 0 0.00031267748780639096 -0.0011908624643255628 0 0.0019820901983394362 -0.002975636608206171 0 0.0012028336173991339 -0.0029471212526145179 0 0.00043977645682163782 -0.0034340977899327153 0 0.001467741479430995 0.0020844511720543154 0 -8.0650402875499124e-06 -0.002925036802065472 0 0.0027953563560715899 -0.0016495239531436907 0 -0.00025360489584014246 -0.0024422690532058047 0 0.0022120299769240819 -0.0027884804185900293 0 0.00043977645682163782 -0.0034340977899327153 0 0.0003711159384384921 -0.0024138932362050619 0 -0.00043620861912562576 -0.0030574322396038954 0 0.0012028336173991339 -0.0029471212526145179 0 0.00043977645682163782 -0.0034340977899327153 0 0.0003711159384384921 -0.0024138932362050619 0 0.0018005448125701924 -0.0028074121982089415 0 0.0012028336173991339 -0.0029471212526145179 0 0.0003711159384384921 -0.0024138932362050619 0 0.00023805639669602531 0.0073539112468143739 0 0.00060423889821956979 0.0063643136529218528 0 -7.9597786576670914e-06 0.0070241412559203025 0 0.00095075312060814981 0.0032525469165776296 0 0.0002798547241013949 0.0026712451449357362 0 0.0003711159384384921 -0.0024138932362050619 0 0.00031267748780639096 -0.0011908624643255628 0 -0.00072530868704038165 -0.002374108448668269 0 -0.00013533605522959543 0.015187999640220464 0 -2.9628917685426965e-05 0.01488623366154603 0 -1.1531155426124575e-05 0.01510789240203997 0 0.00023805639669602531 0.0073539112468143739 0 0.00074655407554771942 0.0063987292845513761 0 0.00060423889821956979 0.0063643136529218528 0 -2.9628917685426965e-05 0.01488623366154603 0 -1.1531155426124575e-05 0.01510789240203997 0 6.1803088641840319e-05 0.015020445362223073 0 -2.857852200553897e-05 0.011366840050742519 0 0.0006646832473091339 0.0084812969689228666 0 5.3249134096350992e-05 0.015202287674237661 0 -1.1531155426124575e-05 0.01510789240203997 0 9.6933168235034954e-05 0.015147231215876083 0 -1.1531155426124575e-05 0.01510789240203997 0 9.6933168235034954e-05 0.015147231215876083 0 6.1803088641840319e-05 0.015020445362223073 0 5.8727585309451787e-06 0.015212135317662278 0 5.3249134096350992e-05 0.015202287674237661 0 -1.1531155426124575e-05 0.01510789240203997 0 0.00010262412678670316 0.015265320790918638 0 5.3249134096350992e-05 0.015202287674237661 0 9.6933168235034954e-05 0.015147231215876083 0 9.6933168235034954e-05 0.015147231215876083 0 0.00021651541540889857 0.015156111043452873 0 0.0001467201263002179 0.015057768944104983 0 0.00021651541540889857 0.015156111043452873 0 0.0001467201263002179 0.015057768944104983 0 0.00035825530039675492 0.014982986231182931 0 0.00016814177136584551 0.015253508103329814 0 9.6933168235034954e-05 0.015147231215876083 0 0.00021651541540889857 0.015156111043452873 0 0.00036248323778288657 0.015279652566093056 0 0.00016814177136584551 0.015253508103329814 0 0.00021651541540889857 0.015156111043452873 0 9.6933168235034954e-05 0.015147231215876083 0 6.1803088641840319e-05 0.015020445362223073 0 0.0001467201263002179 0.015057768944104983 0 6.1803088641840319e-05 0.015020445362223073 0 0.0001467201263002179 0.015057768944104983 0 0.00015293001936372773 0.014945399995796121 0 -0.0030432416495579256 0.024126242662088657 0 -0.0034566583475706611 0.024152567554549274 0 -0.0033592349902639065 0.023579863914236356 0 -0.0015500465610601743 0.019876566354063381 0 -0.0025476899218602523 0.017604128170760961 0 0.00036248323778288657 0.015279652566093056 0 0.00021651541540889857 0.015156111043452873 0 0.00035825530039675492 0.014982986231182931 0 -0.0031482454858837907 0.019973072505490855 0 -0.0038806752037856703 0.020673798712204892 0 -0.0036153804633244978 0.019033863645421964 0 -0.0035406885583347957 0.014163360923639181 0 -0.0031707624026130442 0.014751835815256104 0 -0.0037819438922855335 0.015873808775483476 0 -0.0025476899218602523 0.017604128170760961 0 -0.0038093417173997537 0.017401643445235201 0 -0.0035406885583347957 0.014163360923639181 0 -0.0031707624026130442 0.014751835815256104 0 -0.0025787978542647703 0.014360376756589063 0 -0.0025476899218602523 0.017604128170760961 0 -0.0018206413235916142 0.013424862471744847 0 -0.0025476899218602523 0.017604128170760961 0 9.6914003902907431e-05 0.013869521864013915 0 -0.0015923608315270691 0.01454014315987196 0 -0.0025787978542647703 0.014360376756589063 0 -0.0028401508086572012 0.015051181080597942 0 -0.0016748148798469288 0.012795725116409912 0 -0.00062390869673072341 0.012712214133449999 0 -0.00066988701310587769 0.012830108754115645 0 0.0001467201263002179 0.015057768944104983 0 0.00035825530039675492 0.014982986231182931 0 0.00015293001936372773 0.014945399995796121 0 0.00034538457399603561 0.012959798762380315 0 -0.00062390869673072341 0.012712214133449999 0 -0.00066988701310587769 0.012830108754115645 0 0.0015501963590708063 0.0067375889838208174 0 -0.0018206413235916142 0.013424862471744847 0 -0.0031707624026130442 0.014751835815256104 0 -0.0025787978542647703 0.014360376756589063 0 -0.0028401508086572012 0.015051181080597942 0 -0.0015923608315270691 0.01454014315987196 0 -0.0028463171665908641 0.015738873631500953 0 -0.0025764893111355804 0.016220011395735583 0 -0.0015923608315270691 0.01454014315987196 0 -0.0028401508086572012 0.015051181080597942 0 -0.0028463171665908641 0.015738873631500953 0 0.0015501963590708063 0.0067375889838208174 0 -0.00020112441753028306 0.0045426835865400019 0 -0.0028401508086572012 0.015051181080597942 0 -0.0028463171665908641 0.015738873631500953 0 -0.0037819438922855335 0.015873808775483476 0 -0.0028463171665908641 0.015738873631500953 0 -0.0037819438922855335 0.015873808775483476 0 -0.0032615525230628236 0.016169840168198994 0 -0.0031707624026130442 0.014751835815256104 0 -0.0028401508086572012 0.015051181080597942 0 -0.0037819438922855335 0.015873808775483476 0 -0.003384529156841952 0.017049787456160228 0 -0.0038093417173997537 0.017401643445235201 0 -0.0033723314558394613 0.017067179238588477 0 -0.0037819438922855335 0.015873808775483476 0 -0.0034080547641921798 0.01657930034947231 0 -0.0037819438922855335 0.015873808775483476 0 -0.0032615525230628236 0.016169840168198994 0 -0.0034080547641921798 0.01657930034947231 0 -0.0032615525230628236 0.016169840168198994 0 -0.0029947931703621106 0.01612999631253199 0 -0.0031209214664488878 0.016407037603419539 0 -0.0032615525230628236 0.016169840168198994 0 -0.0034080547641921798 0.01657930034947231 0 -0.0031209214664488878 0.016407037603419539 0 -0.0026212544377957705 0.016242495268983293 0 -0.0031209214664488878 0.016407037603419539 0 -0.0037935871000397926 0.016878242387413783 0 0.0057090013569335938 -0.0064901795878267643 0 0.0044994202477268682 -0.0069606721076442843 0 0.0038058664529088898 -0.004835936197630202 0 -0.00020112441753028306 0.0045426835865400019 0 -3.0340100304345739e-05 0.0050286488570988564 0 -0.0028463171665908641 0.015738873631500953 0 -0.0026899126349785134 0.016178577141743773 0 -0.0029947931703621106 0.01612999631253199 0 -0.0026212544377957705 0.016242495268983293 0 -0.0026899126349785134 0.016178577141743773 0 -0.0031209214664488878 0.016407037603419539 0 -0.0028463171665908641 0.015738873631500953 0 -0.0025764893111355804 0.016220011395735583 0 -0.0026899126349785134 0.016178577141743773 0 -0.0028463171665908641 0.015738873631500953 0 -0.0032615525230628236 0.016169840168198994 0 -0.0029947931703621106 0.01612999631253199 0 -0.0026899126349785134 0.016178577141743773 0 -0.0029947931703621106 0.01612999631253199 0 -0.0031209214664488878 0.016407037603419539 0 0.0044994202477268682 -0.0069606721076442843 0 0.0011387955839880779 -0.0073377713791157899 0 0.0023460714415660406 -0.0086258397050063482 0 0.0044994202477268682 -0.0069606721076442843 0 0.0014583596860133835 -0.0059315699984913116 0 0.0011387955839880779 -0.0073377713791157899 0 0.0057090013569335938 -0.0064901795878267643 0 0.0044994202477268682 -0.0069606721076442843 0 0.0023460714415660406 -0.0086258397050063482 0 8.5304085574239299e-05 0.0003885436525233969 0 0.00062656349886791346 0.00069818276293479628 0 0.00025754675758019589 0.00081722520055376943 0 0.0042999526430234237 -0.0069100137656076576 0 0.00095618196525298373 -0.005462600835100387 0 -0.00020112441753028306 0.0045426835865400019 0 0.0017234854002369882 -0.0048751238670883216 0 0.0036238859017939458 -0.0025212211344793978 0 0.0057090013569335938 -0.0064901795878267643 0 0.0038058664529088898 -0.004835936197630202 0 0.0044994202477268682 -0.0069606721076442843 0 0.0038058664529088898 -0.004835936197630202 0 0.0026493024292085269 -0.0048293492107219678 0 0.0044994202477268682 -0.0069606721076442843 0 0.0026493024292085269 -0.0048293492107219678 0 0.00053464451128519552 -0.0050296714187256916 0 0.0033939469705838252 -0.0014892533525257918 0 0.0036238859017939458 -0.0025212211344793978 0 0.0057090013569335938 -0.0064901795878267643 0 0.0038058664529088898 -0.004835936197630202 0 0.0026493024292085269 -0.0048293492107219678 0 0.0027350926463152814 -0.0036762447322306827 0 0.0026493024292085269 -0.0048293492107219678 0 0.0027350926463152814 -0.0036762447322306827 0 0.0016822556166478152 -0.0036738595517738018 0 0.0027350926463152814 -0.0036762447322306827 0 0.0016822556166478152 -0.0036738595517738018 0 0.0022120299769240819 -0.0027884804185900293 0 0.0036238859017939458 -0.0025212211344793978 0 0.0027350926463152814 -0.0036762447322306827 0 0.0022120299769240819 -0.0027884804185900293 0 0.0036238859017939458 -0.0025212211344793978 0 0.0038058664529088898 -0.004835936197630202 0 0.0027350926463152814 -0.0036762447322306827 0 -0.00025360489584014246 -0.0024422690532058047 0 0.00053464451128519552 -0.0050296714187256916 0 -0.0032363864420692496 -0.0031840795217846799 0 -0.00025360489584014246 -0.0024422690532058047 0 0.0016822556166478152 -0.0036738595517738018 0 0.00053464451128519552 -0.0050296714187256916 0 -0.00025360489584014246 -0.0024422690532058047 0 0.0016822556166478152 -0.0036738595517738018 0 0.0022120299769240819 -0.0027884804185900293 0 0.0026493024292085269 -0.0048293492107219678 0 0.0016822556166478152 -0.0036738595517738018 0 0.00053464451128519552 -0.0050296714187256916 0 0.0014583596860133835 -0.0059315699984913116 0 0.0011387955839880779 -0.0073377713791157899 0 -0.00015243971574449585 -0.0062672400880638664 0 0.0011387955839880779 -0.0073377713791157899 0 0.00037300374710043968 -0.0086717192104843188 0 0.0023460714415660406 -0.0086258397050063482 0 0.0011387955839880779 -0.0073377713791157899 0 0.00037300374710043968 -0.0086717192104843188 0 -0.00089687043888679488 -0.0074527325673993793 0 0.00062656349886791346 0.00069818276293479628 0 0.00054299428996525069 0.00043557035779671395 0 0.00041872291215945887 0.00034023087168813 0 0.0017234854002369882 -0.0048751238670883216 0 -0.00026139551696502416 -0.0050326433880808225 0 0.00062656349886791346 0.00069818276293479628 0 0.00054299428996525069 0.00043557035779671395 0 0.00056333827182643379 0.00068441569209029432 0 0.00037300374710043968 -0.0086717192104843188 0 0.0023460714415660406 -0.0086258397050063482 0 -0.00106638668501344 -0.010598698678278024 0 0.00062656349886791346 0.00069818276293479628 0 0.00044487254973101713 0.0010993924443296356 0 0.00025754675758019589 0.00081722520055376943 0 0.00062656349886791346 0.00069818276293479628 0 0.00044487254973101713 0.0010993924443296356 0 0.00056333827182643379 0.00068441569209029432 0 0.00044487254973101713 0.0010993924443296356 0 0.00056333827182643379 0.00068441569209029432 0 0.00046265544826849982 0.0010386307215424519 0 0.00044487254973101713 0.0010993924443296356 0 0.00018097282209830613 0.0025793139593667126 0 0.00046265544826849982 0.0010386307215424519 0 0.00051211236719344167 0.00016262002434199048 0 0.00056333827182643379 0.00068441569209029432 0 0.00046265544826849982 0.0010386307215424519 0 0.00051211236719344167 0.00016262002434199048 0 0.00054299428996525069 0.00043557035779671395 0 0.0004710315781427488 7.7039592584629213e-05 0 0.00051211236719344167 0.00016262002434199048 0 0.00054299428996525069 0.00043557035779671395 0 0.00056333827182643379 0.00068441569209029432 0 -0.0033723314558394613 0.017067179238588477 0 -0.0034080547641921798 0.01657930034947231 0 -0.0037935871000397926 0.016878242387413783 0 -0.0028289278655984997 0.016294053509744666 0 -0.0033723314558394613 0.017067179238588477 0 -0.0037935871000397926 0.016878242387413783 0 -0.0034080547641921798 0.01657930034947231 0 -0.0031209214664488878 0.016407037603419539 0 -0.0037935871000397926 0.016878242387413783 0 0.00044487254973101713 0.0010993924443296356 0 -0.00041716314346022397 0.0012933231521090628 0 0.00025754675758019589 0.00081722520055376943 0 8.5304085574239299e-05 0.0003885436525233969 0 -0.00041716314346022397 0.0012933231521090628 0 0.00025754675758019589 0.00081722520055376943 0 -0.00020112441753028306 0.0045426835865400019 0 -0.0023842989588931801 0.0098382574124615783 0 0.00044487254973101713 0.0010993924443296356 0 -0.00041716314346022397 0.0012933231521090628 0 0.00018097282209830613 0.0025793139593667126 0 -0.00085965092069844077 0.0037016927139619667 0 -0.00041716314346022397 0.0012933231521090628 0 0.00018097282209830613 0.0025793139593667126 0 -0.0037144901224488865 0.014383494943368415 0 -0.0028289278655984997 0.016294053509744666 0 -0.0037935871000397926 0.016878242387413783 0 -0.002001116163267154 0.0088045674660299587 0 -0.0023842989588931801 0.0098382574124615783 0 -0.00085965092069844077 0.0037016927139619667 0 0.00018097282209830613 0.0025793139593667126 0 1.0024764212339402e-06 0.0052684476422011819 0 0.00018097282209830613 0.0025793139593667126 0 1.0024764212339402e-06 0.0052684476422011819 0 8.5006688212549e-07 0.0020714081276940704 0 0.00051211236719344167 0.00016262002434199048 0 0.00036411132806096113 0.00038905729028300033 0 0.00046265544826849982 0.0010386307215424519 0 0.00036411132806096113 0.00038905729028300033 0 0.00046265544826849982 0.0010386307215424519 0 8.5006688212549e-07 0.0020714081276940704 0 0.00018097282209830613 0.0025793139593667126 0 0.00046265544826849982 0.0010386307215424519 0 8.5006688212549e-07 0.0020714081276940704 0 0.00036411132806096113 0.00038905729028300033 0 8.5006688212549e-07 0.0020714081276940704 0 6.105608397747631e-07 -0.0011251714418800004 0 6.105608397747631e-07 -0.0011251714418800004 0 0.00029980936984295688 -0.00074492824953066225 0 0.00011483041762316669 -0.0023093299947163051 0 0.00036411132806096113 0.00038905729028300033 0 6.105608397747631e-07 -0.0011251714418800004 0 0.00029980936984295688 -0.00074492824953066225 0 0.00051211236719344167 0.00016262002434199048 0 0.00036411132806096113 0.00038905729028300033 0 0.00029980936984295688 -0.00074492824953066225 0 0.00051211236719344167 0.00016262002434199048 0 0.00029980936984295688 -0.00074492824953066225 0 0.00028781997006966319 -0.00060672158219417379 0 0.00011483041762316669 -0.0023093299947163051 0 0.00028781997006966319 -0.00060672158219417379 0 -8.4428585496325981e-05 -0.0013364291437009592 0 0.00029980936984295688 -0.00074492824953066225 0 0.00011483041762316669 -0.0023093299947163051 0 0.00028781997006966319 -0.00060672158219417379 0 6.105608397747631e-07 -0.0011251714418800004 0 0.00011483041762316669 -0.0023093299947163051 0 2.6264540330409101e-07 -0.0043211949610485641 0 0.00011483041762316669 -0.0023093299947163051 0 2.6264540330409101e-07 -0.0043211949610485641 0 -0.00042605862608154863 -0.0042828263738021038 0 2.6264540330409101e-07 -0.0043211949610485641 0 -0.00042605862608154863 -0.0042828263738021038 0 -1.7213091524902206e-06 -0.0075197983953153857 0 0.00011483041762316669 -0.0023093299947163051 0 -0.00042605862608154863 -0.0042828263738021038 0 -8.4428585496325981e-05 -0.0013364291437009592 0 -0.0013694210224535783 -0.011193404150109791 0 -0.0015908055703175029 -0.01118894290171059 0 -0.0016849877417981602 -0.011112350934715522 0 -0.0014534647113229626 -0.010486129251601249 0 -0.0013694210224535783 -0.011193404150109791 0 -0.0016849877417981602 -0.011112350934715522 0 -0.00071646861707512727 -0.0073369584475583439 0 -0.00080106779235868889 -0.006209596358514132 0 -0.0014534647113229626 -0.010486129251601249 0 -0.0013694210224535783 -0.011193404150109791 0 -0.00057919537825086229 -0.010715982143135214 0 -0.0013694210224535783 -0.011193404150109791 0 -0.0011232341657542203 -0.011665335414851812 0 -0.00056151761771379644 -0.011594133979237656 0 -0.0013694210224535783 -0.011193404150109791 0 -0.0011232341657542203 -0.011665335414851812 0 -0.0015908055703175029 -0.01118894290171059 0 -0.0011232341657542203 -0.011665335414851812 0 -0.0015908055703175029 -0.01118894290171059 0 -0.0016909644049294299 -0.011599909559765767 0 -0.0015908055703175029 -0.01118894290171059 0 -0.001224659567467943 -0.010664371381688492 0 -0.0016909644049294299 -0.011599909559765767 0 -0.0013570002320479112 -0.0090890862217767321 0 -0.001224659567467943 -0.010664371381688492 0 -0.0033882052044487145 -0.0077255871024446473 0 -0.001289576548394862 -0.010688119501222176 0 -0.0024544092571160718 -0.0096916503721817399 0 -0.0013570002320479112 -0.0090890862217767321 0 -0.00067605630553645472 -0.0090805731527824098 0 -0.00106638668501344 -0.010598698678278024 0 0.00037300374710043968 -0.0086717192104843188 0 -0.00067605630553645472 -0.0090805731527824098 0 -0.00106638668501344 -0.010598698678278024 0 -0.0013570002320479112 -0.0090890862217767321 0 -0.00106638668501344 -0.010598698678278024 0 -0.001224659567467943 -0.010664371381688492 0 0.00051211236719344167 0.00016262002434199048 0 0.0004710315781427488 7.7039592584629213e-05 0 0.00028781997006966319 -0.00060672158219417379 0 0.00041872291215945887 0.00034023087168813 0 0.0004710315781427488 7.7039592584629213e-05 0 0.00028781997006966319 -0.00060672158219417379 0 0.00054299428996525069 0.00043557035779671395 0 0.00041872291215945887 0.00034023087168813 0 0.0004710315781427488 7.7039592584629213e-05 0 -0.0015908055703175029 -0.01118894290171059 0 -0.001224659567467943 -0.010664371381688492 0 -0.0016849877417981602 -0.011112350934715522 0 -0.00026139551696502416 -0.0050326433880808225 0 -0.00080106779235868889 -0.006209596358514132 0 0.00041872291215945887 0.00034023087168813 0 0.00028781997006966319 -0.00060672158219417379 0 -8.4428585496325981e-05 -0.0013364291437009592 0 -0.00106638668501344 -0.010598698678278024 0 -0.001224659567467943 -0.010664371381688492 0 -0.0016849877417981602 -0.011112350934715522 0 0.00039910631834554213 -0.012688846620619906 0 0.00053619335720831178 -0.012320539192933489 0 0.00057473324255366402 -0.013388524829922897 0 0.00039910631834554213 -0.012688846620619906 0 9.7624614644509249e-07 -0.01071603565524995 0 8.56435416295908e-07 -0.013912784855877524 0 0.00039910631834554213 -0.012688846620619906 0 9.7624614644509249e-07 -0.01071603565524995 0 0.00028229904033301976 -0.010856451420210748 0 0.00039910631834554213 -0.012688846620619906 0 0.00053619335720831178 -0.012320539192933489 0 0.00028229904033301976 -0.010856451420210748 0 0.00053619335720831178 -0.012320539192933489 0 0.00028229904033301976 -0.010856451420210748 0 9.1038083015516483e-06 -0.011576019613278622 0 0.00028229904033301976 -0.010856451420210748 0 -0.00024458030730344104 -0.0085897846887625865 0 -0.00057919537825086229 -0.010715982143135214 0 0.00028229904033301976 -0.010856451420210748 0 -0.00057919537825086229 -0.010715982143135214 0 9.1038083015516483e-06 -0.011576019613278622 0 9.7624614644509249e-07 -0.01071603565524995 0 0.00028229904033301976 -0.010856451420210748 0 -0.00024458030730344104 -0.0085897846887625865 0 9.7624614644509249e-07 -0.01071603565524995 0 -1.7213091524902206e-06 -0.0075197983953153857 0 -0.00024458030730344104 -0.0085897846887625865 0 -0.00042605862608154863 -0.0042828263738021038 0 -1.7213091524902206e-06 -0.0075197983953153857 0 -0.00024458030730344104 -0.0085897846887625865 0 -0.00071646861707512727 -0.0073369584475583439 0 -0.00015325530733062263 -0.0082321534685246087 0 -0.0014534647113229626 -0.010486129251601249 0 -0.00024458030730344104 -0.0085897846887625865 0 -0.00057919537825086229 -0.010715982143135214 0 -0.0011232341657542203 -0.011665335414851812 0 -0.00056151761771379644 -0.011594133979237656 0 -0.00012381955748092007 -0.01219459963007735 0 -0.0013694210224535783 -0.011193404150109791 0 -0.00057919537825086229 -0.010715982143135214 0 -0.00056151761771379644 -0.011594133979237656 0 -0.00057919537825086229 -0.010715982143135214 0 -0.00056151761771379644 -0.011594133979237656 0 9.1038083015516483e-06 -0.011576019613278622 0 -0.00056151761771379644 -0.011594133979237656 0 9.1038083015516483e-06 -0.011576019613278622 0 -0.00012381955748092007 -0.01219459963007735 0 9.1038083015516483e-06 -0.011576019613278622 0 0.00039040943349899715 -0.012245799684333824 0 -0.00012381955748092007 -0.01219459963007735 0 0.00053619335720831178 -0.012320539192933489 0 9.1038083015516483e-06 -0.011576019613278622 0 0.00039040943349899715 -0.012245799684333824 0 0.00063071292817267876 -0.012005230257462418 0 -0.00010832893406116565 -0.012353146120693638 0 0.00039040943349899715 -0.012245799684333824 0 0.00062256030827209771 -0.012711828711089381 0 -0.00012381955748092007 -0.01219459963007735 0 0.00039040943349899715 -0.012245799684333824 0 0.00062256030827209771 -0.012711828711089381 0 0.00063848551269165134 -0.012950562521889773 0 0.00053619335720831178 -0.012320539192933489 0 0.00063848551269165134 -0.012950562521889773 0 0.00057473324255366402 -0.013388524829922897 0 0.00053619335720831178 -0.012320539192933489 0 0.00039040943349899715 -0.012245799684333824 0 0.00063848551269165134 -0.012950562521889773 0 0.00040063085730250938 -0.01279344799609116 0 0.00067367402176143963 -0.012703119867998564 0 0.00065428430555397447 -0.012971088198741083 0 0.00040063085730250938 -0.01279344799609116 0 0.00067367402176143963 -0.012703119867998564 0 0.00033255327208891517 -0.012459688787269883 0 0.00067367402176143963 -0.012703119867998564 0 0.00067146309563126578 -0.012457923436902708 0 0.00033255327208891517 -0.012459688787269883 0 0.00044362376206689584 -0.012128039944930462 0 0.00067146309563126578 -0.012457923436902708 0 0.00094793153523025785 -0.012381235367125721 0 0.00044362376206689584 -0.012128039944930462 0 0.00067146309563126578 -0.012457923436902708 0 0.00033255327208891517 -0.012459688787269883 0 0.00033255327208891517 -0.012459688787269883 0 1.7125529253074366e-05 -0.01254435756754356 0 -0.00012381955748092007 -0.01219459963007735 0 0.00044362376206689584 -0.012128039944930462 0 0.00033255327208891517 -0.012459688787269883 0 -0.00012381955748092007 -0.01219459963007735 0 0.00040063085730250938 -0.01279344799609116 0 1.7125529253074366e-05 -0.01254435756754356 0 0.00020812318998101245 -0.013071379264285733 0 0.00040063085730250938 -0.01279344799609116 0 0.00033255327208891517 -0.012459688787269883 0 1.7125529253074366e-05 -0.01254435756754356 0 -0.0011232341657542203 -0.011665335414851812 0 -0.00012381955748092007 -0.01219459963007735 0 -0.00092986803667113838 -0.01219959945089456 0 1.7125529253074366e-05 -0.01254435756754356 0 -0.00028530641298749304 -0.012713523806723298 0 -0.00016896040714402963 -0.012929057469317965 0 1.7125529253074366e-05 -0.01254435756754356 0 -0.00028530641298749304 -0.012713523806723298 0 -0.00043182925469104218 -0.012513936921860348 0 1.7125529253074366e-05 -0.01254435756754356 0 -0.00012381955748092007 -0.01219459963007735 0 -0.00043182925469104218 -0.012513936921860348 0 -0.00012381955748092007 -0.01219459963007735 0 -0.00043182925469104218 -0.012513936921860348 0 -0.00092986803667113838 -0.01219959945089456 0 -0.00043182925469104218 -0.012513936921860348 0 -0.00092986803667113838 -0.01219959945089456 0 -0.00087234167048031125 -0.012667075261071005 0 -0.00028530641298749304 -0.012713523806723298 0 -0.00043182925469104218 -0.012513936921860348 0 -0.00055640315612437527 -0.012771180064323404 0 -0.00043182925469104218 -0.012513936921860348 0 -0.00055640315612437527 -0.012771180064323404 0 -0.00087234167048031125 -0.012667075261071005 0 -0.00075115698304061181 -0.012850875202916409 0 -0.00074358967640513461 -0.013060004242896 0 -0.00087234167048031125 -0.012667075261071005 0 -0.00075115698304061181 -0.012850875202916409 0 -0.00055640315612437527 -0.012771180064323404 0 -0.00087234167048031125 -0.012667075261071005 0 -0.00075115698304061181 -0.012850875202916409 0 -0.00055640315612437527 -0.012771180064323404 0 -0.00060912854451823368 -0.012957795888568416 0 -0.00075115698304061181 -0.012850875202916409 0 -0.00060912854451823368 -0.012957795888568416 0 -0.00071476774397076742 -0.012965741196818637 0 -0.00055640315612437527 -0.012771180064323404 0 -0.00040153491989491425 -0.012938490967807194 0 -0.00060912854451823368 -0.012957795888568416 0 -0.00028530641298749304 -0.012713523806723298 0 -0.00055640315612437527 -0.012771180064323404 0 -0.00040153491989491425 -0.012938490967807194 0 -0.00049498348102236869 -0.013109275675638838 0 -0.00063978851422902901 -0.013024068498361685 0 -0.00060912854451823368 -0.012957795888568416 0 -0.00040153491989491425 -0.012938490967807194 0 -0.00049498348102236869 -0.013109275675638838 0 -0.00030938984081558456 -0.013148857772450921 0 -0.00040153491989491425 -0.012938490967807194 0 -0.00049498348102236869 -0.013109275675638838 0 -0.00060912854451823368 -0.012957795888568416 0 -0.00049498348102236869 -0.013109275675638838 0 -0.00063978851422902901 -0.013024068498361685 0 -0.00074358967640513461 -0.013060004242896 0 -0.00063978851422902901 -0.013024068498361685 0 -0.00060912854451823368 -0.012957795888568416 0 -0.00071476774397076742 -0.012965741196818637 0 -0.00075115698304061181 -0.012850875202916409 0 -0.00071476774397076742 -0.012965741196818637 0 -0.00074358967640513461 -0.013060004242896 0 -0.00063978851422902901 -0.013024068498361685 0 -0.00071476774397076742 -0.012965741196818637 0 -0.00074358967640513461 -0.013060004242896 0 -0.0038247604904262612 -0.0078158630860891091 0 -0.0041699200000220515 -0.0037191308698026363 0 -0.0035964791990497885 -0.0074074767595476302 0 -0.0033995089132547898 -0.0075389753561676352 0 -0.0034408532962332586 -0.0075484108233312463 0 -0.00049498348102236869 -0.013109275675638838 0 -0.00074358967640513461 -0.013060004242896 0 -0.00020737432742994356 -0.013507746143372062 0 -0.0071470514403220988 -0.001571822375799478 0 -0.006852967539965722 -0.00099639284625245442 0 -0.0087359893899415057 -0.00063176139802329921 0 -0.0038247604904262612 -0.0078158630860891091 0 -0.0014103061290560363 -0.009697773337083309 0 -0.0069081073643719494 -0.0029218366071218876 0 -0.0071470514403220988 -0.001571822375799478 0 -0.0062018110620678107 -0.0018144369508565638 0 -0.0069081073643719494 -0.0029218366071218876 0 -0.0071470514403220988 -0.001571822375799478 0 -0.0087359893899415057 -0.00063176139802329921 0 -0.0071470514403220988 -0.001571822375799478 0 -0.006852967539965722 -0.00099639284625245442 0 -0.0062018110620678107 -0.0018144369508565638 0 -0.00049498348102236869 -0.013109275675638838 0 -0.00030938984081558456 -0.013148857772450921 0 -0.00020737432742994356 -0.013507746143372062 0 -0.00020737432742994356 -0.013507746143372062 0 -5.3247255756728364e-05 -0.013214806261982273 0 0.0001998856602111767 -0.013415290011431021 0 -0.00030938984081558456 -0.013148857772450921 0 -0.00020737432742994356 -0.013507746143372062 0 -5.3247255756728364e-05 -0.013214806261982273 0 -0.00030938984081558456 -0.013148857772450921 0 -5.3247255756728364e-05 -0.013214806261982273 0 -0.00016896040714402963 -0.012929057469317965 0 -0.00040153491989491425 -0.012938490967807194 0 -0.00030938984081558456 -0.013148857772450921 0 -0.00016896040714402963 -0.012929057469317965 0 -0.00028530641298749304 -0.012713523806723298 0 -0.00040153491989491425 -0.012938490967807194 0 -0.00016896040714402963 -0.012929057469317965 0 -5.3247255756728364e-05 -0.013214806261982273 0 -0.00016896040714402963 -0.012929057469317965 0 0.00020812318998101245 -0.013071379264285733 0 1.7125529253074366e-05 -0.01254435756754356 0 -0.00016896040714402963 -0.012929057469317965 0 0.00020812318998101245 -0.013071379264285733 0 -0.0014103061290560363 -0.009697773337083309 0 0.00017752215638808561 -0.01349289838605023 0 0.00020812318998101245 -0.013071379264285733 0 0.0001998856602111767 -0.013415290011431021 0 0.00058399211235924471 -0.013352594270972355 0 -5.3247255756728364e-05 -0.013214806261982273 0 0.00020812318998101245 -0.013071379264285733 0 0.0001998856602111767 -0.013415290011431021 0 0.00011373800482881782 -0.013451388730929905 0 0.00058399211235924471 -0.013352594270972355 0 0.00051129882067131192 -0.013794873034775872 0 0.00058399211235924471 -0.013352594270972355 0 0.00051129882067131192 -0.013794873034775872 0 0.00082913512586961361 -0.013613619114405656 0 0.00017752215638808561 -0.01349289838605023 0 0.00053705734272817762 -0.013350106298475559 0 0.00058399211235924471 -0.013352594270972355 0 0.00045592648522897424 -0.013044366472114014 0 0.00065428430555397447 -0.012971088198741083 0 0.00020812318998101245 -0.013071379264285733 0 0.00058399211235924471 -0.013352594270972355 0 0.00045592648522897424 -0.013044366472114014 0 0.00040063085730250938 -0.01279344799609116 0 0.00020812318998101245 -0.013071379264285733 0 0.00045592648522897424 -0.013044366472114014 0 0.00040063085730250938 -0.01279344799609116 0 0.00045592648522897424 -0.013044366472114014 0 0.00065428430555397447 -0.012971088198741083 0 -0.0033768793931982333 -0.0056527384795200036 0 -0.0026517415094250837 -0.0050935637642453985 0 -0.0033476804964558704 -0.0037417545103427085 0 -0.0026517415094250837 -0.0050935637642453985 0 -0.0016634153953581385 -0.0049365641521797107 0 -0.0033476804964558704 -0.0037417545103427085 0 -0.0022069767520832046 -0.0060686715636998467 0 -0.0033768793931982333 -0.0056527384795200036 0 -0.0026517415094250837 -0.0050935637642453985 0 -0.0022069767520832046 -0.0060686715636998467 0 -0.0026517415094250837 -0.0050935637642453985 0 -0.0016634153953581385 -0.0049365641521797107 0 -0.0016634153953581385 -0.0049365641521797107 0 -0.0012350224682296431 -0.0048109689432273978 0 -0.001203815780077647 -0.0058850173251071792 0 -8.0650402875499124e-06 -0.002925036802065472 0 -0.0016255673482521449 -0.0040558968153380885 0 0.00095618196525298373 -0.005462600835100387 0 -0.0016255673482521449 -0.0040558968153380885 0 0.0014583596860133835 -0.0059315699984913116 0 -0.0012350224682296431 -0.0048109689432273978 0 -0.00015243971574449585 -0.0062672400880638664 0 -0.0016375719888686612 -0.0041703815039630257 0 -0.0016255673482521449 -0.0040558968153380885 0 -0.0012350224682296431 -0.0048109689432273978 0 -0.00015243971574449585 -0.0062672400880638664 0 -0.001203815780077647 -0.0058850173251071792 0 -0.0022069767520832046 -0.0060686715636998467 0 -0.0016634153953581385 -0.0049365641521797107 0 -0.001203815780077647 -0.0058850173251071792 0 -0.0022069767520832046 -0.0060686715636998467 0 -0.001203815780077647 -0.0058850173251071792 0 -0.00089687043888679488 -0.0074527325673993793 0 -0.00015243971574449585 -0.0062672400880638664 0 -0.001203815780077647 -0.0058850173251071792 0 -0.00089687043888679488 -0.0074527325673993793 0 0.0011387955839880779 -0.0073377713791157899 0 -0.00015243971574449585 -0.0062672400880638664 0 -0.00089687043888679488 -0.0074527325673993793 0 0.00037300374710043968 -0.0086717192104843188 0 -0.00067605630553645472 -0.0090805731527824098 0 -0.00089687043888679488 -0.0074527325673993793 0 -0.0013570002320479112 -0.0090890862217767321 0 -0.00067605630553645472 -0.0090805731527824098 0 -0.00089687043888679488 -0.0074527325673993793 0 -0.0022069767520832046 -0.0060686715636998467 0 -0.0033768793931982333 -0.0056527384795200036 0 -0.0033882052044487145 -0.0077255871024446473 0 -0.0013570002320479112 -0.0090890862217767321 0 -0.00089687043888679488 -0.0074527325673993793 0 -0.0033882052044487145 -0.0077255871024446473 0 -0.0022069767520832046 -0.0060686715636998467 0 -0.00089687043888679488 -0.0074527325673993793 0 -0.0033882052044487145 -0.0077255871024446473 0 -0.0024544092571160718 -0.0096916503721817399 0 -0.0031043364861898558 -0.0089043276848969812 0 -0.0016909644049294299 -0.011599909559765767 0 -0.00092986803667113838 -0.01219959945089456 0 -0.0012679139455990022 -0.012481910642392631 0 -0.0011232341657542203 -0.011665335414851812 0 -0.0016909644049294299 -0.011599909559765767 0 -0.00092986803667113838 -0.01219959945089456 0 -0.00092986803667113838 -0.01219959945089456 0 -0.00087234167048031125 -0.012667075261071005 0 -0.0012679139455990022 -0.012481910642392631 0 -0.0033768793931982333 -0.0056527384795200036 0 -0.0033882052044487145 -0.0077255871024446473 0 -0.0050247567867639413 -0.0052197605966081756 0 -0.0033768793931982333 -0.0056527384795200036 0 -0.0050247567867639413 -0.0052197605966081756 0 -0.0033476804964558704 -0.0037417545103427085 0 -0.005157167219222783 -0.0024976218363464962 0 -0.0031582549797769185 -0.0034575012289598246 0 -0.0050247567867639413 -0.0052197605966081756 0 -0.0052487769937448678 -0.0024568168170661813 0 -0.0033476804964558704 -0.0037417545103427085 0 -0.0038247604904262612 -0.0078158630860891091 0 -0.0031043364861898558 -0.0089043276848969812 0 -0.0069081073643719494 -0.0029218366071218876 0 -0.0050247567867639413 -0.0052197605966081756 0 -0.0052487769937448678 -0.0024568168170661813 0 -0.00074358967640513461 -0.013060004242896 0 -0.00087234167048031125 -0.012667075261071005 0 -0.0012679139455990022 -0.012481910642392631 0 -0.0069081073643719494 -0.0029218366071218876 0 -0.0062018110620678107 -0.0018144369508565638 0 -0.0052487769937448678 -0.0024568168170661813 0 -0.0062018110620678107 -0.0018144369508565638 0 -0.0052487769937448678 -0.0024568168170661813 0 -0.00504313973409172 -0.0009633695018863549 0 -0.006852967539965722 -0.00099639284625245442 0 -0.0062018110620678107 -0.0018144369508565638 0 -0.0060474639234992904 -0.00087949668659376568 0 -0.0062018110620678107 -0.0018144369508565638 0 -0.00504313973409172 -0.0009633695018863549 0 -0.0060474639234992904 -0.00087949668659376568 0 -0.0052487769937448678 -0.0024568168170661813 0 -0.00504313973409172 -0.0009633695018863549 0 -0.0033479823855413204 -0.0011979931151103586 0 -0.0052487769937448678 -0.0024568168170661813 0 -0.0033479823855413204 -0.0011979931151103586 0 -0.0030377174490733841 -0.0031305820015856121 0 -0.00504313973409172 -0.0009633695018863549 0 -0.0033479823855413204 -0.0011979931151103586 0 -0.0039972595183080748 -0.0002250608875915751 0 -0.0033479823855413204 -0.0011979931151103586 0 -0.0017395689105926019 -0.0014430626058158486 0 -0.0026205463911628188 -0.00020561198802834839 0 -0.0033479823855413204 -0.0011979931151103586 0 -0.0017395689105926019 -0.0014430626058158486 0 -0.0030377174490733841 -0.0031305820015856121 0 -0.0011311711935360963 -0.003882898629964947 0 -0.0030377174490733841 -0.0031305820015856121 0 -0.0017973160994011325 -0.0029067525486778613 0 -0.0017395689105926019 -0.0014430626058158486 0 -0.0030377174490733841 -0.0031305820015856121 0 -0.0017973160994011325 -0.0029067525486778613 0 -0.0016634153953581385 -0.0049365641521797107 0 -0.0012695205870841748 -0.0048478392936810982 0 -0.0033476804964558704 -0.0037417545103427085 0 -0.0016255673482521449 -0.0040558968153380885 0 -0.0031582549797769185 -0.0034575012289598246 0 0.00043977645682163782 -0.0034340977899327153 0 -0.0011311711935360963 -0.003882898629964947 0 -0.00043620861912562576 -0.0030574322396038954 0 -0.0011311711935360963 -0.003882898629964947 0 -0.0017973160994011325 -0.0029067525486778613 0 -0.00107966583980505 -0.0031145488916497341 0 -0.0011311711935360963 -0.003882898629964947 0 -0.00043620861912562576 -0.0030574322396038954 0 -0.00107966583980505 -0.0031145488916497341 0 -0.0017395689105926019 -0.0014430626058158486 0 -0.0017973160994011325 -0.0029067525486778613 0 -0.00072530868704038165 -0.002374108448668269 0 -0.0017973160994011325 -0.0029067525486778613 0 -0.00107966583980505 -0.0031145488916497341 0 -0.00072530868704038165 -0.002374108448668269 0 0.0003711159384384921 -0.0024138932362050619 0 -0.00043620861912562576 -0.0030574322396038954 0 -0.00072530868704038165 -0.002374108448668269 0 -0.00043620861912562576 -0.0030574322396038954 0 -0.00107966583980505 -0.0031145488916497341 0 -0.00072530868704038165 -0.002374108448668269 0 0.00031267748780639096 -0.0011908624643255628 0 -0.0017395689105926019 -0.0014430626058158486 0 -0.00072530868704038165 -0.002374108448668269 0 0.00031267748780639096 -0.0011908624643255628 0 -0.0017395689105926019 -0.0014430626058158486 0 -0.0013159820790587446 0.00055058911552315223 0 0.0002798547241013949 0.0026712451449357362 0 -0.0010021359271221455 0.0041542032812251157 0 0.00023805639669602531 0.0073539112468143739 0 -0.00057995448765632671 0.0076532106675098049 0 -0.00024734916267237227 0.0082305579253357727 0 -0.0017395689105926019 -0.0014430626058158486 0 -0.0013159820790587446 0.00055058911552315223 0 -0.0026205463911628188 -0.00020561198802834839 0 -0.0013159820790587446 0.00055058911552315223 0 -0.0026205463911628188 -0.00020561198802834839 0 -0.0031422143658141194 0.0010668586519635129 0 -0.00057995448765632671 0.0076532106675098049 0 -0.00069296203434656366 0.0081565482027383188 0 -0.0010857856581225392 0.0082247863340273314 0 -0.0013159820790587446 0.00055058911552315223 0 -0.0028194991722613944 0.0016376404112034668 0 -0.0031422143658141194 0.0010668586519635129 0 -0.0010021359271221455 0.0041542032812251157 0 -0.0018584063886028747 0.0047038332413293533 0 -0.00069296203434656366 0.0081565482027383188 0 -0.0010857856581225392 0.0082247863340273314 0 -0.00094235064474636123 0.0084665598744650596 0 -0.00069296203434656366 0.0081565482027383188 0 -0.00024734916267237227 0.0082305579253357727 0 -0.00094235064474636123 0.0084665598744650596 0 -0.00057995448765632671 0.0076532106675098049 0 -0.00069296203434656366 0.0081565482027383188 0 -0.00024734916267237227 0.0082305579253357727 0 0.0003473034655331676 0.019297036620977068 0 0.00021482047521497282 0.019668591475537053 0 -4.7561306613039341e-05 0.019373649295120469 0 -0.00041821832511025836 0.012786011098980209 0 -0.00049914440845020376 0.012936997491271456 0 -0.00062248354232874621 0.01285345210649789 0 -8.7830947440235103e-05 0.01351567800355675 0 -0.00036111538328631123 0.016325793793445609 0 -8.7830947440235103e-05 0.01351567800355675 0 -0.00072636194237781849 0.010778588519234881 0 0.0003473034655331676 0.019297036620977068 0 0.00012394548330939227 0.019026505031465073 0 -4.7561306613039341e-05 0.019373649295120469 0 -0.00049914440845020376 0.012936997491271456 0 -0.00062248354232874621 0.01285345210649789 0 -0.00069425849981896313 0.012971863607037996 0 -1.8227789212215047e-05 0.017760514485674068 0 -0.00073161386579110265 0.016935454004794237 0 -0.00041617922660916175 0.01799345099908984 0 -0.00066105191849339978 0.018020001802414705 0 -0.0004591119037004895 0.018076041055758198 0 -0.00069425849981896313 0.012971863607037996 0 -0.00057993323484683613 0.013104875097450222 0 -0.00075938666068036081 0.013106630472609179 0 -0.00049914440845020376 0.012936997491271456 0 -0.00069425849981896313 0.012971863607037996 0 -0.00057993323484683613 0.013104875097450222 0 -1.8227789212215047e-05 0.017760514485674068 0 -0.00034473791803184359 0.020353574773599496 0 0.0001009493681136824 0.019844231932019715 0 -1.8227789212215047e-05 0.017760514485674068 0 -0.00036111538328631123 0.016325793793445609 0 -1.8227789212215047e-05 0.017760514485674068 0 0.00014743472525419651 0.019750023327359166 0 -0.00034502764701506709 0.019819812501782337 0 4.3315371557386097e-05 0.020076062242178158 0 0.00021482047521497282 0.019668591475537053 0 -4.7561306613039341e-05 0.019373649295120469 0 -0.00021436388272340256 0.019693587333099487 0 -0.0009086829154494045 0.013547356525669749 0 -0.00074538646386024569 0.01361906367790665 0 -0.00097415347826382444 0.013609884354086409 0 -0.0010345084183519735 0.0093718672576019388 0 -0.0020814579461221863 0.0063185735467599742 0 -0.002921670422473661 0.0013660439573544149 0 -0.0028996351637072299 0.001259879052319816 0 -0.0030565362496446907 0.0014601920256997539 0 -0.002072405544715738 0.0031059765518198943 0 -0.0020814579461221863 0.0063185735467599742 0 -0.002921670422473661 0.0013660439573544149 0 -0.0028433414393213615 0.0013228846006756727 0 -0.002871373999054125 0.0013752269218662259 0 -0.0028433414393213615 0.0013228846006756727 0 -0.0028025377744808704 0.0013428236292827743 0 -0.0027859595562474589 0.0012831009342437122 0 -0.0028433414393213615 0.0013228846006756727 0 -0.002871373999054125 0.0013752269218662259 0 -0.0028025377744808704 0.0013428236292827743 0 -0.0028433414393213615 0.0013228846006756727 0 -0.0028477419646411252 0.0012802033722422593 0 -0.0027859595562474589 0.0012831009342437122 0 -0.002921670422473661 0.0013660439573544149 0 -0.0028433414393213615 0.0013228846006756727 0 -0.0028477419646411252 0.0012802033722422593 0 -0.002921670422473661 0.0013660439573544149 0 -0.0028996351637072299 0.001259879052319816 0 -0.0028477419646411252 0.0012802033722422593 0 -0.0028996351637072299 0.001259879052319816 0 -0.0028477419646411252 0.0012802033722422593 0 -0.0028093792390667307 0.0012342999514247921 0 -0.0028996351637072299 0.001259879052319816 0 -0.0028093792390667307 0.0012342999514247921 0 -0.0027970802529664915 0.0011646961962769532 0 -0.0010345084183519735 0.0093718672576019388 0 -0.0013450577340726061 0.012625027707939428 0 -0.0028477419646411252 0.0012802033722422593 0 -0.0028093792390667307 0.0012342999514247921 0 -0.0027859595562474589 0.0012831009342437122 0 -0.00069425849981896313 0.012971863607037996 0 -0.00075938666068036081 0.013106630472609179 0 -0.00083922722044327237 0.012910795893622489 0 -0.00095415944385084561 0.013022377613045847 0 -0.00075938666068036081 0.013106630472609179 0 -0.00083922722044327237 0.012910795893622489 0 -0.0010345084183519735 0.0093718672576019388 0 -0.00073161386579110265 0.016935454004794237 0 -0.0030027420758189753 0.0014411970955423578 0 -0.002977840453494477 0.0014894945552987285 0 -0.0029445309916584349 0.0014349886619945235 0 -0.0028194991722613944 0.0016376404112034668 0 -0.0030027420758189753 0.0014411970955423578 0 -0.002977840453494477 0.0014894945552987285 0 -0.0018584063886028747 0.0047038332413293533 0 -0.0020814579461221863 0.0063185735467599742 0 -0.00072636194237781849 0.010778588519234881 0 -0.0020814579461221863 0.0063185735467599742 0 -0.0010857856581225392 0.0082247863340273314 0 -0.00094235064474636123 0.0084665598744650596 0 -0.0015360968084963543 0.0086785153950802232 0 -0.00062248354232874621 0.01285345210649789 0 -0.00069425849981896313 0.012971863607037996 0 -0.00083922722044327237 0.012910795893622489 0 -0.002977840453494477 0.0014894945552987285 0 -0.0029445309916584349 0.0014349886619945235 0 -0.0030312272854352697 0.0014389300261473182 0 -0.0029445309916584349 0.0014349886619945235 0 -0.0029648990130252103 0.0014332347331678878 0 -0.0030312272854352697 0.0014389300261473182 0 -0.002921670422473661 0.0013660439573544149 0 -0.0029445309916584349 0.0014349886619945235 0 -0.002871373999054125 0.0013752269218662259 0 -0.002921670422473661 0.0013660439573544149 0 -0.0030027420758189753 0.0014411970955423578 0 -0.0029445309916584349 0.0014349886619945235 0 -0.0029445309916584349 0.0014349886619945235 0 -0.002871373999054125 0.0013752269218662259 0 -0.0028347688950789837 0.0013977748993301423 0 -0.002871373999054125 0.0013752269218662259 0 -0.0028347688950789837 0.0013977748993301423 0 -0.0028025377744808704 0.0013428236292827743 0 -0.0029445309916584349 0.0014349886619945235 0 -0.0028592170930323351 0.0014352794671162027 0 -0.0029648990130252103 0.0014332347331678878 0 -0.0029445309916584349 0.0014349886619945235 0 -0.0028347688950789837 0.0013977748993301423 0 -0.0028592170930323351 0.0014352794671162027 0 -0.0028592170930323351 0.0014352794671162027 0 -0.0029648990130252103 0.0014332347331678878 0 -0.0028447418697069003 0.001496339207019438 0 -0.0029648990130252103 0.0014332347331678878 0 -0.0029999111317048181 0.0014173553447147985 0 -0.0028447418697069003 0.001496339207019438 0 -0.0029648990130252103 0.0014332347331678878 0 -0.0029999111317048181 0.0014173553447147985 0 -0.0030312272854352697 0.0014389300261473182 0 -0.0029999111317048181 0.0014173553447147985 0 -0.0030312272854352697 0.0014389300261473182 0 -0.0030967605420425879 0.0013041699932373125 0 -0.0029999111317048181 0.0014173553447147985 0 -0.0030967605420425879 0.0013041699932373125 0 -0.0029614919341102905 0.0016084975661610746 0 -0.0029999111317048181 0.0014173553447147985 0 -0.0029614919341102905 0.0016084975661610746 0 -0.0028447418697069003 0.001496339207019438 0 -0.0028194991722613944 0.0016376404112034668 0 -0.0030312272854352697 0.0014389300261473182 0 -0.0030967605420425879 0.0013041699932373125 0 -0.0028194991722613944 0.0016376404112034668 0 -0.002977840453494477 0.0014894945552987285 0 -0.0030312272854352697 0.0014389300261473182 0 -0.0028194991722613944 0.0016376404112034668 0 -0.0030967605420425879 0.0013041699932373125 0 -0.0031422143658141194 0.0010668586519635129 0 -0.0030967605420425879 0.0013041699932373125 0 -0.0031422143658141194 0.0010668586519635129 0 -0.0029614919341102905 0.0016084975661610746 0 -0.003177921312967508 0.0010206218957451647 0 -0.0046495874579694828 0.0013391855208665362 0 -0.0031422143658141194 0.0010668586519635129 0 -0.0039972595183080748 -0.0002250608875915751 0 -0.0060818761303376573 0.00025259340516198834 0 -0.0026205463911628188 -0.00020561198802834839 0 -0.0031422143658141194 0.0010668586519635129 0 -0.0039972595183080748 -0.0002250608875915751 0 -0.0033479823855413204 -0.0011979931151103586 0 -0.0026205463911628188 -0.00020561198802834839 0 -0.0039972595183080748 -0.0002250608875915751 0 -0.00504313973409172 -0.0009633695018863549 0 -0.0039972595183080748 -0.0002250608875915751 0 -0.0060818761303376573 0.00025259340516198834 0 -0.00504313973409172 -0.0009633695018863549 0 -0.0060474639234992904 -0.00087949668659376568 0 -0.0060818761303376573 0.00025259340516198834 0 -0.006852967539965722 -0.00099639284625245442 0 -0.0060474639234992904 -0.00087949668659376568 0 -0.0060818761303376573 0.00025259340516198834 0 -0.006852967539965722 -0.00099639284625245442 0 -0.0060818761303376573 0.00025259340516198834 0 -0.0087359893899415057 -0.00063176139802329921 0 -0.0029614919341102905 0.0016084975661610746 0 -0.0027241927431972852 0.0016333952435139097 0 -0.002544323623478467 0.0017411961936849233 0 -0.0046495874579694828 0.0013391855208665362 0 -0.0041699200000220515 -0.0037191308698026363 0 -0.0029614919341102905 0.0016084975661610746 0 -0.0027241927431972852 0.0016333952435139097 0 -0.0028447418697069003 0.001496339207019438 0 -0.0023060709501990652 -0.005512886012015797 0 -0.0008163118370783989 -0.0068101814172680571 0 -0.001219531488121314 -0.0073932539808330821 0 -0.003135686803580208 0.0024578235085607127 0 -0.0016515370038009097 -0.0016616036172879937 0 -0.0023060709501990652 -0.005512886012015797 0 -0.002806956902355382 -0.0056554092744319426 0 -0.001219531488121314 -0.0073932539808330821 0 -0.0027241927431972852 0.0016333952435139097 0 -0.002544323623478467 0.0017411961936849233 0 -0.0022214960097061065 0.0013404900899390935 0 -0.0041699200000220515 -0.0037191308698026363 0 -0.0016515370038009097 -0.0016616036172879937 0 -0.0014103061290560363 -0.009697773337083309 0 -0.0041699200000220515 -0.0037191308698026363 0 -0.0014103061290560363 -0.009697773337083309 0 -0.00035099833879504425 -0.010418471113999418 0 -0.0027241927431972852 0.0016333952435139097 0 -0.0025248139518521326 0.0015604933744941471 0 -0.0023373376798838021 0.0016485948856511958 0 -0.0025248139518521326 0.0015604933744941471 0 -0.0023373376798838021 0.0016485948856511958 0 -0.002319056993949064 0.0014980236251549628 0 -0.0025248139518521326 0.0015604933744941471 0 -0.002319056993949064 0.0014980236251549628 0 -0.0024789184424290896 0.0014629727689649068 0 -0.0025248139518521326 0.0015604933744941471 0 -0.0026293109595923654 0.0014907422648291827 0 -0.0024789184424290896 0.0014629727689649068 0 -0.0026293109595923654 0.0014907422648291827 0 -0.0027635022750257983 0.0014712691854373539 0 -0.002702796651811762 0.0015369558995580114 0 -0.0026293109595923654 0.0014907422648291827 0 -0.0027635022750257983 0.0014712691854373539 0 -0.0026906615897607398 0.0014332629008729503 0 -0.0028592170930323351 0.0014352794671162027 0 -0.0027635022750257983 0.0014712691854373539 0 -0.0028447418697069003 0.001496339207019438 0 -0.0027241927431972852 0.0016333952435139097 0 -0.0028447418697069003 0.001496339207019438 0 -0.002702796651811762 0.0015369558995580114 0 -0.0027635022750257983 0.0014712691854373539 0 -0.0028447418697069003 0.001496339207019438 0 -0.002702796651811762 0.0015369558995580114 0 -0.0025248139518521326 0.0015604933744941471 0 -0.0026293109595923654 0.0014907422648291827 0 -0.002702796651811762 0.0015369558995580114 0 -0.0027241927431972852 0.0016333952435139097 0 -0.0025248139518521326 0.0015604933744941471 0 -0.002702796651811762 0.0015369558995580114 0 0.00051129882067131192 -0.013794873034775872 0 1.185379937427699e-05 -0.013906724159600188 0 0.00039336925432396523 -0.014233939682332289 0 0.00051129882067131192 -0.013794873034775872 0 0.00071760018755120687 -0.014124130655342154 0 0.00086562218722269289 -0.01392741198051475 0 -0.00037740287931495894 -0.0135560512967103 0 0.00011373800482881782 -0.013451388730929905 0 1.185379937427699e-05 -0.013906724159600188 0 0.00011373800482881782 -0.013451388730929905 0 0.00051129882067131192 -0.013794873034775872 0 1.185379937427699e-05 -0.013906724159600188 0 -0.0008163118370783989 -0.0068101814172680571 0 -0.001219531488121314 -0.0073932539808330821 0 0.00069508210889504464 -0.0081412416614140958 0 -0.0016515370038009097 -0.0016616036172879937 0 0.00070253646956500442 -0.010249971543432634 0 -0.0013827527676575919 -0.0030037635611762014 0 0.00019409823379104427 -0.0047273455042694413 0 0.0012320932761104202 -0.0040084662434819321 0 -0.0016515370038009097 -0.0016616036172879937 0 -0.0011780219224941765 -0.0011920921396081218 0 -0.0023373376798838021 0.0016485948856511958 0 -0.002319056993949064 0.0014980236251549628 0 -0.0021194923436523953 0.0015339529490818191 0 -0.00035099833879504425 -0.010418471113999418 0 0.00070253646956500442 -0.010249971543432634 0 0.00039336925432396523 -0.014233939682332289 0 0.00092300006707993622 -0.014408871689418765 0 0.00071760018755120687 -0.014124130655342154 0 0.00051129882067131192 -0.013794873034775872 0 0.00039336925432396523 -0.014233939682332289 0 0.00071760018755120687 -0.014124130655342154 0 0.00070253646956500442 -0.010249971543432634 0 0.00099325201712668551 -0.014525893708646339 0 0.00024183680164426949 -0.013793795255105582 0 0.00060537575849478652 -0.014189005528305458 0 0.00085147007379351937 -0.014133691573439572 0 0.00019409823379104427 -0.0047273455042694413 0 0.0012320932761104202 -0.0040084662434819321 0 0.0015253139884492863 -0.0051592643125709338 0 0.0012320932761104202 -0.0040084662434819321 0 0.0029063369072463087 -0.0054828206152341737 0 0.0015253139884492863 -0.0051592643125709338 0 0.00070253646956500442 -0.010249971543432634 0 0.0020684076023698189 -0.0084441397599785938 0 0.0029063369072463087 -0.0054828206152341737 0 0.0015253139884492863 -0.0051592643125709338 0 0.0017608246489195019 -0.0064166709308852311 0 0.0020684076023698189 -0.0084441397599785938 0 0.0040208580136009663 -0.0017248811335958637 0 0.00019409823379104427 -0.0047273455042694413 0 0.0015253139884492863 -0.0051592643125709338 0 0.0017608246489195019 -0.0064166709308852311 0 -0.0011780219224941765 -0.0011920921396081218 0 0.0040208580136009663 -0.0017248811335958637 0 -0.0018661339418240836 0.0013840783635126659 0 -0.0021163942276891789 0.0013617006510904331 0 -0.0021824068593438379 0.0012114652728030138 0 -0.002319056993949064 0.0014980236251549628 0 -0.0021194923436523953 0.0015339529490818191 0 -0.0021163942276891789 0.0013617006510904331 0 -0.0021194923436523953 0.0015339529490818191 0 -0.0018661339418240836 0.0013840783635126659 0 -0.0021163942276891789 0.0013617006510904331 0 -0.002319056993949064 0.0014980236251549628 0 -0.0021163942276891789 0.0013617006510904331 0 -0.0023460530556862463 0.0013758333444407287 0 -0.0021163942276891789 0.0013617006510904331 0 -0.0022186822254318624 0.0013045041082548488 0 -0.0023460530556862463 0.0013758333444407287 0 -0.0022186822254318624 0.0013045041082548488 0 -0.0023155503179364493 0.0013199308606268766 0 -0.0023460530556862463 0.0013758333444407287 0 0.0091200023618442389 0.0040536962181928768 0 0.0096337212175341795 0.0045547448360391471 0 0.009108832646791909 0.0044008822298640593 0 0.0040208580136009663 -0.0017248811335958637 0 0.0028597973615133404 0.0030813268436209948 0 -0.0022186822254318624 0.0013045041082548488 0 -0.0023155503179364493 0.0013199308606268766 0 -0.0023208408775491404 0.0012756478806687304 0 -0.0022186822254318624 0.0013045041082548488 0 -0.0021824068593438379 0.0012114652728030138 0 -0.0023208408775491404 0.0012756478806687304 0 0.0091200023618442389 0.0040536962181928768 0 0.0086690291630169766 0.0040604122145659069 0 0.0088345426550467537 0.0044136034017353918 0 0.0091200023618442389 0.0040536962181928768 0 0.0088345426550467537 0.0044136034017353918 0 0.009108832646791909 0.0044008822298640593 0 -0.0021163942276891789 0.0013617006510904331 0 -0.0022186822254318624 0.0013045041082548488 0 -0.0021824068593438379 0.0012114652728030138 0 0.008476502461745479 0.0036403431649129651 0 0.0086690291630169766 0.0040604122145659069 0 0.0082154926596292987 0.0040121454972080698 0 0.008476502461745479 0.0036403431649129651 0 0.0091200023618442389 0.0040536962181928768 0 0.0086690291630169766 0.0040604122145659069 0 0.0086690291630169766 0.0040604122145659069 0 0.0085556202188386121 0.0043278931858808734 0 0.0088345426550467537 0.0044136034017353918 0 0.0086690291630169766 0.0040604122145659069 0 0.0085556202188386121 0.0043278931858808734 0 0.0082154926596292987 0.0040121454972080698 0 0.0085556202188386121 0.0043278931858808734 0 0.0083904621972073854 0.0045589768072672515 0 0.0082154926596292987 0.0040121454972080698 0 -0.0025966327806133771 0.001372520126659826 0 -0.0027216476094566225 0.0013697670695259365 0 -0.0026906615897607398 0.0014332629008729503 0 -0.0025966327806133771 0.001372520126659826 0 -0.0026488220671317605 0.001326604812501809 0 -0.0027216476094566225 0.0013697670695259365 0 -0.0025966327806133771 0.001372520126659826 0 -0.0026488220671317605 0.001326604812501809 0 -0.0025550543038807419 0.0012979070374251806 0 -0.0026488220671317605 0.001326604812501809 0 -0.0027216476094566225 0.0013697670695259365 0 -0.002728272232897423 0.0013054717710471106 0 -0.0027216476094566225 0.0013697670695259365 0 -0.0028025377744808704 0.0013428236292827743 0 -0.002728272232897423 0.0013054717710471106 0 -0.0028347688950789837 0.0013977748993301423 0 -0.0027216476094566225 0.0013697670695259365 0 -0.0028025377744808704 0.0013428236292827743 0 -0.0028347688950789837 0.0013977748993301423 0 -0.0027216476094566225 0.0013697670695259365 0 -0.0027796485622016429 0.0014218436839359837 0 -0.0028347688950789837 0.0013977748993301423 0 -0.0028592170930323351 0.0014352794671162027 0 -0.0027796485622016429 0.0014218436839359837 0 -0.0027216476094566225 0.0013697670695259365 0 -0.0027796485622016429 0.0014218436839359837 0 -0.0026906615897607398 0.0014332629008729503 0 -0.0027635022750257983 0.0014712691854373539 0 -0.0027796485622016429 0.0014218436839359837 0 -0.0026906615897607398 0.0014332629008729503 0 -0.0028592170930323351 0.0014352794671162027 0 -0.0027635022750257983 0.0014712691854373539 0 -0.0027796485622016429 0.0014218436839359837 0 -0.0025966327806133771 0.001372520126659826 0 -0.0026906615897607398 0.0014332629008729503 0 -0.0025879178734513741 0.0014323668652000351 0 -0.0026293109595923654 0.0014907422648291827 0 -0.0026906615897607398 0.0014332629008729503 0 -0.0025879178734513741 0.0014323668652000351 0 -0.0026293109595923654 0.0014907422648291827 0 -0.0025879178734513741 0.0014323668652000351 0 -0.0024789184424290896 0.0014629727689649068 0 -0.0025879178734513741 0.0014323668652000351 0 -0.0024789184424290896 0.0014629727689649068 0 -0.002491527711887338 0.0013938143655112508 0 -0.0025966327806133771 0.001372520126659826 0 -0.0025879178734513741 0.0014323668652000351 0 -0.002491527711887338 0.0013938143655112508 0 -0.0024789184424290896 0.0014629727689649068 0 -0.002491527711887338 0.0013938143655112508 0 -0.0023460530556862463 0.0013758333444407287 0 -0.002319056993949064 0.0014980236251549628 0 -0.0024789184424290896 0.0014629727689649068 0 -0.0023460530556862463 0.0013758333444407287 0 -0.002491527711887338 0.0013938143655112508 0 -0.0023460530556862463 0.0013758333444407287 0 -0.0024401466767565608 0.0013244789665289413 0 -0.0023155503179364493 0.0013199308606268766 0 -0.0024401466767565608 0.0013244789665289413 0 -0.0023208408775491404 0.0012756478806687304 0 -0.0023155503179364493 0.0013199308606268766 0 -0.0023460530556862463 0.0013758333444407287 0 -0.0024401466767565608 0.0013244789665289413 0 -0.0025966327806133771 0.001372520126659826 0 -0.0024401466767565608 0.0013244789665289413 0 -0.0025550543038807419 0.0012979070374251806 0 -0.0025966327806133771 0.001372520126659826 0 -0.002491527711887338 0.0013938143655112508 0 -0.0024401466767565608 0.0013244789665289413 0 0.0028597973615133404 0.0030813268436209948 0 0.00051319765624742106 0.0068131286582995051 0 -0.0021824068593438379 0.0012114652728030138 0 -0.0024886078560868025 0.0011924484642025941 0 -0.0025579045660062832 0.0010940395627176804 0 0.0028597973615133404 0.0030813268436209948 0 0.0075269113438027457 0.0065446876735656741 0 -0.0021824068593438379 0.0012114652728030138 0 -0.0024390843737786437 0.0012414554497280062 0 -0.0024886078560868025 0.0011924484642025941 0 -0.0024401466767565608 0.0013244789665289413 0 -0.0025550543038807419 0.0012979070374251806 0 -0.0024390843737786437 0.0012414554497280062 0 -0.0025550543038807419 0.0012979070374251806 0 -0.0025457764346670094 0.0012418501764631233 0 -0.0024390843737786437 0.0012414554497280062 0 -0.0021824068593438379 0.0012114652728030138 0 -0.0023208408775491404 0.0012756478806687304 0 -0.0024390843737786437 0.0012414554497280062 0 -0.0024401466767565608 0.0013244789665289413 0 -0.0023208408775491404 0.0012756478806687304 0 -0.0024390843737786437 0.0012414554497280062 0 -0.0024886078560868025 0.0011924484642025941 0 -0.0025806251199479362 0.0011666862862574393 0 -0.0025579045660062832 0.0010940395627176804 0 -0.0025457764346670094 0.0012418501764631233 0 -0.0024886078560868025 0.0011924484642025941 0 -0.0026103875254815247 0.0012146429666289225 0 -0.0025457764346670094 0.0012418501764631233 0 -0.0024390843737786437 0.0012414554497280062 0 -0.0024886078560868025 0.0011924484642025941 0 -0.0024886078560868025 0.0011924484642025941 0 -0.0025806251199479362 0.0011666862862574393 0 -0.0026103875254815247 0.0012146429666289225 0 -0.0025806251199479362 0.0011666862862574393 0 -0.0026566977719010092 0.0011829500781478067 0 -0.0026103875254815247 0.0012146429666289225 0 -0.0026566977719010092 0.0011829500781478067 0 -0.0026103875254815247 0.0012146429666289225 0 -0.0027185472891679352 0.0012364554594165877 0 -0.0026103875254815247 0.0012146429666289225 0 -0.0026476293397480616 0.0012777378236884913 0 -0.0027185472891679352 0.0012364554594165877 0 -0.0025550543038807419 0.0012979070374251806 0 -0.0025457764346670094 0.0012418501764631233 0 -0.0026476293397480616 0.0012777378236884913 0 -0.0025457764346670094 0.0012418501764631233 0 -0.0026103875254815247 0.0012146429666289225 0 -0.0026476293397480616 0.0012777378236884913 0 -0.0026488220671317605 0.001326604812501809 0 -0.0026476293397480616 0.0012777378236884913 0 -0.002728272232897423 0.0013054717710471106 0 -0.0026488220671317605 0.001326604812501809 0 -0.0025550543038807419 0.0012979070374251806 0 -0.0026476293397480616 0.0012777378236884913 0 -0.0028025377744808704 0.0013428236292827743 0 -0.002728272232897423 0.0013054717710471106 0 -0.0027859595562474589 0.0012831009342437122 0 -0.002728272232897423 0.0013054717710471106 0 -0.0027859595562474589 0.0012831009342437122 0 -0.0027185472891679352 0.0012364554594165877 0 -0.0026476293397480616 0.0012777378236884913 0 -0.002728272232897423 0.0013054717710471106 0 -0.0027185472891679352 0.0012364554594165877 0 -0.0028093792390667307 0.0012342999514247921 0 -0.0027859595562474589 0.0012831009342437122 0 -0.0027185472891679352 0.0012364554594165877 0 -0.0026566977719010092 0.0011829500781478067 0 -0.0027185472891679352 0.0012364554594165877 0 -0.0027970802529664915 0.0011646961962769532 0 -0.0028093792390667307 0.0012342999514247921 0 -0.0027185472891679352 0.0012364554594165877 0 -0.0027970802529664915 0.0011646961962769532 0 0.0014109303860208404 0.015646403094124021 0 -0.0013450577340726061 0.012625027707939428 0 0.00051319765624742106 0.0068131286582995051 0 -0.0013450577340726061 0.012625027707939428 0 -0.0026566977719010092 0.0011829500781478067 0 -0.0025579045660062832 0.0010940395627176804 0 -0.0027970802529664915 0.0011646961962769532 0 -8.6189084682211446e-06 0.010636911440212251 0 0.00067396054040157638 0.011037432623137061 0 -0.00056129172147184624 0.011233593072147661 0 0.0050535487561553126 0.010751399751084231 0 0.0044662152741741208 0.011387679903277905 0 0.0035257799986964122 0.0097702843491057362 0 0.0014109303860208404 0.015646403094124021 0 0.0055259613535029355 0.012106601764050177 0 0.0014109303860208404 0.015646403094124021 0 0.00051319765624742106 0.0068131286582995051 0 -0.0025806251199479362 0.0011666862862574393 0 -0.0026566977719010092 0.0011829500781478067 0 -0.0025579045660062832 0.0010940395627176804 0 0.0023586834499598856 0.0043514303427529839 0 0.0041482798087944545 0.0059522907370671684 0 0.0046740605921870527 0.0058897292493261776 0 0.0075269113438027457 0.0065446876735656741 0 0.00051319765624742106 0.0068131286582995051 0 0.011608297606140941 0.0059357448720106926 0 0.011329156680405199 0.0056235469116748043 0 0.011358303816721311 0.0059133965558971638 0 0.011329156680405199 0.0056235469116748043 0 0.011081197047621739 0.0058658944508468321 0 0.011358303816721311 0.0059133965558971638 0 0.0044662152741741208 0.011387679903277905 0 0.0026970882403511785 0.0098742841719929031 0 0.0035257799986964122 0.0097702843491057362 0 0.0055259613535029355 0.012106601764050177 0 0.0075269113438027457 0.0065446876735656741 0 0.011608297606140941 0.0059357448720106926 0 0.011358303816721311 0.0059133965558971638 0 0.011377760153244012 0.0062088271850319751 0 0.0085313580955737201 0.011040959097996279 0 0.011685883775110095 0.0054230223776400004 0 0.011081197047621739 0.0058658944508468321 0 0.011358303816721311 0.0059133965558971638 0 0.011377760153244012 0.0062088271850319751 0 0.01254101240409086 0.0066627182356517895 0 0.011213391165309951 0.0069614408574549926 0 0.011118504406696319 0.0082580020086839862 0 0.01254101240409086 0.0066627182356517895 0 0.011213391165309951 0.0069614408574549926 0 0.010717981943232405 0.0059306885260455655 0 0.011081197047621739 0.0058658944508468321 0 0.011377760153244012 0.0062088271850319751 0 0.010717981943232405 0.0059306885260455655 0 0.0085313580955737201 0.011040959097996279 0 0.0045662390103583589 0.016002723604717946 0 0.005410129213860233 0.014590674845675876 0 0.0055822130551884935 0.014410131410491066 0 0.0052227790716346256 0.014328118424071582 0 0.0055259613535029355 0.012106601764050177 0 0.0035408483034565551 0.016117929838033163 0 0.005410129213860233 0.014590674845675876 0 0.0052227790716346256 0.014328118424071582 0 0.0051439074708139812 0.014414620208336917 0 0.001638534246885523 0.017347216816396168 0 0.0015468399464139606 0.017444331748090826 0 0.0018784088755556976 0.017783608061066231 0 0.0055259613535029355 0.012106601764050177 0 0.0085313580955737201 0.011040959097996279 0 0.010321930304862573 0.004912188820457554 0 0.0079773744490894954 0.0053888033603521502 0 0.010465809383820282 0.0054767405748115776 0 0.0094122833608814068 0.0059775139326489583 0 0.0081982405068009162 0.0053634567008832646 0 0.0086048096235970418 0.0046284875341424019 0 0.0089995345788735533 0.0046547025689285442 0 0.0081982405068009162 0.0053634567008832646 0 0.0083904621972073854 0.0045589768072672515 0 0.0086048096235970418 0.0046284875341424019 0 0.0081982405068009162 0.0053634567008832646 0 0.0085556202188386121 0.0043278931858808734 0 0.0083904621972073854 0.0045589768072672515 0 0.0086048096235970418 0.0046284875341424019 0 0.0086048096235970418 0.0046284875341424019 0 0.0088345426550467537 0.0044136034017353918 0 0.0089995345788735533 0.0046547025689285442 0 0.0085556202188386121 0.0043278931858808734 0 0.0086048096235970418 0.0046284875341424019 0 0.0088345426550467537 0.0044136034017353918 0 0.010465809383820282 0.0054767405748115776 0 0.010125328098686142 0.0062128313518931824 0 0.0094122833608814068 0.0059775139326489583 0 0.0096337212175341795 0.0045547448360391471 0 0.0089995345788735533 0.0046547025689285442 0 0.009108832646791909 0.0044008822298640593 0 0.011329156680405199 0.0056235469116748043 0 0.011081197047621739 0.0058658944508468321 0 0.010465809383820282 0.0054767405748115776 0 0.011081197047621739 0.0058658944508468321 0 0.010465809383820282 0.0054767405748115776 0 0.010717981943232405 0.0059306885260455655 0 0.0075269113438027457 0.0065446876735656741 0 0.010321930304862573 0.004912188820457554 0 0.010465809383820282 0.0054767405748115776 0 0.010717981943232405 0.0059306885260455655 0 0.010125328098686142 0.0062128313518931824 0 0.0088345426550467537 0.0044136034017353918 0 0.0089995345788735533 0.0046547025689285442 0 0.009108832646791909 0.0044008822298640593 0 0.011213391165309951 0.0069614408574549926 0 0.010487955186939745 0.0069790088231314485 0 0.010717981943232405 0.0059306885260455655 0 0.010487955186939745 0.0069790088231314485 0 0.010717981943232405 0.0059306885260455655 0 0.010125328098686142 0.0062128313518931824 0 0.010125328098686142 0.0062128313518931824 0 0.0094778850718236409 0.0068348032103234743 0 0.0094122833608814068 0.0059775139326489583 0 0.010487955186939745 0.0069790088231314485 0 0.010125328098686142 0.0062128313518931824 0 0.0094778850718236409 0.0068348032103234743 0 0.010487955186939745 0.0069790088231314485 0 0.0094778850718236409 0.0068348032103234743 0 0.0099474155636610721 0.0078871969906951864 0 0.0094778850718236409 0.0068348032103234743 0 0.0094122833608814068 0.0059775139326489583 0 0.0087148293237325879 0.0062566367490718977 0 0.0094122833608814068 0.0059775139326489583 0 0.0087148293237325879 0.0062566367490718977 0 0.0081982405068009162 0.0053634567008832646 0 0.0094778850718236409 0.0068348032103234743 0 0.0099474155636610721 0.0078871969906951864 0 0.0089294743117015393 0.0083629863797589701 0 0.0094778850718236409 0.0068348032103234743 0 0.0089294743117015393 0.0083629863797589701 0 0.0083552108644406771 0.0072868157671267088 0 0.0099474155636610721 0.0078871969906951864 0 0.011118504406696319 0.0082580020086839862 0 0.0098211902825939539 0.0099279037395199159 0 0.010487955186939745 0.0069790088231314485 0 0.0099474155636610721 0.0078871969906951864 0 0.011118504406696319 0.0082580020086839862 0 0.011213391165309951 0.0069614408574549926 0 0.010487955186939745 0.0069790088231314485 0 0.011118504406696319 0.0082580020086839862 0 0.0059613690203930121 0.017205574578683408 0 0.0053585887089784854 0.016553870381704031 0 0.0061403871111704962 0.015912294130576984 0 0.0085323126576489876 0.012928136047634145 0 0.0084713933852252517 0.013057937524789572 0 0.0059613690203930121 0.017205574578683408 0 0.0070944787511464562 0.016284404168268124 0 0.0061403871111704962 0.015912294130576984 0 0.0099474155636610721 0.0078871969906951864 0 0.0098211902825939539 0.0099279037395199159 0 0.0089294743117015393 0.0083629863797589701 0 0.0098211902825939539 0.0099279037395199159 0 0.008475541706235613 0.0099088144003089337 0 0.0089294743117015393 0.0083629863797589701 0 0.004339970135604776 0.017606718064509148 0 0.0048827989237980804 0.017141330926927451 0 0.0040938544316237819 0.016893098090217565 0 0.0051170949792714669 0.01792071722702036 0 0.004339970135604776 0.017606718064509148 0 0.0048827989237980804 0.017141330926927451 0 0.0059613690203930121 0.017205574578683408 0 0.0048827989237980804 0.017141330926927451 0 0.0053585887089784854 0.016553870381704031 0 0.0085313580955737201 0.011040959097996279 0 0.0085323126576489876 0.012928136047634145 0 0.0051170949792714669 0.01792071722702036 0 0.0059613690203930121 0.017205574578683408 0 0.0048827989237980804 0.017141330926927451 0 0.0048827989237980804 0.017141330926927451 0 0.0053585887089784854 0.016553870381704031 0 0.0046303348805212087 0.01655572158535985 0 0.0053585887089784854 0.016553870381704031 0 0.0046303348805212087 0.01655572158535985 0 0.0053140322780288185 0.015869800660589451 0 0.0048827989237980804 0.017141330926927451 0 0.0046303348805212087 0.01655572158535985 0 0.0040938544316237819 0.016893098090217565 0 0.0040938544316237819 0.016893098090217565 0 0.003627549695692863 0.01661983047263061 0 0.0039709093859575505 0.016130278312718734 0 0.0046303348805212087 0.01655572158535985 0 0.0040938544316237819 0.016893098090217565 0 0.0039709093859575505 0.016130278312718734 0 0.0040938544316237819 0.016893098090217565 0 0.0036726877588922021 0.017265028073134618 0 0.003627549695692863 0.01661983047263061 0 0.004339970135604776 0.017606718064509148 0 0.0040938544316237819 0.016893098090217565 0 0.0036726877588922021 0.017265028073134618 0 0.0045662390103583589 0.016002723604717946 0 0.0037430618155443515 0.017030261156031228 0 0.0040711039954565396 0.01845394006834998 0 0.0036845044494686892 0.018127765737356256 0 0.0036270805350705703 0.018318438671316484 0 0.0022006239821478575 0.018075903575363629 0 0.0026679554934262275 0.018189288316677266 0 0.0022075896439844897 0.017806323280699463 0 0.0037430618155443515 0.017030261156031228 0 0.0031875552918209349 0.018324202665920965 0 0.0010112548029807809 0.020478412926193925 0 0.00057085183818500398 0.020557589136422177 0 0.0037430618155443515 0.017030261156031228 0 0.003491984053524673 0.017539017235017079 0 0.0036726877588922021 0.017265028073134618 0 0.003627549695692863 0.01661983047263061 0 0.0031579983981792144 0.016643565399487609 0 0.003627549695692863 0.01661983047263061 0 0.0031579983981792144 0.016643565399487609 0 0.0033588944238684528 0.016394797385455337 0 0.00302976781800404 0.018166851042845985 0 0.0036845044494686892 0.018127765737356256 0 0.0036270805350705703 0.018318438671316484 0 0.00302976781800404 0.018166851042845985 0 0.0036845044494686892 0.018127765737356256 0 0.0031796616205570284 0.017636773586095215 0 0.003491984053524673 0.017539017235017079 0 0.0029847008670415747 0.017046517224456648 0 0.0022047003838370342 0.019540199609474063 0 0.0031875552918209349 0.018324202665920965 0 -8.8014486492746421e-08 0.022958934994365 0 -9.301136685248404e-05 0.022610644143209749 0 -0.00046363305843668303 0.022622538013593246 0 -9.301136685248404e-05 0.022610644143209749 0 -0.00046363305843668303 0.022622538013593246 0 -0.00029819177276933545 0.022246425485147867 0 0.0022047003838370342 0.019540199609474063 0 0.0010112548029807809 0.020478412926193925 0 0.0030421611246868952 0.018518384065010871 0 0.0026679554934262275 0.018189288316677266 0 0.0026641273993360829 0.018302566514208585 0 0.0022006239821478575 0.018075903575363629 0 0.0026679554934262275 0.018189288316677266 0 0.0026641273993360829 0.018302566514208585 0 -0.00046363305843668303 0.022622538013593246 0 -0.00029819177276933545 0.022246425485147867 0 -0.00071501845939371457 0.022060683830241366 0 -9.1813319304529645e-06 0.02232132539414175 0 -0.00029819177276933545 0.022246425485147867 0 -8.6593609597043446e-05 0.022004061216561763 0 -9.1813319304529645e-06 0.02232132539414175 0 -9.301136685248404e-05 0.022610644143209749 0 -0.00029819177276933545 0.022246425485147867 0 -0.00034502764701506709 0.019819812501782337 0 4.3315371557386097e-05 0.020076062242178158 0 -0.00041559344999869658 0.019957837064182291 0 -0.00029251772677517038 0.022047521635962113 0 -8.6593609597043446e-05 0.022004061216561763 0 -0.00044507478847288941 0.021858327300616518 0 -1.9164511350106536e-05 0.02106988414245126 0 -0.00034473791803184359 0.020353574773599496 0 -0.00029819177276933545 0.022246425485147867 0 -0.00029251772677517038 0.022047521635962113 0 -8.6593609597043446e-05 0.022004061216561763 0 -0.00029819177276933545 0.022246425485147867 0 -0.00050649555670437372 0.021960471689426244 0 -0.00071501845939371457 0.022060683830241366 0 -0.00029819177276933545 0.022246425485147867 0 -0.00029251772677517038 0.022047521635962113 0 -0.00050649555670437372 0.021960471689426244 0 -0.00029251772677517038 0.022047521635962113 0 -0.00050649555670437372 0.021960471689426244 0 -0.00044507478847288941 0.021858327300616518 0 -0.0007296334964215363 0.02169846598797838 0 -0.00050649555670437372 0.021960471689426244 0 -0.00042277247306134668 0.021797863097152391 0 -0.00073161386579110265 0.016935454004794237 0 -0.00034473791803184359 0.020353574773599496 0 -0.00072774584465577026 0.021604655141651465 0 -0.00034473791803184359 0.020353574773599496 0 -0.0007296334964215363 0.02169846598797838 0 -0.00071501845939371457 0.022060683830241366 0 -0.0012377216722550604 0.021702897445302832 0 -0.0007296334964215363 0.02169846598797838 0 -0.00050649555670437372 0.021960471689426244 0 -0.00071501845939371457 0.022060683830241366 0 -0.0013844324617015252 0.021855617745353606 0 -0.0012377216722550604 0.021702897445302832 0 -0.00092221893992605315 0.022248465144447178 0 -0.00073161386579110265 0.016935454004794237 0 -0.0013450577340726061 0.012625027707939428 0 -0.00071501845939371457 0.022060683830241366 0 -0.0012377216722550604 0.021702897445302832 0 -0.00092221893992605315 0.022248465144447178 0 0.001638534246885523 0.017347216816396168 0 0.0018784088755556976 0.017783608061066231 0 0.0022075896439844897 0.017806323280699463 0 0.0052227790716346256 0.014328118424071582 0 0.0048869582845055643 0.014274712131560955 0 0.0051439074708139812 0.014414620208336917 0 0.0014109303860208404 0.015646403094124021 0 0.00057085183818500398 0.020557589136422177 0 0.0022006239821478575 0.018075903575363629 0 0.0018784088755556976 0.017783608061066231 0 0.0022075896439844897 0.017806323280699463 0 0.0037430618155443515 0.017030261156031228 0 0.0035408483034565551 0.016117929838033163 0 -0.00046363305843668303 0.022622538013593246 0 -0.00071501845939371457 0.022060683830241366 0 -0.00092221893992605315 0.022248465144447178 0 0.0036260569057847362 -0.01988644691243064 0 0.0017527786364681319 -0.020188650806606534 0 0.0030801448571670638 -0.018869533047912886 0 0.0036260569057847362 -0.01988644691243064 0 0.0038682404527619826 -0.021145856536430464 0 0.0026204106887103723 -0.021317682538114679 0 0.0036260569057847362 -0.01988644691243064 0 0.0049093525252322922 -0.020143335194349809 0 0.0038682404527619826 -0.021145856536430464 0 0.0036260569057847362 -0.01988644691243064 0 0.0049093525252322922 -0.020143335194349809 0 0.0045783316606176705 -0.019066404328183007 0 0.0049093525252322922 -0.020143335194349809 0 0.0045783316606176705 -0.019066404328183007 0 0.0054470486165540521 -0.018359687735381176 0 0.0049093525252322922 -0.020143335194349809 0 0.0046839827411859613 -0.022040254842411032 0 0.0038682404527619826 -0.021145856536430464 0 0.0049093525252322922 -0.020143335194349809 0 0.0046839827411859613 -0.022040254842411032 0 0.0061571548547120821 -0.02102044042673357 0 0.0026204106887103723 -0.021317682538114679 0 0.0034748663243338381 -0.022302061830143213 0 0.0020517504933330872 -0.02264727028852687 0 0.0046839827411859613 -0.022040254842411032 0 0.0038682404527619826 -0.021145856536430464 0 0.0034748663243338381 -0.022302061830143213 0 0.0038682404527619826 -0.021145856536430464 0 0.0026204106887103723 -0.021317682538114679 0 0.0034748663243338381 -0.022302061830143213 0 0.0026204106887103723 -0.021317682538114679 0 0.00047683073608752196 -0.022059877647961999 0 0.0020517504933330872 -0.02264727028852687 0 0.0026204106887103723 -0.021317682538114679 0 0.00047683073608752196 -0.022059877647961999 0 0.0017527786364681319 -0.020188650806606534 0 0.00047683073608752196 -0.022059877647961999 0 0.0017527786364681319 -0.020188650806606534 0 -0.00036945126177750356 -0.019977198913799399 0 0.0017527786364681319 -0.020188650806606534 0 0.0011870081665115906 -0.018756355005939106 0 -0.00036945126177750356 -0.019977198913799399 0 0.0036260569057847362 -0.01988644691243064 0 0.0026204106887103723 -0.021317682538114679 0 0.0017527786364681319 -0.020188650806606534 0 0.0017527786364681319 -0.020188650806606534 0 0.0011870081665115906 -0.018756355005939106 0 0.0030801448571670638 -0.018869533047912886 0 0.0023475042040766681 -0.01791944844454571 0 0.0011870081665115906 -0.018756355005939106 0 0.0013840270915048553 -0.016462573259480865 0 0.0023475042040766681 -0.01791944844454571 0 0.0011870081665115906 -0.018756355005939106 0 0.0030801448571670638 -0.018869533047912886 0 -0.00039334051493507076 -0.01806902115171018 0 0.0011870081665115906 -0.018756355005939106 0 -0.00036945126177750356 -0.019977198913799399 0 -0.00039334051493507076 -0.01806902115171018 0 0.0011870081665115906 -0.018756355005939106 0 0.0013840270915048553 -0.016462573259480865 0 -0.00039334051493507076 -0.01806902115171018 0 0.0013840270915048553 -0.016462573259480865 0 -0.00014303369974965322 -0.014921149702625387 0 0.0013840270915048553 -0.016462573259480865 0 0.0039476586867885667 -0.016295602198980515 0 0.0024015133928722539 -0.014672938973897317 0 0.0023475042040766681 -0.01791944844454571 0 0.0013840270915048553 -0.016462573259480865 0 0.0039476586867885667 -0.016295602198980515 0 0.002643206695884122 -0.017641113222667006 0 0.0032072948641055248 -0.017123145820573379 0 0.0023475042040766681 -0.01791944844454571 0 0.0033691078731136991 -0.017023305620216596 0 0.0040323363616230163 -0.018278685230279722 0 0.0033691078731136991 -0.017023305620216596 0 0.004518884900092804 -0.017196123638953183 0 0.0043929731143878088 -0.016010095756321178 0 0.0033691078731136991 -0.017023305620216596 0 0.0040323363616230163 -0.018278685230279722 0 0.004518884900092804 -0.017196123638953183 0 0.0036260569057847362 -0.01988644691243064 0 0.0030801448571670638 -0.018869533047912886 0 0.0040323363616230163 -0.018278685230279722 0 0.0023475042040766681 -0.01791944844454571 0 0.0030801448571670638 -0.018869533047912886 0 0.0040323363616230163 -0.018278685230279722 0 0.0036260569057847362 -0.01988644691243064 0 0.0040323363616230163 -0.018278685230279722 0 0.0045783316606176705 -0.019066404328183007 0 0.0040323363616230163 -0.018278685230279722 0 0.0045783316606176705 -0.019066404328183007 0 0.0054470486165540521 -0.018359687735381176 0 0.0040323363616230163 -0.018278685230279722 0 0.004518884900092804 -0.017196123638953183 0 0.0054470486165540521 -0.018359687735381176 0 0.0055451168894462624 -0.010240475588763611 0 0.0045582143607101949 -0.010215808576569533 0 0.004518884900092804 -0.017196123638953183 0 0.0055450262495200285 -0.017526514931199322 0 0.0054470486165540521 -0.018359687735381176 0 0.004518884900092804 -0.017196123638953183 0 0.0055450262495200285 -0.017526514931199322 0 0.0043929731143878088 -0.016010095756321178 0 0.0059030473028736522 -0.0035613930356872057 0 0.0074078045226930109 -0.0034155474138118733 0 0.0060655293549011806 -0.00244911556777592 0 0.0059030473028736522 -0.0035613930356872057 0 0.0074078045226930109 -0.0034155474138118733 0 0.006963581271303745 -0.0046953787459887621 0 0.0074078045226930109 -0.0034155474138118733 0 0.006963581271303745 -0.0046953787459887621 0 0.0087925978142013167 -0.0042418050542574427 0 0.0055451168894462624 -0.010240475588763611 0 0.0066953722556582504 -0.012291500372429104 0 0.0055450262495200285 -0.017526514931199322 0 0.0057493040907009669 -0.018315672749072365 0 0.0054470486165540521 -0.018359687735381176 0 0.0087336942758319876 0.011097225038442397 0 0.0082966255182215457 0.0039159722324440165 0 0.008475541706235613 0.0099088144003089337 0 0.0073586556984299905 0.0082143163082616637 0 0.0089294743117015393 0.0083629863797589701 0 0.0082966255182215457 0.0039159722324440165 0 0.0075285367360632613 0.0038077181999151151 0 0.0074078045226930109 -0.0034155474138118733 0 0.0087925978142013167 -0.0042418050542574427 0 0.0081914293690694539 -0.0022939076361348952 0 0.008475541706235613 0.0099088144003089337 0 0.0077561068349281392 0.0083930390923447652 0 0.0071846663861612993 0.010805225982560047 0 0.006963581271303745 -0.0046953787459887621 0 0.0087925978142013167 -0.0042418050542574427 0 0.0080137585635254079 -0.005840891345736089 0 0.0073586556984299905 0.0082143163082616637 0 0.0089294743117015393 0.0083629863797589701 0 0.0083552108644406771 0.0072868157671267088 0 0.0082966255182215457 0.0039159722324440165 0 0.0078751588810470601 0.0050907450381673588 0 0.0073586556984299905 0.0082143163082616637 0 0.0083552108644406771 0.0072868157671267088 0 0.0078729346482746439 0.0059295036880017103 0 0.0087148293237325879 0.0062566367490718977 0 0.0078729346482746439 0.0059295036880017103 0 0.0081982405068009162 0.0053634567008832646 0 0.0094778850718236409 0.0068348032103234743 0 0.0083552108644406771 0.0072868157671267088 0 0.0087148293237325879 0.0062566367490718977 0 0.0083552108644406771 0.0072868157671267088 0 0.0087148293237325879 0.0062566367490718977 0 0.0078729346482746439 0.0059295036880017103 0 0.0082423513273065623 0.0029179941626998234 0 0.0080669495411387921 0.003562303402068482 0 0.0085192044658976441 0.003485313922003738 0 0.0082966255182215457 0.0039159722324440165 0 0.0067816115881064098 -0.0068962883706036289 0 0.0050408460325913089 -0.0081630494756563202 0 0.0054874513846765553 -0.0072661281776996512 0 0.0038991472031958772 -0.0068890704420329846 0 0.0080669495411387921 0.003562303402068482 0 0.0085192044658976441 0.003485313922003738 0 0.0081203750621341598 0.0040051133307564641 0 0.0067816115881064098 -0.0068962883706036289 0 0.00604894013757434 -0.00059812477318560615 0 0.0078729346482746439 0.0059295036880017103 0 0.0081982405068009162 0.0053634567008832646 0 0.0082154926596292987 0.0040121454972080698 0 0.0078751588810470601 0.0050907450381673588 0 0.008251397489468763 0.0038783409826941349 0 0.0083904621972073854 0.0045589768072672515 0 0.0081982405068009162 0.0053634567008832646 0 0.0082154926596292987 0.0040121454972080698 0 0.0080669495411387921 0.003562303402068482 0 0.0081203750621341598 0.0040051133307564641 0 0.0082154926596292987 0.0040121454972080698 0 0.0049093525252322922 -0.020143335194349809 0 0.0054470486165540521 -0.018359687735381176 0 0.0061571548547120821 -0.02102044042673357 0 0.0057493040907009669 -0.018315672749072365 0 0.0054470486165540521 -0.018359687735381176 0 0.005688421467404948 -0.018317504487654835 0 0.0053446488502961065 -0.018161154926854692 0 0.0062756795653588328 -0.020189175257389506 0 0.0066953722556582504 -0.012291500372429104 0 0.0067816115881064098 -0.0068962883706036289 0 0.0057493040907009669 -0.018315672749072365 0 0.0056863519384019821 -0.018275591849372476 0 0.005688421467404948 -0.018317504487654835 0 0.0057493040907009669 -0.018315672749072365 0 0.0056549469396150638 -0.018230172921048692 0 0.0056863519384019821 -0.018275591849372476 0 0.0056863519384019821 -0.018275591849372476 0 0.0056503330036190708 -0.01824229912718189 0 0.0056696090178046761 -0.018263704863058939 0 0.0056863519384019821 -0.018275591849372476 0 0.0056696090178046761 -0.018263704863058939 0 0.005688421467404948 -0.018317504487654835 0 0.0067816115881064098 -0.0068962883706036289 0 0.0029552724585926535 -0.013458683868649651 0 0.0056549469396150638 -0.018230172921048692 0 0.0056863519384019821 -0.018275591849372476 0 0.0056503330036190708 -0.01824229912718189 0 0.0056696090178046761 -0.018263704863058939 0 0.005688421467404948 -0.018317504487654835 0 0.0056636026418329481 -0.018184358630485793 0 0.0061571548547120821 -0.02102044042673357 0 0.0054005718122363197 -0.023201365559722659 0 0.0066601000830252043 -0.023216211910090049 0 0.0046839827411859613 -0.022040254842411032 0 0.0061571548547120821 -0.02102044042673357 0 0.0054005718122363197 -0.023201365559722659 0 0.0062756795653588328 -0.020189175257389506 0 0.0039800029962788405 -0.018564616709494577 0 0.0015317470803149521 -0.014986014120949513 0 0.0016823744635828055 -0.014659038159125677 0 0.0014279677537372571 -0.014696638118301688 0 0.0056503330036190708 -0.01824229912718189 0 0.0056696090178046761 -0.018263704863058939 0 0.0056636026418329481 -0.018184358630485793 0 0.0029552724585926535 -0.013458683868649651 0 0.0039800029962788405 -0.018564616709494577 0 0.0016823744635828055 -0.014659038159125677 0 0.0014279677537372571 -0.014696638118301688 0 0.0013415105979732087 -0.014456912569010797 0 0.0016823744635828055 -0.014659038159125677 0 0.0013415105979732087 -0.014456912569010797 0 0.0015381704836999941 -0.01430576675179838 0 0.0039800029962788405 -0.018564616709494577 0 0.0013546426540716925 -0.013992946579149063 0 0.0020559395133791306 -0.016134621868403219 0 0.0025802165129765503 -0.014960716688914461 0 0.0017228401946906447 -0.015087792793891943 0 0.0054005718122363197 -0.023201365559722659 0 0.0056379877573034844 -0.024973516270056634 0 0.0046763497672797942 -0.024339640008480705 0 0.0054005718122363197 -0.023201365559722659 0 0.0066601000830252043 -0.023216211910090049 0 0.0056379877573034844 -0.024973516270056634 0 0.0039800029962788405 -0.018564616709494577 0 0.0041188286633964738 -0.020211812879551136 0 0.008476502461745479 0.0036403431649129651 0 0.0081203750621341598 0.0040051133307564641 0 0.0082154926596292987 0.0040121454972080698 0 0.0040208580136009663 -0.0017248811335958637 0 0.00604894013757434 -0.00059812477318560615 0 0.0027612419539494218 -0.0056222810132923826 0 0.0038991472031958772 -0.0068890704420329846 0 0.0043630672483892475 -0.0062487809115987615 0 0.0015317470803149521 -0.014986014120949513 0 0.0014279677537372571 -0.014696638118301688 0 0.0011420322226185599 -0.014683508540820027 0 0.0054874513846765553 -0.0072661281776996512 0 0.0038991472031958772 -0.0068890704420329846 0 0.0043630672483892475 -0.0062487809115987615 0 0.0029552724585926535 -0.013458683868649651 0 0.0027588242605483182 -0.010328238440909118 0 0.0013415105979732087 -0.014456912569010797 0 0.00092300006707993622 -0.014408871689418765 0 0.0011651189978117349 -0.014288992269093944 0 0.0011420322226185599 -0.014683508540820027 0 0.0013415105979732087 -0.014456912569010797 0 0.00085147007379351937 -0.014133691573439572 0 0.0012283486737960129 -0.014386792166860896 0 0.00099325201712668551 -0.014525893708646339 0 0.0014279677537372571 -0.014696638118301688 0 0.0011420322226185599 -0.014683508540820027 0 0.0013415105979732087 -0.014456912569010797 0 0.00060537575849478652 -0.014189005528305458 0 0.0011420322226185599 -0.014683508540820027 0 0.00085147007379351937 -0.014133691573439572 0 0.0032367167216526662 -0.0052420899569319696 0 0.0027612419539494218 -0.0056222810132923826 0 0.0043630672483892475 -0.0062487809115987615 0 0.0020684076023698189 -0.0084441397599785938 0 0.0027588242605483182 -0.010328238440909118 0 0.00071760018755120687 -0.014124130655342154 0 0.00097393460991037771 -0.014179232846497677 0 0.00086562218722269289 -0.01392741198051475 0 0.00092300006707993622 -0.014408871689418765 0 0.00071760018755120687 -0.014124130655342154 0 0.00097393460991037771 -0.014179232846497677 0 0.00092300006707993622 -0.014408871689418765 0 0.00097393460991037771 -0.014179232846497677 0 0.0011651189978117349 -0.014288992269093944 0 0.00097393460991037771 -0.014179232846497677 0 0.0011795023036602693 -0.014097645168237912 0 0.00086562218722269289 -0.01392741198051475 0 0.00097393460991037771 -0.014179232846497677 0 0.0011795023036602693 -0.014097645168237912 0 0.0011651189978117349 -0.014288992269093944 0 0.0011795023036602693 -0.014097645168237912 0 0.0011651189978117349 -0.014288992269093944 0 0.0013483297207624561 -0.014240243207985262 0 0.0013415105979732087 -0.014456912569010797 0 0.0013483297207624561 -0.014240243207985262 0 0.0015381704836999941 -0.01430576675179838 0 0.0013415105979732087 -0.014456912569010797 0 0.0011651189978117349 -0.014288992269093944 0 0.0013483297207624561 -0.014240243207985262 0 0.0011795023036602693 -0.014097645168237912 0 0.0013483297207624561 -0.014240243207985262 0 0.0014848202623279781 -0.014036432768736595 0 0.0011795023036602693 -0.014097645168237912 0 0.001163161916662304 -0.013701873046956369 0 0.0014848202623279781 -0.014036432768736595 0 0.001163161916662304 -0.013701873046956369 0 0.0014848202623279781 -0.014036432768736595 0 0.001590962534085951 -0.01354560021170996 0 0.0011795023036602693 -0.014097645168237912 0 0.001163161916662304 -0.013701873046956369 0 0.00086562218722269289 -0.01392741198051475 0 0.001163161916662304 -0.013701873046956369 0 0.00086562218722269289 -0.01392741198051475 0 0.00082913512586961361 -0.013613619114405656 0 0.00051129882067131192 -0.013794873034775872 0 0.00086562218722269289 -0.01392741198051475 0 0.00082913512586961361 -0.013613619114405656 0 0.0025802165129765503 -0.014960716688914461 0 0.0017228401946906447 -0.015087792793891943 0 0.0022198093710477851 -0.014122654868192148 0 0.0013546426540716925 -0.013992946579149063 0 0.0015799537864191401 -0.014368940440928419 0 0.0013483297207624561 -0.014240243207985262 0 0.0015381704836999941 -0.01430576675179838 0 0.0014848202623279781 -0.014036432768736595 0 0.0014848202623279781 -0.014036432768736595 0 0.0022198093710477851 -0.014122654868192148 0 0.001590962534085951 -0.01354560021170996 0 0.0017228401946906447 -0.015087792793891943 0 0.0014848202623279781 -0.014036432768736595 0 0.0022198093710477851 -0.014122654868192148 0 0.0025802165129765503 -0.014960716688914461 0 0.0022198093710477851 -0.014122654868192148 0 0.0030427933069180667 -0.013915738611175035 0 0.0022198093710477851 -0.014122654868192148 0 0.0030427933069180667 -0.013915738611175035 0 0.0021806301407293924 -0.013411675701732614 0 0.0041188286633964738 -0.020211812879551136 0 0.0037537899956847473 -0.019933961392835282 0 0.0047020507801292955 -0.026580080225533206 0 0.0041719253851935983 -0.025725672525185626 0 0.0046549521438411573 -0.025226671114444484 0 0.0039799812229376341 -0.026044751809660201 0 0.0037398309842574078 -0.025974089627341636 0 0.0039358518279759324 -0.026164840987572616 0 0.0037537899956847473 -0.019933961392835282 0 0.0050548949820388442 -0.026167430585241794 0 0.0047020507801292955 -0.026580080225533206 0 0.0041719253851935983 -0.025725672525185626 0 0.0037398309842574078 -0.025974089627341636 0 0.0017482738562672379 -0.024146638455520661 0 0.001774447268400398 -0.024450723381334766 0 0.0014307053581361121 -0.024001677724852306 0 0.0037398309842574078 -0.025974089627341636 0 0.0035874330863370271 -0.025978358076343709 0 0.0039358518279759324 -0.026164840987572616 0 0.0029322797608422229 -0.025790889264570554 0 0.0028257391933360606 -0.021079998789376293 0 0.0019443124534310101 -0.02429261061113383 0 0.0017482738562672379 -0.024146638455520661 0 0.0019397534847085535 -0.024006504697480537 0 0.0019443124534310101 -0.02429261061113383 0 0.0017482738562672379 -0.024146638455520661 0 0.001774447268400398 -0.024450723381334766 0 0.0037279006099375897 -0.02572486532917367 0 0.0035874330863370271 -0.025978358076343709 0 0.0033727363600228586 -0.02544426011986383 0 0.0041719253851935983 -0.025725672525185626 0 0.0037398309842574078 -0.025974089627341636 0 0.0037279006099375897 -0.02572486532917367 0 0.0037398309842574078 -0.025974089627341636 0 0.0037279006099375897 -0.02572486532917367 0 0.0035874330863370271 -0.025978358076343709 0 0.0019443124534310101 -0.02429261061113383 0 0.001774447268400398 -0.024450723381334766 0 0.0020080890721931289 -0.024456309890863694 0 0.0029322797608422229 -0.025790889264570554 0 0.0021450898556234842 -0.024875322335285846 0 0.0035874330863370271 -0.025978358076343709 0 0.0033727363600228586 -0.02544426011986383 0 0.0025941101375817322 -0.025097520765167389 0 0.001774447268400398 -0.024450723381334766 0 0.0020664024218465678 -0.024812859200548876 0 0.0020080890721931289 -0.024456309890863694 0 0.0033727363600228586 -0.02544426011986383 0 0.0038030438642024122 -0.025415207299549065 0 0.0032960261087961705 -0.025103601690382588 0 0.0037279006099375897 -0.02572486532917367 0 0.0033727363600228586 -0.02544426011986383 0 0.0038030438642024122 -0.025415207299549065 0 0.0041719253851935983 -0.025725672525185626 0 0.0037279006099375897 -0.02572486532917367 0 0.0038030438642024122 -0.025415207299549065 0 0.0038246217606851306 -0.024812363619079531 0 0.0032960261087961705 -0.025103601690382588 0 0.003100334459854609 -0.024569771998291016 0 0.0038030438642024122 -0.025415207299549065 0 0.0038246217606851306 -0.024812363619079531 0 0.0032960261087961705 -0.025103601690382588 0 0.0033727363600228586 -0.02544426011986383 0 0.0032960261087961705 -0.025103601690382588 0 0.0024096120204669669 -0.024917607290467034 0 0.0032960261087961705 -0.025103601690382588 0 0.003100334459854609 -0.024569771998291016 0 0.0024096120204669669 -0.024917607290467034 0 0.0056379877573034844 -0.024973516270056634 0 0.0047020507801292955 -0.026580080225533206 0 0.0046549521438411573 -0.025226671114444484 0 0.0041719253851935983 -0.025725672525185626 0 0.0038030438642024122 -0.025415207299549065 0 0.0046549521438411573 -0.025226671114444484 0 0.0038030438642024122 -0.025415207299549065 0 0.0038246217606851306 -0.024812363619079531 0 0.0046549521438411573 -0.025226671114444484 0 0.0038246217606851306 -0.024812363619079531 0 0.0046549521438411573 -0.025226671114444484 0 0.0046763497672797942 -0.024339640008480705 0 0.0056379877573034844 -0.024973516270056634 0 0.0046549521438411573 -0.025226671114444484 0 0.0046763497672797942 -0.024339640008480705 0 0.0054005718122363197 -0.023201365559722659 0 0.0046763497672797942 -0.024339640008480705 0 0.0046248854807542598 -0.023384925087912574 0 0.0046248854807542598 -0.023384925087912574 0 0.0037728134077498914 -0.024013501233338553 0 0.0038962213432670884 -0.023060004535911303 0 0.0046763497672797942 -0.024339640008480705 0 0.0046248854807542598 -0.023384925087912574 0 0.0037728134077498914 -0.024013501233338553 0 0.0038246217606851306 -0.024812363619079531 0 0.0046763497672797942 -0.024339640008480705 0 0.0037728134077498914 -0.024013501233338553 0 0.0038246217606851306 -0.024812363619079531 0 0.003100334459854609 -0.024569771998291016 0 0.0037728134077498914 -0.024013501233338553 0 0.003100334459854609 -0.024569771998291016 0 0.0029441173716378906 -0.023511853324175006 0 0.0037728134077498914 -0.024013501233338553 0 0.003100334459854609 -0.024569771998291016 0 0.0029441173716378906 -0.023511853324175006 0 0.0023672854250428687 -0.024033520130989854 0 0.0029441173716378906 -0.023511853324175006 0 0.0037728134077498914 -0.024013501233338553 0 0.0038962213432670884 -0.023060004535911303 0 0.0029441173716378906 -0.023511853324175006 0 0.0038962213432670884 -0.023060004535911303 0 0.0034748663243338381 -0.022302061830143213 0 0.0029441173716378906 -0.023511853324175006 0 0.0034748663243338381 -0.022302061830143213 0 0.0020517504933330872 -0.02264727028852687 0 0.0046839827411859613 -0.022040254842411032 0 0.0038962213432670884 -0.023060004535911303 0 0.0034748663243338381 -0.022302061830143213 0 0.0046839827411859613 -0.022040254842411032 0 0.0046248854807542598 -0.023384925087912574 0 0.0038962213432670884 -0.023060004535911303 0 0.0046839827411859613 -0.022040254842411032 0 0.0054005718122363197 -0.023201365559722659 0 0.0046248854807542598 -0.023384925087912574 0 0.00047683073608752196 -0.022059877647961999 0 0.0012245392629919008 -0.023726849026662597 0 4.3549953824421145e-05 -0.023666658456456401 0 0.00047683073608752196 -0.022059877647961999 0 0.0020517504933330872 -0.02264727028852687 0 0.0012245392629919008 -0.023726849026662597 0 0.00046235565085809541 -0.022213469765367935 0 -0.00028410116640033853 -0.024499757110108572 0 0.0029441173716378906 -0.023511853324175006 0 0.0020517504933330872 -0.02264727028852687 0 0.00213762912852174 -0.02343367308237573 0 0.0020517504933330872 -0.02264727028852687 0 0.00213762912852174 -0.02343367308237573 0 0.0012245392629919008 -0.023726849026662597 0 0.00213762912852174 -0.02343367308237573 0 0.0023672854250428687 -0.024033520130989854 0 0.0012245392629919008 -0.023726849026662597 0 0.0013986836956340302 -0.024517315732911334 0 0.0012245392629919008 -0.023726849026662597 0 0.0019650170079589303 -0.024788912814793555 0 0.0013202500820591054 -0.023825104109412791 0 0.0020942411191681438 -0.024786057252620501 0 0.0023672854250428687 -0.024033520130989854 0 0.0012245392629919008 -0.023726849026662597 0 0.0024096120204669669 -0.024917607290467034 0 0.0029441173716378906 -0.023511853324175006 0 0.00213762912852174 -0.02343367308237573 0 0.0023672854250428687 -0.024033520130989854 0 0.003100334459854609 -0.024569771998291016 0 0.0023672854250428687 -0.024033520130989854 0 0.0024096120204669669 -0.024917607290467034 0 0.0010210822797956022 -0.024429193866764388 0 0.0012245392629919008 -0.023726849026662597 0 4.3549953824421145e-05 -0.023666658456456401 0 0.0013986836956340302 -0.024517315732911334 0 0.0010210822797956022 -0.024429193866764388 0 0.0012245392629919008 -0.023726849026662597 0 0.0010210822797956022 -0.024429193866764388 0 0.00037220976046175051 -0.024708119037514496 0 4.3549953824421145e-05 -0.023666658456456401 0 0.00037220976046175051 -0.024708119037514496 0 0.0013880698030947706 -0.025100333545199489 0 0.00032393326307142135 -0.026267571036933734 0 0.0010210822797956022 -0.024429193866764388 0 0.00037220976046175051 -0.024708119037514496 0 0.0013880698030947706 -0.025100333545199489 0 0.0013986836956340302 -0.024517315732911334 0 0.0010210822797956022 -0.024429193866764388 0 0.0013880698030947706 -0.025100333545199489 0 0.0020678725003477273 -0.024938323291527693 0 0.0013880698030947706 -0.025100333545199489 0 0.0016651808772893009 -0.02593093308767783 0 0.0020678725003477273 -0.024938323291527693 0 0.0019650170079589303 -0.024788912814793555 0 0.0013880698030947706 -0.025100333545199489 0 0.0033727363600228586 -0.02544426011986383 0 0.0025941101375817322 -0.025097520765167389 0 0.0024096120204669669 -0.024917607290467034 0 0.0021450898556234842 -0.024875322335285846 0 0.0020942411191681438 -0.024786057252620501 0 0.0013986836956340302 -0.024517315732911334 0 0.0019650170079589303 -0.024788912814793555 0 0.0013880698030947706 -0.025100333545199489 0 0.0020664024218465678 -0.024812859200548876 0 0.0020080890721931289 -0.024456309890863694 0 0.0022372191580260666 -0.02427613342311025 0 0.0021450898556234842 -0.024875322335285846 0 0.0020012057254498537 -0.025032943714322225 0 0.0019443124534310101 -0.02429261061113383 0 0.0022372191580260666 -0.02427613342311025 0 0.0019397534847085535 -0.024006504697480537 0 0.0019443124534310101 -0.02429261061113383 0 0.0020080890721931289 -0.024456309890863694 0 0.0022372191580260666 -0.02427613342311025 0 0.0016651808772893009 -0.02593093308767783 0 0.00096103353742589537 -0.026401925288524548 0 0.00062235157853833501 -0.02591336258672796 0 0.001329198017917939 -0.025166781961353281 0 0.00047709392075064434 -0.02608495005202946 0 0.0013880698030947706 -0.025100333545199489 0 0.0016651808772893009 -0.02593093308767783 0 0.00062235157853833501 -0.02591336258672796 0 0.00096103353742589537 -0.026401925288524548 0 0.00040342675245311216 -0.026620355011450245 0 0.00062235157853833501 -0.02591336258672796 0 0.001296484506559992 -0.025572246602507582 0 0.00056861532046273866 -0.026800392324014159 0 0.0013145347756849716 -0.026825792057505387 0 0.0012301443808933538 -0.027088272227361085 0 0.00040342675245311216 -0.026620355011450245 0 0.00096103353742589537 -0.026401925288524548 0 0.0013520424725307772 -0.026845798481565566 0 0.00040342675245311216 -0.026620355011450245 0 0.0016651808772893009 -0.02593093308767783 0 0.00096103353742589537 -0.026401925288524548 0 0.0013520424725307772 -0.026845798481565566 0 0.00055138876190697706 -0.025430112180852962 0 0.00018223995044387424 -0.025220651684948199 0 0.00046724012389119803 -0.024506778276592832 0 0.00056233765671466712 -0.024637163521848863 0 0.0002376046474133118 -0.025021400158839326 0 0.00015651109834898926 -0.02533754451329083 0 8.9678818835117991e-06 -0.025458415688919267 0 -0.00011833420548194031 -0.025391371021781121 0 0.00055138876190697706 -0.025430112180852962 0 0.00024377087260320457 -0.026221669155365637 0 0.00015651109834898926 -0.02533754451329083 0 8.9678818835117991e-06 -0.025458415688919267 0 8.6730543534330708e-05 -0.025538678027570483 0 0.00054324423677690225 -0.024550462175721571 0 0.00053869881027883784 -0.024560786127335508 0 0.00054427162269696878 -0.024557676643994282 0 0.001296484506559992 -0.025572246602507582 0 0.00055138876190697706 -0.025430112180852962 0 0.00056233765671466712 -0.024637163521848863 0 0.00057119754228310163 -0.024583188247293362 0 0.00055781856854934093 -0.024588720346819685 0 0.001296484506559992 -0.025572246602507582 0 0.00090437244284825272 -0.022101122533993413 0 0.00054324423677690225 -0.024550462175721571 0 0.00054427162269696878 -0.024557676643994282 0 0.00057119754228310163 -0.024583188247293362 0 0.00056233765671466712 -0.024637163521848863 0 0.00054427162269696878 -0.024557676643994282 0 0.00057119754228310163 -0.024583188247293362 0 0.00046724012389119803 -0.024506778276592832 0 0.00056233765671466712 -0.024637163521848863 0 0.00054427162269696878 -0.024557676643994282 0 0.00055138876190697706 -0.025430112180852962 0 0.00058204588225529909 -0.025291418369759421 0 0.0020012057254498537 -0.025032943714322225 0 0.001296484506559992 -0.025572246602507582 0 0.0022372191580260666 -0.02427613342311025 0 0.002392826325908295 -0.023763819562929337 0 0.0019397534847085535 -0.024006504697480537 0 0.002392826325908295 -0.023763819562929337 0 0.0019397534847085535 -0.024006504697480537 0 0.0016485581474517917 -0.023558589951691487 0 0.0019397534847085535 -0.024006504697480537 0 0.0016720147221887484 -0.023954901700510275 0 0.0016485581474517917 -0.023558589951691487 0 0.0017482738562672379 -0.024146638455520661 0 0.0019397534847085535 -0.024006504697480537 0 0.0016720147221887484 -0.023954901700510275 0 0.0017482738562672379 -0.024146638455520661 0 0.0016720147221887484 -0.023954901700510275 0 0.0014307053581361121 -0.024001677724852306 0 0.0018742657693095407 -0.020096366641506144 0 0.0023753838221737488 -0.019084038326210858 0 0.0012916918909321687 -0.019372358933755947 0 0.0016720147221887484 -0.023954901700510275 0 0.0014307053581361121 -0.024001677724852306 0 0.0016485581474517917 -0.023558589951691487 0 0.0028257391933360606 -0.021079998789376293 0 0.00090437244284825272 -0.022101122533993413 0 0.0043279433390035708 -0.015625406683602044 0 0.0046128958751934452 -0.015059382756940567 0 0.0038877075377689559 -0.014133682097679272 0 0.0037537899956847473 -0.019933961392835282 0 0.0028257391933360606 -0.021079998789376293 0 0.0028257391933360606 -0.021079998789376293 0 0.0022727752049177771 -0.016546581961582624 0 0.0023753838221737488 -0.019084038326210858 0 0.0012916918909321687 -0.019372358933755947 0 0.00071340034429048446 -0.018643211398077428 0 -0.0001619972912869725 -0.01998678489113697 0 5.4029553426530366e-05 -0.020248151675565606 0 0.000370004513863036 -0.020090945841838601 0 0.00090437244284825272 -0.022101122533993413 0 0.0015142008077542674 -0.016297157092557576 0 0.00057119754228310163 -0.024583188247293362 0 0.00053417818607590084 -0.024559748581250027 0 0.00055781856854934093 -0.024588720346819685 0 0.00090437244284825272 -0.022101122533993413 0 -1.925211260055601e-05 -0.022729645289989577 0 -0.0001619972912869725 -0.01998678489113697 0 -0.00041794890700464627 -0.020463757015068668 0 5.4029553426530366e-05 -0.020248151675565606 0 -0.00041794890700464627 -0.020463757015068668 0 5.4029553426530366e-05 -0.020248151675565606 0 -5.5592015124873629e-05 -0.020519235088793247 0 5.4029553426530366e-05 -0.020248151675565606 0 -5.5592015124873629e-05 -0.020519235088793247 0 0.00021729600110499735 -0.020535661482894714 0 -5.5592015124873629e-05 -0.020519235088793247 0 -0.00011603905462102013 -0.020762498481415807 0 0.00012205266636316307 -0.020747836888705056 0 -5.5592015124873629e-05 -0.020519235088793247 0 0.00021729600110499735 -0.020535661482894714 0 0.00012205266636316307 -0.020747836888705056 0 -0.00041794890700464627 -0.020463757015068668 0 -0.00011603905462102013 -0.020762498481415807 0 -0.00025784379609985211 -0.020988361511422034 0 -0.00041794890700464627 -0.020463757015068668 0 -5.5592015124873629e-05 -0.020519235088793247 0 -0.00011603905462102013 -0.020762498481415807 0 -1.925211260055601e-05 -0.022729645289989577 0 -0.00046750894703554894 -0.021832573830881424 0 0.00053417818607590084 -0.024559748581250027 0 0.00056995197268953262 -0.024552453177990603 0 0.00058595379782894717 -0.024497141879127871 0 0.00053417818607590084 -0.024559748581250027 0 0.00058595379782894717 -0.024497141879127871 0 0.00055732255860311609 -0.024415637931197803 0 4.6912370039577248e-05 -0.025692064852945777 0 0.00018223995044387424 -0.025220651684948199 0 0.00034475338061328356 -0.025538589040633653 0 0.00049442076156368134 -0.024859077906733265 0 3.8308367846473035e-05 -0.025877971807628783 0 4.6693633154489282e-05 -0.02571735581152446 0 0.00033969584216680628 -0.025280476247053488 0 0.00058595379782894717 -0.024497141879127871 0 0.00065580764051122891 -0.024479720851122481 0 0.00061357541465530271 -0.024566917541540195 0 0.00056995197268953262 -0.024552453177990603 0 0.00058595379782894717 -0.024497141879127871 0 0.00061357541465530271 -0.024566917541540195 0 0.00056233765671466712 -0.024637163521848863 0 0.00033969584216680628 -0.025280476247053488 0 0.0002376046474133118 -0.025021400158839326 0 4.6693633154489282e-05 -0.02571735581152446 0 8.6730543534330708e-05 -0.025538678027570483 0 -8.7317801748847397e-05 -0.025563719680169524 0 0.00055054981318471803 -0.024695613302199534 0 0.00049442076156368134 -0.024859077906733265 0 4.6693633154489282e-05 -0.02571735581152446 0 0.00033969584216680628 -0.025280476247053488 0 0.0002376046474133118 -0.025021400158839326 0 8.9678818835117991e-06 -0.025458415688919267 0 8.6730543534330708e-05 -0.025538678027570483 0 -8.7317801748847397e-05 -0.025563719680169524 0 0.00056233765671466712 -0.024637163521848863 0 0.00061357541465530271 -0.024566917541540195 0 0.00055781856854934093 -0.024588720346819685 0 0.00053417818607590084 -0.024559748581250027 0 0.00056995197268953262 -0.024552453177990603 0 0.00055781856854934093 -0.024588720346819685 0 0.00056995197268953262 -0.024552453177990603 0 0.00061357541465530271 -0.024566917541540195 0 0.00055781856854934093 -0.024588720346819685 0 0.00058399211235924471 -0.013352594270972355 0 0.00085070162757169224 -0.013089610231773291 0 0.0010102104646401743 -0.013288697474453269 0 0.00085070162757169224 -0.013089610231773291 0 0.0010102104646401743 -0.013288697474453269 0 0.00095065903848615108 -0.012914210520107773 0 0.00058399211235924471 -0.013352594270972355 0 0.00065428430555397447 -0.012971088198741083 0 0.00085070162757169224 -0.013089610231773291 0 0.00065428430555397447 -0.012971088198741083 0 0.00085070162757169224 -0.013089610231773291 0 0.00079761073866364005 -0.012889851632585169 0 0.00085070162757169224 -0.013089610231773291 0 0.00095065903848615108 -0.012914210520107773 0 0.00079761073866364005 -0.012889851632585169 0 0.00058399211235924471 -0.013352594270972355 0 0.00082913512586961361 -0.013613619114405656 0 0.0010102104646401743 -0.013288697474453269 0 0.001163161916662304 -0.013701873046956369 0 0.00082913512586961361 -0.013613619114405656 0 0.0010102104646401743 -0.013288697474453269 0 0.0010102104646401743 -0.013288697474453269 0 0.0013006476024524101 -0.013406450439848365 0 0.0014496997714031213 -0.013098755402579213 0 0.001163161916662304 -0.013701873046956369 0 0.0010102104646401743 -0.013288697474453269 0 0.0013006476024524101 -0.013406450439848365 0 0.001163161916662304 -0.013701873046956369 0 0.0013006476024524101 -0.013406450439848365 0 0.001590962534085951 -0.01354560021170996 0 0.0013006476024524101 -0.013406450439848365 0 0.0014496997714031213 -0.013098755402579213 0 0.001590962534085951 -0.01354560021170996 0 0.0017961037861344642 -0.013755581473115942 0 0.0014281835528752651 -0.013095864653662487 0 0.00095065903848615108 -0.012914210520107773 0 0.0017325465577381364 -0.013513980123024787 0 0.00097160488615199883 -0.012945548389757642 0 0.0010102104646401743 -0.013288697474453269 0 0.0014496997714031213 -0.013098755402579213 0 0.00095065903848615108 -0.012914210520107773 0 0.0017961037861344642 -0.013755581473115942 0 0.0014281835528752651 -0.013095864653662487 0 0.0019682535033697175 -0.012989384360253362 0 0.0017961037861344642 -0.013755581473115942 0 0.0027025642867456717 -0.01379063712231555 0 0.0029863046628470238 -0.014677962851717399 0 0.0027025642867456717 -0.01379063712231555 0 0.0031918744043953817 -0.013289726095391131 0 0.0019682535033697175 -0.012989384360253362 0 0.0015142008077542674 -0.016297157092557576 0 0.0018320322757897872 -0.012879120214875941 0 0.0017961037861344642 -0.013755581473115942 0 0.0027025642867456717 -0.01379063712231555 0 0.0019682535033697175 -0.012989384360253362 0 0.0022198093710477851 -0.014122654868192148 0 0.001590962534085951 -0.01354560021170996 0 0.0021806301407293924 -0.013411675701732614 0 0.0014496997714031213 -0.013098755402579213 0 0.001590962534085951 -0.01354560021170996 0 0.0021806301407293924 -0.013411675701732614 0 0.0017325465577381364 -0.013513980123024787 0 0.0022812761061854181 -0.013475944560643662 0 0.0043279433390035708 -0.015625406683602044 0 0.0029863046628470238 -0.014677962851717399 0 0.0038877075377689559 -0.014133682097679272 0 0.0037537899956847473 -0.019933961392835282 0 0.0022812761061854181 -0.013475944560643662 0 0.0022727752049177771 -0.016546581961582624 0 0.0015142008077542674 -0.016297157092557576 0 0.0027025642867456717 -0.01379063712231555 0 0.0029863046628470238 -0.014677962851717399 0 0.0038877075377689559 -0.014133682097679272 0 0.0027025642867456717 -0.01379063712231555 0 0.0038877075377689559 -0.014133682097679272 0 0.0031918744043953817 -0.013289726095391131 0 5.4029553426530366e-05 -0.020248151675565606 0 0.000370004513863036 -0.020090945841838601 0 0.00035005429167053834 -0.02037791228003118 0 5.4029553426530366e-05 -0.020248151675565606 0 0.00035005429167053834 -0.02037791228003118 0 0.00021729600110499735 -0.020535661482894714 0 0.00021729600110499735 -0.020535661482894714 0 0.00037091505729223685 -0.020715314991762549 0 0.00012205266636316307 -0.020747836888705056 0 0.00021729600110499735 -0.020535661482894714 0 0.00043224311005422855 -0.020550251671618374 0 0.00037091505729223685 -0.020715314991762549 0 0.00035005429167053834 -0.02037791228003118 0 0.00021729600110499735 -0.020535661482894714 0 0.00043224311005422855 -0.020550251671618374 0 0.00035005429167053834 -0.02037791228003118 0 0.00043224311005422855 -0.020550251671618374 0 0.00065146649969751098 -0.020459822993575068 0 0.00043224311005422855 -0.020550251671618374 0 0.00059328710553700802 -0.020670005878639239 0 0.00037091505729223685 -0.020715314991762549 0 0.00043224311005422855 -0.020550251671618374 0 0.00059328710553700802 -0.020670005878639239 0 0.00065146649969751098 -0.020459822993575068 0 0.0015142008077542674 -0.016297157092557576 0 0.0011820729480412177 -0.016746260287939109 0 0.000370004513863036 -0.020090945841838601 0 0.00035005429167053834 -0.02037791228003118 0 0.00065146649969751098 -0.020459822993575068 0 0.0020379357998885949 -0.013137388016360023 0 0.001554173007103928 -0.012528686618414282 0 0.0015069821062758378 -0.012970490964233796 0 0.0018320322757897872 -0.012879120214875941 0 0.0010796200934507388 -0.012796390626427005 0 0.001554173007103928 -0.012528686618414282 0 0.0015069821062758378 -0.012970490964233796 0 0.0012611658584326866 -0.012662710754221469 0 0.0015069821062758378 -0.012970490964233796 0 0.0012611658584326866 -0.012662710754221469 0 0.0010365032660410575 -0.012763351136153124 0 0.0014281835528752651 -0.013095864653662487 0 0.0019682535033697175 -0.012989384360253362 0 0.0010365032660410575 -0.012763351136153124 0 0.0014281835528752651 -0.013095864653662487 0 0.0010365032660410575 -0.012763351136153124 0 0.00095065903848615108 -0.012914210520107773 0 0.0012611658584326866 -0.012662710754221469 0 0.0010581589420149936 -0.012595464606399228 0 0.0010365032660410575 -0.012763351136153124 0 0.0011805658550567571 -0.012458920974285966 0 0.00094793153523025785 -0.012381235367125721 0 0.0011170808449874029 -0.01203572432500335 0 0.0011820729480412177 -0.016746260287939109 0 0.00060240545071531368 -0.01530559353275 0 0.001554173007103928 -0.012528686618414282 0 0.0011805658550567571 -0.012458920974285966 0 0.0011170808449874029 -0.01203572432500335 0 0.00059328710553700802 -0.020670005878639239 0 0.00065146649969751098 -0.020459822993575068 0 0.00090365133937285317 -0.020748077572411348 0 0.001554173007103928 -0.012528686618414282 0 0.0012611658584326866 -0.012662710754221469 0 0.0011805658550567571 -0.012458920974285966 0 0.0012611658584326866 -0.012662710754221469 0 0.0011805658550567571 -0.012458920974285966 0 0.0010581589420149936 -0.012595464606399228 0 0.0011805658550567571 -0.012458920974285966 0 0.00094793153523025785 -0.012381235367125721 0 0.0010581589420149936 -0.012595464606399228 0 0.00094793153523025785 -0.012381235367125721 0 0.00088690822748754069 -0.012594632688804654 0 0.0010581589420149936 -0.012595464606399228 0 0.00067146309563126578 -0.012457923436902708 0 0.00094793153523025785 -0.012381235367125721 0 0.00088690822748754069 -0.012594632688804654 0 0.00067367402176143963 -0.012703119867998564 0 0.00088690822748754069 -0.012594632688804654 0 0.00085510820118380533 -0.012759677344289518 0 0.00067367402176143963 -0.012703119867998564 0 0.00067146309563126578 -0.012457923436902708 0 0.00088690822748754069 -0.012594632688804654 0 0.00088690822748754069 -0.012594632688804654 0 0.0010581589420149936 -0.012595464606399228 0 0.0010365032660410575 -0.012763351136153124 0 0.00088690822748754069 -0.012594632688804654 0 0.0010365032660410575 -0.012763351136153124 0 0.00085510820118380533 -0.012759677344289518 0 0.0010365032660410575 -0.012763351136153124 0 0.00095065903848615108 -0.012914210520107773 0 0.00085510820118380533 -0.012759677344289518 0 0.00095065903848615108 -0.012914210520107773 0 0.00079761073866364005 -0.012889851632585169 0 0.00085510820118380533 -0.012759677344289518 0 0.00067367402176143963 -0.012703119867998564 0 0.00079761073866364005 -0.012889851632585169 0 0.00085510820118380533 -0.012759677344289518 0 0.00067367402176143963 -0.012703119867998564 0 0.00065428430555397447 -0.012971088198741083 0 0.00079761073866364005 -0.012889851632585169 0 0.00057473324255366402 -0.013388524829922897 0 0.00052439148937622328 -0.01342028485417761 0 0.00035967821488187433 -0.014322192134403753 0 0.00063848551269165134 -0.012950562521889773 0 0.00057473324255366402 -0.013388524829922897 0 0.00052439148937622328 -0.01342028485417761 0 0.00063071292817267876 -0.012005230257462418 0 0.00060240545071531368 -0.01530559353275 0 0.00062256030827209771 -0.012711828711089381 0 0.00063848551269165134 -0.012950562521889773 0 0.00046574786203150431 -0.013261061573421284 0 0.00063848551269165134 -0.012950562521889773 0 0.00052439148937622328 -0.01342028485417761 0 0.00046574786203150431 -0.013261061573421284 0 0.00044362376206689584 -0.012128039944930462 0 0.00094793153523025785 -0.012381235367125721 0 0.0011170808449874029 -0.01203572432500335 0 7.9573612552622658e-05 -0.013402974247681103 0 0.00060240545071531368 -0.01530559353275 0 0.00052439148937622328 -0.01342028485417761 0 0.00043210024506534441 -0.013363055759886208 0 0.00010130498825158883 -0.014137009030575211 0 0.00060240545071531368 -0.01530559353275 0 -0.00012566394965258325 -0.017463979820919941 0 0.00043210024506534441 -0.013363055759886208 0 0.00010130498825158883 -0.014137009030575211 0 -0.00064729065709052415 -0.013595853816480812 0 0.00035967821488187433 -0.014322192134403753 0 0.00010130498825158883 -0.014137009030575211 0 -0.00018347029809540164 -0.016240044039380116 0 0.00052439148937622328 -0.01342028485417761 0 0.00035967821488187433 -0.014322192134403753 0 0.00010130498825158883 -0.014137009030575211 0 0.00010130498825158883 -0.014137009030575211 0 -0.0010488191970779547 -0.014698130356864892 0 -0.00018347029809540164 -0.016240044039380116 0 0.00010130498825158883 -0.014137009030575211 0 -0.0010488191970779547 -0.014698130356864892 0 -0.00064729065709052415 -0.013595853816480812 0 -0.0010488191970779547 -0.014698130356864892 0 -0.00064729065709052415 -0.013595853816480812 0 -0.0018576742091749149 -0.013707820632513341 0 0.00059328710553700802 -0.020670005878639239 0 0.00090365133937285317 -0.020748077572411348 0 0.00058232862495743174 -0.020864230840566798 0 0.00059328710553700802 -0.020670005878639239 0 0.00058232862495743174 -0.020864230840566798 0 0.00037091505729223685 -0.020715314991762549 0 -0.00012566394965258325 -0.017463979820919941 0 -2.249677606952735e-05 -0.018374022407265048 0 0.00058232862495743174 -0.020864230840566798 0 0.00036161090171794315 -0.020957285957796137 0 0.00025623937705700033 -0.02086401613126387 0 0.00058232862495743174 -0.020864230840566798 0 0.00037091505729223685 -0.020715314991762549 0 0.00025623937705700033 -0.02086401613126387 0 0.00037091505729223685 -0.020715314991762549 0 0.00025623937705700033 -0.02086401613126387 0 0.00012205266636316307 -0.020747836888705056 0 -2.249677606952735e-05 -0.018374022407265048 0 3.9791268515485792e-05 -0.019627478291507999 0 0.00036161090171794315 -0.020957285957796137 0 0.00025623937705700033 -0.02086401613126387 0 0.00021819880808920285 -0.021030467692226232 0 -2.249677606952735e-05 -0.018374022407265048 0 -0.0010733863825786896 -0.020008962038605537 0 0.00039534356271321715 -0.020990734891520368 0 0.00021819880808920285 -0.021030467692226232 0 7.7074839915544099e-05 -0.021456711348755191 0 -0.0010488191970779547 -0.014698130356864892 0 -0.0018576742091749149 -0.013707820632513341 0 -0.0035059678300898628 -0.015840734292906583 0 -0.0010488191970779547 -0.014698130356864892 0 -0.00018347029809540164 -0.016240044039380116 0 -0.0035059678300898628 -0.015840734292906583 0 -0.00053781312880106849 -0.015626957266057992 0 -0.0010733863825786896 -0.020008962038605537 0 -0.00013449102627681399 -0.018344825793903147 0 -0.00018347029809540164 -0.016240044039380116 0 -0.00036155147255904094 -0.018748891332925951 0 -0.00013449102627681399 -0.018344825793903147 0 3.0616639844355855e-07 -0.020305829581993191 0 1.0028086958077187e-07 -0.017109136148491081 0 -0.00013449102627681399 -0.018344825793903147 0 -0.00018347029809540164 -0.016240044039380116 0 1.0028086958077187e-07 -0.017109136148491081 0 0.00035967821488187433 -0.014322192134403753 0 -0.00018347029809540164 -0.016240044039380116 0 0.00033647633975821819 -0.014655120277141833 0 -0.00018347029809540164 -0.016240044039380116 0 1.0028086958077187e-07 -0.017109136148491081 0 0.00033647633975821819 -0.014655120277141833 0 0.00039910631834554213 -0.012688846620619906 0 8.56435416295908e-07 -0.013912784855877524 0 0.00033647633975821819 -0.014655120277141833 0 1.0028086958077187e-07 -0.017109136148491081 0 8.56435416295908e-07 -0.013912784855877524 0 0.00033647633975821819 -0.014655120277141833 0 0.00057473324255366402 -0.013388524829922897 0 0.00035967821488187433 -0.014322192134403753 0 0.00033647633975821819 -0.014655120277141833 0 0.00039910631834554213 -0.012688846620619906 0 0.00057473324255366402 -0.013388524829922897 0 0.00033647633975821819 -0.014655120277141833 0 -0.0002083349819098037 -0.02340577578179345 0 -0.00017743088761129532 -0.024016716483519402 0 -0.00053609211346722981 -0.021296790117063941 0 -0.00068547897324640979 -0.021373570263875718 0 -0.00038321693991618901 -0.021426550418938817 0 -0.00053609211346722981 -0.021296790117063941 0 -0.00067665694128087235 -0.021303242570400751 0 -0.00049736053670049348 -0.021111106576693989 0 -0.00053609211346722981 -0.021296790117063941 0 -0.00068547897324640979 -0.021373570263875718 0 -0.00067665694128087235 -0.021303242570400751 0 -0.00053609211346722981 -0.021296790117063941 0 -0.00049736053670049348 -0.021111106576693989 0 -0.0003665038260865747 -0.021225701570677987 0 -0.0002083349819098037 -0.02340577578179345 0 -0.00059289649383089088 -0.025910729713588387 0 -0.00068547897324640979 -0.021373570263875718 0 -0.00065950984263345354 -0.021374694195650988 0 -0.00063569039083884789 -0.021380567170632678 0 -0.00065950984263345354 -0.021374694195650988 0 -0.00067665694128087235 -0.021303242570400751 0 -0.00066107439371340887 -0.021384871643218291 0 -0.00068547897324640979 -0.021373570263875718 0 -0.00065950984263345354 -0.021374694195650988 0 -0.00067665694128087235 -0.021303242570400751 0 -0.00067665694128087235 -0.021303242570400751 0 -0.00066107439371340887 -0.021384871643218291 0 -0.00071615898975486958 -0.021395962807023768 0 0.00058595379782894717 -0.024497141879127871 0 0.00065580764051122891 -0.024479720851122481 0 0.00055732255860311609 -0.024415637931197803 0 -0.00063466631932977864 -0.021449182631463882 0 -0.00065950984263345354 -0.021374694195650988 0 -0.00066107439371340887 -0.021384871643218291 0 -0.00063466631932977864 -0.021449182631463882 0 -0.00066107439371340887 -0.021384871643218291 0 -0.00071615898975486958 -0.021395962807023768 0 0.00034475338061328356 -0.025538589040633653 0 -0.00046750894703554894 -0.021832573830881424 0 -0.00041794890700464627 -0.020463757015068668 0 -0.00067973006657027503 -0.021016769755731714 0 -0.00049736053670049348 -0.021111106576693989 0 -0.00051350915770039213 -0.021293780339678364 0 -0.00046750894703554894 -0.021832573830881424 0 -0.00067665694128087235 -0.021303242570400751 0 -0.00061786694611517818 -0.021081575949599526 0 -0.00049736053670049348 -0.021111106576693989 0 -0.00046750894703554894 -0.021832573830881424 0 -0.0006938117297761229 -0.021329137580956295 0 -0.00041794890700464627 -0.020463757015068668 0 -0.00049736053670049348 -0.021111106576693989 0 -0.00025784379609985211 -0.020988361511422034 0 -0.00049736053670049348 -0.021111106576693989 0 -0.00025784379609985211 -0.020988361511422034 0 -0.0003665038260865747 -0.021225701570677987 0 0.00025623937705700033 -0.02086401613126387 0 0.00012205266636316307 -0.020747836888705056 0 1.9718861237826938e-05 -0.02096734842336093 0 -0.00011603905462102013 -0.020762498481415807 0 -0.00025784379609985211 -0.020988361511422034 0 1.9718861237826938e-05 -0.02096734842336093 0 -0.00011603905462102013 -0.020762498481415807 0 0.00012205266636316307 -0.020747836888705056 0 1.9718861237826938e-05 -0.02096734842336093 0 -0.00025784379609985211 -0.020988361511422034 0 1.9718861237826938e-05 -0.02096734842336093 0 -0.00014794737946822361 -0.021216515770822869 0 0.00021819880808920285 -0.021030467692226232 0 1.9718861237826938e-05 -0.02096734842336093 0 4.1239131388743773e-05 -0.021166173299452667 0 0.00025623937705700033 -0.02086401613126387 0 0.00021819880808920285 -0.021030467692226232 0 1.9718861237826938e-05 -0.02096734842336093 0 0.00021819880808920285 -0.021030467692226232 0 4.1239131388743773e-05 -0.021166173299452667 0 7.7074839915544099e-05 -0.021456711348755191 0 1.9718861237826938e-05 -0.02096734842336093 0 4.1239131388743773e-05 -0.021166173299452667 0 -0.00014794737946822361 -0.021216515770822869 0 4.1239131388743773e-05 -0.021166173299452667 0 -0.00014794737946822361 -0.021216515770822869 0 7.7074839915544099e-05 -0.021456711348755191 0 -0.00014794737946822361 -0.021216515770822869 0 -0.00038321693991618901 -0.021426550418938817 0 7.7074839915544099e-05 -0.021456711348755191 0 -0.00025784379609985211 -0.020988361511422034 0 -0.0003665038260865747 -0.021225701570677987 0 -0.00014794737946822361 -0.021216515770822869 0 -0.00053609211346722981 -0.021296790117063941 0 -0.0003665038260865747 -0.021225701570677987 0 -0.00038321693991618901 -0.021426550418938817 0 -0.0003665038260865747 -0.021225701570677987 0 -0.00014794737946822361 -0.021216515770822869 0 -0.00038321693991618901 -0.021426550418938817 0 -0.00021932866635702595 -0.025962882216626196 0 -0.0015132963673374264 -0.025782615381008935 0 -0.00094352946962765385 -0.025039754005300376 0 -0.00021932866635702595 -0.025962882216626196 0 -0.00094352946962765385 -0.025039754005300376 0 0.00025348501721958455 -0.025445325096127212 0 -0.00017743088761129532 -0.024016716483519402 0 -0.0010733863825786896 -0.020008962038605537 0 -0.00013449102627681399 -0.018344825793903147 0 -0.00036155147255904094 -0.018748891332925951 0 -0.00043160630529861003 -0.020270486181125254 0 -0.0010733863825786896 -0.020008962038605537 0 -0.00068285408065346274 -0.022839976182011463 0 -0.00013449102627681399 -0.018344825793903147 0 3.0616639844355855e-07 -0.020305829581993191 0 -0.00043160630529861003 -0.020270486181125254 0 3.0616639844355855e-07 -0.020305829581993191 0 -0.00043160630529861003 -0.020270486181125254 0 -2.5141660239827087e-06 -0.023499863896809636 0 -0.00094352946962765385 -0.025039754005300376 0 -2.1068156706495199e-06 -0.023507504785017928 0 0.00025348501721958455 -0.025445325096127212 0 -0.00068285408065346274 -0.022839976182011463 0 1.5973390359257317e-08 -0.023502688503310297 0 -2.1068156706495199e-06 -0.023507504785017928 0 0.00025348501721958455 -0.025445325096127212 0 2.2129106925214083e-06 -0.025992021488255444 0 0.00042017238616880935 -0.02591690224478908 0 -0.00021932866635702595 -0.025962882216626196 0 0.00025348501721958455 -0.025445325096127212 0 0.00042017238616880935 -0.02591690224478908 0 0.00023728559715101264 -0.026389042757982484 0 -0.00042248521648186477 -0.025633767226555665 0 0.00042017238616880935 -0.02591690224478908 0 0.00025348501721958455 -0.025445325096127212 0 0.00023728559715101264 -0.026389042757982484 0 0.00025348501721958455 -0.025445325096127212 0 0.00023728559715101264 -0.026389042757982484 0 2.2129106925214083e-06 -0.025992021488255444 0 0.00023728559715101264 -0.026389042757982484 0 2.2129106925214083e-06 -0.025992021488255444 0 -2.3062546969454529e-06 -0.028475731717000546 0 0.00023728559715101264 -0.026389042757982484 0 -2.3062546969454529e-06 -0.028475731717000546 0 -0.00099881740307103785 -0.026458641596778458 0 -6.4439023295753957e-07 -0.028478575725375172 0 -0.0004857560453081059 -0.029388566869144536 0 -6.2063060944085387e-07 -0.030564184038188221 0 -0.0004857560453081059 -0.029388566869144536 0 2.7411579227595034e-09 -0.028486344864649852 0 -5.1550282114688662e-09 -0.030556363774016111 0 -2.0856242295459086e-06 -0.029537587052525505 0 -1.872929294391144e-06 -0.030567008852651539 0 -0.00082581935685957194 -0.032226748891976992 0 0.00016951336977832028 -0.032492878956508667 0 -0.0004308390622114237 -0.028714222146578653 0 -0.00033818011213527523 -0.028512378953034254 0 -0.00053396007936944362 -0.028503651779475409 0 -0.0004857560453081059 -0.029388566869144536 0 -0.00020286369662090651 -0.030292833829391397 0 -0.00082581935685957194 -0.032226748891976992 0 -0.00028686641257280333 -0.032951431841939792 0 0.00016951336977832028 -0.032492878956508667 0 -0.0004857560453081059 -0.029388566869144536 0 -0.00059289649383089088 -0.025910729713588387 0 0.00023728559715101264 -0.026389042757982484 0 -0.00099881740307103785 -0.026458641596778458 0 -0.00042248521648186477 -0.025633767226555665 0 -0.00059289649383089088 -0.025910729713588387 0 -0.00020286369662090651 -0.030292833829391397 0 5.6901192193175731e-05 -0.030085843950391572 0 -0.00059186119891640901 -0.030035372352738447 0 -0.00040777770356870179 -0.029690858101211842 0 5.6901192193175731e-05 -0.030085843950391572 0 -0.00040777770356870179 -0.029690858101211842 0 -9.9969770668234122e-05 -0.029352990922725641 0 -0.00059186119891640901 -0.030035372352738447 0 -0.00040777770356870179 -0.029690858101211842 0 -0.00080349752962789777 -0.029666069234318821 0 -0.00020286369662090651 -0.030292833829391397 0 -0.0007276226284576604 -0.029662915375386407 0 -0.00040777770356870179 -0.029690858101211842 0 -0.00053305865699744754 -0.029228592633916785 0 -9.9969770668234122e-05 -0.029352990922725641 0 -0.00040777770356870179 -0.029690858101211842 0 -0.00053305865699744754 -0.029228592633916785 0 -0.00080349752962789777 -0.029666069234318821 0 -0.00063466631932977864 -0.021449182631463882 0 -0.00065950984263345354 -0.021374694195650988 0 -0.00063569039083884789 -0.021380567170632678 0 0.00034475338061328356 -0.025538589040633653 0 -0.00059289649383089088 -0.025910729713588387 0 0.00056453088609846678 -0.02903094178825601 0 5.6901192193175731e-05 -0.030085843950391572 0 -9.9969770668234122e-05 -0.029352990922725641 0 0.00024626411573506487 -0.036605974282819413 0 -0.00034719869927136597 -0.03816857560732604 0 -0.0017797603562483297 -0.036643089716822438 0 0.00024626411573506487 -0.036605974282819413 0 -0.0017797603562483297 -0.036643089716822438 0 -0.0015581664787630446 -0.034938978784696463 0 -0.0013680790404419065 -0.033256337497768497 0 -0.00092583923264521269 -0.034928583142606176 0 -0.0014616899411831268 -0.029401088334453648 0 -0.0012396357591697505 -0.029608959661718563 0 -0.00172671478049793 -0.030079563784732262 0 -0.0014616899411831268 -0.029401088334453648 0 -0.0010231410083359493 -0.029264898261054072 0 -0.0012138206101553737 -0.028795478374320473 0 -0.0014616899411831268 -0.029401088334453648 0 -0.0010231410083359493 -0.029264898261054072 0 -0.0012396357591697505 -0.029608959661718563 0 -0.00053305865699744754 -0.029228592633916785 0 -0.0010231410083359493 -0.029264898261054072 0 -0.00080349752962789777 -0.029666069234318821 0 -0.0010231410083359493 -0.029264898261054072 0 -0.00080349752962789777 -0.029666069234318821 0 -0.0012396357591697505 -0.029608959661718563 0 -0.00020286369662090651 -0.030292833829391397 0 -0.00092583923264521269 -0.034928583142606176 0 -0.00028686641257280333 -0.032951431841939792 0 0.00023107198836877914 -0.032881164049840018 0 0.00016951336977832028 -0.032492878956508667 0 -0.00055320171270801079 -0.03016923672062171 0 -0.00080349752962789777 -0.029666069234318821 0 -0.00172671478049793 -0.030079563784732262 0 -0.00080349752962789777 -0.029666069234318821 0 -0.0012396357591697505 -0.029608959661718563 0 -0.00172671478049793 -0.030079563784732262 0 0.00023107198836877914 -0.032881164049840018 0 6.9200244609526375e-05 -0.032929560433529577 0 0.00016951336977832028 -0.032492878956508667 0 -0.00092583923264521269 -0.034928583142606176 0 -0.00057332021138979325 -0.035650423655297525 0 -1.872929294391144e-06 -0.030567008852651539 0 0.00016951336977832028 -0.032492878956508667 0 1.8640374780678531e-06 -0.032861872500449744 0 6.9200244609526375e-05 -0.032929560433529577 0 0.00016951336977832028 -0.032492878956508667 0 1.8640374780678531e-06 -0.032861872500449744 0 6.9200244609526375e-05 -0.032929560433529577 0 1.8640374780678531e-06 -0.032861872500449744 0 -1.8903466855972706e-06 -0.03515747934384849 0 -0.0012821033101360557 -0.037973649358977721 0 -3.0346000253663906e-06 -0.035166970856583511 0 0.00011144082995884983 -0.038048106822532089 0 -0.00057332021138979325 -0.035650423655297525 0 -1.4078613665406285e-07 -0.035161082414950855 0 -3.0346000253663906e-06 -0.035166970856583511 0 0.00011144082995884983 -0.038048106822532089 0 1.3144663814928889e-06 -0.038080122030803937 0 0.00011144082995884983 -0.038048106822532089 0 0.00042612827280656083 -0.039265367130392262 0 4.2017421485722078e-05 -0.039390957416231769 0 -0.0012821033101360557 -0.037973649358977721 0 0.00011144082995884983 -0.038048106822532089 0 4.2017421485722078e-05 -0.039390957416231769 0 1.9616786832320744e-06 -0.041002202715123393 0 1.3144663814928889e-06 -0.038080122030803937 0 0.00042612827280656083 -0.039265367130392262 0 0.00011144082995884983 -0.038048106822532089 0 1.3144663814928889e-06 -0.038080122030803937 0 0.00042612827280656083 -0.039265367130392262 0 1.9616786832320744e-06 -0.041002202715123393 0 0.00042612827280656083 -0.039265367130392262 0 0.00010522962890331055 -0.039943699084761641 0 0.00042612827280656083 -0.039265367130392262 0 0.00034656075641402575 -0.039529800013756007 0 0.00010522962890331055 -0.039943699084761641 0 0.00042612827280656083 -0.039265367130392262 0 0.00034656075641402575 -0.039529800013756007 0 4.2017421485722078e-05 -0.039390957416231769 0 -0.0034886633036044419 -0.037926686187120542 0 -0.0016455631215423223 -0.039278709734709212 0 -0.0066813891737892567 -0.037643996675342663 0 -0.003464252382263945 -0.037906824408675419 0 -0.0039792341838894669 -0.035489408149532393 0 -0.0066813891737892567 -0.037643996675342663 0 -0.0064261229418831039 -0.034605925023474579 0 -0.0081747707580797132 -0.035955489202630114 0 -0.0017326642517425112 -0.039156925265354782 0 -0.0012821033101360557 -0.037973649358977721 0 4.2017421485722078e-05 -0.039390957416231769 0 -0.00034719869927136597 -0.03816857560732604 0 -0.003464252382263945 -0.037906824408675419 0 -0.0017797603562483297 -0.036643089716822438 0 -0.00092583923264521269 -0.034928583142606176 0 -0.0016455631215423223 -0.039278709734709212 0 -0.003464252382263945 -0.037906824408675419 0 -0.0017797603562483297 -0.036643089716822438 0 -0.0039792341838894669 -0.035489408149532393 0 -0.0017797603562483297 -0.036643089716822438 0 -0.0015581664787630446 -0.034938978784696463 0 -0.0039792341838894669 -0.035489408149532393 0 -0.0015581664787630446 -0.034938978784696463 0 -0.0039792341838894669 -0.035489408149532393 0 -0.0033918117317217871 -0.033205626223896861 0 -0.0039792341838894669 -0.035489408149532393 0 -0.0033918117317217871 -0.033205626223896861 0 -0.0051227366261567047 -0.033181769167883839 0 -0.005443365225892555 -0.030816274209045574 0 -0.0044839511089134953 -0.030726233767410075 0 -0.0049807597594514995 -0.030375213595568315 0 -0.0043858985380145887 -0.031855490977125381 0 -0.005443365225892555 -0.030816274209045574 0 -0.0044839511089134953 -0.030726233767410075 0 -0.0043858985380145887 -0.031855490977125381 0 -0.0044839511089134953 -0.030726233767410075 0 -0.0038493718537398452 -0.031029651228539044 0 -0.0028926687004247084 -0.033611955755024264 0 -0.0044358502462389536 -0.031980653205127309 0 -0.0064261229418831039 -0.034605925023474579 0 -0.0081747707580797132 -0.035955489202630114 0 -0.0082165831548318795 -0.033911163857529646 0 -0.0066813891737892567 -0.037643996675342663 0 -0.0039792341838894669 -0.035489408149532393 0 -0.0064261229418831039 -0.034605925023474579 0 -0.0039792341838894669 -0.035489408149532393 0 -0.0064261229418831039 -0.034605925023474579 0 -0.0051227366261567047 -0.033181769167883839 0 -0.0033918117317217871 -0.033205626223896861 0 -0.0051227366261567047 -0.033181769167883839 0 -0.0052835904462772334 -0.031385688911454775 0 -0.0064261229418831039 -0.034605925023474579 0 -0.0051227366261567047 -0.033181769167883839 0 -0.0073651812881930052 -0.031833805110928481 0 -0.0064261229418831039 -0.034605925023474579 0 -0.0073651812881930052 -0.031833805110928481 0 -0.0082165831548318795 -0.033911163857529646 0 -0.0073651812881930052 -0.031833805110928481 0 -0.0052835904462772334 -0.031385688911454775 0 -0.0073865439614991847 -0.029477422189578752 0 -0.0051227366261567047 -0.033181769167883839 0 -0.0073651812881930052 -0.031833805110928481 0 -0.0052835904462772334 -0.031385688911454775 0 -0.0063401709390441003 -0.030002311269055896 0 -0.0062924626772968258 -0.029031779693745027 0 -0.0073865439614991847 -0.029477422189578752 0 -0.0062924626772968258 -0.029031779693745027 0 -0.0073865439614991847 -0.029477422189578752 0 -0.0068381870339371377 -0.028564564104066995 0 -0.0063401709390441003 -0.030002311269055896 0 -0.0062924626772968258 -0.029031779693745027 0 -0.0054938821471935875 -0.02930270100323917 0 -0.0058531045958105498 -0.030690695872376998 0 -0.0072732991951792482 -0.029526123618261787 0 -0.0071594356077839842 -0.039692242506317074 0 -0.0071961383864511588 -0.027609023689562927 0 -0.0073651812881930052 -0.031833805110928481 0 -0.0073865439614991847 -0.029477422189578752 0 -0.0090649852806420923 -0.029598140703079093 0 -0.0073865439614991847 -0.029477422189578752 0 -0.0090649852806420923 -0.029598140703079093 0 -0.0068381870339371377 -0.028564564104066995 0 -0.0046621700501508758 -0.029981421599425871 0 -0.0053204067369782056 -0.029994779650547195 0 -0.0046910747836396505 -0.029338459963844689 0 -0.0046621700501508758 -0.029981421599425871 0 -0.0046910747836396505 -0.029338459963844689 0 -0.0039844100881128571 -0.029656910226673956 0 -0.0044839511089134953 -0.030726233767410075 0 -0.0046621700501508758 -0.029981421599425871 0 -0.0049807597594514995 -0.030375213595568315 0 -0.0046621700501508758 -0.029981421599425871 0 -0.0049807597594514995 -0.030375213595568315 0 -0.0053204067369782056 -0.029994779650547195 0 -0.005443365225892555 -0.030816274209045574 0 -0.0063401709390441003 -0.030002311269055896 0 -0.0053204067369782056 -0.029994779650547195 0 -0.0044358502462389536 -0.031980653205127309 0 -0.0058531045958105498 -0.030690695872376998 0 -0.005443365225892555 -0.030816274209045574 0 -0.0049807597594514995 -0.030375213595568315 0 -0.0053204067369782056 -0.029994779650547195 0 -0.0063401709390441003 -0.030002311269055896 0 -0.0053204067369782056 -0.029994779650547195 0 -0.0054938821471935875 -0.02930270100323917 0 -0.0054938821471935875 -0.02930270100323917 0 -0.0046910747836396505 -0.029338459963844689 0 -0.0046735345068786285 -0.028508599277546169 0 -0.0053204067369782056 -0.029994779650547195 0 -0.0054938821471935875 -0.02930270100323917 0 -0.0046910747836396505 -0.029338459963844689 0 -0.0046910747836396505 -0.029338459963844689 0 -0.0041196852119655177 -0.029018144400830358 0 -0.0046735345068786285 -0.028508599277546169 0 -0.0041196852119655177 -0.029018144400830358 0 -0.0034365536203630706 -0.029242583770895798 0 -0.0037964984014342675 -0.028364931969564952 0 -0.0041196852119655177 -0.029018144400830358 0 -0.0039844100881128571 -0.029656910226673956 0 -0.0034365536203630706 -0.029242583770895798 0 -0.0046910747836396505 -0.029338459963844689 0 -0.0041196852119655177 -0.029018144400830358 0 -0.0039844100881128571 -0.029656910226673956 0 -0.0045623102301066681 -0.03007446800116605 0 -0.0035426199087535029 -0.030156366432739546 0 -0.0046621700501508758 -0.029981421599425871 0 -0.0039844100881128571 -0.029656910226673956 0 -0.0037007114707501509 -0.030483282150035342 0 -0.0044839511089134953 -0.030726233767410075 0 -0.0046621700501508758 -0.029981421599425871 0 -0.0035489818229026155 -0.030549989196277862 0 -0.0039844100881128571 -0.029656910226673956 0 -0.003316434254448569 -0.029845760846121349 0 -0.0034365536203630706 -0.029242583770895798 0 -0.0039844100881128571 -0.029656910226673956 0 -0.003316434254448569 -0.029845760846121349 0 -0.0037007114707501509 -0.030483282150035342 0 -0.0027253201638395967 -0.03033417186419252 0 -0.003316434254448569 -0.029845760846121349 0 -0.0037007114707501509 -0.030483282150035342 0 -0.0027253201638395967 -0.03033417186419252 0 -0.003316434254448569 -0.029845760846121349 0 -0.0029052708877866451 -0.029413401577036914 0 -0.0034365536203630706 -0.029242583770895798 0 -0.002896439401440176 -0.028740898269001273 0 -0.0037964984014342675 -0.028364931969564952 0 -0.0029052708877866451 -0.029413401577036914 0 -0.0034365536203630706 -0.029242583770895798 0 -0.002896439401440176 -0.028740898269001273 0 -0.003316434254448569 -0.029845760846121349 0 -0.0029052708877866451 -0.029413401577036914 0 -0.0034365536203630706 -0.029242583770895798 0 -0.0029052708877866451 -0.029413401577036914 0 -0.002896439401440176 -0.028740898269001273 0 -0.0021557034596337982 -0.0289127052625444 0 -0.00013862680375458997 -0.026706469825624586 0 0.00040342675245311216 -0.026620355011450245 0 0.00062235157853833501 -0.02591336258672796 0 -0.00041249116165644037 -0.027009121991990216 0 0.00047709392075064434 -0.02608495005202946 0 -0.0011960545928354101 -0.026917564688196151 0 -0.00074070551119279732 -0.027402796933550508 0 0.00032393326307142135 -0.026267571036933734 0 0.0012301443808933538 -0.027088272227361085 0 0.00040342675245311216 -0.026620355011450245 0 0.00018130182159049787 -0.02730477143796874 0 -0.00013862680375458997 -0.026706469825624586 0 0.00040342675245311216 -0.026620355011450245 0 0.00018130182159049787 -0.02730477143796874 0 -0.00041554257720994306 -0.025471575902464065 0 -0.00011833420548194031 -0.025391371021781121 0 -0.00028629204042338426 -0.025530556261856775 0 -0.0014687483334667063 -0.028314220268998113 0 -0.0018232943129415633 -0.028178671370762472 0 -0.0018184416684918676 -0.028550036675956028 0 -0.0011960545928354101 -0.026917564688196151 0 -0.00074070551119279732 -0.027402796933550508 0 -0.0014687483334667063 -0.028314220268998113 0 -0.00041249116165644037 -0.027009121991990216 0 -0.0014687483334667063 -0.028314220268998113 0 0.00024377087260320457 -0.026221669155365637 0 -0.0027253201638395967 -0.03033417186419252 0 -0.0029052708877866451 -0.029413401577036914 0 -0.0021557034596337982 -0.0289127052625444 0 -0.00093507043651962012 -0.027544838018660815 0 -0.00013862680375458997 -0.026706469825624586 0 0.00018130182159049787 -0.02730477143796874 0 -0.00028629204042338426 -0.025530556261856775 0 -8.7317801748847397e-05 -0.025563719680169524 0 -0.00022461446543531238 -0.025687191462349417 0 -6.2283583391671302e-05 -0.027239970733749473 0 -0.0015357961572599523 -0.028478953979024901 0 -0.00028629204042338426 -0.025530556261856775 0 -0.00022461446543531238 -0.025687191462349417 0 -0.0004589198536361241 -0.025597148493180934 0 -0.00041554257720994306 -0.025471575902464065 0 -0.00028629204042338426 -0.025530556261856775 0 -0.0004589198536361241 -0.025597148493180934 0 -0.00011833420548194031 -0.025391371021781121 0 -0.00028629204042338426 -0.025530556261856775 0 -8.7317801748847397e-05 -0.025563719680169524 0 8.9678818835117991e-06 -0.025458415688919267 0 -0.00011833420548194031 -0.025391371021781121 0 -8.7317801748847397e-05 -0.025563719680169524 0 4.6693633154489282e-05 -0.02571735581152446 0 -8.7317801748847397e-05 -0.025563719680169524 0 -0.00022461446543531238 -0.025687191462349417 0 3.8308367846473035e-05 -0.025877971807628783 0 4.6693633154489282e-05 -0.02571735581152446 0 -0.00022461446543531238 -0.025687191462349417 0 0.00034475338061328356 -0.025538589040633653 0 -6.2283583391671302e-05 -0.027239970733749473 0 0.00056453088609846678 -0.02903094178825601 0 -9.9969770668234122e-05 -0.029352990922725641 0 -0.00019668309342390315 -0.028634723406918128 0 -0.00019668309342390315 -0.028634723406918128 0 -0.00076140499043446689 -0.028806672958160369 0 -0.00098693195952846615 -0.028213147851072838 0 -0.00053305865699744754 -0.029228592633916785 0 -9.9969770668234122e-05 -0.029352990922725641 0 -0.00019668309342390315 -0.028634723406918128 0 -0.00053305865699744754 -0.029228592633916785 0 -0.00019668309342390315 -0.028634723406918128 0 -0.00076140499043446689 -0.028806672958160369 0 -0.0010231410083359493 -0.029264898261054072 0 -0.00076140499043446689 -0.028806672958160369 0 -0.0012138206101553737 -0.028795478374320473 0 -0.00053305865699744754 -0.029228592633916785 0 -0.0010231410083359493 -0.029264898261054072 0 -0.00076140499043446689 -0.028806672958160369 0 -0.0031795086779042893 -0.0329684620461176 0 -0.0027984675758832228 -0.031962796367513049 0 -0.0033057671737251352 -0.031470163796309882 0 -0.00076140499043446689 -0.028806672958160369 0 -0.0012138206101553737 -0.028795478374320473 0 -0.00098693195952846615 -0.028213147851072838 0 -0.0027984675758832228 -0.031962796367513049 0 -0.0033057671737251352 -0.031470163796309882 0 -0.0023793718970121854 -0.030906149237396235 0 -0.0019276345034403514 -0.030324516463411933 0 -0.0015357961572599523 -0.028478953979024901 0 -0.0013680790404419065 -0.033256337497768497 0 -0.0019276345034403514 -0.030324516463411933 0 -0.0043858985380145887 -0.031855490977125381 0 -0.0033057671737251352 -0.031470163796309882 0 -0.0038493718537398452 -0.031029651228539044 0 -0.0013680790404419065 -0.033256337497768497 0 -0.0028926687004247084 -0.033611955755024264 0 -0.0031795086779042893 -0.0329684620461176 0 -0.0043858985380145887 -0.031855490977125381 0 -0.0033057671737251352 -0.031470163796309882 0 -0.0044839511089134953 -0.030726233767410075 0 -0.0038493718537398452 -0.031029651228539044 0 -0.0033826918819896217 -0.030487035450914409 0 -0.0043556915451323664 -0.030680306410805165 0 -0.0035426199087535029 -0.030156366432739546 0 -0.0033057671737251352 -0.031470163796309882 0 -0.0033127962087142354 -0.030958934086910854 0 -0.0038493718537398452 -0.031029651228539044 0 -0.0033127962087142354 -0.030958934086910854 0 -0.0038493718537398452 -0.031029651228539044 0 -0.0033826918819896217 -0.030487035450914409 0 -0.0033127962087142354 -0.030958934086910854 0 -0.0033826918819896217 -0.030487035450914409 0 -0.0027243319462183597 -0.030845737755802755 0 -0.0035426199087535029 -0.030156366432739546 0 -0.0023223926909025001 -0.029657571881664083 0 -0.0016594364781411101 -0.02904478944715537 0 -0.0032625876100141836 -0.029308077948987148 0 -0.0023610884211467641 -0.029792803859898763 0 -0.0014687483334667063 -0.028314220268998113 0 -0.0035426199087535029 -0.030156366432739546 0 -0.0014687483334667063 -0.028314220268998113 0 -0.0023223926909025001 -0.029657571881664083 0 -0.0014687483334667063 -0.028314220268998113 0 -0.0015357961572599523 -0.028478953979024901 0 -0.0014077764197932508 -0.028549251632490325 0 -0.0018456041871968902 -0.029014314302700336 0 -0.001632418690548694 -0.029128982666968273 0 -0.0023223926909025001 -0.029657571881664083 0 -0.0015357961572599523 -0.028478953979024901 0 -0.0033057671737251352 -0.031470163796309882 0 -0.0026554563944792158 -0.030756449136026969 0 -0.0023793718970121854 -0.030906149237396235 0 -0.0034401999035736852 -0.031449216184337603 0 -0.0023223926909025001 -0.029657571881664083 0 -0.0033057671737251352 -0.031470163796309882 0 -0.0033127962087142354 -0.030958934086910854 0 -0.0027243319462183597 -0.030845737755802755 0 -7.0495268768838265e-07 -0.055001420029861248 0 -2.7672922236935797e-05 -0.054923973384960176 0 3.0485485926977334e-06 -0.054853574167546285 0 -2.7682847622201418e-05 -0.054324938609292932 0 3.1494034464466704e-06 -0.054328655619419144 0 -7.6745315547670104e-05 -0.054621212652060096 0 -7.0495268768838265e-07 -0.055001420029861248 0 -4.7087418374605188e-05 -0.05498531576404711 0 -2.7672922236935797e-05 -0.054923973384960176 0 4.6931952568206722e-05 -0.053397693747862657 0 -8.6388625840002543e-05 -0.054999660923822712 0 9.9108298506119324e-08 -0.054999761733777471 0 4.6931952568206722e-05 -0.053397693747862657 0 0.00018015472108588913 -0.052114806540759562 0 -0.00031276849475133251 -0.049361921968725929 0 0.00018015472108588913 -0.052114806540759562 0 -0.00046359439065166017 -0.051263535425760565 0 3.1494034464466704e-06 -0.054328655619419144 0 1.7058201674002973e-05 -0.05464952888375036 0 -7.6745315547670104e-05 -0.054621212652060096 0 4.6931952568206722e-05 -0.053397693747862657 0 0.00018015472108588913 -0.052114806540759562 0 -0.00085311383491584931 -0.047697363854242718 0 -0.00080389624310536029 -0.048315492575050918 0 -4.7157763489740637e-05 -0.047779033091799719 0 0.00060995391531485916 -0.052814223058731499 0 0.00051796965930703167 -0.052803672546988291 0 0.00055846824183833734 -0.053063101618312306 0 -0.00080389624310536029 -0.048315492575050918 0 -0.00088524488713953629 -0.049306784388691044 0 3.8225544856359367e-06 -0.048471635506272009 0 1.7058201674002973e-05 -0.05464952888375036 0 -7.6745315547670104e-05 -0.054621212652060096 0 3.0485485926977334e-06 -0.054853574167546285 0 -8.6388625840002543e-05 -0.054999660923822712 0 1.6568021160107607e-06 -0.05475353680764658 0 -7.0495268768838265e-07 -0.055001420029861248 0 3.0485485926977334e-06 -0.054853574167546285 0 1.4510516179310871e-06 -0.054995676452479048 0 3.0485485926977334e-06 -0.054853574167546285 0 1.4510516179310871e-06 -0.054995676452479048 0 -3.8642174426024677e-05 -0.054353187823969439 0 1.4510516179310871e-06 -0.054995676452479048 0 -2.2100784733522132e-06 -0.052122377857762935 0 -3.8642174426024677e-05 -0.054353187823969439 0 -2.5739495324960709e-06 -0.052110612684679466 0 -0.00088524488713953629 -0.049306784388691044 0 0.00013877826996302347 -0.049406938730729412 0 -2.4093690851200256e-07 -0.052115160795179395 0 -0.00038310043500744965 -0.051868095843143273 0 1.7058201674002973e-05 -0.05464952888375036 0 3.0485485926977334e-06 -0.054853574167546285 0 -3.8642174426024677e-05 -0.054353187823969439 0 -0.00046359439065166017 -0.051263535425760565 0 -0.00038310043500744965 -0.051868095843143273 0 -0.00088524488713953629 -0.049306784388691044 0 0.00013877826996302347 -0.049406938730729412 0 3.8225544856359367e-06 -0.048471635506272009 0 -2.5739495324960709e-06 -0.052110612684679466 0 0.00013877826996302347 -0.049406938730729412 0 1.2809969544704923e-06 -0.049383805959172723 0 0.00013877826996302347 -0.049406938730729412 0 1.2809969544704923e-06 -0.049383805959172723 0 0.00047251853740290365 -0.048134729617357472 0 0.00013877826996302347 -0.049406938730729412 0 0.00047251853740290365 -0.048134729617357472 0 3.8225544856359367e-06 -0.048471635506272009 0 0.00047251853740290365 -0.048134729617357472 0 0.00032592929123628073 -0.048152076338691494 0 3.8225544856359367e-06 -0.048471635506272009 0 0.00032592929123628073 -0.048152076338691494 0 3.8225544856359367e-06 -0.048471635506272009 0 -4.7157763489740637e-05 -0.047779033091799719 0 -0.00080389624310536029 -0.048315492575050918 0 3.8225544856359367e-06 -0.048471635506272009 0 -4.7157763489740637e-05 -0.047779033091799719 0 0.00032592929123628073 -0.048152076338691494 0 -4.7157763489740637e-05 -0.047779033091799719 0 0.00038453433240701388 -0.048011727025842714 0 -0.00031276849475133251 -0.049361921968725929 0 -0.00044914761443639873 -0.049754053219994474 0 -0.00037492333651663204 -0.051363533311430586 0 -0.0014256359839728376 -0.051294043049579581 0 -0.00085128869582791716 -0.051907058170161356 0 -0.0014256359839728376 -0.051294043049579581 0 -0.0024419962747384604 -0.051176743151415328 0 -0.0018797703918273184 -0.051841066446926522 0 -0.00044914761443639873 -0.049754053219994474 0 -0.0014703342204348301 -0.048677642972055436 0 0.00032592929123628073 -0.048152076338691494 0 0.00038453433240701388 -0.048011727025842714 0 0.00032805522033097515 -0.048039112933719944 0 0.00038453433240701388 -0.048011727025842714 0 0.00011068089302344219 -0.048186942696290216 0 0.00032805522033097515 -0.048039112933719944 0 6.0750701260981487e-05 -0.048661645256292158 0 -2.6541559557645406e-05 -0.048012578661608442 0 -0.0012004275066576408 -0.04851766187560707 0 -0.0014703342204348301 -0.048677642972055436 0 -0.00041289496365760003 -0.048144834322002929 0 -2.6541559557645406e-05 -0.048012578661608442 0 0.00029748397998045331 -0.04779933341425429 0 0.00032805522033097515 -0.048039112933719944 0 0.00011068089302344219 -0.048186942696290216 0 -2.6541559557645406e-05 -0.048012578661608442 0 0.00032805522033097515 -0.048039112933719944 0 -2.6541559557645406e-05 -0.048012578661608442 0 0.00029748397998045331 -0.04779933341425429 0 -0.00029379321849450638 -0.047425275657766199 0 0.00047251853740290365 -0.048134729617357472 0 0.00032592929123628073 -0.048152076338691494 0 0.00032805522033097515 -0.048039112933719944 0 0.00047251853740290365 -0.048134729617357472 0 0.00029748397998045331 -0.04779933341425429 0 0.00032805522033097515 -0.048039112933719944 0 0.00047251853740290365 -0.048134729617357472 0 0.00029748397998045331 -0.04779933341425429 0 0.00016965321927392061 -0.046830442774714182 0 0.00047251853740290365 -0.048134729617357472 0 1.4024664102394717e-06 -0.046651563976063307 0 0.00016965321927392061 -0.046830442774714182 0 1.2809969544704923e-06 -0.049383805959172723 0 0.00047251853740290365 -0.048134729617357472 0 1.4024664102394717e-06 -0.046651563976063307 0 1.4024664102394717e-06 -0.046651563976063307 0 0.00016965321927392061 -0.046830442774714182 0 -2.8414270973703316e-06 -0.04392532400675879 0 0.00016965321927392061 -0.046830442774714182 0 -0.00029379321849450638 -0.047425275657766199 0 -0.0010923922909322247 -0.047122848319061959 0 0.00029748397998045331 -0.04779933341425429 0 0.00016965321927392061 -0.046830442774714182 0 -0.00029379321849450638 -0.047425275657766199 0 0.00016965321927392061 -0.046830442774714182 0 -0.0010923922909322247 -0.047122848319061959 0 -2.8414270973703316e-06 -0.04392532400675879 0 -0.00034106031788840176 -0.04420061357398733 0 -4.3826489024281778e-07 -0.043919811477679656 0 1.9616786832320744e-06 -0.041002202715123393 0 -0.00038666220687580481 -0.040663803959595776 0 -3.6835641629507703e-06 -0.043913343333495281 0 1.9616786832320744e-06 -0.041002202715123393 0 -0.00038666220687580481 -0.040663803959595776 0 0.00010522962890331055 -0.039943699084761641 0 0.00034656075641402575 -0.039529800013756007 0 0.00010522962890331055 -0.039943699084761641 0 -0.00034038114697086181 -0.039561509158938676 0 -0.00038666220687580481 -0.040663803959595776 0 0.00010522962890331055 -0.039943699084761641 0 -0.00034038114697086181 -0.039561509158938676 0 -0.00029379321849450638 -0.047425275657766199 0 -0.0010923922909322247 -0.047122848319061959 0 -0.0012004275066576408 -0.04851766187560707 0 -0.00034106031788840176 -0.04420061357398733 0 -0.0039408146934376094 -0.042375291312940849 0 -2.6541559557645406e-05 -0.048012578661608442 0 -0.00029379321849450638 -0.047425275657766199 0 -0.0012004275066576408 -0.04851766187560707 0 -0.0014703342204348301 -0.048677642972055436 0 -0.0039408146934376094 -0.042375291312940849 0 -0.0039408146934376094 -0.042375291312940849 0 -0.0076497199861191977 -0.041134536790897826 0 -0.0027624738535083761 -0.045928771457427811 0 -0.0048164725633373208 -0.045665847363265476 0 -0.0038370471411342485 -0.046892062527816927 0 -0.0034886633036044419 -0.037926686187120542 0 -0.0039408146934376094 -0.042375291312940849 0 -0.0066813891737892567 -0.037643996675342663 0 -0.0099165972942377098 -0.037365075984644426 0 -0.0081747707580797132 -0.035955489202630114 0 -0.0099165972942377098 -0.037365075984644426 0 -0.0081747707580797132 -0.035955489202630114 0 -0.0096725681801701352 -0.03484701771566065 0 -0.0081747707580797132 -0.035955489202630114 0 -0.0096725681801701352 -0.03484701771566065 0 -0.0082165831548318795 -0.033911163857529646 0 -0.0048164725633373208 -0.045665847363265476 0 -0.0050781708169228522 -0.047767659822151844 0 -0.0038370471411342485 -0.046892062527816927 0 -0.0050781708169228522 -0.047767659822151844 0 -0.0038370471411342485 -0.046892062527816927 0 -0.0037894669653296222 -0.048080037515641681 0 -0.0050781708169228522 -0.047767659822151844 0 -0.0037894669653296222 -0.048080037515641681 0 -0.004080083594972206 -0.049241246370924349 0 -0.0050781708169228522 -0.047767659822151844 0 -0.004080083594972206 -0.049241246370924349 0 -0.0052572949724263643 -0.049830941454876869 0 -0.0037894669653296222 -0.048080037515641681 0 -0.004080083594972206 -0.049241246370924349 0 -0.0031484804947639767 -0.049058214946717499 0 -0.0076497199861191977 -0.041134536790897826 0 -0.0073298178460328503 -0.041264699025838819 0 -0.0096725681801701352 -0.03484701771566065 0 -0.0082165831548318795 -0.033911163857529646 0 -0.0094276194323615007 -0.032277180305470152 0 -0.0073651812881930052 -0.031833805110928481 0 -0.0082165831548318795 -0.033911163857529646 0 -0.0094276194323615007 -0.032277180305470152 0 -0.0073298178460328503 -0.041264699025838819 0 -0.0071594356077839842 -0.039692242506317074 0 -0.0073651812881930052 -0.031833805110928481 0 -0.0094276194323615007 -0.032277180305470152 0 -0.0090649852806420923 -0.029598140703079093 0 -0.0052572949724263643 -0.049830941454876869 0 -0.0053637476969931952 -0.051736443309620558 0 -0.0047395713245879222 -0.051488958344220286 0 -0.0051699070809279489 -0.051698316809056247 0 -0.0047395713245879222 -0.051488958344220286 0 -0.0044447732740558691 -0.052426764535106175 0 -0.0071594356077839842 -0.039692242506317074 0 -0.0074583616180515329 -0.045752762145136711 0 -0.0038541358181200572 -0.051878304701811734 0 -0.0047395713245879222 -0.051488958344220286 0 -0.0044447732740558691 -0.052426764535106175 0 -0.0047395713245879222 -0.051488958344220286 0 -0.004104359752605001 -0.051273374923016993 0 -0.0043197320171132012 -0.050554485717099293 0 -0.0038541358181200572 -0.051878304701811734 0 -0.0047395713245879222 -0.051488958344220286 0 -0.004104359752605001 -0.051273374923016993 0 -0.0038541358181200572 -0.051878304701811734 0 -0.004104359752605001 -0.051273374923016993 0 -0.0035068395744140778 -0.05114683184594692 0 -0.004104359752605001 -0.051273374923016993 0 -0.0043197320171132012 -0.050554485717099293 0 -0.0035068395744140778 -0.05114683184594692 0 -0.0043197320171132012 -0.050554485717099293 0 -0.0033349240405819778 -0.050193558224764748 0 -0.0035068395744140778 -0.05114683184594692 0 -0.0052572949724263643 -0.049830941454876869 0 -0.0047395713245879222 -0.051488958344220286 0 -0.0043197320171132012 -0.050554485717099293 0 -0.004080083594972206 -0.049241246370924349 0 -0.0052572949724263643 -0.049830941454876869 0 -0.0043197320171132012 -0.050554485717099293 0 -0.004080083594972206 -0.049241246370924349 0 -0.0043197320171132012 -0.050554485717099293 0 -0.0033349240405819778 -0.050193558224764748 0 -0.0022383258291134439 -0.049890749179285654 0 -0.002882205471072033 -0.051078054621254414 0 -0.0021960978724098021 -0.052011024938537258 0 -0.0033349240405819778 -0.050193558224764748 0 -0.0022383258291134439 -0.049890749179285654 0 -0.002882205471072033 -0.051078054621254414 0 -0.0033349240405819778 -0.050193558224764748 0 -0.0022383258291134439 -0.049890749179285654 0 -0.0031484804947639767 -0.049058214946717499 0 -0.0033349240405819778 -0.050193558224764748 0 -0.002882205471072033 -0.051078054621254414 0 -0.0035068395744140778 -0.05114683184594692 0 -0.0038541358181200572 -0.051878304701811734 0 -0.0035068395744140778 -0.05114683184594692 0 -0.0030504046256210043 -0.051991072111122506 0 -0.002882205471072033 -0.051078054621254414 0 -0.0035068395744140778 -0.05114683184594692 0 -0.0030504046256210043 -0.051991072111122506 0 -0.002882205471072033 -0.051078054621254414 0 -0.0030504046256210043 -0.051991072111122506 0 -0.0021960978724098021 -0.052011024938537258 0 -0.0030504046256210043 -0.051991072111122506 0 -0.0021960978724098021 -0.052011024938537258 0 -0.0026118493937672712 -0.052741887905162245 0 -0.0038541358181200572 -0.051878304701811734 0 -0.0030504046256210043 -0.051991072111122506 0 -0.003521502524964568 -0.052698321102636919 0 -0.0021960978724098021 -0.052011024938537258 0 -0.0018908958614167906 -0.052013000367599455 0 -0.0018574752107662325 -0.052834010277451042 0 -0.0021960978724098021 -0.052011024938537258 0 -0.0020437639396020894 -0.052211879367079959 0 -0.0018908958614167906 -0.052013000367599455 0 -0.0020437639396020894 -0.052211879367079959 0 -0.0020964013554484353 -0.052439731595700652 0 -0.0018908958614167906 -0.052013000367599455 0 -0.0020164208332811989 -0.052401238784743912 0 -0.0021960978724098021 -0.052011024938537258 0 -0.0020437639396020894 -0.052211879367079959 0 -0.0020964013554484353 -0.052439731595700652 0 -0.0014070480154784592 -0.053014799866555072 0 -0.0013358778570851956 -0.054065170960684091 0 -0.0020549985260105994 -0.052494338380897843 0 -0.0015819525015204068 -0.053051280855186379 0 -0.0021570072600274617 -0.051156758933888713 0 -0.0021559388394513739 -0.051925917802850906 0 -0.0020164208332811989 -0.052401238784743912 0 -0.0020437639396020894 -0.052211879367079959 0 -0.0020964013554484353 -0.052439731595700652 0 -0.0015914651675922587 -0.052504891079838793 0 -0.0020964013554484353 -0.052439731595700652 0 -0.0014070480154784592 -0.053014799866555072 0 -0.0015914651675922587 -0.052504891079838793 0 -0.0018961773727180712 -0.052274634493774133 0 -0.0014451990084497974 -0.052114661196285952 0 -0.0015914651675922587 -0.052504891079838793 0 -0.0020964013554484353 -0.052439731595700652 0 -0.0018961773727180712 -0.052274634493774133 0 -0.0020964013554484353 -0.052439731595700652 0 -0.0022371819248973206 -0.052233306326526736 0 -0.0018961773727180712 -0.052274634493774133 0 -0.0021570072600274617 -0.051156758933888713 0 -0.0024382505306902724 -0.049995009737282929 0 -0.0020164208332811989 -0.052401238784743912 0 -0.0020964013554484353 -0.052439731595700652 0 -0.0022371819248973206 -0.052233306326526736 0 -0.0022383258291134439 -0.049890749179285654 0 -0.0031484804947639767 -0.049058214946717499 0 -0.0024800844987271113 -0.047910690955609139 0 -0.004080083594972206 -0.049241246370924349 0 -0.0033349240405819778 -0.050193558224764748 0 -0.0031484804947639767 -0.049058214946717499 0 -0.0037894669653296222 -0.048080037515641681 0 -0.0031484804947639767 -0.049058214946717499 0 -0.0024800844987271113 -0.047910690955609139 0 -0.0027624738535083761 -0.045928771457427811 0 -0.0038370471411342485 -0.046892062527816927 0 -0.0024800844987271113 -0.047910690955609139 0 -0.0024419962747384604 -0.051176743151415328 0 -0.0022371819248973206 -0.052233306326526736 0 -0.0018797703918273184 -0.051841066446926522 0 -0.0014703342204348301 -0.048677642972055436 0 -0.0024382505306902724 -0.049995009737282929 0 -0.0038370471411342485 -0.046892062527816927 0 -0.0037894669653296222 -0.048080037515641681 0 -0.0024800844987271113 -0.047910690955609139 0 -0.0014256359839728376 -0.051294043049579581 0 -0.0018797703918273184 -0.051841066446926522 0 -0.0014451990084497974 -0.052114661196285952 0 -0.0018797703918273184 -0.051841066446926522 0 -0.0018961773727180712 -0.052274634493774133 0 -0.0014451990084497974 -0.052114661196285952 0 -0.0022371819248973206 -0.052233306326526736 0 -0.0018797703918273184 -0.051841066446926522 0 -0.0018961773727180712 -0.052274634493774133 0 -0.0014256359839728376 -0.051294043049579581 0 -0.0014451990084497974 -0.052114661196285952 0 -0.00085128869582791716 -0.051907058170161356 0 -0.0014451990084497974 -0.052114661196285952 0 -0.00085128869582791716 -0.051907058170161356 0 -0.00093765188954044755 -0.052626464576881769 0 -0.00037492333651663204 -0.051363533311430586 0 -0.00085128869582791716 -0.051907058170161356 0 -1.2574634540391194e-05 -0.052182189202328561 0 -0.00085128869582791716 -0.051907058170161356 0 -1.2574634540391194e-05 -0.052182189202328561 0 -0.00093765188954044755 -0.052626464576881769 0 -1.2574634540391194e-05 -0.052182189202328561 0 -0.00029186202221943933 -0.053003101287966384 0 -0.00093765188954044755 -0.052626464576881769 0 -0.00029186202221943933 -0.053003101287966384 0 -0.00093765188954044755 -0.052626464576881769 0 -0.0008791115798160447 -0.053326074772652957 0 -0.00093765188954044755 -0.052626464576881769 0 -0.0014070480154784592 -0.053014799866555072 0 -0.0008791115798160447 -0.053326074772652957 0 -0.0015914651675922587 -0.052504891079838793 0 -0.0014451990084497974 -0.052114661196285952 0 -0.00093765188954044755 -0.052626464576881769 0 -0.0015914651675922587 -0.052504891079838793 0 -0.00093765188954044755 -0.052626464576881769 0 -0.0014070480154784592 -0.053014799866555072 0 -0.0014070480154784592 -0.053014799866555072 0 -0.0008791115798160447 -0.053326074772652957 0 -0.0013358778570851956 -0.054065170960684091 0 -0.0008791115798160447 -0.053326074772652957 0 -0.0013358778570851956 -0.054065170960684091 0 -0.00039759603525704116 -0.053965319937803048 0 -0.0015819525015204068 -0.053051280855186379 0 -0.00061284869628605067 -0.05403568235636428 0 -0.0013358778570851956 -0.054065170960684091 0 -0.00039759603525704116 -0.053965319937803048 0 -0.00034474792782110912 -0.055018414951282978 0 -0.00039759603525704116 -0.053965319937803048 0 9.5671271318442661e-05 -0.054632477778588193 0 -0.00034474792782110912 -0.055018414951282978 0 -0.00029186202221943933 -0.053003101287966384 0 -0.00039759603525704116 -0.053965319937803048 0 0.00056580704255625852 -0.053095597508729185 0 -0.00029186202221943933 -0.053003101287966384 0 -0.0008791115798160447 -0.053326074772652957 0 -0.00039759603525704116 -0.053965319937803048 0 0.0001200360277743346 -0.054576776599559312 0 0.0003081702074718113 -0.054075122457579179 0 -0.00039759603525704116 -0.053965319937803048 0 9.5671271318442661e-05 -0.054632477778588193 0 0.00056580704255625852 -0.053095597508729185 0 9.5671271318442661e-05 -0.054632477778588193 0 -5.7897300303175891e-08 -0.054999668108006904 0 4.8754308434446367e-05 -0.054963493899337301 0 9.5671271318442661e-05 -0.054632477778588193 0 4.3663984242187757e-05 -0.054878714244507083 0 2.2234800141998923e-05 -0.054885667152254715 0 9.5671271318442661e-05 -0.054632477778588193 0 -5.7897300303175891e-08 -0.054999668108006904 0 4.3663984242187757e-05 -0.054878714244507083 0 -5.7897300303175891e-08 -0.054999668108006904 0 4.1254010184830785e-08 -0.055000044264549332 0 4.8754308434446367e-05 -0.054963493899337301 0 4.1254010184830785e-08 -0.055000044264549332 0 4.8754308434446367e-05 -0.054963493899337301 0 1.3401213905135772e-05 -0.054993741138850763 0 -1.2574634540391194e-05 -0.052182189202328561 0 -0.00029186202221943933 -0.053003101287966384 0 0.00056580704255625852 -0.053095597508729185 0 4.8754308434446367e-05 -0.054963493899337301 0 1.9496950102628019e-05 -0.054998510555372609 0 1.3401213905135772e-05 -0.054993741138850763 0 0.0003081702074718113 -0.054075122457579179 0 0.00027340182544598922 -0.053172681989455635 0 0.00077256378340890945 -0.051481300381683866 0 -1.2574634540391194e-05 -0.052182189202328561 0 0.00081835457839945927 -0.051758962687625226 0 -1.2574634540391194e-05 -0.052182189202328561 0 0.00056580704255625852 -0.053095597508729185 0 0.00081835457839945927 -0.051758962687625226 0 0.00077256378340890945 -0.051481300381683866 0 -0.00037492333651663204 -0.051363533311430586 0 -1.2574634540391194e-05 -0.052182189202328561 0 4.6931952568206722e-05 -0.053397693747862657 0 0.00027340182544598922 -0.053172681989455635 0 0.00018015472108588913 -0.052114806540759562 0 0.00027340182544598922 -0.053172681989455635 0 1.3767460493169178e-09 -0.054999978136873663 0 1.7676194860140391e-05 -0.05500038496995701 0 1.9496950102628019e-05 -0.054998510555372609 0 1.3767460493169178e-09 -0.054999978136873663 0 1.9496950102628019e-05 -0.054998510555372609 0 1.3401213905135772e-05 -0.054993741138850763 0 1.3767460493169178e-09 -0.054999978136873663 0 4.1254010184830785e-08 -0.055000044264549332 0 1.3401213905135772e-05 -0.054993741138850763 0 -6.044197020086357e-08 -0.054999985184858588 0 -0.00015078241657051549 -0.054959695967076679 0 -8.8940190992397081e-09 -0.055000314431515908 0 -0.00025665137845107212 -0.055132633257479809 0 -0.0001098811313211667 -0.055003505880045642 0 2.2871094977471515e-08 -0.054999770445283293 0 2.9548220306456667e-05 -0.054800888574381888 0 2.2193329116113271e-05 -0.0547906248072145 0 -0.00025665137845107212 -0.055132633257479809 0 -0.00025914115984547903 -0.054865883430878414 0 -0.0001098811313211667 -0.055003505880045642 0 -0.00025665137845107212 -0.055132633257479809 0 -0.00025914115984547903 -0.054865883430878414 0 -0.00064571548553972924 -0.054981415531094251 0 3.4302009956996847e-05 -0.05493572047509393 0 -2.5018444413954371e-05 -0.054754551511290453 0 1.5330108274181434e-05 -0.054906358100122468 0 -8.8940190992397081e-09 -0.055000314431515908 0 -1.0516211331146511e-08 -0.054999701972326162 0 -0.0001098811313211667 -0.055003505880045642 0 3.4302009956996847e-05 -0.05493572047509393 0 1.5330108274181434e-05 -0.054906358100122468 0 -1.8227551182531407e-08 -0.054999843236712406 0 -0.00015359266487295555 -0.05489540201749038 0 1.6263332461340615e-08 -0.05499996048225278 0 1.5330108274181434e-05 -0.054906358100122468 0 -1.8227551182531407e-08 -0.054999843236712406 0 1.6698378077064294e-06 -0.054946835924398099 0 -0.00025914115984547903 -0.054865883430878414 0 -1.0516211331146511e-08 -0.054999701972326162 0 -0.0001098811313211667 -0.055003505880045642 0 1.6698378077064294e-06 -0.054946835924398099 0 8.0869048595673243e-08 -0.054999858205739938 0 -1.5528931241827125e-05 -0.05490722857706741 0 -1.8227551182531407e-08 -0.054999843236712406 0 1.6698378077064294e-06 -0.054946835924398099 0 8.0869048595673243e-08 -0.054999858205739938 0 -5.7897300303175891e-08 -0.054999668108006904 0 4.3663984242187757e-05 -0.054878714244507083 0 8.0869048595673243e-08 -0.054999858205739938 0 4.3663984242187757e-05 -0.054878714244507083 0 8.0869048595673243e-08 -0.054999858205739938 0 2.2234800141998923e-05 -0.054885667152254715 0 8.0869048595673243e-08 -0.054999858205739938 0 2.2234800141998923e-05 -0.054885667152254715 0 -1.5528931241827125e-05 -0.05490722857706741 0 2.2234800141998923e-05 -0.054885667152254715 0 -1.5528931241827125e-05 -0.05490722857706741 0 -0.00034474792782110912 -0.055018414951282978 0 9.5671271318442661e-05 -0.054632477778588193 0 2.2234800141998923e-05 -0.054885667152254715 0 -0.00034474792782110912 -0.055018414951282978 0 -2.5018444413954371e-05 -0.054754551511290453 0 -1.5528931241827125e-05 -0.05490722857706741 0 -0.00034474792782110912 -0.055018414951282978 0 1.5330108274181434e-05 -0.054906358100122468 0 1.6698378077064294e-06 -0.054946835924398099 0 -1.5528931241827125e-05 -0.05490722857706741 0 -2.5018444413954371e-05 -0.054754551511290453 0 1.5330108274181434e-05 -0.054906358100122468 0 -1.5528931241827125e-05 -0.05490722857706741 0 -7.0448997738483237e-05 -0.054693338508475901 0 -0.00061284869628605067 -0.05403568235636428 0 -2.5018444413954371e-05 -0.054754551511290453 0 -0.00085047158455920887 -0.054183013956503788 0 -0.00082210847317649917 -0.053070733925917428 0 -0.0018908958614167906 -0.052013000367599455 0 -0.00082210847317649917 -0.053070733925917428 0 -0.0018574752107662325 -0.052834010277451042 0 -0.00082210847317649917 -0.053070733925917428 0 -0.0014076854037912373 -0.053872218689013096 0 -0.0018574752107662325 -0.052834010277451042 0 -0.00085047158455920887 -0.054183013956503788 0 -0.00082210847317649917 -0.053070733925917428 0 -0.0014076854037912373 -0.053872218689013096 0 -0.00085047158455920887 -0.054183013956503788 0 -0.0014076854037912373 -0.053872218689013096 0 -0.0010664660961467534 -0.054783287212693418 0 -0.0014076854037912373 -0.053872218689013096 0 -0.0017036251847875098 -0.054620570060128486 0 -0.002161374768548142 -0.053765396005288575 0 -0.00045673987278885394 -0.054899869620894881 0 -0.0012972661203500733 -0.054545613621026931 0 -0.0017036251847875098 -0.054620570060128486 0 -0.0010436263433390026 -0.055160577119536529 0 -0.0023447898561158855 -0.055005716292613985 0 -0.0014076854037912373 -0.053872218689013096 0 -0.0017036251847875098 -0.054620570060128486 0 -0.0010664660961467534 -0.054783287212693418 0 -0.0017036251847875098 -0.054620570060128486 0 -0.0010664660961467534 -0.054783287212693418 0 -0.0010436263433390026 -0.055160577119536529 0 -2.5018444413954371e-05 -0.054754551511290453 0 -0.00085047158455920887 -0.054183013956503788 0 -0.0010664660961467534 -0.054783287212693418 0 -0.00015359266487295555 -0.05489540201749038 0 -0.00098734645896332552 -0.054810030174787167 0 -0.00025914115984547903 -0.054865883430878414 0 -0.0010664660961467534 -0.054783287212693418 0 -0.00064571548553972924 -0.054981415531094251 0 3.4302009956996847e-05 -0.05493572047509393 0 -2.5018444413954371e-05 -0.054754551511290453 0 -0.0010664660961467534 -0.054783287212693418 0 -0.0010664660961467534 -0.054783287212693418 0 -0.00064571548553972924 -0.054981415531094251 0 -0.0010436263433390026 -0.055160577119536529 0 -0.00025665137845107212 -0.055132633257479809 0 -0.00064571548553972924 -0.054981415531094251 0 -0.0010436263433390026 -0.055160577119536529 0 2.9548220306456667e-05 -0.054800888574381888 0 8.3025867050375804e-05 -0.054615826260050113 0 9.4750967472581038e-05 -0.05457702366924988 0 -0.00015078241657051549 -0.054959695967076679 0 -0.00045673987278885394 -0.054899869620894881 0 8.3025867050375804e-05 -0.054615826260050113 0 0.00014532349250710491 -0.05442249756471252 0 9.4750967472581038e-05 -0.05457702366924988 0 0.00016669904390196754 -0.054385659335073694 0 0.00014532349250710491 -0.05442249756471252 0 9.4750967472581038e-05 -0.05457702366924988 0 0.00016669904390196754 -0.054385659335073694 0 0.00014532349250710491 -0.05442249756471252 0 0.00015365511007028391 -0.054200259407564767 0 0.00016669904390196754 -0.054385659335073694 0 0.00015365511007028391 -0.054200259407564767 0 0.00018828180859854315 -0.054263050011341372 0 -0.0012972661203500733 -0.054545613621026931 0 -0.0010779639677596699 -0.055934401911893541 0 -0.0023447898561158855 -0.055005716292613985 0 -0.0030858348623415662 -0.053765734222253572 0 -0.0038127327577207881 -0.054759004017772922 0 -0.0017036251847875098 -0.054620570060128486 0 -0.0023447898561158855 -0.055005716292613985 0 -0.002161374768548142 -0.053765396005288575 0 -0.0014076854037912373 -0.053872218689013096 0 -0.002161374768548142 -0.053765396005288575 0 -0.0018574752107662325 -0.052834010277451042 0 -0.0023447898561158855 -0.055005716292613985 0 -0.002161374768548142 -0.053765396005288575 0 -0.0030858348623415662 -0.053765734222253572 0 -0.002161374768548142 -0.053765396005288575 0 -0.0026118493937672712 -0.052741887905162245 0 -0.0030858348623415662 -0.053765734222253572 0 -0.002161374768548142 -0.053765396005288575 0 -0.0018574752107662325 -0.052834010277451042 0 -0.0026118493937672712 -0.052741887905162245 0 -0.0021960978724098021 -0.052011024938537258 0 -0.0018574752107662325 -0.052834010277451042 0 -0.0026118493937672712 -0.052741887905162245 0 -0.003521502524964568 -0.052698321102636919 0 -0.0026118493937672712 -0.052741887905162245 0 -0.0030858348623415662 -0.053765734222253572 0 -0.0030504046256210043 -0.051991072111122506 0 -0.003521502524964568 -0.052698321102636919 0 -0.0026118493937672712 -0.052741887905162245 0 -0.003521502524964568 -0.052698321102636919 0 -0.0030858348623415662 -0.053765734222253572 0 -0.0041349678684107416 -0.053571350425132454 0 -0.0030858348623415662 -0.053765734222253572 0 -0.0041349678684107416 -0.053571350425132454 0 -0.0038127327577207881 -0.054759004017772922 0 -0.003521502524964568 -0.052698321102636919 0 -0.0041349678684107416 -0.053571350425132454 0 -0.0044447732740558691 -0.052426764535106175 0 -0.0041349678684107416 -0.053571350425132454 0 -0.0044447732740558691 -0.052426764535106175 0 -0.0052284493915243811 -0.053106018440573242 0 -0.0038541358181200572 -0.051878304701811734 0 -0.003521502524964568 -0.052698321102636919 0 -0.0044447732740558691 -0.052426764535106175 0 -0.0092508994311664393 -0.030220520161126502 0 -0.0090253293998418162 -0.028487966584643455 0 -0.0074467604096963595 -0.029174416030187177 0 -0.0051699070809279489 -0.051698316809056247 0 -0.0044447732740558691 -0.052426764535106175 0 -0.0052284493915243811 -0.053106018440573242 0 -0.0071594356077839842 -0.039692242506317074 0 -0.0072930927015915567 -0.041098449634185963 0 -0.0090253293998418162 -0.028487966584643455 0 -0.0087819611605504909 -0.02689861138824912 0 -0.0078598826199851781 -0.028060912540368903 0 -0.0072930927015915567 -0.041098449634185963 0 -0.0051839295073965019 -0.040505497305373353 0 -0.0041349678684107416 -0.053571350425132454 0 -0.0052284493915243811 -0.053106018440573242 0 -0.0053580702600843069 -0.054418801400606613 0 5.5397345424493383e-05 -0.053995936199927347 0 0.00015365511007028391 -0.054200259407564767 0 0.00012928865507974398 -0.05413449866665105 0 -0.0041349678684107416 -0.053571350425132454 0 -0.0053580702600843069 -0.054418801400606613 0 -0.0038127327577207881 -0.054759004017772922 0 -0.0051839295073965019 -0.040505497305373353 0 -0.0010779639677596699 -0.055934401911893541 0 0.00015365511007028391 -0.054200259407564767 0 0.00012928865507974398 -0.05413449866665105 0 0.00018828180859854315 -0.054263050011341372 0 -0.0051839295073965019 -0.040505497305373353 0 -0.0039722030680174472 -0.039594378156761825 0 0.00012928865507974398 -0.05413449866665105 0 0.00011424668450875742 -0.054077785526175433 0 0.00018828180859854315 -0.054263050011341372 0 5.5397345424493383e-05 -0.053995936199927347 0 0.00012928865507974398 -0.05413449866665105 0 0.00011424668450875742 -0.054077785526175433 0 0.00018828180859854315 -0.054263050011341372 0 0.0001941082987154066 -0.054172720134793538 0 0.00034847609247661671 -0.054267611375975293 0 0.00011424668450875742 -0.054077785526175433 0 0.00018828180859854315 -0.054263050011341372 0 0.0001941082987154066 -0.054172720134793538 0 0.00011424668450875742 -0.054077785526175433 0 0.0001941082987154066 -0.054172720134793538 0 0.00010815045745966203 -0.054118090062884323 0 0.0001941082987154066 -0.054172720134793538 0 0.00034847609247661671 -0.054267611375975293 0 0.00010815045745966203 -0.054118090062884323 0 0.0027639985920852946 -0.058900385753772128 0 -0.0036721855501759388 -0.038745952331251124 0 0.00067671958519652329 -0.053956706700307576 0 0.00098983319135422226 -0.054229492576294419 0 0.0011131970155966173 -0.053870726020023733 0 0.00067671958519652329 -0.053956706700307576 0 0.00034847609247661671 -0.054267611375975293 0 0.00098983319135422226 -0.054229492576294419 0 0.00067671958519652329 -0.053956706700307576 0 0.0011131970155966173 -0.053870726020023733 0 0.00087150785096502597 -0.053590244310454803 0 0.00067671958519652329 -0.053956706700307576 0 0.00034847609247661671 -0.054267611375975293 0 0.00032088477863420069 -0.054009793505065476 0 0.00067671958519652329 -0.053956706700307576 0 0.00032088477863420069 -0.054009793505065476 0 0.00058515822259368308 -0.053768890168393001 0 0.00034847609247661671 -0.054267611375975293 0 0.00018645706014646995 -0.054301689359925541 0 0.00018440928381658706 -0.054399585526432294 0 0.00034847609247661671 -0.054267611375975293 0 0.00018645706014646995 -0.054301689359925541 0 0.00032088477863420069 -0.054009793505065476 0 0.00018645706014646995 -0.054301689359925541 0 0.00032088477863420069 -0.054009793505065476 0 0.00016620422764995321 -0.054125929683966824 0 0.00018645706014646995 -0.054301689359925541 0 9.8190003531519851e-05 -0.054350179825408372 0 0.00016620422764995321 -0.054125929683966824 0 0.00018645706014646995 -0.054301689359925541 0 0.00018440928381658706 -0.054399585526432294 0 0.00010471890720770736 -0.054475369816815195 0 0.00018645706014646995 -0.054301689359925541 0 9.8190003531519851e-05 -0.054350179825408372 0 0.00010471890720770736 -0.054475369816815195 0 0.00018828180859854315 -0.054263050011341372 0 0.00034847609247661671 -0.054267611375975293 0 0.00018440928381658706 -0.054399585526432294 0 0.00018440928381658706 -0.054399585526432294 0 9.4750967472581038e-05 -0.05457702366924988 0 0.00010471890720770736 -0.054475369816815195 0 0.00016669904390196754 -0.054385659335073694 0 0.00018828180859854315 -0.054263050011341372 0 0.00018440928381658706 -0.054399585526432294 0 0.00016669904390196754 -0.054385659335073694 0 0.00018440928381658706 -0.054399585526432294 0 9.4750967472581038e-05 -0.05457702366924988 0 2.9548220306456667e-05 -0.054800888574381888 0 9.4750967472581038e-05 -0.05457702366924988 0 2.2193329116113271e-05 -0.0547906248072145 0 9.4750967472581038e-05 -0.05457702366924988 0 3.8647049050534648e-05 -0.054648667638117834 0 2.2193329116113271e-05 -0.0547906248072145 0 9.4750967472581038e-05 -0.05457702366924988 0 3.8647049050534648e-05 -0.054648667638117834 0 0.00010471890720770736 -0.054475369816815195 0 3.8647049050534648e-05 -0.054648667638117834 0 0.00010471890720770736 -0.054475369816815195 0 2.9710710936803411e-05 -0.054528166672151379 0 9.8190003531519851e-05 -0.054350179825408372 0 0.00010471890720770736 -0.054475369816815195 0 2.9710710936803411e-05 -0.054528166672151379 0 9.8190003531519851e-05 -0.054350179825408372 0 2.9710710936803411e-05 -0.054528166672151379 0 2.7995404275635547e-05 -0.054316272899303367 0 2.9710710936803411e-05 -0.054528166672151379 0 4.2136506923863118e-07 -0.054736179799355827 0 -7.3456995808633235e-06 -0.054660103550600005 0 3.8647049050534648e-05 -0.054648667638117834 0 2.9710710936803411e-05 -0.054528166672151379 0 4.2136506923863118e-07 -0.054736179799355827 0 3.8647049050534648e-05 -0.054648667638117834 0 4.2136506923863118e-07 -0.054736179799355827 0 2.8023799641791684e-06 -0.054861399668643868 0 4.2136506923863118e-07 -0.054736179799355827 0 1.2276904016200778e-08 -0.05499977549755982 0 -6.2902786173205435e-08 -0.054999565431042743 0 4.2136506923863118e-07 -0.054736179799355827 0 1.2276904016200778e-08 -0.05499977549755982 0 2.8023799641791684e-06 -0.054861399668643868 0 2.8023799641791684e-06 -0.054861399668643868 0 -6.5004043523586337e-09 -0.054999769840830069 0 2.2193329116113271e-05 -0.0547906248072145 0 1.2276904016200778e-08 -0.05499977549755982 0 2.8023799641791684e-06 -0.054861399668643868 0 -6.5004043523586337e-09 -0.054999769840830069 0 3.8647049050534648e-05 -0.054648667638117834 0 2.8023799641791684e-06 -0.054861399668643868 0 2.2193329116113271e-05 -0.0547906248072145 0 2.2871094977471515e-08 -0.054999770445283293 0 -6.5004043523586337e-09 -0.054999769840830069 0 2.2193329116113271e-05 -0.0547906248072145 0 -0.0033003515241681277 -0.026220368859791073 0 -0.0035574406964200395 -0.025130202487185581 0 -0.0046662176943396451 -0.026017036786027785 0 -0.0033003515241681277 -0.026220368859791073 0 -0.0044220522684121416 -0.02706777985860501 0 -0.0046662176943396451 -0.026017036786027785 0 -0.0043522251548118278 -0.024882500189925952 0 -0.0035574406964200395 -0.025130202487185581 0 -0.0046662176943396451 -0.026017036786027785 0 -0.0043522251548118278 -0.024882500189925952 0 -0.0035574406964200395 -0.025130202487185581 0 -0.0032336589462568987 -0.024325736018361348 0 -0.0035574406964200395 -0.025130202487185581 0 -0.0024975657274719661 -0.024499098699433727 0 -0.0032336589462568987 -0.024325736018361348 0 -0.0033003515241681277 -0.026220368859791073 0 -0.0035574406964200395 -0.025130202487185581 0 -0.0024975657274719661 -0.024499098699433727 0 -0.0025951596359659445 -0.024440072915386614 0 -0.0039727186519172928 -0.023284936468079293 0 0.00047683073608752196 -0.022059877647961999 0 -0.0024975657274719661 -0.024499098699433727 0 -0.00058138617390545875 -0.025423576459271225 0 -0.0024975657274719661 -0.024499098699433727 0 -0.00058138617390545875 -0.025423576459271225 0 -0.002061149307406948 -0.02610507991843853 0 -0.00028410116640033853 -0.024499757110108572 0 -0.0010045404668681112 -0.026277679132934752 0 -0.00058138617390545875 -0.025423576459271225 0 -0.002061149307406948 -0.02610507991843853 0 -0.0015141436316492914 -0.027390730568082632 0 0.00037220976046175051 -0.024708119037514496 0 4.3549953824421145e-05 -0.023666658456456401 0 -0.00056977062136997624 -0.025284799695453879 0 -0.0033003515241681277 -0.026220368859791073 0 -0.0024975657274719661 -0.024499098699433727 0 -0.002061149307406948 -0.02610507991843853 0 -0.0033003515241681277 -0.026220368859791073 0 -0.002061149307406948 -0.02610507991843853 0 -0.0025115634009796792 -0.027069564623851187 0 -0.002061149307406948 -0.02610507991843853 0 -0.0025115634009796792 -0.027069564623851187 0 -0.0015141436316492914 -0.027390730568082632 0 -0.0025115634009796792 -0.027069564623851187 0 -0.0015141436316492914 -0.027390730568082632 0 -0.0024653451029667409 -0.027955648934143072 0 0.00037220976046175051 -0.024708119037514496 0 -0.00056977062136997624 -0.025284799695453879 0 0.00032393326307142135 -0.026267571036933734 0 -0.0011960545928354101 -0.026917564688196151 0 -0.00056977062136997624 -0.025284799695453879 0 0.00032393326307142135 -0.026267571036933734 0 -0.0018232943129415633 -0.028178671370762472 0 -0.0010045404668681112 -0.026277679132934752 0 -0.0021557034596337982 -0.0289127052625444 0 -0.0015141436316492914 -0.027390730568082632 0 -0.0024653451029667409 -0.027955648934143072 0 -0.002896439401440176 -0.028740898269001273 0 -0.0021557034596337982 -0.0289127052625444 0 -0.0024653451029667409 -0.027955648934143072 0 -0.002896439401440176 -0.028740898269001273 0 -0.0024653451029667409 -0.027955648934143072 0 -0.003211699143251322 -0.027592975384366926 0 -0.002896439401440176 -0.028740898269001273 0 -0.003211699143251322 -0.027592975384366926 0 -0.0037964984014342675 -0.028364931969564952 0 -0.0033003515241681277 -0.026220368859791073 0 -0.0025115634009796792 -0.027069564623851187 0 -0.003211699143251322 -0.027592975384366926 0 -0.0025115634009796792 -0.027069564623851187 0 -0.0024653451029667409 -0.027955648934143072 0 -0.003211699143251322 -0.027592975384366926 0 -0.003211699143251322 -0.027592975384366926 0 -0.0044220522684121416 -0.02706777985860501 0 -0.0037964984014342675 -0.028364931969564952 0 -0.0033003515241681277 -0.026220368859791073 0 -0.003211699143251322 -0.027592975384366926 0 -0.0044220522684121416 -0.02706777985860501 0 -0.0041196852119655177 -0.029018144400830358 0 -0.0037964984014342675 -0.028364931969564952 0 -0.0046735345068786285 -0.028508599277546169 0 -0.0044220522684121416 -0.02706777985860501 0 -0.0037964984014342675 -0.028364931969564952 0 -0.0046735345068786285 -0.028508599277546169 0 -0.0044220522684121416 -0.02706777985860501 0 -0.0046735345068786285 -0.028508599277546169 0 -0.0056406545709763957 -0.027866029150854732 0 -0.0054938821471935875 -0.02930270100323917 0 -0.0046735345068786285 -0.028508599277546169 0 -0.0056406545709763957 -0.027866029150854732 0 -0.0062924626772968258 -0.029031779693745027 0 -0.0054938821471935875 -0.02930270100323917 0 -0.0056406545709763957 -0.027866029150854732 0 -0.0044220522684121416 -0.02706777985860501 0 -0.0058306615774270957 -0.028103004240751794 0 -0.0059304536221032218 -0.026699780880202136 0 -0.0044551274036986688 -0.027104332243794167 0 -0.0057760297866138958 -0.028145024022104698 0 -0.0090253293998418162 -0.028487966584643455 0 -0.0074467604096963595 -0.029174416030187177 0 -0.0078598826199851781 -0.028060912540368903 0 -0.0057760297866138958 -0.028145024022104698 0 -0.0071961383864511588 -0.027609023689562927 0 -0.0058306615774270957 -0.028103004240751794 0 -0.0074467604096963595 -0.029174416030187177 0 -0.0078598826199851781 -0.028060912540368903 0 -0.0062924626772968258 -0.029031779693745027 0 -0.0056406545709763957 -0.027866029150854732 0 -0.0068381870339371377 -0.028564564104066995 0 -0.0058306615774270957 -0.028103004240751794 0 -0.0072913949411283355 -0.026970130565865121 0 -0.0059304536221032218 -0.026699780880202136 0 -0.0058306615774270957 -0.028103004240751794 0 -0.0078598826199851781 -0.028060912540368903 0 -0.0072913949411283355 -0.026970130565865121 0 -0.0087819611605504909 -0.02689861138824912 0 -0.0078598826199851781 -0.028060912540368903 0 -0.0072913949411283355 -0.026970130565865121 0 -0.0085025829186077574 -0.026875014166706384 0 -0.0072913949411283355 -0.026970130565865121 0 -0.0077591432330032318 -0.026111533913879284 0 -0.0051839295073965019 -0.040505497305373353 0 -0.0092055072237469653 -0.025263875065064622 0 -0.0072913949411283355 -0.026970130565865121 0 -0.0069845618148072896 -0.025493650291060131 0 -0.0077591432330032318 -0.026111533913879284 0 -0.0072913949411283355 -0.026970130565865121 0 -0.0069845618148072896 -0.025493650291060131 0 -0.0059304536221032218 -0.026699780880202136 0 -0.0082402784381767052 -0.025114828113864691 0 -0.0069845618148072896 -0.025493650291060131 0 -0.0077591432330032318 -0.026111533913879284 0 -0.0085025829186077574 -0.026875014166706384 0 -0.0082402784381767052 -0.025114828113864691 0 -0.0077591432330032318 -0.026111533913879284 0 -0.0044220522684121416 -0.02706777985860501 0 -0.0046662176943396451 -0.026017036786027785 0 -0.0059304536221032218 -0.026699780880202136 0 -0.0046662176943396451 -0.026017036786027785 0 -0.0059304536221032218 -0.026699780880202136 0 -0.0055743667394949131 -0.025589355612345641 0 -0.0069845618148072896 -0.025493650291060131 0 -0.0059304536221032218 -0.026699780880202136 0 -0.0055743667394949131 -0.025589355612345641 0 -0.0069845618148072896 -0.025493650291060131 0 -0.0055743667394949131 -0.025589355612345641 0 -0.006123447688061329 -0.024604575063110406 0 -0.0043522251548118278 -0.024882500189925952 0 -0.0046662176943396451 -0.026017036786027785 0 -0.0055743667394949131 -0.025589355612345641 0 -0.0043522251548118278 -0.024882500189925952 0 -0.0055743667394949131 -0.025589355612345641 0 -0.005200075696986918 -0.024714423331650106 0 -0.0043522251548118278 -0.024882500189925952 0 -0.005200075696986918 -0.024714423331650106 0 -0.0050021309875136312 -0.023736498474801065 0 -0.0043522251548118278 -0.024882500189925952 0 -0.0050021309875136312 -0.023736498474801065 0 -0.0040785403017066938 -0.023473852372056087 0 -0.0055743667394949131 -0.025589355612345641 0 -0.005200075696986918 -0.024714423331650106 0 -0.006123447688061329 -0.024604575063110406 0 -0.005200075696986918 -0.024714423331650106 0 -0.006123447688061329 -0.024604575063110406 0 -0.0050021309875136312 -0.023736498474801065 0 -0.0044037381871812661 -0.024229145654792641 0 -0.0078887598542888657 -0.021442169222035293 0 -0.006123447688061329 -0.024604575063110406 0 -0.0050021309875136312 -0.023736498474801065 0 -0.0065888636513997938 -0.023678859372622374 0 -0.0050021309875136312 -0.023736498474801065 0 -0.006477417541633469 -0.023045534442913095 0 -0.0050651456112387411 -0.022234212529103341 0 -0.0055852874850379685 -0.021240182210332276 0 -0.0050139064660943413 -0.022030001257751095 0 -0.0050021309875136312 -0.023736498474801065 0 -0.0050651456112387411 -0.022234212529103341 0 -0.0040785403017066938 -0.023473852372056087 0 -0.0082402784381767052 -0.025114828113864691 0 -0.0069845618148072896 -0.025493650291060131 0 -0.0073356901635091556 -0.024390663148397287 0 -0.0082402784381767052 -0.025114828113864691 0 -0.0073356901635091556 -0.024390663148397287 0 -0.0079571891281699243 -0.023536812254236612 0 -0.006123447688061329 -0.024604575063110406 0 -0.0073356901635091556 -0.024390663148397287 0 -0.0065888636513997938 -0.023678859372622374 0 -0.0069845618148072896 -0.025493650291060131 0 -0.006123447688061329 -0.024604575063110406 0 -0.0073356901635091556 -0.024390663148397287 0 -0.006477417541633469 -0.023045534442913095 0 -0.0079361495944488668 -0.022570118848507716 0 -0.0069971787053908479 -0.021915060448850093 0 -0.0039722030680174472 -0.039594378156761825 0 -0.0036721855501759388 -0.038745952331251124 0 -0.0078887598542888657 -0.021442169222035293 0 -0.0036721855501759388 -0.038745952331251124 0 -0.0073356901635091556 -0.024390663148397287 0 -0.0065888636513997938 -0.023678859372622374 0 -0.0079571891281699243 -0.023536812254236612 0 -0.0036721855501759388 -0.038745952331251124 0 -0.0032215389354475783 -0.037467079913313189 0 -0.0079361495944488668 -0.022570118848507716 0 -0.0069971787053908479 -0.021915060448850093 0 -0.007639216096374103 -0.021232903970324093 0 -0.006477417541633469 -0.023045534442913095 0 -0.0069971787053908479 -0.021915060448850093 0 -0.0062145589356053634 -0.020882183145914918 0 -0.0069971787053908479 -0.021915060448850093 0 -0.0068711699427002173 -0.0206253559839732 0 -0.0062145589356053634 -0.020882183145914918 0 -0.0068711699427002173 -0.0206253559839732 0 -0.0062145589356053634 -0.020882183145914918 0 -0.006151346592908195 -0.020110330871812594 0 -0.0068711699427002173 -0.0206253559839732 0 -0.007639216096374103 -0.021232903970324093 0 -0.0072304695194673405 -0.020210563990136206 0 -0.0032215389354475783 -0.037467079913313189 0 -0.0030147173425060349 -0.036943351618084118 0 -0.0069971787053908479 -0.021915060448850093 0 -0.0068711699427002173 -0.0206253559839732 0 -0.007639216096374103 -0.021232903970324093 0 -0.0059712946783348833 -0.020212435904437796 0 -0.0057373627811953118 -0.020260146493483781 0 -0.0058012675200202618 -0.019719982450288404 0 -0.0059712946783348833 -0.020212435904437796 0 -0.0058012675200202618 -0.019719982450288404 0 -0.0059908112479105918 -0.020535396180478852 0 -0.006477417541633469 -0.023045534442913095 0 -0.0062145589356053634 -0.020882183145914918 0 -0.0050651456112387411 -0.022234212529103341 0 -0.0061916191566598975 -0.020839208715234057 0 -0.0055852874850379685 -0.021240182210332276 0 -0.0062145589356053634 -0.020882183145914918 0 -0.0057373627811953118 -0.020260146493483781 0 -0.006151346592908195 -0.020110330871812594 0 -0.0062145589356053634 -0.020882183145914918 0 -0.0059712946783348833 -0.020212435904437796 0 -0.0057373627811953118 -0.020260146493483781 0 -0.0057373627811953118 -0.020260146493483781 0 -0.0058012675200202618 -0.019719982450288404 0 -0.0052200946626341609 -0.020054476416487936 0 -0.0047641320349639665 -0.020189500698905495 0 -0.0058012675200202618 -0.019719982450288404 0 -0.0052200946626341609 -0.020054476416487936 0 -0.0051858919046409921 -0.016111553637545267 0 -0.0046301631130596021 -0.01851394113659257 0 -0.0058012675200202618 -0.019719982450288404 0 -0.0048757497564443598 -0.018073188324910155 0 -0.0056934680226927966 -0.019474303769125231 0 -0.0051858919046409921 -0.016111553637545267 0 -0.0046301631130596021 -0.01851394113659257 0 -0.0037452575537201228 -0.017153844997803307 0 -0.0046301631130596021 -0.01851394113659257 0 -0.0048684312320410785 -0.02007233229177257 0 -0.0028656371194982801 -0.019159381351308336 0 -0.0046301631130596021 -0.01851394113659257 0 -0.0058012675200202618 -0.019719982450288404 0 -0.0048684312320410785 -0.02007233229177257 0 -0.0058012675200202618 -0.019719982450288404 0 -0.0059908112479105918 -0.020535396180478852 0 -0.0048684312320410785 -0.02007233229177257 0 -0.0048684312320410785 -0.02007233229177257 0 -0.0048790285501999148 -0.022226606653159925 0 -0.0025903194900183603 -0.021417338365850504 0 -0.0059908112479105918 -0.020535396180478852 0 -0.0048684312320410785 -0.02007233229177257 0 -0.0048790285501999148 -0.022226606653159925 0 -0.0043522251548118278 -0.024882500189925952 0 -0.0040785403017066938 -0.023473852372056087 0 -0.0032336589462568987 -0.024325736018361348 0 -0.0050139064660943413 -0.022030001257751095 0 -0.0039727186519172928 -0.023284936468079293 0 0.00047683073608752196 -0.022059877647961999 0 -0.0024975657274719661 -0.024499098699433727 0 -0.0025903194900183603 -0.021417338365850504 0 -0.0024975657274719661 -0.024499098699433727 0 -0.0048790285501999148 -0.022226606653159925 0 -0.0025903194900183603 -0.021417338365850504 0 -0.0048684312320410785 -0.02007233229177257 0 -0.0025903194900183603 -0.021417338365850504 0 -0.0028656371194982801 -0.019159381351308336 0 -0.0025903194900183603 -0.021417338365850504 0 -0.00036945126177750356 -0.019977198913799399 0 -0.0028656371194982801 -0.019159381351308336 0 0.00047683073608752196 -0.022059877647961999 0 -0.0025903194900183603 -0.021417338365850504 0 -0.00036945126177750356 -0.019977198913799399 0 -0.00039334051493507076 -0.01806902115171018 0 -0.0028656371194982801 -0.019159381351308336 0 -0.0020049833036055566 -0.016903848803656963 0 -0.00039334051493507076 -0.01806902115171018 0 -0.00036945126177750356 -0.019977198913799399 0 -0.0028656371194982801 -0.019159381351308336 0 -0.0046301631130596021 -0.01851394113659257 0 -0.0028656371194982801 -0.019159381351308336 0 -0.0037452575537201228 -0.017153844997803307 0 -0.0028656371194982801 -0.019159381351308336 0 -0.0037452575537201228 -0.017153844997803307 0 -0.0020049833036055566 -0.016903848803656963 0 -0.0051858919046409921 -0.016111553637545267 0 -0.0037452575537201228 -0.017153844997803307 0 -0.0033841597333008609 -0.01482266321640394 0 -0.0037452575537201228 -0.017153844997803307 0 -0.0020049833036055566 -0.016903848803656963 0 -0.0033841597333008609 -0.01482266321640394 0 -0.00039334051493507076 -0.01806902115171018 0 -0.0020049833036055566 -0.016903848803656963 0 -0.00014303369974965322 -0.014921149702625387 0 -0.0020049833036055566 -0.016903848803656963 0 -0.0033841597333008609 -0.01482266321640394 0 -0.00014303369974965322 -0.014921149702625387 0 -0.0033841597333008609 -0.01482266321640394 0 -0.0025855130198593271 -0.011407747678086274 0 -0.0018810323364897529 -0.013066117169348248 0 -0.0033538119785429523 -0.014696216660811135 0 -0.0010927487260303597 -0.014048634230380146 0 -0.0033841597333008609 -0.01482266321640394 0 -0.0038739381117384843 -0.012288979360044503 0 -0.0025855130198593271 -0.011407747678086274 0 -0.0048757497564443598 -0.018073188324910155 0 -0.0036526647043503015 -0.016213835207380484 0 -0.0051858919046409921 -0.016111553637545267 0 -0.0033841597333008609 -0.01482266321640394 0 -0.0038739381117384843 -0.012288979360044503 0 -0.0047641320349639665 -0.020189500698905495 0 -0.0036679028606538731 -0.020322220901591588 0 -0.0044352053233714349 -0.019970082275013238 0 -0.0036679028606538731 -0.020322220901591588 0 -0.0042384573551378108 -0.019856642424819222 0 -0.0044352053233714349 -0.019970082275013238 0 -0.0036679028606538731 -0.020322220901591588 0 -0.0042384573551378108 -0.019856642424819222 0 -0.0033434732329489653 -0.019899920307176255 0 -0.0036679028606538731 -0.020322220901591588 0 -0.0033434732329489653 -0.019899920307176255 0 -0.0016080119937670612 -0.020256084922126643 0 -0.0038739381117384843 -0.012288979360044503 0 -0.0025855130198593271 -0.011407747678086274 0 -0.0027133734453069001 -0.0085031256412453453 0 -0.0036526647043503015 -0.016213835207380484 0 -0.0020474445357877317 -0.014265067707621239 0 -0.0033434732329489653 -0.019899920307176255 0 -0.0034259219734852036 -0.019190650259712026 0 -0.0016080119937670612 -0.020256084922126643 0 -0.0042384573551378108 -0.019856642424819222 0 -0.0033434732329489653 -0.019899920307176255 0 -0.0045249860044320389 -0.019426867106761152 0 -0.0033434732329489653 -0.019899920307176255 0 -0.0034259219734852036 -0.019190650259712026 0 -0.0045249860044320389 -0.019426867106761152 0 -0.0034259219734852036 -0.019190650259712026 0 -0.0015931176801752042 -0.01772196298085434 0 -0.0053454647427925396 -0.018706629168124857 0 -0.0034259219734852036 -0.019190650259712026 0 -0.0045249860044320389 -0.019426867106761152 0 -0.0053454647427925396 -0.018706629168124857 0 -0.0034259219734852036 -0.019190650259712026 0 -0.0015931176801752042 -0.01772196298085434 0 -0.0016080119937670612 -0.020256084922126643 0 -0.0045986827882311693 -0.019443422174506429 0 -0.0042979901374855644 -0.019375657320263667 0 -0.0034223125274327744 -0.020122706952928445 0 -0.0045986827882311693 -0.019443422174506429 0 -0.0045249860044320389 -0.019426867106761152 0 -0.0042979901374855644 -0.019375657320263667 0 -0.0045986827882311693 -0.019443422174506429 0 -0.0045249860044320389 -0.019426867106761152 0 -0.0053454647427925396 -0.018706629168124857 0 -0.0045249860044320389 -0.019426867106761152 0 -0.0042979901374855644 -0.019375657320263667 0 -0.0047667810596537666 -0.019488723641400505 0 -0.0042979901374855644 -0.019375657320263667 0 -0.0047667810596537666 -0.019488723641400505 0 -0.0037571873693334782 -0.018740166188421194 0 -0.0047680253917610832 -0.019388248519421527 0 -0.0044456394221695202 -0.019292097094151171 0 -0.0042384573551378108 -0.019856642424819222 0 -0.0047667810596537666 -0.019488723641400505 0 -0.0044352053233714349 -0.019970082275013238 0 -0.0042384573551378108 -0.019856642424819222 0 -0.0045249860044320389 -0.019426867106761152 0 -0.0047667810596537666 -0.019488723641400505 0 -0.0047667810596537666 -0.019488723641400505 0 -0.0044352053233714349 -0.019970082275013238 0 -0.0052200946626341609 -0.020054476416487936 0 -0.0047641320349639665 -0.020189500698905495 0 -0.0044352053233714349 -0.019970082275013238 0 -0.0052200946626341609 -0.020054476416487936 0 -0.0047667810596537666 -0.019488723641400505 0 -0.0052200946626341609 -0.020054476416487936 0 -0.0056372842673178061 -0.019551283174092857 0 -0.0057373627811953118 -0.020260146493483781 0 -0.0052200946626341609 -0.020054476416487936 0 -0.0056372842673178061 -0.019551283174092857 0 -0.0057373627811953118 -0.020260146493483781 0 -0.006151346592908195 -0.020110330871812594 0 -0.0056372842673178061 -0.019551283174092857 0 -0.0050909120606486991 -0.017880349971417221 0 -0.0044456394221695202 -0.019292097094151171 0 -0.006151346592908195 -0.020110330871812594 0 -0.006294067215893406 -0.019541381002721951 0 -0.0056372842673178061 -0.019551283174092857 0 -0.0022667482452922803 -0.018613601886180213 0 -0.0037571873693334782 -0.018740166188421194 0 -0.0029699344289700821 -0.019430812274301164 0 0.0011131970155966173 -0.053870726020023733 0 0.0013761513838366343 -0.053404093607957358 0 0.00087150785096502597 -0.053590244310454803 0 0.0013761513838366343 -0.053404093607957358 0 0.0012692924276313381 -0.053007952407347216 0 0.00087150785096502597 -0.053590244310454803 0 -0.0068711699427002173 -0.0206253559839732 0 -0.006151346592908195 -0.020110330871812594 0 -0.0066654543476183849 -0.019967744733367716 0 -0.0068711699427002173 -0.0206253559839732 0 -0.0072304695194673405 -0.020210563990136206 0 -0.0066654543476183849 -0.019967744733367716 0 -0.006294067215893406 -0.019541381002721951 0 -0.0066654543476183849 -0.019967744733367716 0 -0.0070191527240173138 -0.019561004230312748 0 -0.0050909120606486991 -0.017880349971417221 0 -0.0015742792412960208 -0.035523761345625612 0 -0.006151346592908195 -0.020110330871812594 0 -0.006294067215893406 -0.019541381002721951 0 -0.0066654543476183849 -0.019967744733367716 0 0.0013761513838366343 -0.053404093607957358 0 0.0016821843326976316 -0.052568822403915721 0 0.0012692924276313381 -0.053007952407347216 0 -0.0030147173425060349 -0.036943351618084118 0 -0.0015742792412960208 -0.035523761345625612 0 -0.0072304695194673405 -0.020210563990136206 0 -0.0066654543476183849 -0.019967744733367716 0 -0.0070191527240173138 -0.019561004230312748 0 0.0016821843326976316 -0.052568822403915721 0 0.0012692924276313381 -0.053007952407347216 0 0.001126395539393505 -0.052400148682986855 0 -0.0015742792412960208 -0.035523761345625612 0 0.0031529109050217022 -0.049523563215914272 0 -0.0015742792412960208 -0.035523761345625612 0 0.0011319108154087484 -0.035316453031380111 0 0.0022064266508456448 -0.05244075983522678 0 0.0025583330379100543 -0.050262908114478325 0 0.00094572522700712568 -0.050992718472068245 0 0.0022064266508456448 -0.05244075983522678 0 0.001126395539393505 -0.052400148682986855 0 0.00094572522700712568 -0.050992718472068245 0 -0.0022667482452922803 -0.018613601886180213 0 -0.00090915071847500742 -0.018895965916662701 0 -0.0018136632954988711 -0.019517884068770988 0 -0.00090915071847500742 -0.018895965916662701 0 -0.0018136632954988711 -0.019517884068770988 0 -0.0008836861662925771 -0.02033333630154403 0 -0.0018136632954988711 -0.019517884068770988 0 -0.0008836861662925771 -0.02033333630154403 0 -0.0019998636903431947 -0.020436532280563365 0 0.0025583330379100543 -0.050262908114478325 0 0.00094572522700712568 -0.050992718472068245 0 0.0011069079297576737 -0.049047710874583213 0 -0.0042979901374855644 -0.019375657320263667 0 -0.0037571873693334782 -0.018740166188421194 0 -0.0029699344289700821 -0.019430812274301164 0 -0.0022667482452922803 -0.018613601886180213 0 -0.0018136632954988711 -0.019517884068770988 0 -0.0029699344289700821 -0.019430812274301164 0 -0.0029699344289700821 -0.019430812274301164 0 -0.0019998636903431947 -0.020436532280563365 0 -0.0034223125274327744 -0.020122706952928445 0 -0.0018136632954988711 -0.019517884068770988 0 -0.0029699344289700821 -0.019430812274301164 0 -0.0019998636903431947 -0.020436532280563365 0 -0.0042979901374855644 -0.019375657320263667 0 -0.0029699344289700821 -0.019430812274301164 0 -0.0034223125274327744 -0.020122706952928445 0 -0.0034223125274327744 -0.020122706952928445 0 -0.002283196807694521 -0.021697170745065695 0 -0.0042034090397219774 -0.021116312372611072 0 -0.0019998636903431947 -0.020436532280563365 0 -0.0034223125274327744 -0.020122706952928445 0 -0.002283196807694521 -0.021697170745065695 0 -0.002283196807694521 -0.021697170745065695 0 -0.0029918906343522362 -0.023539716302200454 0 -0.0042034090397219774 -0.021116312372611072 0 0.0025583330379100543 -0.050262908114478325 0 0.0027925052927453035 -0.048077763007442952 0 0.0011069079297576737 -0.049047710874583213 0 0.0011319108154087484 -0.035316453031380111 0 0.0010954493608772175 -0.035197504129849899 0 -0.0008836861662925771 -0.02033333630154403 0 -0.0019998636903431947 -0.020436532280563365 0 -0.00046156305513294927 -0.022140355092153296 0 -0.0019998636903431947 -0.020436532280563365 0 -0.002283196807694521 -0.021697170745065695 0 -0.00046156305513294927 -0.022140355092153296 0 -0.002283196807694521 -0.021697170745065695 0 -0.00046156305513294927 -0.022140355092153296 0 -0.00019335247245205793 -0.02476126586161569 0 0.0027925052927453035 -0.048077763007442952 0 0.0014564867403165211 -0.047449280640117698 0 0.0011069079297576737 -0.049047710874583213 0 0.0027925052927453035 -0.048077763007442952 0 0.0014564867403165211 -0.047449280640117698 0 0.0029826458994247026 -0.046002680829262801 0 0.0014564867403165211 -0.047449280640117698 0 0.0029826458994247026 -0.046002680829262801 0 0.00062153709175819525 -0.046177968705387297 0 0.0010954493608772175 -0.035197504129849899 0 0.0015668255094257084 -0.035231166311338533 0 -0.00019335247245205793 -0.02476126586161569 0 -0.0019587896324708173 -0.025795268860401413 0 -0.00029075397018645102 -0.027713450251427258 0 0.0015668255094257084 -0.035231166311338533 0 7.307517110187895e-05 -0.036551358428187707 0 0.0029826458994247026 -0.046002680829262801 0 0.00062153709175819525 -0.046177968705387297 0 0.00097701890646648788 -0.043932155468386941 0 -0.0029918906343522362 -0.023539716302200454 0 -0.0047604635421804858 -0.023769918860202053 0 -0.0042034090397219774 -0.021116312372611072 0 -0.0029918906343522362 -0.023539716302200454 0 -0.0038613794615670505 -0.02580248540050244 0 -0.0047604635421804858 -0.023769918860202053 0 -0.002283196807694521 -0.021697170745065695 0 -0.00019335247245205793 -0.02476126586161569 0 -0.0029918906343522362 -0.023539716302200454 0 -0.00019335247245205793 -0.02476126586161569 0 -0.0029918906343522362 -0.023539716302200454 0 -0.0019587896324708173 -0.025795268860401413 0 -0.0029918906343522362 -0.023539716302200454 0 -0.0019587896324708173 -0.025795268860401413 0 -0.0038613794615670505 -0.02580248540050244 0 -0.0038613794615670505 -0.02580248540050244 0 -0.0047604635421804858 -0.023769918860202053 0 -0.0063371668168261414 -0.025518874509235099 0 -0.0038613794615670505 -0.02580248540050244 0 -0.0063371668168261414 -0.025518874509235099 0 -0.0055335259921879265 -0.028279422361072303 0 -0.0047604635421804858 -0.023769918860202053 0 -0.0063371668168261414 -0.025518874509235099 0 -0.0061564573084015072 -0.02225795737453359 0 -0.0074330334555747935 -0.0091367697728823444 0 -0.004559732247615654 -0.010672250908858432 0 -0.0066144577094996247 -0.013732687907497213 0 -0.0068090884944713836 -0.017297175062034629 0 -0.0063122587881502042 -0.018066048542185253 0 -0.0074330334555747935 -0.0091367697728823444 0 -0.004559732247615654 -0.010672250908858432 0 -0.004546475637375696 -0.0078235531518378483 0 -0.0027410965283565197 -0.0092239956976932665 0 -0.004559732247615654 -0.010672250908858432 0 -0.0021434439877414946 -0.011103452570362649 0 -0.0027410965283565197 -0.0092239956976932665 0 -0.004559732247615654 -0.010672250908858432 0 -0.004546475637375696 -0.0078235531518378483 0 -0.0010207287936728144 -0.0095803228605609511 0 -0.0016274388622718142 -0.0069795510346661012 0 0.0011802237922908304 -0.0095940381915642792 0 -0.0027410965283565197 -0.0092239956976932665 0 -0.0010207287936728144 -0.0095803228605609511 0 -0.0016274388622718142 -0.0069795510346661012 0 -0.0027410965283565197 -0.0092239956976932665 0 -0.0010207287936728144 -0.0095803228605609511 0 -0.0021434439877414946 -0.011103452570362649 0 -0.0010207287936728144 -0.0095803228605609511 0 -0.0021434439877414946 -0.011103452570362649 0 1.7843610689630089e-05 -0.011224248415336684 0 -0.0021434439877414946 -0.011103452570362649 0 -0.001058621778978976 -0.013099760667282646 0 -0.0033850150546666383 -0.012793012889351068 0 -0.0021434439877414946 -0.011103452570362649 0 -0.001058621778978976 -0.013099760667282646 0 1.7843610689630089e-05 -0.011224248415336684 0 -0.004559732247615654 -0.010672250908858432 0 -0.0033850150546666383 -0.012793012889351068 0 -0.0066144577094996247 -0.013732687907497213 0 -0.004559732247615654 -0.010672250908858432 0 -0.0021434439877414946 -0.011103452570362649 0 -0.0033850150546666383 -0.012793012889351068 0 -0.0028789288785245446 -0.015389730580386854 0 -0.0053454647427925396 -0.018706629168124857 0 -0.0066144577094996247 -0.013732687907497213 0 -0.0033850150546666383 -0.012793012889351068 0 -0.0028789288785245446 -0.015389730580386854 0 -0.0066144577094996247 -0.013732687907497213 0 -0.001058621778978976 -0.013099760667282646 0 -0.0033850150546666383 -0.012793012889351068 0 -0.0028789288785245446 -0.015389730580386854 0 -0.001058621778978976 -0.013099760667282646 0 -0.0028789288785245446 -0.015389730580386854 0 -6.2360336101580655e-05 -0.014939080694549316 0 -0.0028789288785245446 -0.015389730580386854 0 -0.0015931176801752042 -0.01772196298085434 0 -6.2360336101580655e-05 -0.014939080694549316 0 -0.0028789288785245446 -0.015389730580386854 0 -0.0015931176801752042 -0.01772196298085434 0 -0.0053454647427925396 -0.018706629168124857 0 -0.0045986827882311693 -0.019443422174506429 0 -0.0034223125274327744 -0.020122706952928445 0 -0.0042034090397219774 -0.021116312372611072 0 -0.0045986827882311693 -0.019443422174506429 0 -0.0053454647427925396 -0.018706629168124857 0 -0.0042034090397219774 -0.021116312372611072 0 -0.0047604635421804858 -0.023769918860202053 0 -0.0042034090397219774 -0.021116312372611072 0 -0.0061564573084015072 -0.02225795737453359 0 -0.0053454647427925396 -0.018706629168124857 0 -0.0042034090397219774 -0.021116312372611072 0 -0.0061564573084015072 -0.02225795737453359 0 -0.0055102639637875797 -0.018747933375364942 0 -0.0063122587881502042 -0.018066048542185253 0 -7.4959276253239588e-05 -0.054881306300441059 0 -0.00017449793403576637 -0.054939103943549394 0 -2.5604930018426799e-08 -0.054999866329844382 0 -7.4959276253239588e-05 -0.054881306300441059 0 -5.4518808062625446e-08 -0.05499973118470261 0 -2.5604930018426799e-08 -0.054999866329844382 0 -7.4959276253239588e-05 -0.054881306300441059 0 -0.00022568529929959037 -0.054751732881182832 0 -0.00017449793403576637 -0.054939103943549394 0 -7.4959276253239588e-05 -0.054881306300441059 0 -9.774197819356422e-05 -0.05473467277173355 0 -0.00022568529929959037 -0.054751732881182832 0 -7.4959276253239588e-05 -0.054881306300441059 0 -9.774197819356422e-05 -0.05473467277173355 0 -5.4518808062625446e-08 -0.05499973118470261 0 -9.774197819356422e-05 -0.05473467277173355 0 -5.4518808062625446e-08 -0.05499973118470261 0 1.0919196546184241e-08 -0.054999426238379334 0 -3.592572708925774e-08 -0.054999851068981372 0 -7.526025142606601e-05 -0.054612231209671479 0 4.2136506923863118e-07 -0.054736179799355827 0 -6.2902786173205435e-08 -0.054999565431042743 0 -7.3456995808633235e-06 -0.054660103550600005 0 -9.774197819356422e-05 -0.05473467277173355 0 -0.00012666312638978739 -0.054568302868961728 0 -0.00030734619241431604 -0.054475826007580642 0 -9.774197819356422e-05 -0.05473467277173355 0 1.0919196546184241e-08 -0.054999426238379334 0 -0.00012666312638978739 -0.054568302868961728 0 -0.00012666312638978739 -0.054568302868961728 0 -0.00030734619241431604 -0.054475826007580642 0 -0.00045537816878417624 -0.054095664088594488 0 2.9710710936803411e-05 -0.054528166672151379 0 -7.3456995808633235e-06 -0.054660103550600005 0 2.7995404275635547e-05 -0.054316272899303367 0 -7.526025142606601e-05 -0.054612231209671479 0 -0.00023108973932695743 -0.054206996405829495 0 -0.00030734619241431604 -0.054475826007580642 0 -0.00045537816878417624 -0.054095664088594488 0 -0.00067524200747305901 -0.05423915933852242 0 -0.00030734619241431604 -0.054475826007580642 0 -0.00067524200747305901 -0.05423915933852242 0 -0.00047129475883717764 -0.05472090066993638 0 -9.774197819356422e-05 -0.05473467277173355 0 -0.00030734619241431604 -0.054475826007580642 0 -0.00022568529929959037 -0.054751732881182832 0 -0.00030734619241431604 -0.054475826007580642 0 -0.00022568529929959037 -0.054751732881182832 0 -0.00047129475883717764 -0.05472090066993638 0 -0.00022568529929959037 -0.054751732881182832 0 -0.00047129475883717764 -0.05472090066993638 0 -0.00017449793403576637 -0.054939103943549394 0 -0.0016551820093927898 -0.052860488534788419 0 -0.0019012767305823159 -0.052016210950444675 0 -0.00047129475883717764 -0.05472090066993638 0 -0.00095899958941700011 -0.054594558677896907 0 -0.00055240955148592834 -0.054922247155553466 0 -0.0024241076462395341 -0.051148237975132543 0 -0.00031321027720407877 -0.051560165033809516 0 -0.00087440421969451666 -0.049748223764947558 0 -0.0016551820093927898 -0.052860488534788419 0 -0.0012682624174035551 -0.053449134624312368 0 -0.0024241076462395341 -0.051148237975132543 0 -0.00072879485962809218 -0.052561676757515878 0 -0.00031321027720407877 -0.051560165033809516 0 -0.00095899958941700011 -0.054594558677896907 0 -0.0010067212180899527 -0.053910401066517663 0 -0.0012146731680441772 -0.053463408974573717 0 -0.0024241076462395341 -0.051148237975132543 0 -0.0012146731680441772 -0.053463408974573717 0 -0.00072879485962809218 -0.052561676757515878 0 -0.00067524200747305901 -0.05423915933852242 0 -0.00047129475883717764 -0.05472090066993638 0 -0.00095899958941700011 -0.054594558677896907 0 -0.00067524200747305901 -0.05423915933852242 0 -0.00095899958941700011 -0.054594558677896907 0 -0.0010067212180899527 -0.053910401066517663 0 -0.00067524200747305901 -0.05423915933852242 0 -0.0010067212180899527 -0.053910401066517663 0 -0.0012268401081752614 -0.053721228372616676 0 -0.00045537816878417624 -0.054095664088594488 0 -0.00067524200747305901 -0.05423915933852242 0 -0.0012268401081752614 -0.053721228372616676 0 2.7995404275635547e-05 -0.054316272899303367 0 0.00015804925744279465 -0.053926874734991845 0 0.00016620422764995321 -0.054125929683966824 0 -0.00023108973932695743 -0.054206996405829495 0 -0.00050745541465041315 -0.053838044520500374 0 9.8190003531519851e-05 -0.054350179825408372 0 2.7995404275635547e-05 -0.054316272899303367 0 0.00016620422764995321 -0.054125929683966824 0 0.00032088477863420069 -0.054009793505065476 0 0.00015804925744279465 -0.053926874734991845 0 0.000484608856485382 -0.053475518334037353 0 0.00032088477863420069 -0.054009793505065476 0 0.00015804925744279465 -0.053926874734991845 0 0.00016620422764995321 -0.054125929683966824 0 -0.00050745541465041315 -0.053838044520500374 0 5.8747503580951473e-05 -0.053478906691417083 0 -0.0012268401081752614 -0.053721228372616676 0 -0.0012146731680441772 -0.053463408974573717 0 -0.00045190517567754321 -0.053527679982458089 0 -0.0010067212180899527 -0.053910401066517663 0 -0.0012268401081752614 -0.053721228372616676 0 -0.0012146731680441772 -0.053463408974573717 0 -0.0012146731680441772 -0.053463408974573717 0 -0.00045190517567754321 -0.053527679982458089 0 -0.00072879485962809218 -0.052561676757515878 0 -0.00045190517567754321 -0.053527679982458089 0 0.00027525740790343569 -0.052538453511964581 0 -0.00072879485962809218 -0.052561676757515878 0 0.00032088477863420069 -0.054009793505065476 0 0.000484608856485382 -0.053475518334037353 0 0.00058515822259368308 -0.053768890168393001 0 0.000484608856485382 -0.053475518334037353 0 0.00058515822259368308 -0.053768890168393001 0 0.00087150785096502597 -0.053590244310454803 0 0.00067671958519652329 -0.053956706700307576 0 0.00058515822259368308 -0.053768890168393001 0 0.00087150785096502597 -0.053590244310454803 0 0.0012692924276313381 -0.053007952407347216 0 -0.00045190517567754321 -0.053527679982458089 0 0.00027525740790343569 -0.052538453511964581 0 0.0012692924276313381 -0.053007952407347216 0 0.000484608856485382 -0.053475518334037353 0 0.00087150785096502597 -0.053590244310454803 0 0.0012692924276313381 -0.053007952407347216 0 0.00027525740790343569 -0.052538453511964581 0 0.001126395539393505 -0.052400148682986855 0 0.0011924326315712606 -0.053085548816498518 0 5.8747503580951473e-05 -0.053478906691417083 0 0.00054082785866873303 -0.051831164249586004 0 -0.00031321027720407877 -0.051560165033809516 0 0.00094572522700712568 -0.050992718472068245 0 0.001126395539393505 -0.052400148682986855 0 0.00054082785866873303 -0.051831164249586004 0 0.00094572522700712568 -0.050992718472068245 0 0.00027525740790343569 -0.052538453511964581 0 0.001126395539393505 -0.052400148682986855 0 0.00054082785866873303 -0.051831164249586004 0 0.00027525740790343569 -0.052538453511964581 0 -0.00072879485962809218 -0.052561676757515878 0 -0.00031321027720407877 -0.051560165033809516 0 0.00027525740790343569 -0.052538453511964581 0 0.00054082785866873303 -0.051831164249586004 0 -0.00031321027720407877 -0.051560165033809516 0 -0.00031321027720407877 -0.051560165033809516 0 0.00094572522700712568 -0.050992718472068245 0 -0.00087440421969451666 -0.049748223764947558 0 0.00094572522700712568 -0.050992718472068245 0 0.0011069079297576737 -0.049047710874583213 0 -0.00087440421969451666 -0.049748223764947558 0 0.0011069079297576737 -0.049047710874583213 0 -0.00087440421969451666 -0.049748223764947558 0 -0.00019409292984470336 -0.047810334833673765 0 0.0014564867403165211 -0.047449280640117698 0 0.0011069079297576737 -0.049047710874583213 0 -0.00019409292984470336 -0.047810334833673765 0 0.0014564867403165211 -0.047449280640117698 0 -0.00019409292984470336 -0.047810334833673765 0 0.00062153709175819525 -0.046177968705387297 0 0.00062153709175819525 -0.046177968705387297 0 -0.00033045499127519809 -0.045090585578257153 0 0.00097701890646648788 -0.043932155468386941 0 0.00062153709175819525 -0.046177968705387297 0 -0.0016787347093863915 -0.046323822590733359 0 -0.00033045499127519809 -0.045090585578257153 0 -0.00019409292984470336 -0.047810334833673765 0 0.00062153709175819525 -0.046177968705387297 0 -0.0016787347093863915 -0.046323822590733359 0 -0.0016787347093863915 -0.046323822590733359 0 -0.0029648920688836022 -0.045386578663300252 0 -0.0012246922439346658 -0.043927375921385188 0 -0.00019409292984470336 -0.047810334833673765 0 -0.0016787347093863915 -0.046323822590733359 0 -0.0019674657595510356 -0.048025369421698737 0 -0.0016787347093863915 -0.046323822590733359 0 -0.0029648920688836022 -0.045386578663300252 0 -0.0039331904537350509 -0.047254222243093801 0 -0.0016787347093863915 -0.046323822590733359 0 -0.0019674657595510356 -0.048025369421698737 0 -0.0039331904537350509 -0.047254222243093801 0 -0.0019674657595510356 -0.048025369421698737 0 -0.0032245787833102904 -0.049130244889938508 0 -0.0039331904537350509 -0.047254222243093801 0 -0.00087440421969451666 -0.049748223764947558 0 -0.00019409292984470336 -0.047810334833673765 0 -0.0019674657595510356 -0.048025369421698737 0 -0.00087440421969451666 -0.049748223764947558 0 -0.0019674657595510356 -0.048025369421698737 0 -0.0032245787833102904 -0.049130244889938508 0 -0.0024241076462395341 -0.051148237975132543 0 -0.00087440421969451666 -0.049748223764947558 0 -0.0032245787833102904 -0.049130244889938508 0 -0.00055240955148592834 -0.054922247155553466 0 -0.00017449793403576637 -0.054939103943549394 0 -0.00032852782246247113 -0.055001229061753754 0 -0.00047129475883717764 -0.05472090066993638 0 -0.00055240955148592834 -0.054922247155553466 0 -0.00017449793403576637 -0.054939103943549394 0 -0.00017449793403576637 -0.054939103943549394 0 -0.00032852782246247113 -0.055001229061753754 0 -0.00013629877921514505 -0.055000140846533971 0 -0.0019012767305823159 -0.052016210950444675 0 -0.002110372916596639 -0.051144111399469436 0 -0.0029648920688836022 -0.045386578663300252 0 -0.0039331904537350509 -0.047254222243093801 0 -0.004595979765745618 -0.045516229164770522 0 -0.002110372916596639 -0.051144111399469436 0 -0.0025490378257559516 -0.050207604190492409 0 -0.00032852782246247113 -0.055001229061753754 0 -0.00019847002715621542 -0.054994176298967266 0 -0.00013629877921514505 -0.055000140846533971 0 -0.00013629877921514505 -0.055000140846533971 0 -6.1424952758232733e-08 -0.054999978244696081 0 -0.00010628590456818013 -0.055003723187186673 0 -0.00019847002715621542 -0.054994176298967266 0 -0.00013629877921514505 -0.055000140846533971 0 -0.00010628590456818013 -0.055003723187186673 0 -0.00013629877921514505 -0.055000140846533971 0 -6.1424952758232733e-08 -0.054999978244696081 0 -6.7296449670482704e-08 -0.055000013969362743 0 -0.00017449793403576637 -0.054939103943549394 0 -0.00013629877921514505 -0.055000140846533971 0 -6.7296449670482704e-08 -0.055000013969362743 0 -0.00017449793403576637 -0.054939103943549394 0 -6.7296449670482704e-08 -0.055000013969362743 0 -2.5604930018426799e-08 -0.054999866329844382 0 0.00057819870863219062 -0.048233130975535145 0 -0.0023583350448455982 -0.050246356713164839 0 0.0010237566211038665 -0.052131136398554621 0 -8.5478618818984432e-09 -0.0549999900619247 0 -4.5307122265653976e-06 -0.054996381777463049 0 -6.4338401935827736e-09 -0.054999990598422491 0 -3.3636543118705291e-05 -0.054979728776564853 0 -8.5478618818984432e-09 -0.0549999900619247 0 -4.5307122265653976e-06 -0.054996381777463049 0 0.00041468738557880978 -0.051668701569272078 0 0.00039672382084466787 -0.053442834491444532 0 0.00057819870863219062 -0.048233130975535145 0 -0.00057518609340525271 -0.044471691703217332 0 -0.00098313867557265201 -0.046707706625772394 0 0.00041468738557880978 -0.051668701569272078 0 -0.0016297832004883543 -0.049515785977142221 0 -3.3636543118705291e-05 -0.054979728776564853 0 -9.8029638452066795e-06 -0.054979877316703063 0 -8.5478618818984432e-09 -0.0549999900619247 0 -3.3636543118705291e-05 -0.054979728776564853 0 -9.8029638452066795e-06 -0.054979877316703063 0 -3.0051516793607902e-05 -0.054928940945184121 0 -9.8029638452066795e-06 -0.054979877316703063 0 -8.5478618818984432e-09 -0.0549999900619247 0 -9.2196208620336185e-10 -0.054999874233566302 0 -9.8029638452066795e-06 -0.054979877316703063 0 -9.2196208620336185e-10 -0.054999874233566302 0 -3.0051516793607902e-05 -0.054928940945184121 0 -2.5492782141781473e-07 -0.05499995828862636 0 0.00024458470947765181 -0.054864875429652196 0 -6.1424952758232733e-08 -0.054999978244696081 0 -0.00010628590456818013 -0.055003723187186673 0 -6.8187943505415726e-05 -0.055021262678098523 0 -6.1424952758232733e-08 -0.054999978244696081 0 -5.4285815177507193e-08 -0.055000115483972579 0 -6.8187943505415726e-05 -0.055021262678098523 0 -0.00010628590456818013 -0.055003723187186673 0 -6.8187943505415726e-05 -0.055021262678098523 0 -0.00013476408226195514 -0.055008205372388021 0 0.00024458470947765181 -0.054864875429652196 0 -0.0016297832004883543 -0.049515785977142221 0 -3.3636543118705291e-05 -0.054979728776564853 0 -3.0051516793607902e-05 -0.054928940945184121 0 -9.7170553996034451e-05 -0.054882886748458676 0 -0.0016297832004883543 -0.049515785977142221 0 -0.0038982193415543222 -0.043069269135108647 0 -0.00057518609340525271 -0.044471691703217332 0 -0.0025496424315858378 -0.045238307082237118 0 -0.00098313867557265201 -0.046707706625772394 0 -0.00019847002715621542 -0.054994176298967266 0 -0.00010628590456818013 -0.055003723187186673 0 -0.00013476408226195514 -0.055008205372388021 0 -0.0025490378257559516 -0.050207604190492409 0 -0.0016297832004883543 -0.049515785977142221 0 -0.004595979765745618 -0.045516229164770522 0 -0.005256857001378068 -0.043928992119842504 0 -0.0033242448010558146 -0.043944031222188651 0 -0.0029648920688836022 -0.045386578663300252 0 -0.004595979765745618 -0.045516229164770522 0 -0.0033242448010558146 -0.043944031222188651 0 -0.0037977271032060681 -0.043741609466166162 0 -0.0025496424315858378 -0.045238307082237118 0 -0.0036077667212269823 -0.045429541493241965 0 -0.00057518609340525271 -0.044471691703217332 0 -0.0037977271032060681 -0.043741609466166162 0 -0.0025496424315858378 -0.045238307082237118 0 -0.0025496424315858378 -0.045238307082237118 0 -0.0012453304230471173 -0.047612855394313425 0 -0.0025966849293442172 -0.046842869253076534 0 -0.0025496424315858378 -0.045238307082237118 0 -0.0025966849293442172 -0.046842869253076534 0 -0.0036077667212269823 -0.045429541493241965 0 0.00057819870863219062 -0.048233130975535145 0 -0.00098313867557265201 -0.046707706625772394 0 -0.0023583350448455982 -0.050246356713164839 0 -0.0025496424315858378 -0.045238307082237118 0 -0.00098313867557265201 -0.046707706625772394 0 -0.0023583350448455982 -0.050246356713164839 0 -0.002504904954318756 -0.045493326695328129 0 -0.0017854282251811516 -0.048928844698749759 0 -0.0025966849293442172 -0.046842869253076534 0 -0.0035285905918337498 -0.047582294653845593 0 -0.0036077667212269823 -0.045429541493241965 0 -0.0025966849293442172 -0.046842869253076534 0 -0.0035285905918337498 -0.047582294653845593 0 -0.0022146243313201841 -0.048973754090739466 0 -0.0012453304230471173 -0.047612855394313425 0 -0.0025966849293442172 -0.046842869253076534 0 -0.0022146243313201841 -0.048973754090739466 0 -0.0035285905918337498 -0.047582294653845593 0 -0.005428327144680679 -0.046190135200101554 0 -0.0047163070497430841 -0.048207274677186385 0 -0.0051720798359000614 -0.04399809549565132 0 -0.0056273901993258305 -0.045233190502381927 0 -0.0051621922688203153 -0.042019724939650137 0 -0.0048542086625117456 -0.041888723470371182 0 -0.0049222162034546482 -0.041451808364313551 0 -0.005428327144680679 -0.046190135200101554 0 -0.0060320962469941975 -0.048332496830888874 0 -0.0047163070497430841 -0.048207274677186385 0 -0.0051621922688203153 -0.042019724939650137 0 -0.0045636199112477609 -0.043449314402949302 0 -0.0049248453523333948 -0.042551923576753685 0 -0.0051720798359000614 -0.04399809549565132 0 -0.0046566980023966921 -0.043415709495438763 0 -0.0051621922688203153 -0.042019724939650137 0 -0.0049248453523333948 -0.042551923576753685 0 -0.0048542086625117456 -0.041888723470371182 0 -0.0035285905918337498 -0.047582294653845593 0 -0.005428327144680679 -0.046190135200101554 0 -0.0036077667212269823 -0.045429541493241965 0 -0.005428327144680679 -0.046190135200101554 0 -0.0036077667212269823 -0.045429541493241965 0 -0.0045636199112477609 -0.043449314402949302 0 -0.0038982193415543222 -0.043069269135108647 0 -0.0031106718820380608 -0.043253853333651851 0 -0.0016787347093863915 -0.046323822590733359 0 -0.0012246922439346658 -0.043927375921385188 0 -0.00033045499127519809 -0.045090585578257153 0 -0.0037977271032060681 -0.043741609466166162 0 -0.0045636199112477609 -0.043449314402949302 0 -0.0050943629233185369 -0.042589242297638913 0 -0.0037977271032060681 -0.043741609466166162 0 -0.0036077667212269823 -0.045429541493241965 0 -0.0045636199112477609 -0.043449314402949302 0 -0.0029648920688836022 -0.045386578663300252 0 -0.0033242448010558146 -0.043944031222188651 0 -0.0012246922439346658 -0.043927375921385188 0 -0.0045636199112477609 -0.043449314402949302 0 -0.0050943629233185369 -0.042589242297638913 0 -0.0049248453523333948 -0.042551923576753685 0 -0.0050943629233185369 -0.042589242297638913 0 -0.0047364331790458528 -0.04211285911967376 0 -0.0048618035220091334 -0.042091969053366568 0 -0.0050943629233185369 -0.042589242297638913 0 -0.0049248453523333948 -0.042551923576753685 0 -0.0048618035220091334 -0.042091969053366568 0 -0.0012246922439346658 -0.043927375921385188 0 -0.00033045499127519809 -0.045090585578257153 0 0.00097701890646648788 -0.043932155468386941 0 -0.0031106718820380608 -0.043253853333651851 0 -0.0018664881852698233 -0.043981793692588624 0 -0.0047364331790458528 -0.04211285911967376 0 -0.0046359777547360058 -0.041606156231970545 0 -0.0048618035220091334 -0.042091969053366568 0 -0.0047364331790458528 -0.04211285911967376 0 -0.0046359777547360058 -0.041606156231970545 0 -0.0044533585917620067 -0.041388780080109822 0 -0.0046359777547360058 -0.041606156231970545 0 -0.0047107362067039327 -0.041732451706899466 0 -0.0048618035220091334 -0.042091969053366568 0 -0.0046359777547360058 -0.041606156231970545 0 -0.0045727475069256033 -0.041476647747330453 0 -0.0044840015734954877 -0.04118471168061269 0 -0.0046359777547360058 -0.041606156231970545 0 -0.0045727475069256033 -0.041476647747330453 0 -0.0047107362067039327 -0.041732451706899466 0 -0.0045727475069256033 -0.041476647747330453 0 -0.0047107362067039327 -0.041732451706899466 0 -0.0046947761956857821 -0.041624978419982757 0 -0.0047107362067039327 -0.041732451706899466 0 -0.0048618035220091334 -0.042091969053366568 0 -0.0048542086625117456 -0.041888723470371182 0 -0.0049248453523333948 -0.042551923576753685 0 -0.0048618035220091334 -0.042091969053366568 0 -0.0048542086625117456 -0.041888723470371182 0 -0.0047107362067039327 -0.041732451706899466 0 -0.0048542086625117456 -0.041888723470371182 0 -0.0046947761956857821 -0.041624978419982757 0 -0.0048542086625117456 -0.041888723470371182 0 -0.0046947761956857821 -0.041624978419982757 0 -0.0049222162034546482 -0.041451808364313551 0 -0.0046947761956857821 -0.041624978419982757 0 -0.0047174942335529609 -0.041465598184975763 0 -0.0049222162034546482 -0.041451808364313551 0 -0.0046947761956857821 -0.041624978419982757 0 -0.0047174942335529609 -0.041465598184975763 0 -0.0046222333506579193 -0.04149043469327144 0 -0.0059717144404546531 -0.037772632167035365 0 -0.0066229348224805112 -0.036458439192044327 0 -0.00676032382102591 -0.036063121161208314 0 -0.0046222333506579193 -0.04149043469327144 0 -0.0046410374307859666 -0.041402189580067583 0 -0.0045673662055936157 -0.041442957631326105 0 -0.0054729013313190283 -0.039122595247816389 0 -0.005509265383513701 -0.03899599206114944 0 -0.0047174942335529609 -0.041465598184975763 0 -0.0046222333506579193 -0.04149043469327144 0 -0.0046410374307859666 -0.041402189580067583 0 -0.0045727475069256033 -0.041476647747330453 0 -0.0046222333506579193 -0.04149043469327144 0 -0.0045673662055936157 -0.041442957631326105 0 -0.0045727475069256033 -0.041476647747330453 0 -0.0046947761956857821 -0.041624978419982757 0 -0.0046222333506579193 -0.04149043469327144 0 -0.0054729013313190283 -0.039122595247816389 0 -0.0051126039540127805 -0.044071783578368572 0 -0.0047174942335529609 -0.041465598184975763 0 -0.0046410374307859666 -0.041402189580067583 0 -0.0047631908341863229 -0.041389226098915863 0 -0.0047174942335529609 -0.041465598184975763 0 -0.0047631908341863229 -0.041389226098915863 0 -0.0049222162034546482 -0.041451808364313551 0 -0.0056273901993258305 -0.045233190502381927 0 -0.0051126039540127805 -0.044071783578368572 0 -0.0046410374307859666 -0.041402189580067583 0 -0.0047631908341863229 -0.041389226098915863 0 -0.0047802146172989746 -0.041235340107329266 0 -0.0047631908341863229 -0.041389226098915863 0 -0.0049222162034546482 -0.041451808364313551 0 -0.0047802146172989746 -0.041235340107329266 0 -0.0066649448763058429 -0.050271060248367902 0 -0.0061769447032037515 -0.050175641677801086 0 -0.0057661027275438242 -0.051153756692348097 0 -0.0060320962469941975 -0.048332496830888874 0 -0.0066649448763058429 -0.050271060248367902 0 -0.0061769447032037515 -0.050175641677801086 0 -0.0042681864009477257 -0.040604059925582033 0 -0.0057521166822517775 -0.040636597834536908 0 -0.0051774006212186342 -0.042159328554608369 0 -0.0048229240599040185 -0.041291565570807917 0 -0.0047463101194807258 -0.042759028212613306 0 -0.0051774006212186342 -0.042159328554608369 0 -0.0051126039540127805 -0.044071783578368572 0 -0.0045765014617825915 -0.041649893927984578 0 -0.0057521166822517775 -0.040636597834536908 0 -0.0063764022939075838 -0.042057129401796046 0 -0.0051774006212186342 -0.042159328554608369 0 -0.0059717144404546531 -0.037772632167035365 0 -0.0042681864009477257 -0.040604059925582033 0 -0.0057521166822517775 -0.040636597834536908 0 -0.0059717144404546531 -0.037772632167035365 0 -0.0069357592563605089 -0.040465791976515807 0 -0.0085809499591674807 -0.039666919357985275 0 -0.0059717144404546531 -0.037772632167035365 0 -0.0057521166822517775 -0.040636597834536908 0 -0.0069357592563605089 -0.040465791976515807 0 -0.0069357592563605089 -0.040465791976515807 0 -0.0063764022939075838 -0.042057129401796046 0 -0.0077243924950822192 -0.041768186311904425 0 -0.0057521166822517775 -0.040636597834536908 0 -0.0069357592563605089 -0.040465791976515807 0 -0.0063764022939075838 -0.042057129401796046 0 -0.0063764022939075838 -0.042057129401796046 0 -0.0070142211574294212 -0.043548210208247763 0 -0.0077243924950822192 -0.041768186311904425 0 -0.0063764022939075838 -0.042057129401796046 0 -0.005869699044496377 -0.043204504289738023 0 -0.0051774006212186342 -0.042159328554608369 0 -0.0063764022939075838 -0.042057129401796046 0 -0.005869699044496377 -0.043204504289738023 0 -0.0070142211574294212 -0.043548210208247763 0 -0.005869699044496377 -0.043204504289738023 0 -0.0070142211574294212 -0.043548210208247763 0 -0.0060360622812123147 -0.044218546786107392 0 -0.005869699044496377 -0.043204504289738023 0 -0.0060360622812123147 -0.044218546786107392 0 -0.00501657625196487 -0.043763948390580877 0 -0.0070142211574294212 -0.043548210208247763 0 -0.0066943024714922706 -0.045323287422585526 0 -0.0083911111726229573 -0.04513497702404104 0 -0.0070142211574294212 -0.043548210208247763 0 -0.0060360622812123147 -0.044218546786107392 0 -0.0066943024714922706 -0.045323287422585526 0 -0.0057353382985381876 -0.046543799780860394 0 -0.0066943024714922706 -0.045323287422585526 0 -0.0056373401504297505 -0.045224075386326605 0 -0.0060360622812123147 -0.044218546786107392 0 -0.0066943024714922706 -0.045323287422585526 0 -0.0056373401504297505 -0.045224075386326605 0 -0.0046935809871818408 -0.045771756334669067 0 -0.0044406624943843023 -0.044393597068681123 0 -0.0040565797853558249 -0.045092826626462384 0 -0.0046935809871818408 -0.045771756334669067 0 -0.0056373401504297505 -0.045224075386326605 0 -0.0044406624943843023 -0.044393597068681123 0 -0.0060360622812123147 -0.044218546786107392 0 -0.0056373401504297505 -0.045224075386326605 0 -0.00501657625196487 -0.043763948390580877 0 -0.0056373401504297505 -0.045224075386326605 0 -0.0044406624943843023 -0.044393597068681123 0 -0.00501657625196487 -0.043763948390580877 0 -0.0044406624943843023 -0.044393597068681123 0 -0.0040117008060151869 -0.043673131308973136 0 -0.0037960864339250172 -0.044204803657383947 0 -0.0044287219986848623 -0.043524421823298444 0 -0.00501657625196487 -0.043763948390580877 0 -0.0047463101194807258 -0.042759028212613306 0 -0.0044406624943843023 -0.044393597068681123 0 -0.0044287219986848623 -0.043524421823298444 0 -0.0040117008060151869 -0.043673131308973136 0 -0.0051126039540127805 -0.044071783578368572 0 -0.0048869967727026139 -0.047027351749634301 0 -0.0048229240599040185 -0.041291565570807917 0 -0.0043052208541992428 -0.04288232328508125 0 -0.0036666687398103802 -0.043243977571859563 0 -0.0044406624943843023 -0.044393597068681123 0 -0.0044287219986848623 -0.043524421823298444 0 -0.00501657625196487 -0.043763948390580877 0 -0.0044287219986848623 -0.043524421823298444 0 -0.0047463101194807258 -0.042759028212613306 0 -0.0043052208541992428 -0.04288232328508125 0 -0.0043052208541992428 -0.04288232328508125 0 -0.0036666687398103802 -0.043243977571859563 0 -0.0040117008060151869 -0.043673131308973136 0 -0.0044287219986848623 -0.043524421823298444 0 -0.0043052208541992428 -0.04288232328508125 0 -0.0040117008060151869 -0.043673131308973136 0 -0.00501657625196487 -0.043763948390580877 0 -0.0052002413312672215 -0.042967348986782145 0 -0.0047463101194807258 -0.042759028212613306 0 -0.005869699044496377 -0.043204504289738023 0 -0.00501657625196487 -0.043763948390580877 0 -0.0052002413312672215 -0.042967348986782145 0 -0.005869699044496377 -0.043204504289738023 0 -0.0052002413312672215 -0.042967348986782145 0 -0.0051774006212186342 -0.042159328554608369 0 -0.0052002413312672215 -0.042967348986782145 0 -0.0047463101194807258 -0.042759028212613306 0 -0.0051774006212186342 -0.042159328554608369 0 -0.0048229240599040185 -0.041291565570807917 0 -0.0047463101194807258 -0.042759028212613306 0 -0.0043052208541992428 -0.04288232328508125 0 -0.0057661027275438242 -0.051153756692348097 0 -0.0055907458194175775 -0.051117823282724385 0 -0.0050513241696150549 -0.051881191193551064 0 -0.0050479186577576853 -0.052049714469038035 0 -0.0035991463175652147 -0.053558554841841764 0 -0.0039337932987550178 -0.052429489211888808 0 -0.0061769447032037515 -0.050175641677801086 0 -0.0057661027275438242 -0.051153756692348097 0 -0.0055907458194175775 -0.051117823282724385 0 -0.0046769972545681465 -0.051674117491530953 0 -0.0050479186577576853 -0.052049714469038035 0 -0.0049449222591585115 -0.051167218973462186 0 -0.0046769972545681465 -0.051674117491530953 0 -0.0041156679732466152 -0.051577789658807556 0 -0.0049449222591585115 -0.051167218973462186 0 -0.0046769972545681465 -0.051674117491530953 0 -0.00446340265076107 -0.05192758721392831 0 -0.0050479186577576853 -0.052049714469038035 0 -0.0046769972545681465 -0.051674117491530953 0 -0.00446340265076107 -0.05192758721392831 0 -0.0041156679732466152 -0.051577789658807556 0 -0.00446340265076107 -0.05192758721392831 0 -0.0039337932987550178 -0.052429489211888808 0 -0.0041156679732466152 -0.051577789658807556 0 -0.00446340265076107 -0.05192758721392831 0 -0.0050479186577576853 -0.052049714469038035 0 -0.0039337932987550178 -0.052429489211888808 0 -0.0036666687398103802 -0.043243977571859563 0 -0.0040117008060151869 -0.043673131308973136 0 -0.0037960864339250172 -0.044204803657383947 0 -0.0036666687398103802 -0.043243977571859563 0 -0.0034201204024474417 -0.044871356626573662 0 -0.0026578393701785965 -0.045282239302918491 0 -0.0048869967727026139 -0.047027351749634301 0 -0.0036327258041124891 -0.050914027419091394 0 -0.0036666687398103802 -0.043243977571859563 0 -0.0037960864339250172 -0.044204803657383947 0 -0.0034201204024474417 -0.044871356626573662 0 -0.0052549126629748196 -0.051767303545207734 0 -0.0036327258041124891 -0.050914027419091394 0 -0.0037960864339250172 -0.044204803657383947 0 -0.0034201204024474417 -0.044871356626573662 0 -0.0040565797853558249 -0.045092826626462384 0 -0.0044406624943843023 -0.044393597068681123 0 -0.0037960864339250172 -0.044204803657383947 0 -0.0040565797853558249 -0.045092826626462384 0 -0.0036680347096951197 -0.046187079687867089 0 -0.0034201204024474417 -0.044871356626573662 0 -0.0026578393701785965 -0.045282239302918491 0 -0.0036680347096951197 -0.046187079687867089 0 -0.0034201204024474417 -0.044871356626573662 0 -0.0040565797853558249 -0.045092826626462384 0 -0.0036680347096951197 -0.046187079687867089 0 -0.0046935809871818408 -0.045771756334669067 0 -0.0040565797853558249 -0.045092826626462384 0 -0.0024578768732075314 -0.053707900420354157 0 -0.0027665346096210296 -0.053104170325263905 0 -0.001926124673039881 -0.053663854734029716 0 -0.0024578768732075314 -0.053707900420354157 0 -0.0035991463175652147 -0.053558554841841764 0 -0.0027665346096210296 -0.053104170325263905 0 -0.0035991463175652147 -0.053558554841841764 0 -0.0027665346096210296 -0.053104170325263905 0 -0.0039337932987550178 -0.052429489211888808 0 -0.0027665346096210296 -0.053104170325263905 0 -0.0030102446181221746 -0.05212177024005938 0 -0.0019745187785319123 -0.05293397099127127 0 -0.0027665346096210296 -0.053104170325263905 0 -0.0030102446181221746 -0.05212177024005938 0 -0.0039337932987550178 -0.052429489211888808 0 -0.0030102446181221746 -0.05212177024005938 0 -0.0039337932987550178 -0.052429489211888808 0 -0.0041156679732466152 -0.051577789658807556 0 -0.0030102446181221746 -0.05212177024005938 0 -0.0041156679732466152 -0.051577789658807556 0 -0.0032058261499306618 -0.051129575164287434 0 -0.0030102446181221746 -0.05212177024005938 0 -0.0032058261499306618 -0.051129575164287434 0 -0.002138377899660468 -0.051312741768101452 0 -0.0033193716240482616 -0.049886520667312417 0 -0.0043601181419827256 -0.050604211841060967 0 -0.0053015582037811105 -0.049390597718782327 0 -0.0032058261499306618 -0.051129575164287434 0 -0.0033193716240482616 -0.049886520667312417 0 -0.002138377899660468 -0.051312741768101452 0 -0.0032058261499306618 -0.051129575164287434 0 -0.0033193716240482616 -0.049886520667312417 0 -0.0043601181419827256 -0.050604211841060967 0 -0.0041156679732466152 -0.051577789658807556 0 -0.0032058261499306618 -0.051129575164287434 0 -0.0043601181419827256 -0.050604211841060967 0 -0.006120467120990767 -0.050223446683463978 0 -0.0052549126629748196 -0.051767303545207734 0 -0.0061769447032037515 -0.050175641677801086 0 -0.0050479186577576853 -0.052049714469038035 0 -0.0049449222591585115 -0.051167218973462186 0 -0.0041156679732466152 -0.051577789658807556 0 -0.0043601181419827256 -0.050604211841060967 0 -0.0049449222591585115 -0.051167218973462186 0 -0.0043601181419827256 -0.050604211841060967 0 -0.0049449222591585115 -0.051167218973462186 0 -0.0051929939685064711 -0.050331763551560431 0 -0.0061769447032037515 -0.050175641677801086 0 -0.0049449222591585115 -0.051167218973462186 0 -0.0051929939685064711 -0.050331763551560431 0 -0.0061769447032037515 -0.050175641677801086 0 -0.0051929939685064711 -0.050331763551560431 0 -0.0053015582037811105 -0.049390597718782327 0 -0.0043601181419827256 -0.050604211841060967 0 -0.0051929939685064711 -0.050331763551560431 0 -0.0053015582037811105 -0.049390597718782327 0 -0.0060320962469941975 -0.048332496830888874 0 -0.0061769447032037515 -0.050175641677801086 0 -0.0053015582037811105 -0.049390597718782327 0 -0.0060320962469941975 -0.048332496830888874 0 -0.0053015582037811105 -0.049390597718782327 0 -0.0047163070497430841 -0.048207274677186385 0 -0.0035285905918337498 -0.047582294653845593 0 -0.0033193716240482616 -0.049886520667312417 0 -0.0047163070497430841 -0.048207274677186385 0 -0.0033193716240482616 -0.049886520667312417 0 -0.0053015582037811105 -0.049390597718782327 0 -0.0047163070497430841 -0.048207274677186385 0 -0.0035285905918337498 -0.047582294653845593 0 -0.0033193716240482616 -0.049886520667312417 0 -0.0022146243313201841 -0.048973754090739466 0 -0.0012453304230471173 -0.047612855394313425 0 -0.0022146243313201841 -0.048973754090739466 0 -0.00036420681255831594 -0.050721750272963662 0 -0.0017854282251811516 -0.048928844698749759 0 -0.00091380158017468759 -0.052259339731553604 0 -0.0033193716240482616 -0.049886520667312417 0 -0.0022146243313201841 -0.048973754090739466 0 -0.002138377899660468 -0.051312741768101452 0 -0.0022146243313201841 -0.048973754090739466 0 -0.00036420681255831594 -0.050721750272963662 0 -0.002138377899660468 -0.051312741768101452 0 -0.002138377899660468 -0.051312741768101452 0 -0.0019745187785319123 -0.05293397099127127 0 -0.001219718354412425 -0.052707876722730709 0 -0.0030102446181221746 -0.05212177024005938 0 -0.002138377899660468 -0.051312741768101452 0 -0.0019745187785319123 -0.05293397099127127 0 -0.0019745187785319123 -0.05293397099127127 0 -0.0010733976382107267 -0.053794239404678292 0 -0.001219718354412425 -0.052707876722730709 0 -0.0027665346096210296 -0.053104170325263905 0 -0.0019745187785319123 -0.05293397099127127 0 -0.001926124673039881 -0.053663854734029716 0 -0.0019745187785319123 -0.05293397099127127 0 -0.001926124673039881 -0.053663854734029716 0 -0.0010733976382107267 -0.053794239404678292 0 -0.0010733976382107267 -0.053794239404678292 0 -0.001219718354412425 -0.052707876722730709 0 -0.00035047828872813926 -0.053957106717973005 0 -0.00057185399191919109 -0.05399032060101782 0 -0.0010733976382107267 -0.053794239404678292 0 -0.00035047828872813926 -0.053957106717973005 0 -0.00036420681255831594 -0.050721750272963662 0 -0.001219718354412425 -0.052707876722730709 0 -0.00035047828872813926 -0.053957106717973005 0 -0.00091380158017468759 -0.052259339731553604 0 -0.00041374966141162099 -0.05381208971718407 0 -0.00036420681255831594 -0.050721750272963662 0 -0.002138377899660468 -0.051312741768101452 0 -0.001219718354412425 -0.052707876722730709 0 -0.0014491212256770574 -0.053905409092466883 0 -0.00025261652189425692 -0.054492222906904073 0 -0.00035047828872813926 -0.053957106717973005 0 -0.00040951713487627625 -0.053967164310194389 0 -0.00025261652189425692 -0.054492222906904073 0 -0.00035047828872813926 -0.053957106717973005 0 -0.00024250226318202686 -0.054496965135128472 0 -0.00025623129568635571 -0.054471496444554908 0 -0.00010313174403830869 -0.055029298593380592 0 -0.00025261652189425692 -0.054492222906904073 0 -5.3569613257856274e-07 -0.055000350799361469 0 -0.00025261652189425692 -0.054492222906904073 0 -5.3569613257856274e-07 -0.055000350799361469 0 2.0186654247825468e-06 -0.054996543651964304 0 -0.00025261652189425692 -0.054492222906904073 0 2.0186654247825468e-06 -0.054996543651964304 0 -0.00011634283993875893 -0.054060712803337067 0 2.0186654247825468e-06 -0.054996543651964304 0 -0.00011634283993875893 -0.054060712803337067 0 0.0010237566211038665 -0.052131136398554621 0 -0.0023583350448455982 -0.050246356713164839 0 -0.0014491212256770574 -0.053905409092466883 0 0.0010237566211038665 -0.052131136398554621 0 1.8907841998979901e-07 -0.054999372835074951 0 0.00039672382084466787 -0.053442834491444532 0 -0.0014491212256770574 -0.053905409092466883 0 -0.00011634283993875893 -0.054060712803337067 0 0.0010237566211038665 -0.052131136398554621 0 -0.0014491212256770574 -0.053905409092466883 0 -0.00025261652189425692 -0.054492222906904073 0 -0.00011634283993875893 -0.054060712803337067 0 4.8771278251026724e-09 -0.05500000059318956 0 -4.5307122265653976e-06 -0.054996381777463049 0 -6.4338401935827736e-09 -0.054999990598422491 0 -0.008547299516665165 0.00025646904859985174 0 -0.0066764299710753202 -0.0025819217733002945 0 -0.0051914435416359379 -0.0017470076693113516 0 0.0066663229920309736 0.0015616522195187727 0 0.0070348088596713151 0.0014298142766231506 0 0.0064334133720012924 0.00206240121966052 0 -0.0028007125692996702 -0.014409559263662369 0 0.0002844224107738701 0.0021695460014003933 0 0.0066663229920309736 0.0015616522195187727 0 0.0064412665820366083 0.0016723041040380016 0 0.0065744036590369859 0.0013996478872304566 0 0.0064412665820366083 0.0016723041040380016 0 0.0062904381753704167 0.0015135272290873654 0 0.0062456661804549587 0.0018318784976179101 0 0.0064412665820366083 0.0016723041040380016 0 0.0065744036590369859 0.0013996478872304566 0 0.0062904381753704167 0.0015135272290873654 0 0.0064412665820366083 0.0016723041040380016 0 0.0062456661804549587 0.0018318784976179101 0 0.0064334133720012924 0.00206240121966052 0 0.0066663229920309736 0.0015616522195187727 0 0.0064412665820366083 0.0016723041040380016 0 0.0064334133720012924 0.00206240121966052 0 -0.0043765895666526781 -0.033698678934421203 0 -0.0045447449265147407 -0.031502828553916742 0 -0.003811211492543634 -0.031880976771042693 0 -0.0028007125692996702 -0.014409559263662369 0 -0.0072544185543777515 -0.01741682906651891 0 -0.0043765895666526781 -0.033698678934421203 0 -0.003811211492543634 -0.031880976771042693 0 -0.0035749587606347471 -0.033013940480672951 0 -0.0043765895666526781 -0.033698678934421203 0 -0.0035744511655556679 -0.033608305316203034 0 -0.0035749587606347471 -0.033013940480672951 0 -0.0028007125692996702 -0.014409559263662369 0 0.00059197877248530636 -0.02209052855976491 0 -0.0043765895666526781 -0.033698678934421203 0 -0.0035744511655556679 -0.033608305316203034 0 -0.0033622077268411384 -0.033959638564690572 0 0.0068258132121277086 0.0011554331975269219 0 0.0067213398167728054 0.00079149336584940816 0 0.0071702733500733059 0.00060157928093205852 0 -0.0036142959241941297 -0.033854810838525699 0 -0.0029525499478705334 -0.034105710628874165 0 -0.0022098556776426006 -0.034394026346000445 0 0.0066663229920309736 0.0015616522195187727 0 0.0070348088596713151 0.0014298142766231506 0 0.0068258132121277086 0.0011554331975269219 0 0.0070348088596713151 0.0014298142766231506 0 0.0068258132121277086 0.0011554331975269219 0 0.0071702733500733059 0.00060157928093205852 0 -0.0028007125692996702 -0.014409559263662369 0 0.0033564428650277151 -0.021107247381057227 0 -0.0036142959241941297 -0.033854810838525699 0 -0.0033622077268411384 -0.033959638564690572 0 -0.0029525499478705334 -0.034105710628874165 0 -0.0029525499478705334 -0.034105710628874165 0 -0.0024424335581841468 -0.03428000391095655 0 -0.0022098556776426006 -0.034394026346000445 0 0.0068258132121277086 0.0011554331975269219 0 0.0064801525200469997 0.0010758872248709463 0 0.0067213398167728054 0.00079149336584940816 0 0.0068258132121277086 0.0011554331975269219 0 0.0065744036590369859 0.0013996478872304566 0 0.0064801525200469997 0.0010758872248709463 0 0.0066663229920309736 0.0015616522195187727 0 0.0068258132121277086 0.0011554331975269219 0 0.0065744036590369859 0.0013996478872304566 0 0.0065744036590369859 0.0013996478872304566 0 0.0064801525200469997 0.0010758872248709463 0 0.0062904381753704167 0.0015135272290873654 0 0.0064801525200469997 0.0010758872248709463 0 0.0060014353814315186 0.0011697644003362216 0 0.0062904381753704167 0.0015135272290873654 0 0.0060014353814315186 0.0011697644003362216 0 0.0062904381753704167 0.0015135272290873654 0 0.0060060535925283041 0.0016988857994523949 0 0.0060014353814315186 0.0011697644003362216 0 0.0057818974379713565 0.0015635584943330231 0 0.0060060535925283041 0.0016988857994523949 0 0.0060014353814315186 0.0011697644003362216 0 0.0056482688287992008 0.0013912306521750299 0 0.0055399616963763467 0.0010811866369727541 0 0.0056482688287992008 0.0013912306521750299 0 0.0055399616963763467 0.0010811866369727541 0 0.0053318126585100122 0.0015784151218980766 0 0.0060014353814315186 0.0011697644003362216 0 0.0056482688287992008 0.0013912306521750299 0 0.0057818974379713565 0.0015635584943330231 0 0.0056482688287992008 0.0013912306521750299 0 0.0057818974379713565 0.0015635584943330231 0 0.0055635708581684385 0.0017276639625299342 0 0.0056482688287992008 0.0013912306521750299 0 0.0055635708581684385 0.0017276639625299342 0 0.0053318126585100122 0.0015784151218980766 0 0.0055635708581684385 0.0017276639625299342 0 0.0057899639615315145 0.0019061656698755841 0 0.0055637439567244266 0.0021115657017320424 0 0.0055635708581684385 0.0017276639625299342 0 0.0055637439567244266 0.0021115657017320424 0 0.0053778724235339472 0.0019671554120252619 0 0.0057818974379713565 0.0015635584943330231 0 0.0057899639615315145 0.0019061656698755841 0 0.0060060535925283041 0.0016988857994523949 0 0.0057818974379713565 0.0015635584943330231 0 0.0055635708581684385 0.0017276639625299342 0 0.0057899639615315145 0.0019061656698755841 0 0.0057899639615315145 0.0019061656698755841 0 0.0060234027957176825 0.0020751569291015811 0 0.0057678638499815416 0.0023094040517500809 0 0.0057899639615315145 0.0019061656698755841 0 0.0055637439567244266 0.0021115657017320424 0 0.0057678638499815416 0.0023094040517500809 0 0.0062904381753704167 0.0015135272290873654 0 0.0060060535925283041 0.0016988857994523949 0 0.0062456661804549587 0.0018318784976179101 0 0.0060060535925283041 0.0016988857994523949 0 0.0060234027957176825 0.0020751569291015811 0 0.0062456661804549587 0.0018318784976179101 0 0.0057899639615315145 0.0019061656698755841 0 0.0060060535925283041 0.0016988857994523949 0 0.0060234027957176825 0.0020751569291015811 0 0.0060234027957176825 0.0020751569291015811 0 0.0062456661804549587 0.0018318784976179101 0 0.0064334133720012924 0.00206240121966052 0 0.002752479612060865 0.00013115830168833835 0 0.0002844224107738701 0.0021695460014003933 0 0.0060234027957176825 0.0020751569291015811 0 0.0058889893995042767 0.0026107350592370912 0 0.0064334133720012924 0.00206240121966052 0 -0.00098129001903781896 -0.001689474461297036 0 -0.0048361589026235784 -0.0032633473971656079 0 -0.0051914435416359379 -0.0017470076693113516 0 0.0055453083763717034 0.0023659279554979363 0 0.0057678638499815416 0.0023094040517500809 0 0.0055032123534430816 0.0026362567485771395 0 0.0055637439567244266 0.0021115657017320424 0 0.0055453083763717034 0.0023659279554979363 0 0.0057678638499815416 0.0023094040517500809 0 0.0060234027957176825 0.0020751569291015811 0 0.0057678638499815416 0.0023094040517500809 0 0.0058889893995042767 0.0026107350592370912 0 0.0057678638499815416 0.0023094040517500809 0 0.0058889893995042767 0.0026107350592370912 0 0.0055032123534430816 0.0026362567485771395 0 -0.0010762579203713568 -0.0041553054799362936 0 0.0020432603687940165 -0.0040827647547353532 0 -0.00098129001903781896 -0.001689474461297036 0 3.5567251935007502e-06 -0.0017031401868126633 0 0.0022320456374783151 0.00013818601498047036 0 0.0058889893995042767 0.0026107350592370912 0 0.0055032123534430816 0.0026362567485771395 0 0.0052972860623739775 0.003045621484085363 0 0.002752479612060865 0.00013115830168833835 0 0.0038861895157896926 0.0015538295394332093 0 -0.0010762579203713568 -0.0041553054799362936 0 -0.0047526184825013671 -0.0030844083750820595 0 -0.0016274388622718142 -0.0069795510346661012 0 -0.004546475637375696 -0.0078235531518378483 0 -0.0047253198008918975 -0.0056535261718643386 0 -0.0016274388622718142 -0.0069795510346661012 0 -0.0047253198008918975 -0.0056535261718643386 0 -0.0048361589026235784 -0.0032633473971656079 0 -0.0027410965283565197 -0.0092239956976932665 0 -0.0016274388622718142 -0.0069795510346661012 0 -0.004546475637375696 -0.0078235531518378483 0 -0.00098129001903781896 -0.001689474461297036 0 3.5567251935007502e-06 -0.0017031401868126633 0 -0.0048361589026235784 -0.0032633473971656079 0 -0.0074330334555747935 -0.0091367697728823444 0 -0.004546475637375696 -0.0078235531518378483 0 -0.0063851854855119143 -0.0060282919577936125 0 -0.0074330334555747935 -0.0091367697728823444 0 -0.0063851854855119143 -0.0060282919577936125 0 -0.0079934425471387301 -0.0039515780906212716 0 -0.004546475637375696 -0.0078235531518378483 0 -0.0063851854855119143 -0.0060282919577936125 0 -0.0047253198008918975 -0.0056535261718643386 0 -0.0063851854855119143 -0.0060282919577936125 0 -0.0061524861767923702 -0.0042394953285047601 0 -0.0079934425471387301 -0.0039515780906212716 0 -0.0063851854855119143 -0.0060282919577936125 0 -0.0047253198008918975 -0.0056535261718643386 0 -0.0061524861767923702 -0.0042394953285047601 0 -0.0047253198008918975 -0.0056535261718643386 0 -0.0048361589026235784 -0.0032633473971656079 0 -0.0061524861767923702 -0.0042394953285047601 0 -0.0061524861767923702 -0.0042394953285047601 0 -0.0066764299710753202 -0.0025819217733002945 0 -0.0079934425471387301 -0.0039515780906212716 0 -0.0048361589026235784 -0.0032633473971656079 0 -0.0061524861767923702 -0.0042394953285047601 0 -0.0066764299710753202 -0.0025819217733002945 0 -0.0048361589026235784 -0.0032633473971656079 0 -0.0066764299710753202 -0.0025819217733002945 0 -0.0051914435416359379 -0.0017470076693113516 0 -0.0043765895666526781 -0.033698678934421203 0 -0.0045447449265147407 -0.031502828553916742 0 -0.0058007393380966219 -0.030023828488147976 0 -0.008547299516665165 0.00025646904859985174 0 -0.0066764299710753202 -0.0025819217733002945 0 -0.0079934425471387301 -0.0039515780906212716 0 -0.0045447449265147407 -0.031502828553916742 0 -0.0041447393512879255 -0.030374176123785197 0 -0.003811211492543634 -0.031880976771042693 0 -0.0058007393380966219 -0.030023828488147976 0 -0.0041447393512879255 -0.030374176123785197 0 -0.0055335259921879265 -0.028279422361072303 0 -0.0045447449265147407 -0.031502828553916742 0 -0.0058007393380966219 -0.030023828488147976 0 -0.0041447393512879255 -0.030374176123785197 0 -0.0063371668168261414 -0.025518874509235099 0 -0.0058007393380966219 -0.030023828488147976 0 -0.0055335259921879265 -0.028279422361072303 0 -0.0068090884944713836 -0.017297175062034629 0 -0.0072544185543777515 -0.01741682906651891 0 -0.0019587896324708173 -0.025795268860401413 0 -0.0038613794615670505 -0.02580248540050244 0 -0.0027029645389220367 -0.027651484478434338 0 -0.0038613794615670505 -0.02580248540050244 0 -0.0055335259921879265 -0.028279422361072303 0 -0.0027029645389220367 -0.027651484478434338 0 -0.0054029915749096722 -0.02847358920467782 0 -0.0028069418763721917 -0.027862457107106955 0 -0.0041447393512879255 -0.030374176123785197 0 -0.0055335259921879265 -0.028279422361072303 0 -0.0024814040479305957 -0.029646869677149662 0 -0.0019587896324708173 -0.025795268860401413 0 -0.0027029645389220367 -0.027651484478434338 0 -0.00029075397018645102 -0.027713450251427258 0 -0.0028069418763721917 -0.027862457107106955 0 7.307517110187895e-05 -0.036551358428187707 0 -0.0024814040479305957 -0.029646869677149662 0 -0.0016026226934572618 -0.0315071014893651 0 0.00012895592264052693 -0.030134648050055085 0 -0.0016026226934572618 -0.0315071014893651 0 -0.0028987519351264587 -0.031391528373909725 0 -0.0024008276944573258 -0.03265816559494733 0 -0.0028987519351264587 -0.031391528373909725 0 -0.0030832230345353216 -0.03247005564042444 0 -0.0024008276944573258 -0.03265816559494733 0 -0.0028987519351264587 -0.031391528373909725 0 -0.003811211492543634 -0.031880976771042693 0 -0.0030832230345353216 -0.03247005564042444 0 -0.0041447393512879255 -0.030374176123785197 0 -0.0028987519351264587 -0.031391528373909725 0 -0.003811211492543634 -0.031880976771042693 0 -0.0041447393512879255 -0.030374176123785197 0 -0.0024814040479305957 -0.029646869677149662 0 -0.0028987519351264587 -0.031391528373909725 0 -0.0024814040479305957 -0.029646869677149662 0 -0.0016026226934572618 -0.0315071014893651 0 -0.0028987519351264587 -0.031391528373909725 0 0.0029826458994247026 -0.046002680829262801 0 0.00097701890646648788 -0.043932155468386941 0 0.003192414183852018 -0.043963731488013642 0 -0.0018664881852698233 -0.043981793692588624 0 7.307517110187895e-05 -0.036551358428187707 0 7.307517110187895e-05 -0.036551358428187707 0 -0.0015374364756695796 -0.036514022302003304 0 -0.0032549495689480732 -0.042445672215502238 0 -0.0037416982824366165 -0.041675971731381815 0 -0.0023962764128219508 -0.040844316601202232 0 -0.0016026226934572618 -0.0315071014893651 0 0.00012895592264052693 -0.030134648050055085 0 -0.00027117748147709365 -0.03255705840171471 0 -0.0037416982824366165 -0.041675971731381815 0 -0.0042696226440853812 -0.04044077309080301 0 -0.0023962764128219508 -0.040844316601202232 0 -0.0047364331790458528 -0.04211285911967376 0 -0.0032549495689480732 -0.042445672215502238 0 -0.0037416982824366165 -0.041675971731381815 0 -0.0047364331790458528 -0.04211285911967376 0 -0.0037416982824366165 -0.041675971731381815 0 -0.0044533585917620067 -0.041388780080109822 0 -0.0037416982824366165 -0.041675971731381815 0 -0.0044533585917620067 -0.041388780080109822 0 -0.0042696226440853812 -0.04044077309080301 0 -0.0043819842964903811 -0.040327354521926165 0 -0.005509265383513701 -0.03899599206114944 0 -0.0044840015734954877 -0.04118471168061269 0 -0.0042696226440853812 -0.04044077309080301 0 -0.0045673662055936157 -0.041442957631326105 0 -0.0042696226440853812 -0.04044077309080301 0 -0.0041501461534951814 -0.036773134352006312 0 -0.00676032382102591 -0.036063121161208314 0 -0.0045727475069256033 -0.041476647747330453 0 -0.0044840015734954877 -0.04118471168061269 0 -0.0045673662055936157 -0.041442957631326105 0 -0.0046359777547360058 -0.041606156231970545 0 -0.0044533585917620067 -0.041388780080109822 0 -0.0044840015734954877 -0.04118471168061269 0 -0.0044533585917620067 -0.041388780080109822 0 -0.0044840015734954877 -0.04118471168061269 0 -0.0042696226440853812 -0.04044077309080301 0 -0.0015374364756695796 -0.036514022302003304 0 -0.0017288382374148926 -0.035650176055729094 0 -0.0023962764128219508 -0.040844316601202232 0 -0.0019444966598658722 -0.035564612173693104 0 -0.0041501461534951814 -0.036773134352006312 0 -0.0042696226440853812 -0.04044077309080301 0 -0.0023962764128219508 -0.040844316601202232 0 -0.0041501461534951814 -0.036773134352006312 0 -0.0041501461534951814 -0.036773134352006312 0 -0.0054481343138340728 -0.035491882337025278 0 -0.0039487079306085669 -0.03457811448372318 0 -0.0019444966598658722 -0.035564612173693104 0 -0.0041501461534951814 -0.036773134352006312 0 -0.0039487079306085669 -0.03457811448372318 0 -0.0041501461534951814 -0.036773134352006312 0 -0.0054481343138340728 -0.035491882337025278 0 -0.00676032382102591 -0.036063121161208314 0 -0.0054481343138340728 -0.035491882337025278 0 -0.0066229348224805112 -0.036458439192044327 0 -0.00676032382102591 -0.036063121161208314 0 -0.0028148185756960245 -0.033345447950245265 0 -0.0024008276944573258 -0.03265816559494733 0 -0.002264417916924822 -0.033956477089082414 0 -0.0028148185756960245 -0.033345447950245265 0 -0.002264417916924822 -0.033956477089082414 0 -0.0026204940850724384 -0.034016860234690541 0 -0.0028148185756960245 -0.033345447950245265 0 -0.0031489839633859575 -0.033679758815570386 0 -0.0026204940850724384 -0.034016860234690541 0 -0.0028148185756960245 -0.033345447950245265 0 -0.0031489839633859575 -0.033679758815570386 0 -0.0035749587606347471 -0.033013940480672951 0 -0.0035744511655556679 -0.033608305316203034 0 -0.0033622077268411384 -0.033959638564690572 0 -0.0031489839633859575 -0.033679758815570386 0 -0.0035744511655556679 -0.033608305316203034 0 -0.0031489839633859575 -0.033679758815570386 0 -0.0035749587606347471 -0.033013940480672951 0 -0.0028148185756960245 -0.033345447950245265 0 -0.0030832230345353216 -0.03247005564042444 0 -0.0035749587606347471 -0.033013940480672951 0 -0.003811211492543634 -0.031880976771042693 0 -0.0030832230345353216 -0.03247005564042444 0 -0.0035749587606347471 -0.033013940480672951 0 -0.0028148185756960245 -0.033345447950245265 0 -0.0030832230345353216 -0.03247005564042444 0 -0.0024008276944573258 -0.03265816559494733 0 -0.0016026226934572618 -0.0315071014893651 0 -0.0024008276944573258 -0.03265816559494733 0 -0.0016714435847693606 -0.033206094806738487 0 -0.0024008276944573258 -0.03265816559494733 0 -0.0016714435847693606 -0.033206094806738487 0 -0.002264417916924822 -0.033956477089082414 0 -0.00027117748147709365 -0.03255705840171471 0 -0.0019444966598658722 -0.035564612173693104 0 -0.0016714435847693606 -0.033206094806738487 0 -0.0016026226934572618 -0.0315071014893651 0 -0.00027117748147709365 -0.03255705840171471 0 -0.0016714435847693606 -0.033206094806738487 0 -0.0019444966598658722 -0.035564612173693104 0 -0.0016714435847693606 -0.033206094806738487 0 -0.002264417916924822 -0.033956477089082414 0 -0.0019444966598658722 -0.035564612173693104 0 -0.002264417916924822 -0.033956477089082414 0 -0.0022957904389725283 -0.03453333610483203 0 -0.0019444966598658722 -0.035564612173693104 0 -0.0022698573844437517 -0.034678861679671762 0 -0.0022957904389725283 -0.03453333610483203 0 -0.0019444966598658722 -0.035564612173693104 0 -0.0022698573844437517 -0.034678861679671762 0 -0.0029395507847921653 -0.03394913740542832 0 -0.0022698573844437517 -0.034678861679671762 0 -0.0022957904389725283 -0.03453333610483203 0 -0.0021449352458881225 -0.034329611638403618 0 -0.0022957904389725283 -0.03453333610483203 0 -0.002346524537823524 -0.034390738958303836 0 -0.0021449352458881225 -0.034329611638403618 0 -0.0022957904389725283 -0.03453333610483203 0 -0.002346524537823524 -0.034390738958303836 0 -0.0025449597476588054 -0.03427124917990957 0 -0.002264417916924822 -0.033956477089082414 0 -0.0022957904389725283 -0.03453333610483203 0 -0.0026204940850724384 -0.034016860234690541 0 -0.0022957904389725283 -0.03453333610483203 0 -0.0025449597476588054 -0.03427124917990957 0 -0.0026204940850724384 -0.034016860234690541 0 -0.0033622077268411384 -0.033959638564690572 0 -0.0031489839633859575 -0.033679758815570386 0 -0.0029036454564750078 -0.034072503088302689 0 -0.0033622077268411384 -0.033959638564690572 0 -0.0029525499478705334 -0.034105710628874165 0 -0.0029036454564750078 -0.034072503088302689 0 -0.0031489839633859575 -0.033679758815570386 0 -0.0026204940850724384 -0.034016860234690541 0 -0.0029036454564750078 -0.034072503088302689 0 -0.0025449597476588054 -0.03427124917990957 0 -0.0026204940850724384 -0.034016860234690541 0 -0.0029036454564750078 -0.034072503088302689 0 -0.0025449597476588054 -0.03427124917990957 0 -0.0029036454564750078 -0.034072503088302689 0 -0.0026191938577588298 -0.034245322382495218 0 -0.0029525499478705334 -0.034105710628874165 0 -0.0029036454564750078 -0.034072503088302689 0 -0.0026191938577588298 -0.034245322382495218 0 -0.0029525499478705334 -0.034105710628874165 0 -0.0026191938577588298 -0.034245322382495218 0 -0.0024424335581841468 -0.03428000391095655 0 -0.002346524537823524 -0.034390738958303836 0 -0.0026191938577588298 -0.034245322382495218 0 -0.0023497454496230318 -0.034315937255045594 0 -0.002346524537823524 -0.034390738958303836 0 -0.0025449597476588054 -0.03427124917990957 0 -0.0026191938577588298 -0.034245322382495218 0 -0.002346524537823524 -0.034390738958303836 0 -0.0023497454496230318 -0.034315937255045594 0 -0.0022044168763669446 -0.034325850359985505 0 -0.0026191938577588298 -0.034245322382495218 0 -0.0023497454496230318 -0.034315937255045594 0 -0.0024424335581841468 -0.03428000391095655 0 -0.0023497454496230318 -0.034315937255045594 0 -0.0024424335581841468 -0.03428000391095655 0 -0.0021011275629579944 -0.034362565142668743 0 -0.0024424335581841468 -0.03428000391095655 0 -0.0021011275629579944 -0.034362565142668743 0 -0.0022098556776426006 -0.034394026346000445 0 -0.0023497454496230318 -0.034315937255045594 0 -0.0021011275629579944 -0.034362565142668743 0 -0.0021490416017354635 -0.034308415160179288 0 -0.0021490416017354635 -0.034308415160179288 0 -0.0020508083235455891 -0.034169817999246122 0 -0.0022044168763669446 -0.034325850359985505 0 -0.0023497454496230318 -0.034315937255045594 0 -0.0021490416017354635 -0.034308415160179288 0 -0.0022044168763669446 -0.034325850359985505 0 -0.0020508083235455891 -0.034169817999246122 0 -0.0019896929475130211 -0.034198909638326787 0 -0.0017657910710748717 -0.033859513596176921 0 -0.0021490416017354635 -0.034308415160179288 0 -0.0020508083235455891 -0.034169817999246122 0 -0.0019896929475130211 -0.034198909638326787 0 -0.0019139927536779755 -0.034195402222721216 0 -0.0017657910710748717 -0.033859513596176921 0 -0.0017701213407038845 -0.034296186795306098 0 -0.0019896929475130211 -0.034198909638326787 0 -0.0019139927536779755 -0.034195402222721216 0 -0.0017657910710748717 -0.033859513596176921 0 -0.0021011275629579944 -0.034362565142668743 0 -0.0019896929475130211 -0.034198909638326787 0 -0.0019139927536779755 -0.034195402222721216 0 -0.0021011275629579944 -0.034362565142668743 0 -0.0019139927536779755 -0.034195402222721216 0 -0.0017701213407038845 -0.034296186795306098 0 -0.0021011275629579944 -0.034362565142668743 0 -0.0021490416017354635 -0.034308415160179288 0 -0.0019896929475130211 -0.034198909638326787 0 -0.0020508083235455891 -0.034169817999246122 0 -0.0017657910710748717 -0.033859513596176921 0 -0.0019634884727723276 -0.033852272105962936 0 -0.0017657910710748717 -0.033859513596176921 0 -0.0019634884727723276 -0.033852272105962936 0 -0.0016761726847026033 -0.03332957230422972 0 -0.0019634884727723276 -0.033852272105962936 0 -0.0021449352458881225 -0.034329611638403618 0 -0.0021469320785529504 -0.033406158765340754 0 -0.0019634884727723276 -0.033852272105962936 0 -0.0021469320785529504 -0.033406158765340754 0 -0.0016761726847026033 -0.03332957230422972 0 -0.0020508083235455891 -0.034169817999246122 0 -0.0021449352458881225 -0.034329611638403618 0 -0.0022044168763669446 -0.034325850359985505 0 -0.0020508083235455891 -0.034169817999246122 0 -0.0019634884727723276 -0.033852272105962936 0 -0.0021449352458881225 -0.034329611638403618 0 -0.002346524537823524 -0.034390738958303836 0 -0.0021449352458881225 -0.034329611638403618 0 -0.0022044168763669446 -0.034325850359985505 0 -0.0021449352458881225 -0.034329611638403618 0 -0.0029395507847921653 -0.03394913740542832 0 -0.0021469320785529504 -0.033406158765340754 0 -0.0022698573844437517 -0.034678861679671762 0 -0.0021449352458881225 -0.034329611638403618 0 -0.0029395507847921653 -0.03394913740542832 0 -0.0029395507847921653 -0.03394913740542832 0 -0.0021469320785529504 -0.033406158765340754 0 -0.0028973286250417994 -0.032450586879248539 0 -0.0021469320785529504 -0.033406158765340754 0 -0.0028973286250417994 -0.032450586879248539 0 -0.0020446989528916082 -0.032441832911011111 0 -0.001325569238770986 -0.032570607746933052 0 0.0033564428650277151 -0.021107247381057227 0 -0.0017657910710748717 -0.033859513596176921 0 -0.0016761726847026033 -0.03332957230422972 0 -0.00099174609491310163 -0.032223859411839618 0 -0.0017657910710748717 -0.033859513596176921 0 -0.00099174609491310163 -0.032223859411839618 0 -0.0017701213407038845 -0.034296186795306098 0 -0.0020446989528916082 -0.032441832911011111 0 -0.0016517763561298892 -0.032730775427708518 0 -0.0016804867609745034 -0.03219035004262423 0 -0.0021469320785529504 -0.033406158765340754 0 -0.0020446989528916082 -0.032441832911011111 0 -0.0016517763561298892 -0.032730775427708518 0 -0.0016517763561298892 -0.032730775427708518 0 -0.0016804867609745034 -0.03219035004262423 0 -0.00099174609491310163 -0.032223859411839618 0 -0.0016517763561298892 -0.032730775427708518 0 -0.0016761726847026033 -0.03332957230422972 0 -0.00099174609491310163 -0.032223859411839618 0 -0.0021469320785529504 -0.033406158765340754 0 -0.0016517763561298892 -0.032730775427708518 0 -0.0016761726847026033 -0.03332957230422972 0 -0.0067463841470826987 -0.03654922590076197 0 -0.0068483581762636622 -0.036245914122782358 0 -0.0054481343138340728 -0.035491882337025278 0 -0.0066229348224805112 -0.036458439192044327 0 -0.0053519488003234434 -0.033051050579876014 0 -0.0059717144404546531 -0.037772632167035365 0 -0.0066229348224805112 -0.036458439192044327 0 -0.0085809499591674807 -0.039666919357985275 0 -0.0054481343138340728 -0.035491882337025278 0 -0.0039487079306085669 -0.03457811448372318 0 -0.0053519488003234434 -0.033051050579876014 0 -0.0029395507847921653 -0.03394913740542832 0 -0.0039487079306085669 -0.03457811448372318 0 -0.0039380458303875186 -0.032870657526512921 0 -0.0039487079306085669 -0.03457811448372318 0 -0.0039380458303875186 -0.032870657526512921 0 -0.0053519488003234434 -0.033051050579876014 0 -0.0019444966598658722 -0.035564612173693104 0 -0.0029395507847921653 -0.03394913740542832 0 -0.0039487079306085669 -0.03457811448372318 0 -0.0039380458303875186 -0.032870657526512921 0 -0.0053519488003234434 -0.033051050579876014 0 -0.0046125185093879376 -0.031125624523599307 0 -0.0028973286250417994 -0.032450586879248539 0 -0.0039380458303875186 -0.032870657526512921 0 -0.0046125185093879376 -0.031125624523599307 0 -0.0029395507847921653 -0.03394913740542832 0 -0.0028973286250417994 -0.032450586879248539 0 -0.0039380458303875186 -0.032870657526512921 0 -0.0085809499591674807 -0.039666919357985275 0 -0.0077243924950822192 -0.041768186311904425 0 -0.0095838877462963087 -0.043022651353269728 0 -0.0068483581762636622 -0.036245914122782358 0 -0.0075536094565119014 -0.037797080948163198 0 -0.0069357592563605089 -0.040465791976515807 0 -0.0085809499591674807 -0.039666919357985275 0 -0.0077243924950822192 -0.041768186311904425 0 -0.0070142211574294212 -0.043548210208247763 0 -0.0077243924950822192 -0.041768186311904425 0 -0.0095838877462963087 -0.043022651353269728 0 -0.0028973286250417994 -0.032450586879248539 0 -0.0046125185093879376 -0.031125624523599307 0 -0.003233041101427823 -0.030651337352471129 0 -0.010396147117884809 -0.045758904128308339 0 -0.0095838877462963087 -0.043022651353269728 0 -0.0083911111726229573 -0.04513497702404104 0 -0.0041368491390588458 -0.034123687037708329 0 -0.0075536094565119014 -0.037797080948163198 0 -0.0039527119914308222 -0.028915573784566155 0 -0.0046125185093879376 -0.031125624523599307 0 -0.003233041101427823 -0.030651337352471129 0 -0.0070142211574294212 -0.043548210208247763 0 -0.0095838877462963087 -0.043022651353269728 0 -0.0083911111726229573 -0.04513497702404104 0 -0.00078751330049795442 -0.028293673609629786 0 -0.0011726341804957489 -0.029179146343078041 0 -0.00082349570664429824 -0.028312605763297777 0 -0.00099174609491310163 -0.032223859411839618 0 -0.0020399372075202119 -0.031305858168052349 0 -0.0011726341804957489 -0.029179146343078041 0 -0.001325569238770986 -0.032570607746933052 0 -0.0011417199451531964 -0.028213006180049752 0 -0.0020446989528916082 -0.032441832911011111 0 -0.0016804867609745034 -0.03219035004262423 0 -0.0020399372075202119 -0.031305858168052349 0 -0.0016804867609745034 -0.03219035004262423 0 -0.00099174609491310163 -0.032223859411839618 0 -0.0020399372075202119 -0.031305858168052349 0 -0.0028973286250417994 -0.032450586879248539 0 -0.003233041101427823 -0.030651337352471129 0 -0.0020399372075202119 -0.031305858168052349 0 -0.0028973286250417994 -0.032450586879248539 0 -0.0020446989528916082 -0.032441832911011111 0 -0.0020399372075202119 -0.031305858168052349 0 -0.003233041101427823 -0.030651337352471129 0 -0.0020399372075202119 -0.031305858168052349 0 -0.0019846994827064698 -0.029639868038251787 0 -0.0039527119914308222 -0.028915573784566155 0 -0.003233041101427823 -0.030651337352471129 0 -0.0019846994827064698 -0.029639868038251787 0 -0.0041368491390588458 -0.034123687037708329 0 -0.0022510214325980465 -0.028718693407748203 0 -0.0021465901106592967 -0.029042716743416994 0 -0.0026034373943431871 -0.029093766354006838 0 -0.0019846994827064698 -0.029639868038251787 0 -0.0017425025166184565 -0.029069608362022704 0 -0.0021465901106592967 -0.029042716743416994 0 -0.0019846994827064698 -0.029639868038251787 0 -0.0011726341804957489 -0.029179146343078041 0 -0.00098462619850629685 -0.028845325749515455 0 -0.00082349570664429824 -0.028312605763297777 0 -0.0014168402601352078 -0.028886708757921979 0 -0.0017425025166184565 -0.029069608362022704 0 -0.0011726341804957489 -0.029179146343078041 0 -0.0020399372075202119 -0.031305858168052349 0 -0.0019846994827064698 -0.029639868038251787 0 -0.0011726341804957489 -0.029179146343078041 0 -0.0017425025166184565 -0.029069608362022704 0 -0.0019846994827064698 -0.029639868038251787 0 -0.0011726341804957489 -0.029179146343078041 0 -0.0011726341804957489 -0.029179146343078041 0 -0.00107903705589224 -0.028906325126281617 0 -0.00098462619850629685 -0.028845325749515455 0 -0.0014168402601352078 -0.028886708757921979 0 -0.0011726341804957489 -0.029179146343078041 0 -0.00107903705589224 -0.028906325126281617 0 -0.00107903705589224 -0.028906325126281617 0 -0.00093083564019406386 -0.028816291720513768 0 -0.00098462619850629685 -0.028845325749515455 0 -0.00093083564019406386 -0.028816291720513768 0 -0.00098462619850629685 -0.028845325749515455 0 -0.00091364421824102326 -0.028875190776114546 0 -0.0012879006956841652 -0.028903868461794806 0 0.0032683040512251015 -0.019320496141927029 0 -0.00071811818777772361 -0.028694715885564749 0 -0.00091364421824102326 -0.028875190776114546 0 -0.00033195365845205054 -0.028699874640994209 0 0.00020056047355254282 -0.026907558648728729 0 0.0011543255128769697 -0.026839555597741697 0 0.0014009879965344878 -0.02584942947195816 0 -0.00071811818777772361 -0.028694715885564749 0 -0.00093083564019406386 -0.028816291720513768 0 -0.00091364421824102326 -0.028875190776114546 0 0.00014910060182292176 -0.028098993369870026 0 0.0013909438180584746 -0.027679985469228029 0 0.0011543255128769697 -0.026839555597741697 0 0.00020056047355254282 -0.026907558648728729 0 0.00014910060182292176 -0.028098993369870026 0 0.0011543255128769697 -0.026839555597741697 0 0.00020056047355254282 -0.026907558648728729 0 0.00014910060182292176 -0.028098993369870026 0 -0.00082349570664429824 -0.028312605763297777 0 -0.00098462619850629685 -0.028845325749515455 0 -0.00091364421824102326 -0.028875190776114546 0 -0.00082349570664429824 -0.028312605763297777 0 -0.0012879006956841652 -0.028903868461794806 0 -0.00033832036517893042 -0.027898853826608335 0 0.00014910060182292176 -0.028098993369870026 0 -0.00082349570664429824 -0.028312605763297777 0 -0.00052436961803898371 -0.028505761114348716 0 -0.00052436961803898371 -0.028505761114348716 0 -0.00016871612738807737 -0.028700274060395246 0 -0.00067146219731453358 -0.029330147983403543 0 -0.00078751330049795442 -0.028293673609629786 0 -0.00082349570664429824 -0.028312605763297777 0 -0.00052436961803898371 -0.028505761114348716 0 -0.00078751330049795442 -0.028293673609629786 0 -0.00052436961803898371 -0.028505761114348716 0 -0.00067146219731453358 -0.029330147983403543 0 0.00014910060182292176 -0.028098993369870026 0 -0.00052436961803898371 -0.028505761114348716 0 -0.00016871612738807737 -0.028700274060395246 0 0.00014910060182292176 -0.028098993369870026 0 0.00079513232238493335 -0.028819212887993401 0 0.0013909438180584746 -0.027679985469228029 0 0.00014910060182292176 -0.028098993369870026 0 -0.00016871612738807737 -0.028700274060395246 0 0.00079513232238493335 -0.028819212887993401 0 0.0064801525200469997 0.0010758872248709463 0 0.0064122768823011997 0.0003375530767786256 0 0.0067213398167728054 0.00079149336584940816 0 0.0031845407867797885 -0.014152793861369983 0 0.0033564428650277151 -0.021107247381057227 0 -0.00016871612738807737 -0.028700274060395246 0 0.00079513232238493335 -0.028819212887993401 0 -0.00067146219731453358 -0.029330147983403543 0 0.0064122768823011997 0.0003375530767786256 0 0.0067213398167728054 0.00079149336584940816 0 0.0071702733500733059 0.00060157928093205852 0 0.0018010688817937514 -0.022439796757817342 0 0.0033564428650277151 -0.021107247381057227 0 0.0060014353814315186 0.0011697644003362216 0 0.0058287381177587506 0.00072043291856073856 0 0.0055399616963763467 0.0010811866369727541 0 0.0058287381177587506 0.00072043291856073856 0 0.005520261704665551 0.00065413540357067658 0 0.0057767351903920232 0.00037071293772224993 0 0.0058287381177587506 0.00072043291856073856 0 0.005520261704665551 0.00065413540357067658 0 0.0055399616963763467 0.0010811866369727541 0 0.0064801525200469997 0.0010758872248709463 0 0.0060014353814315186 0.0011697644003362216 0 0.0064122768823011997 0.0003375530767786256 0 0.0060014353814315186 0.0011697644003362216 0 0.0064122768823011997 0.0003375530767786256 0 0.0058287381177587506 0.00072043291856073856 0 0.0064122768823011997 0.0003375530767786256 0 0.0058287381177587506 0.00072043291856073856 0 0.0057767351903920232 0.00037071293772224993 0 0.00079513232238493335 -0.028819212887993401 0 0.0028073062165269993 -0.027754417784221646 0 0.0013909438180584746 -0.027679985469228029 0 0.0064122768823011997 0.0003375530767786256 0 0.0057767351903920232 0.00037071293772224993 0 0.0056486200570187751 -6.9787712437105676e-05 0 0.0031845407867797885 -0.014152793861369983 0 0.0063744951630785376 -0.0080936249692247827 0 0.005520261704665551 0.00065413540357067658 0 0.0057767351903920232 0.00037071293772224993 0 0.0056486200570187751 -6.9787712437105676e-05 0 0.005520261704665551 0.00065413540357067658 0 0.0056486200570187751 -6.9787712437105676e-05 0 0.0051638522069583012 0.00082886310661815191 0 0.01201122602175316 0.00035095636304453598 0 0.012198134568904716 0.00044678374652819258 0 0.011276811143287126 0.0014594060069676048 0 0.012765527113125291 -0.00012168878107670016 0 0.012904383624118885 -4.710811155569213e-05 0 0.01285108813057086 -0.00086249782515832713 0 0.012472416222979361 -0.00038721000711211301 0 0.012765527113125291 -0.00012168878107670016 0 0.01285108813057086 -0.00086249782515832713 0 0.011101566175206941 -0.002863659091613771 0 0.0063744951630785376 -0.0080936249692247827 0 0.012904383624118885 -4.710811155569213e-05 0 0.01285108813057086 -0.00086249782515832713 0 0.013708297339732519 -0.0012020336290501927 0 0.0063744951630785376 -0.0080936249692247827 0 0.0082617682199592531 -0.014591921234212008 0 0.012472416222979361 -0.00038721000711211301 0 0.01285108813057086 -0.00086249782515832713 0 0.012160313548955783 -0.00089429365550740725 0 0.0028073062165269993 -0.027754417784221646 0 0.0013909438180584746 -0.027679985469228029 0 0.0020979926987369588 -0.026850737786842521 0 0.0013909438180584746 -0.027679985469228029 0 0.0020979926987369588 -0.026850737786842521 0 0.0011543255128769697 -0.026839555597741697 0 0.0020979926987369588 -0.026850737786842521 0 0.0011543255128769697 -0.026839555597741697 0 0.0014009879965344878 -0.02584942947195816 0 0.013708297339732519 -0.0012020336290501927 0 0.014504153072782373 -0.0025082902025371839 0 0.013442286293754704 -0.0019302415076809785 0 0.0082617682199592531 -0.014591921234212008 0 0.0032683040512251015 -0.019320496141927029 0 0.0135237504662942 -0.0032157574137093858 0 0.014504153072782373 -0.0025082902025371839 0 0.013442286293754704 -0.0019302415076809785 0 0.0135237504662942 -0.0032157574137093858 0 0.012754360590709357 -0.0017002538847385393 0 0.011773973075025987 -0.0016008669232769031 0 0.0135237504662942 -0.0032157574137093858 0 0.012754360590709357 -0.0017002538847385393 0 0.013442286293754704 -0.0019302415076809785 0 0.0083351230146525308 -0.015587774242440785 0 0.013378497311885397 -0.00027215980395408403 0 0.01285108813057086 -0.00086249782515832713 0 0.012754360590709357 -0.0017002538847385393 0 0.012160313548955783 -0.00089429365550740725 0 0.01285108813057086 -0.00086249782515832713 0 0.012754360590709357 -0.0017002538847385393 0 0.013442286293754704 -0.0019302415076809785 0 0.01285108813057086 -0.00086249782515832713 0 0.013708297339732519 -0.0012020336290501927 0 0.013442286293754704 -0.0019302415076809785 0 0.013355856576139627 -0.0021396657395214838 0 0.01201673263346475 -0.0028446895841665637 0 0.010764912654345139 -0.002015502451780411 0 0.011773973075025987 -0.0016008669232769031 0 0.012160313548955783 -0.00089429365550740725 0 0.011227461373861342 -0.00049146036678319874 0 0.012754360590709357 -0.0017002538847385393 0 0.011773973075025987 -0.0016008669232769031 0 0.012160313548955783 -0.00089429365550740725 0 0.012497224632843076 -0.0043486500413279002 0 0.013355856576139627 -0.0021396657395214838 0 0.01201673263346475 -0.0028446895841665637 0 0.013355856576139627 -0.0021396657395214838 0 0.010764912654345139 -0.002015502451780411 0 0.0098696470180657039 0.00049377923007923427 0 0.0092718842320436042 -0.0041202211005372403 0 0.01201673263346475 -0.0028446895841665637 0 0.010764912654345139 -0.002015502451780411 0 0.013378497311885397 -0.00027215980395408403 0 0.00982959073496994 -0.00010127834525504417 0 0.010764912654345139 -0.002015502451780411 0 0.0098696470180657039 0.00049377923007923427 0 0.0089393680367980365 -0.00023262746964783549 0 0.011773973075025987 -0.0016008669232769031 0 0.0098696470180657039 0.00049377923007923427 0 0.011227461373861342 -0.00049146036678319874 0 0.0098696470180657039 0.00049377923007923427 0 0.011005013590368975 0.0008149696610403529 0 0.010336955690697227 0.0014598947352272888 0 0.0098696470180657039 0.00049377923007923427 0 0.011005013590368975 0.0008149696610403529 0 0.011227461373861342 -0.00049146036678319874 0 0.011101566175206941 -0.002863659091613771 0 0.012343610923001947 0.00034042316451996776 0 0.012472416222979361 -0.00038721000711211301 0 0.012160313548955783 -0.00089429365550740725 0 0.011227461373861342 -0.00049146036678319874 0 0.011005013590368975 0.0008149696610403529 0 0.011853987869442287 0.00056453221627701818 0 0.011792360223639241 0.0012147848300483046 0 0.013438081404789916 0.00071155727297454328 0 0.011853987869442287 0.00056453221627701818 0 0.011227461373861342 -0.00049146036678319874 0 0.011005013590368975 0.0008149696610403529 0 0.011853987869442287 0.00056453221627701818 0 0.011227461373861342 -0.00049146036678319874 0 0.012472416222979361 -0.00038721000711211301 0 0.012765527113125291 -0.00012168878107670016 0 0.011227461373861342 -0.00049146036678319874 0 0.013438081404789916 0.00071155727297454328 0 0.011853987869442287 0.00056453221627701818 0 0.011792360223639241 0.0012147848300483046 0 0.0058029608400254574 -0.0021005473796228426 0 0.0062213316785175643 -0.00095548187839110518 0 0.0036754595738884457 -0.00098159433237060686 0 0.0056599737209616701 -0.0036281370287561099 0 0.0058431282336077854 -0.0029540622967007195 0 0.0054945201065230483 -0.0032312162314890244 0 0.0058431282336077854 -0.0029540622967007195 0 0.0052387742585877101 -0.0030447404074066941 0 0.0054945201065230483 -0.0032312162314890244 0 0.0069612918168828648 -0.0017159642003316497 0 0.0075423166959356419 -0.00041791277290039326 0 0.0062213316785175643 -0.00095548187839110518 0 0.0058029608400254574 -0.0021005473796228426 0 0.0069612918168828648 -0.0017159642003316497 0 0.0062213316785175643 -0.00095548187839110518 0 0.0092718842320436042 -0.0041202211005372403 0 0.0058029608400254574 -0.0021005473796228426 0 0.0069612918168828648 -0.0017159642003316497 0 0.0092718842320436042 -0.0041202211005372403 0 0.0069612918168828648 -0.0017159642003316497 0 0.0086810655850674996 -0.0016191065585239419 0 0.0083680922754040109 -0.0039171020301021885 0 0.0046823615523692973 -0.0025394093455637359 0 0.0069612918168828648 -0.0017159642003316497 0 0.0086810655850674996 -0.0016191065585239419 0 0.0075423166959356419 -0.00041791277290039326 0 0.0092718842320436042 -0.0041202211005372403 0 0.010764912654345139 -0.002015502451780411 0 0.0086810655850674996 -0.0016191065585239419 0 0.010764912654345139 -0.002015502451780411 0 0.0086810655850674996 -0.0016191065585239419 0 0.0089393680367980365 -0.00023262746964783549 0 0.0098696470180657039 0.00049377923007923427 0 0.0084941747775093539 0.001249750680467366 0 0.0094317392652871618 0.0017769924111591217 0 0.0098696470180657039 0.00049377923007923427 0 0.0089393680367980365 -0.00023262746964783549 0 0.0084941747775093539 0.001249750680467366 0 0.0086810655850674996 -0.0016191065585239419 0 0.0089393680367980365 -0.00023262746964783549 0 0.0075423166959356419 -0.00041791277290039326 0 0.0089393680367980365 -0.00023262746964783549 0 0.0084941747775093539 0.001249750680467366 0 0.0075423166959356419 -0.00041791277290039326 0 0.0062213316785175643 -0.00095548187839110518 0 0.0059018737719288474 8.5786100687370003e-05 0 0.0036754595738884457 -0.00098159433237060686 0 0.0075423166959356419 -0.00041791277290039326 0 0.0062213316785175643 -0.00095548187839110518 0 0.0059018737719288474 8.5786100687370003e-05 0 0.0083106352226823849 0.0012650518323954294 0 0.0069971541262729654 0.00076892929802203263 0 0.0084941747775093539 0.001249750680467366 0 0.0080239466721663041 0.0015559592232798364 0 0.008107533781884349 0.0018561908008318351 0 0.0084941747775093539 0.001249750680467366 0 0.0075423166959356419 -0.00041791277290039326 0 0.0059018737719288474 8.5786100687370003e-05 0 0.0080239466721663041 0.0015559592232798364 0 0.008107533781884349 0.0018561908008318351 0 0.0076474146919102703 0.0018064386552161043 0 0.008051411861320577 0.0026864223664754576 0 0.008107533781884349 0.0018561908008318351 0 0.0076330210057539661 0.0023376945846197306 0 0.008107533781884349 0.0018561908008318351 0 0.0076330210057539661 0.0023376945846197306 0 0.0076474146919102703 0.0018064386552161043 0 0.008051411861320577 0.0026864223664754576 0 0.0085823616610123787 0.0022406734204791531 0 0.0086105963615934217 0.0031269293811962582 0 0.008051411861320577 0.0026864223664754576 0 0.008107533781884349 0.0018561908008318351 0 0.0085823616610123787 0.0022406734204791531 0 0.0084941747775093539 0.001249750680467366 0 0.0085823616610123787 0.0022406734204791531 0 0.0094317392652871618 0.0017769924111591217 0 0.0084941747775093539 0.001249750680467366 0 0.008107533781884349 0.0018561908008318351 0 0.0085823616610123787 0.0022406734204791531 0 0.0094317392652871618 0.0017769924111591217 0 0.0092117755225860163 0.0027359747889553728 0 0.009986881495060709 0.0024877665221945057 0 0.0085823616610123787 0.0022406734204791531 0 0.0094317392652871618 0.0017769924111591217 0 0.0092117755225860163 0.0027359747889553728 0 0.0086105963615934217 0.0031269293811962582 0 0.0081025429860526153 0.0037286914709977557 0 0.0091793832534471462 0.0040507087711310645 0 0.0092117755225860163 0.0027359747889553728 0 0.0086105963615934217 0.0031269293811962582 0 0.0091793832534471462 0.0040507087711310645 0 0.0092117755225860163 0.0027359747889553728 0 0.009986881495060709 0.0024877665221945057 0 0.0091793832534471462 0.0040507087711310645 0 0.0085823616610123787 0.0022406734204791531 0 0.0092117755225860163 0.0027359747889553728 0 0.0086105963615934217 0.0031269293811962582 0 0.008051411861320577 0.0026864223664754576 0 0.0081025429860526153 0.0037286914709977557 0 0.0074249273343400431 0.0032055461332971442 0 0.008051411861320577 0.0026864223664754576 0 0.0086105963615934217 0.0031269293811962582 0 0.0081025429860526153 0.0037286914709977557 0 0.01201122602175316 0.00035095636304453598 0 0.011276811143287126 0.0014594060069676048 0 0.010161447263820416 0.0022826416244164909 0 0.0063744951630785376 -0.0080936249692247827 0 0.00801363743973974 0.003298787741019766 0 0.011101566175206941 -0.002863659091613771 0 0.010770193827949118 0.0029796885838374245 0 0.012198134568904716 0.00044678374652819258 0 0.011276811143287126 0.0014594060069676048 0 0.010741444678438149 0.0027558952255340311 0 0.013438081404789916 0.00071155727297454328 0 0.011792360223639241 0.0012147848300483046 0 0.011042725138412098 0.0027033615997348764 0 0.011276811143287126 0.0014594060069676048 0 0.010161447263820416 0.0022826416244164909 0 0.010741444678438149 0.0027558952255340311 0 0.011792360223639241 0.0012147848300483046 0 0.010855218392372433 0.0017538204032754461 0 0.011042725138412098 0.0027033615997348764 0 0.011005013590368975 0.0008149696610403529 0 0.011792360223639241 0.0012147848300483046 0 0.010855218392372433 0.0017538204032754461 0 0.011005013590368975 0.0008149696610403529 0 0.010855218392372433 0.0017538204032754461 0 0.010336955690697227 0.0014598947352272888 0 0.0098696470180657039 0.00049377923007923427 0 0.0094317392652871618 0.0017769924111591217 0 0.010336955690697227 0.0014598947352272888 0 0.0094317392652871618 0.0017769924111591217 0 0.010336955690697227 0.0014598947352272888 0 0.009986881495060709 0.0024877665221945057 0 0.010855218392372433 0.0017538204032754461 0 0.009986881495060709 0.0024877665221945057 0 0.011042725138412098 0.0027033615997348764 0 0.010855218392372433 0.0017538204032754461 0 0.010336955690697227 0.0014598947352272888 0 0.009986881495060709 0.0024877665221945057 0 0.009986881495060709 0.0024877665221945057 0 0.011042725138412098 0.0027033615997348764 0 0.0091793832534471462 0.0040507087711310645 0 0.0097969271328863378 0.0033630151038661626 0 0.010161447263820416 0.0022826416244164909 0 0.0087632902520981999 0.0038366476770986587 0 0.010770193827949118 0.0029796885838374245 0 0.0089792828493835877 0.0038515589676176823 0 0.0097969271328863378 0.0033630151038661626 0 0.010161447263820416 0.0022826416244164909 0 0.010741444678438149 0.0027558952255340311 0 0.005520261704665551 0.00065413540357067658 0 0.0055399616963763467 0.0010811866369727541 0 0.0051638522069583012 0.00082886310661815191 0 0.0055399616963763467 0.0010811866369727541 0 0.0051638522069583012 0.00082886310661815191 0 0.0052152187266785955 0.0013357420518373868 0 0.0051638522069583012 0.00082886310661815191 0 0.0052152187266785955 0.0013357420518373868 0 0.0048515156960516892 0.0018559551701613417 0 0.0055399616963763467 0.0010811866369727541 0 0.0052152187266785955 0.0013357420518373868 0 0.0053318126585100122 0.0015784151218980766 0 0.0052152187266785955 0.0013357420518373868 0 0.0053318126585100122 0.0015784151218980766 0 0.0048515156960516892 0.0018559551701613417 0 0.0053318126585100122 0.0015784151218980766 0 0.0051398159667938913 0.0019356734913253911 0 0.0048515156960516892 0.0018559551701613417 0 0.0055635708581684385 0.0017276639625299342 0 0.0053318126585100122 0.0015784151218980766 0 0.0053778724235339472 0.0019671554120252619 0 0.0053318126585100122 0.0015784151218980766 0 0.0053778724235339472 0.0019671554120252619 0 0.0051398159667938913 0.0019356734913253911 0 0.0053778724235339472 0.0019671554120252619 0 0.0051398159667938913 0.0019356734913253911 0 0.0052144713381818341 0.0022764500844333979 0 0.0053778724235339472 0.0019671554120252619 0 0.0052144713381818341 0.0022764500844333979 0 0.005359179983044097 0.0023974192716686156 0 0.0055637439567244266 0.0021115657017320424 0 0.0053778724235339472 0.0019671554120252619 0 0.005359179983044097 0.0023974192716686156 0 0.0050452136600679228 0.0024260744054484277 0 0.0048515156960516892 0.0018559551701613417 0 0.004929544522369809 0.0028021521143398748 0 0.0051398159667938913 0.0019356734913253911 0 0.0050452136600679228 0.0024260744054484277 0 0.0048515156960516892 0.0018559551701613417 0 0.0051398159667938913 0.0019356734913253911 0 0.0052144713381818341 0.0022764500844333979 0 0.0050452136600679228 0.0024260744054484277 0 0.00801363743973974 0.003298787741019766 0 0.0072772261221504429 0.0028547997755740849 0 0.0097969271328863378 0.0033630151038661626 0 0.010741444678438149 0.0027558952255340311 0 0.0095313551026640735 0.0044767677248928562 0 0.0097969271328863378 0.0033630151038661626 0 0.0095313551026640735 0.0044767677248928562 0 0.0087632902520981999 0.0038366476770986587 0 0.0087632902520981999 0.0038366476770986587 0 0.0077380578970914693 0.0050478608912395756 0 0.0085971902130552377 0.004863283712922638 0 0.0095313551026640735 0.0044767677248928562 0 0.0087632902520981999 0.0038366476770986587 0 0.0085971902130552377 0.004863283712922638 0 0.0081025429860526153 0.0037286914709977557 0 0.0091793832534471462 0.0040507087711310645 0 0.0077380578970914693 0.0050478608912395756 0 0.0089792828493835877 0.0038515589676176823 0 0.0078030121797388477 0.0050101241605933827 0 0.0081025429860526153 0.0037286914709977557 0 0.0077380578970914693 0.0050478608912395756 0 0.0074364104525097684 0.0040674890383317706 0 0.0077380578970914693 0.0050478608912395756 0 0.0085971902130552377 0.004863283712922638 0 0.0077743260716340631 0.0057074322470400465 0 0.0072772261221504429 0.0028547997755740849 0 0.0067150992615486261 0.0043748068896600108 0 0.0095313551026640735 0.0044767677248928562 0 0.0085971902130552377 0.004863283712922638 0 0.0085456365099687379 0.0058892088668171996 0 0.0085971902130552377 0.004863283712922638 0 0.0085456365099687379 0.0058892088668171996 0 0.0077743260716340631 0.0057074322470400465 0 0.004929544522369809 0.0028021521143398748 0 0.0051291924315148901 0.0031089337159900393 0 0.0051188374182245065 0.0029103444091254931 0 0.0085456365099687379 0.0058892088668171996 0 0.0077743260716340631 0.0057074322470400465 0 0.007484997791568351 0.0065630706108466838 0 0.007484997791568351 0.0065630706108466838 0 0.0072127028812226119 0.0070318909676012594 0 0.0071932195618013197 0.006894341114720497 0 0.004929544522369809 0.0028021521143398748 0 0.0053011683566240734 0.0036368878557454438 0 0.0052486447826147779 0.0033476971307341229 0 0.0067150992615486261 0.0043748068896600108 0 0.0063760306045561313 0.005238357612145912 0 0.0085456365099687379 0.0058892088668171996 0 0.007484997791568351 0.0065630706108466838 0 0.0072127028812226119 0.0070318909676012594 0 0.0053011683566240734 0.0036368878557454438 0 0.0052486447826147779 0.0033476971307341229 0 0.0055133125890148406 0.0037633325992716842 0 0.004929544522369809 0.0028021521143398748 0 0.0051291924315148901 0.0031089337159900393 0 0.0052486447826147779 0.0033476971307341229 0 0.0052486447826147779 0.0033476971307341229 0 0.0053414012001787607 0.0034326231255906183 0 0.0055133125890148406 0.0037633325992716842 0 0.0051291924315148901 0.0031089337159900393 0 0.0052486447826147779 0.0033476971307341229 0 0.0053414012001787607 0.0034326231255906183 0 0.0051291924315148901 0.0031089337159900393 0 0.0051352051858326213 0.0031697877918306977 0 0.0053414012001787607 0.0034326231255906183 0 0.0050937106398600681 0.0030152960022124349 0 0.0052972860623739775 0.003045621484085363 0 0.0048277871048684751 0.0027861078661966612 0 0.0051352051858326213 0.0031697877918306977 0 0.0050937106398600681 0.0030152960022124349 0 0.0051188374182245065 0.0029103444091254931 0 0.0051291924315148901 0.0031089337159900393 0 0.0051352051858326213 0.0031697877918306977 0 0.0051188374182245065 0.0029103444091254931 0 0.0050937106398600681 0.0030152960022124349 0 0.0052349690317020905 0.0028110321506499857 0 0.0051188374182245065 0.0029103444091254931 0 3.5567251935007502e-06 -0.0017031401868126633 0 0.0022320456374783151 0.00013818601498047036 0 0.0033527988327837948 0.001146127308459174 0 0.0055032123534430816 0.0026362567485771395 0 0.0052972860623739775 0.003045621484085363 0 0.0052349690317020905 0.0028110321506499857 0 0.0050937106398600681 0.0030152960022124349 0 0.0052972860623739775 0.003045621484085363 0 0.0052349690317020905 0.0028110321506499857 0 0.0052349690317020905 0.0028110321506499857 0 0.005359179983044097 0.0023974192716686156 0 0.0051766754343548788 0.002616815715171728 0 0.0055032123534430816 0.0026362567485771395 0 0.0052349690317020905 0.0028110321506499857 0 0.005359179983044097 0.0023974192716686156 0 0.0055637439567244266 0.0021115657017320424 0 0.0055453083763717034 0.0023659279554979363 0 0.005359179983044097 0.0023974192716686156 0 0.0055453083763717034 0.0023659279554979363 0 0.0055032123534430816 0.0026362567485771395 0 0.005359179983044097 0.0023974192716686156 0 0.0052144713381818341 0.0022764500844333979 0 0.005359179983044097 0.0023974192716686156 0 0.0051766754343548788 0.002616815715171728 0 0.0050452136600679228 0.0024260744054484277 0 0.0051766754343548788 0.002616815715171728 0 0.0051188374182245065 0.0029103444091254931 0 0.0050452136600679228 0.0024260744054484277 0 0.004929544522369809 0.0028021521143398748 0 0.0051188374182245065 0.0029103444091254931 0 0.0052144713381818341 0.0022764500844333979 0 0.0050452136600679228 0.0024260744054484277 0 0.0051766754343548788 0.002616815715171728 0 0.0052349690317020905 0.0028110321506499857 0 0.0051766754343548788 0.002616815715171728 0 0.0051188374182245065 0.0029103444091254931 0 0.006714081658846174 0.0070865006159608812 0 0.0071295695009884049 0.0073669274698866041 0 0.0071662179692698787 0.0070401319769398752 0 0.006714081658846174 0.0070865006159608812 0 0.0071662179692698787 0.0070401319769398752 0 0.0070685013856253733 0.0062481023697427696 0 0.006714081658846174 0.0070865006159608812 0 0.006040750937031227 0.0072304592872736882 0 0.0065438325497589149 0.0077657063983618043 0 0.006714081658846174 0.0070865006159608812 0 0.006040750937031227 0.0072304592872736882 0 0.0059953057362019226 0.0064148861236480812 0 0.006040750937031227 0.0072304592872736882 0 0.0065438325497589149 0.0077657063983618043 0 0.0057680217153123084 0.0080907871012623513 0 0.0065438325497589149 0.0077657063983618043 0 0.0057680217153123084 0.0080907871012623513 0 0.0063032839116332479 0.0084680077394712529 0 0.006714081658846174 0.0070865006159608812 0 0.0065438325497589149 0.0077657063983618043 0 0.0071295695009884049 0.0073669274698866041 0 0.0071752480658995596 0.0070336410971798408 0 0.0071932195618013197 0.006894341114720497 0 0.0071662179692698787 0.0070401319769398752 0 0.0071295695009884049 0.0073669274698866041 0 0.0071752480658995596 0.0070336410971798408 0 0.0071662179692698787 0.0070401319769398752 0 0.0072127028812226119 0.0070318909676012594 0 0.0071932195618013197 0.006894341114720497 0 0.0070909150214636951 0.0067748072525798727 0 0.0071752480658995596 0.0070336410971798408 0 0.0071932195618013197 0.006894341114720497 0 0.0070909150214636951 0.0067748072525798727 0 0.0077743260716340631 0.0057074322470400465 0 0.007484997791568351 0.0065630706108466838 0 0.006866278408986932 0.0054854935212088783 0 0.0075023137962238846 0.0065583494036896631 0 0.0071124781742872394 0.0061408136639772379 0 0.007484997791568351 0.0065630706108466838 0 0.0071932195618013197 0.006894341114720497 0 0.0072928374275755487 0.0067866870878850374 0 0.0071932195618013197 0.006894341114720497 0 0.0072928374275755487 0.0067866870878850374 0 0.0071662179692698787 0.0070401319769398752 0 0.0072928374275755487 0.0067866870878850374 0 0.0071662179692698787 0.0070401319769398752 0 0.0070685013856253733 0.0062481023697427696 0 0.006866278408986932 0.0054854935212088783 0 0.0069821556283555927 0.00461507144848198 0 0.0062164545328916507 0.0047364984692085752 0 0.0071124781742872394 0.0061408136639772379 0 0.0065787443108706878 0.0054845381971953501 0 0.0077380578970914693 0.0050478608912395756 0 0.0077743260716340631 0.0057074322470400465 0 0.006866278408986932 0.0054854935212088783 0 0.0077380578970914693 0.0050478608912395756 0 0.006866278408986932 0.0054854935212088783 0 0.0069821556283555927 0.00461507144848198 0 0.0077380578970914693 0.0050478608912395756 0 0.0074364104525097684 0.0040674890383317706 0 0.0069821556283555927 0.00461507144848198 0 0.0074364104525097684 0.0040674890383317706 0 0.0069821556283555927 0.00461507144848198 0 0.0067169924816846164 0.0040585245352612398 0 0.0069821556283555927 0.00461507144848198 0 0.0067169924816846164 0.0040585245352612398 0 0.0062164545328916507 0.0047364984692085752 0 0.0065787443108706878 0.0054845381971953501 0 0.0056285423372908752 0.0047860777064378983 0 0.0061846514173289737 0.0042654370319062064 0 0.0062164545328916507 0.0047364984692085752 0 0.0055842315571827585 0.004775278773580794 0 0.0067169924816846164 0.0040585245352612398 0 0.0061846514173289737 0.0042654370319062064 0 0.0062164545328916507 0.0047364984692085752 0 0.006714081658846174 0.0070865006159608812 0 0.0070685013856253733 0.0062481023697427696 0 0.0059953057362019226 0.0064148861236480812 0 0.006040750937031227 0.0072304592872736882 0 0.0059953057362019226 0.0064148861236480812 0 0.005336487327545548 0.0066640417132316169 0 0.0059953057362019226 0.0064148861236480812 0 0.0055842315571827585 0.004775278773580794 0 0.0050098017983140879 0.0057019285352800653 0 0.0070685013856253733 0.0062481023697427696 0 0.0059953057362019226 0.0064148861236480812 0 0.0055842315571827585 0.004775278773580794 0 0.0059774528291494256 0.0038281693618007098 0 0.0061512755984934869 0.002967960326091903 0 0.0052957262419511143 0.0034056189966464195 0 0.0055842315571827585 0.004775278773580794 0 0.0052957262419511143 0.0034056189966464195 0 0.004587468803944973 0.0046441241764300601 0 0.0055842315571827585 0.004775278773580794 0 0.0059774528291494256 0.0038281693618007098 0 0.0052957262419511143 0.0034056189966464195 0 0.0061846514173289737 0.0042654370319062064 0 0.0055842315571827585 0.004775278773580794 0 0.0059774528291494256 0.0038281693618007098 0 0.0061846514173289737 0.0042654370319062064 0 0.0064176666129007803 0.0036096410288072225 0 0.0059774528291494256 0.0038281693618007098 0 0.0067169924816846164 0.0040585245352612398 0 0.0061846514173289737 0.0042654370319062064 0 0.0064176666129007803 0.0036096410288072225 0 0.0064176666129007803 0.0036096410288072225 0 0.0059774528291494256 0.0038281693618007098 0 0.0061512755984934869 0.002967960326091903 0 0.0061512755984934869 0.002967960326091903 0 0.0056734135002939065 0.0022219541324205246 0 0.0065861815279521663 0.0019451383588522464 0 0.0064176666129007803 0.0036096410288072225 0 0.0061512755984934869 0.002967960326091903 0 0.0067838533319366087 0.0027249114456005274 0 0.0061512755984934869 0.002967960326091903 0 0.0067838533319366087 0.0027249114456005274 0 0.0065861815279521663 0.0019451383588522464 0 0.0061512755984934869 0.002967960326091903 0 0.0056734135002939065 0.0022219541324205246 0 0.0052957262419511143 0.0034056189966464195 0 0.0056734135002939065 0.0022219541324205246 0 0.0052957262419511143 0.0034056189966464195 0 0.0046442938186201819 0.0020679057387752468 0 0.0074364104525097684 0.0040674890383317706 0 0.0067169924816846164 0.0040585245352612398 0 0.0074249273343400431 0.0032055461332971442 0 0.0081025429860526153 0.0037286914709977557 0 0.0074364104525097684 0.0040674890383317706 0 0.0074249273343400431 0.0032055461332971442 0 0.0074249273343400431 0.0032055461332971442 0 0.0069063161303848679 0.0032684606268624065 0 0.0072145256315901919 0.0027106755710076531 0 0.0067169924816846164 0.0040585245352612398 0 0.0074249273343400431 0.0032055461332971442 0 0.0069063161303848679 0.0032684606268624065 0 0.0067169924816846164 0.0040585245352612398 0 0.0064176666129007803 0.0036096410288072225 0 0.0069063161303848679 0.0032684606268624065 0 0.0064176666129007803 0.0036096410288072225 0 0.0069063161303848679 0.0032684606268624065 0 0.0067838533319366087 0.0027249114456005274 0 0.0067838533319366087 0.0027249114456005274 0 0.0072405146184008886 0.0021533380385169889 0 0.0065861815279521663 0.0019451383588522464 0 0.0067838533319366087 0.0027249114456005274 0 0.0072405146184008886 0.0021533380385169889 0 0.0072145256315901919 0.0027106755710076531 0 0.0069063161303848679 0.0032684606268624065 0 0.0067838533319366087 0.0027249114456005274 0 0.0072145256315901919 0.0027106755710076531 0 0.0074249273343400431 0.0032055461332971442 0 0.0072145256315901919 0.0027106755710076531 0 0.0076330210057539661 0.0023376945846197306 0 0.0072405146184008886 0.0021533380385169889 0 0.0072145256315901919 0.0027106755710076531 0 0.0076330210057539661 0.0023376945846197306 0 0.0072405146184008886 0.0021533380385169889 0 0.0076330210057539661 0.0023376945846197306 0 0.0076474146919102703 0.0018064386552161043 0 0.008051411861320577 0.0026864223664754576 0 0.0074249273343400431 0.0032055461332971442 0 0.0076330210057539661 0.0023376945846197306 0 0.0069971541262729654 0.00076892929802203263 0 0.0061952968930020129 -0.00026249723459995539 0 0.0080239466721663041 0.0015559592232798364 0 0.0075629335077374684 0.0014139534704389867 0 0.0076474146919102703 0.0018064386552161043 0 0.0072405146184008886 0.0021533380385169889 0 0.0076474146919102703 0.0018064386552161043 0 0.0072686143271772797 0.0015582907265240344 0 0.0061952968930020129 -0.00026249723459995539 0 0.007199371736110842 0.00095592793686427873 0 0.0075629335077374684 0.0014139534704389867 0 0.0076474146919102703 0.0018064386552161043 0 0.0072686143271772797 0.0015582907265240344 0 0.0078715773885592449 0.0012497259444586941 0 0.0072686143271772797 0.0015582907265240344 0 0.0068166610716107277 0.0011630657828862684 0 0.0072405146184008886 0.0021533380385169889 0 0.0072686143271772797 0.0015582907265240344 0 0.0065861815279521663 0.0019451383588522464 0 0.0072686143271772797 0.0015582907265240344 0 0.0068166610716107277 0.0011630657828862684 0 0.0065861815279521663 0.0019451383588522464 0 0.0051034558295038109 -0.0025678215022375381 0 0.0045296357508187368 -0.0033079236474598248 0 0.0037695111001803698 -0.0032038199563198437 0 0.0078715773885592449 0.0012497259444586941 0 0.0068166610716107277 0.0011630657828862684 0 0.0066333752445103464 0.000316065487557652 0 0.0061952968930020129 -0.00026249723459995539 0 0.0052250834965898033 -0.0015119021278152409 0 0.0051034558295038109 -0.0025678215022375381 0 0.0045296357508187368 -0.0033079236474598248 0 0.0052387742585877101 -0.0030447404074066941 0 0.0052447904060803864 -0.0034406509616301982 0 0.0045296357508187368 -0.0033079236474598248 0 0.0052387742585877101 -0.0030447404074066941 0 0.0052447904060803864 -0.0034406509616301982 0 0.0052387742585877101 -0.0030447404074066941 0 0.0054945201065230483 -0.0032312162314890244 0 0.0052447904060803864 -0.0034406509616301982 0 0.0056599737209616701 -0.0036281370287561099 0 0.0054945201065230483 -0.0032312162314890244 0 0.0046823615523692973 -0.0025394093455637359 0 0.0061952968930020129 -0.00026249723459995539 0 0.0058431282336077854 -0.0029540622967007195 0 0.0051034558295038109 -0.0025678215022375381 0 0.0052387742585877101 -0.0030447404074066941 0 0.0057144151679777893 0.0010443612658940326 0 0.0039511169442736924 0.00034578307685621703 0 0.0046442938186201819 0.0020679057387752468 0 0.0056734135002939065 0.0022219541324205246 0 0.0057144151679777893 0.0010443612658940326 0 0.0046442938186201819 0.0020679057387752468 0 0.0056734135002939065 0.0022219541324205246 0 0.0057144151679777893 0.0010443612658940326 0 0.0065861815279521663 0.0019451383588522464 0 0.0068166610716107277 0.0011630657828862684 0 0.0057144151679777893 0.0010443612658940326 0 0.0065861815279521663 0.0019451383588522464 0 0.0068166610716107277 0.0011630657828862684 0 0.0057144151679777893 0.0010443612658940326 0 0.0066333752445103464 0.000316065487557652 0 0.0050544945605433631 -0.0010584954825207484 0 0.0057144151679777893 0.0010443612658940326 0 0.0066333752445103464 0.000316065487557652 0 0.0050544945605433631 -0.0010584954825207484 0 0.0057144151679777893 0.0010443612658940326 0 0.0039511169442736924 0.00034578307685621703 0 0.0039511169442736924 0.00034578307685621703 0 0.0046442938186201819 0.0020679057387752468 0 0.003190541210582775 0.0020353588508064875 0 0.003190541210582775 0.0020353588508064875 0 0.0018526307577000809 0.00012254824245823561 0 0.0016157277994303099 0.0025726281399202577 0 0.0039511169442736924 0.00034578307685621703 0 0.003190541210582775 0.0020353588508064875 0 0.0018526307577000809 0.00012254824245823561 0 -0.0006204139416230521 -0.00097867779455209475 0 0.0018526307577000809 0.00012254824245823561 0 0.00013963506558250366 0.001730550113221095 0 0.0015771838555319899 0.0020199931381778501 0 0.0020893040295285581 0.0041038154718256543 0 0.0037910613783686126 0.005120431759987735 0 0.0040532051059051378 0.0065404872599198801 0 0.0030779047921173381 0.0060055265330622044 0 0.0040532051059051378 0.0065404872599198801 0 0.0030779047921173381 0.0060055265330622044 0 0.0032906024349118198 0.0071157149282038267 0 0.0018526307577000809 0.00012254824245823561 0 0.00013963506558250366 0.001730550113221095 0 0.0016157277994303099 0.0025726281399202577 0 0.0016157277994303099 0.0025726281399202577 0 0.00068995554524923586 0.0042240161946042977 0 0.0026067626964693187 0.0038718070500381794 0 0.0020893040295285581 0.0041038154718256543 0 0.0024607916048050506 0.0062343572964476618 0 0.00013963506558250366 0.001730550113221095 0 0.0016157277994303099 0.0025726281399202577 0 0.00068995554524923586 0.0042240161946042977 0 0.0040532051059051378 0.0065404872599198801 0 0.0042893237749310961 0.0079800977616745136 0 0.0032906024349118198 0.0071157149282038267 0 0.0042893237749310961 0.0079800977616745136 0 0.0032975470346243911 0.0080668195845847931 0 0.0034226191246101703 0.0090619029781323201 0 0.0042893237749310961 0.0079800977616745136 0 0.0032906024349118198 0.0071157149282038267 0 0.0032975470346243911 0.0080668195845847931 0 0.00068995554524923586 0.0042240161946042977 0 0.0026067626964693187 0.0038718070500381794 0 0.0027696362421641809 0.0058693475365264106 0 0.0026067626964693187 0.0038718070500381794 0 0.004587468803944973 0.0046441241764300601 0 0.0027696362421641809 0.0058693475365264106 0 0.0052957262419511143 0.0034056189966464195 0 0.004587468803944973 0.0046441241764300601 0 0.0040260378680217817 0.0032293726918800219 0 0.0026067626964693187 0.0038718070500381794 0 0.004587468803944973 0.0046441241764300601 0 0.0040260378680217817 0.0032293726918800219 0 0.0052957262419511143 0.0034056189966464195 0 0.0046442938186201819 0.0020679057387752468 0 0.0040260378680217817 0.0032293726918800219 0 0.0046442938186201819 0.0020679057387752468 0 0.003190541210582775 0.0020353588508064875 0 0.0040260378680217817 0.0032293726918800219 0 0.003190541210582775 0.0020353588508064875 0 0.0026067626964693187 0.0038718070500381794 0 0.0040260378680217817 0.0032293726918800219 0 0.003190541210582775 0.0020353588508064875 0 0.0016157277994303099 0.0025726281399202577 0 0.0026067626964693187 0.0038718070500381794 0 0.00062640771231947385 0.0089103843110952645 0 0.0010722148954053826 0.0089017996703265236 0 0.001170657583932726 0.010750130507461876 0 0.00082388593969173979 0.0065293286039852152 0 0.0010298718460057719 0.006757230236147601 0 0.00075691738958384681 0.0069485765704231286 0 0.00082388593969173979 0.0065293286039852152 0 0.00046325948872106475 0.0064025617980812749 0 0.00075691738958384681 0.0069485765704231286 0 0.00082388593969173979 0.0065293286039852152 0 0.00077211536517846492 0.0062213298106324 0 0.00046325948872106475 0.0064025617980812749 0 0.00077211536517846492 0.0062213298106324 0 0.00046325948872106475 0.0064025617980812749 0 0.00071854310536800759 0.0057151396947210361 0 0.00082388593969173979 0.0065293286039852152 0 0.00077211536517846492 0.0062213298106324 0 0.001081750389989382 0.0062418649887930073 0 0.00071824674485403714 0.0060157588472289341 0 0.00074246483722357657 0.0076186695561143436 0 0.00095833522142161601 0.0069386816337939543 0 0.00062640771231947385 0.0089103843110952645 0 0.0010722148954053826 0.0089017996703265236 0 0.00046403521091902228 0.0050580167339309319 0 0.00046325948872106475 0.0064025617980812749 0 0.00071854310536800759 0.0057151396947210361 0 0.0010558338929996436 0.0051755414183496237 0 0.00077278875162666624 0.0051732667700123422 0 0.00071854310536800759 0.0057151396947210361 0 0.00077278875162666624 0.0051732667700123422 0 0.00046403521091902228 0.0050580167339309319 0 0.00071854310536800759 0.0057151396947210361 0 0.00077211536517846492 0.0062213298106324 0 0.00071854310536800759 0.0057151396947210361 0 0.001081750389989382 0.0062418649887930073 0 0.00071854310536800759 0.0057151396947210361 0 0.0014036604803303577 0.0056680093312221754 0 0.001081750389989382 0.0062418649887930073 0 0.0010558338929996436 0.0051755414183496237 0 0.00071854310536800759 0.0057151396947210361 0 0.0014036604803303577 0.0056680093312221754 0 0.0016258783231241185 0.0050215539486048177 0 0.0010558338929996436 0.0051755414183496237 0 0.0014036604803303577 0.0056680093312221754 0 0.0016258783231241185 0.0050215539486048177 0 0.0014036604803303577 0.0056680093312221754 0 0.0021661299239836064 0.0056317323491872281 0 0.0014036604803303577 0.0056680093312221754 0 0.0017318534416429609 0.0063254217122332224 0 0.0021661299239836064 0.0056317323491872281 0 0.0017318534416429609 0.0063254217122332224 0 0.001081750389989382 0.0062418649887930073 0 0.0013748377284190213 0.0068290597075052698 0 0.0014036604803303577 0.0056680093312221754 0 0.0017318534416429609 0.0063254217122332224 0 0.001081750389989382 0.0062418649887930073 0 0.00082388593969173979 0.0065293286039852152 0 0.001081750389989382 0.0062418649887930073 0 0.0010298718460057719 0.006757230236147601 0 0.001081750389989382 0.0062418649887930073 0 0.0013748377284190213 0.0068290597075052698 0 0.0010298718460057719 0.006757230236147601 0 0.0017318534416429609 0.0063254217122332224 0 0.0013748377284190213 0.0068290597075052698 0 0.0019405061372961042 0.0070918730370565378 0 0.0017318534416429609 0.0063254217122332224 0 0.002464958646009336 0.0065859844256166153 0 0.0021661299239836064 0.0056317323491872281 0 0.0017318534416429609 0.0063254217122332224 0 0.002464958646009336 0.0065859844256166153 0 0.0019405061372961042 0.0070918730370565378 0 0.0028331476659895446 0.0051890365607129155 0 0.0037910613783686126 0.005120431759987735 0 0.0030779047921173381 0.0060055265330622044 0 0.0028331476659895446 0.0051890365607129155 0 0.0021661299239836064 0.0056317323491872281 0 0.0030779047921173381 0.0060055265330622044 0 0.002464958646009336 0.0065859844256166153 0 0.0030779047921173381 0.0060055265330622044 0 0.0032906024349118198 0.0071157149282038267 0 0.002464958646009336 0.0065859844256166153 0 0.0021661299239836064 0.0056317323491872281 0 0.0030779047921173381 0.0060055265330622044 0 0.002464958646009336 0.0065859844256166153 0 0.0032906024349118198 0.0071157149282038267 0 0.002567268717575095 0.0075191234374214948 0 0.0032906024349118198 0.0071157149282038267 0 0.0032975470346243911 0.0080668195845847931 0 0.002567268717575095 0.0075191234374214948 0 0.0032975470346243911 0.0080668195845847931 0 0.0024282374273254625 0.0084993481723763028 0 0.002567268717575095 0.0075191234374214948 0 0.0024282374273254625 0.0084993481723763028 0 0.0019940105188982517 0.0077771965132764484 0 0.002567268717575095 0.0075191234374214948 0 0.0024282374273254625 0.0084993481723763028 0 0.0019940105188982517 0.0077771965132764484 0 0.001529732054927425 0.0082033837131308702 0 0.0019940105188982517 0.0077771965132764484 0 0.0019405061372961042 0.0070918730370565378 0 0.0015100680025746586 0.0074688350838809613 0 0.0019940105188982517 0.0077771965132764484 0 0.002567268717575095 0.0075191234374214948 0 0.0019405061372961042 0.0070918730370565378 0 0.002464958646009336 0.0065859844256166153 0 0.002567268717575095 0.0075191234374214948 0 0.0019405061372961042 0.0070918730370565378 0 0.0013748377284190213 0.0068290597075052698 0 0.0019405061372961042 0.0070918730370565378 0 0.0015100680025746586 0.0074688350838809613 0 0.0013748377284190213 0.0068290597075052698 0 0.0011114073474517653 0.0072408720494152694 0 0.0015100680025746586 0.0074688350838809613 0 0.0013748377284190213 0.0068290597075052698 0 0.0010298718460057719 0.006757230236147601 0 0.0011114073474517653 0.0072408720494152694 0 0.0011114073474517653 0.0072408720494152694 0 0.0015100680025746586 0.0074688350838809613 0 0.0011168905320445863 0.0077379135447116151 0 0.0011114073474517653 0.0072408720494152694 0 0.0011168905320445863 0.0077379135447116151 0 0.0007821307590701826 0.0075772649819781475 0 0.0015100680025746586 0.0074688350838809613 0 0.001529732054927425 0.0082033837131308702 0 0.0011168905320445863 0.0077379135447116151 0 0.0019940105188982517 0.0077771965132764484 0 0.0015100680025746586 0.0074688350838809613 0 0.001529732054927425 0.0082033837131308702 0 0.001529732054927425 0.0082033837131308702 0 0.0010088805860505451 0.0081180973005366367 0 0.0010502929582440338 0.0085841452070559258 0 0.001529732054927425 0.0082033837131308702 0 0.0010088805860505451 0.0081180973005366367 0 0.0011168905320445863 0.0077379135447116151 0 0.0010088805860505451 0.0081180973005366367 0 0.0011168905320445863 0.0077379135447116151 0 0.000795278880516753 0.0078995074017496805 0 0.000795278880516753 0.0078995074017496805 0 0.00055024322851611408 0.0082820333160421658 0 0.0005134451094827452 0.0077834969843963821 0 0.0010088805860505451 0.0081180973005366367 0 0.000795278880516753 0.0078995074017496805 0 0.00055024322851611408 0.0082820333160421658 0 0.0017223061594515601 0.01118439809533036 0 0.001076992579320244 0.011556136155867959 0 0.00055024322851611408 0.0082820333160421658 0 0.00039545726548620707 0.0079158367899883914 0 0.00061393963695785092 0.0091414699377132223 0 0.0017869831162985357 0.014121110169991622 0 0.0017546485553230204 0.014193967023462969 0 0.0016803338664296986 0.014065056917091865 0 0.0011168905320445863 0.0077379135447116151 0 0.000795278880516753 0.0078995074017496805 0 0.0007821307590701826 0.0075772649819781475 0 0.000795278880516753 0.0078995074017496805 0 0.0005134451094827452 0.0077834969843963821 0 0.0007821307590701826 0.0075772649819781475 0 0.0010088805860505451 0.0081180973005366367 0 0.00055024322851611408 0.0082820333160421658 0 0.0010502929582440338 0.0085841452070559258 0 0.00055024322851611408 0.0082820333160421658 0 0.00039545726548620707 0.0079158367899883914 0 0.0005270921912633224 0.0078207696304165662 0 0.00075758775029849108 0.0080697656600789702 0 0.0010703595867090417 0.0094162872447783666 0 0.0017223061594515601 0.01118439809533036 0 0.0010703595867090417 0.0094162872447783666 0 0.0023284380037487513 0.010565769684273784 0 0.0017223061594515601 0.01118439809533036 0 0.00074246483722357657 0.0076186695561143436 0 0.0010703595867090417 0.0094162872447783666 0 0.00062640771231947385 0.0089103843110952645 0 0.00098933934753368878 0.010887468379240579 0 0.001170657583932726 0.010750130507461876 0 0.00046325948872106475 0.0064025617980812749 0 0.00051151224129416433 0.0077813218850369152 0 0.00075691738958384681 0.0069485765704231286 0 0.00051151224129416433 0.0077813218850369152 0 0.00079155338254459156 0.0073869055463654902 0 0.00075691738958384681 0.0069485765704231286 0 0.00051151224129416433 0.0077813218850369152 0 0.0007821307590701826 0.0075772649819781475 0 0.00079155338254459156 0.0073869055463654902 0 0.0010703595867090417 0.0094162872447783666 0 0.0012289984199458086 0.008658017634083021 0 0.0011114073474517653 0.0072408720494152694 0 0.0007821307590701826 0.0075772649819781475 0 0.00079155338254459156 0.0073869055463654902 0 0.0010298718460057719 0.006757230236147601 0 0.0011114073474517653 0.0072408720494152694 0 0.00075691738958384681 0.0069485765704231286 0 0.0011114073474517653 0.0072408720494152694 0 0.00079155338254459156 0.0073869055463654902 0 0.00075691738958384681 0.0069485765704231286 0 0.0018295109273798369 0.014064278462660671 0 0.0016803338664296986 0.014065056917091865 0 0.0015350472417594485 0.01379978431447716 0 0.001076992579320244 0.011556136155867959 0 0.0012425769752380286 0.012122391244306831 0 0.0017869831162985357 0.014121110169991622 0 0.0018295109273798369 0.014064278462660671 0 0.0016803338664296986 0.014065056917091865 0 0.00055024322851611408 0.0082820333160421658 0 0.00061393963695785092 0.0091414699377132223 0 0.0010502929582440338 0.0085841452070559258 0 0.00061393963695785092 0.0091414699377132223 0 0.0015892911774777251 0.0092156485980719929 0 0.0010502929582440338 0.0085841452070559258 0 0.001529732054927425 0.0082033837131308702 0 0.0015892911774777251 0.0092156485980719929 0 0.0010502929582440338 0.0085841452070559258 0 0.0015892911774777251 0.0092156485980719929 0 0.0020264025016079267 0.010095250233970116 0 0.00089813978880059608 0.010444511413869826 0 0.00061393963695785092 0.0091414699377132223 0 0.0015892911774777251 0.0092156485980719929 0 0.00089813978880059608 0.010444511413869826 0 0.0015892911774777251 0.0092156485980719929 0 0.0025383104018098642 0.0094290268298792401 0 0.0020264025016079267 0.010095250233970116 0 0.0024282374273254625 0.0084993481723763028 0 0.001529732054927425 0.0082033837131308702 0 0.0015892911774777251 0.0092156485980719929 0 0.0024282374273254625 0.0084993481723763028 0 0.0015892911774777251 0.0092156485980719929 0 0.0025383104018098642 0.0094290268298792401 0 0.0032975470346243911 0.0080668195845847931 0 0.0024282374273254625 0.0084993481723763028 0 0.0034226191246101703 0.0090619029781323201 0 0.0024282374273254625 0.0084993481723763028 0 0.0025383104018098642 0.0094290268298792401 0 0.0034226191246101703 0.0090619029781323201 0 0.0025383104018098642 0.0094290268298792401 0 0.0032817929017794128 0.010203844805139955 0 0.0034226191246101703 0.0090619029781323201 0 0.0025383104018098642 0.0094290268298792401 0 0.0020264025016079267 0.010095250233970116 0 0.0032817929017794128 0.010203844805139955 0 0.0032220047478444241 0.0095031556308119245 0 0.0020957148255882903 0.010711253525977932 0 0.0026829797626603952 0.008646158494516035 0 0.0026748167437520842 0.010618356795438459 0 0.002103007306784371 0.010912318863205381 0 0.0026748167437520842 0.010618356795438459 0 0.002103007306784371 0.010912318863205381 0 0.0019716884989718782 0.011827010183806492 0 0.0020264025016079267 0.010095250233970116 0 0.0032817929017794128 0.010203844805139955 0 0.002103007306784371 0.010912318863205381 0 0.0020264025016079267 0.010095250233970116 0 0.002103007306784371 0.010912318863205381 0 0.00089813978880059608 0.010444511413869826 0 0.002103007306784371 0.010912318863205381 0 0.001416546887787455 0.01245408470794541 0 0.0019716884989718782 0.011827010183806492 0 0.002103007306784371 0.010912318863205381 0 0.001416546887787455 0.01245408470794541 0 0.00089813978880059608 0.010444511413869826 0 0.0019435647893967672 0.013604338728365339 0 0.0019333233267489485 0.013633832393699452 0 0.001416546887787455 0.01245408470794541 0 0.0019435647893967672 0.013604338728365339 0 0.001416546887787455 0.01245408470794541 0 0.0015350472417594485 0.01379978431447716 0 0.0013782778477920349 0.012431693861596352 0 0.0012425769752380286 0.012122391244306831 0 0.0047184638656392209 0.0063919804188395327 0 0.0042205556060785016 0.00687562535751158 0 0.0042777544507465268 0.0056844692883074362 0 0.0042205556060785016 0.00687562535751158 0 0.0042777544507465268 0.0056844692883074362 0 0.0034912598255936616 0.0066053990859614078 0 0.0042205556060785016 0.00687562535751158 0 0.0046821647422627139 0.007222942022898928 0 0.0042035385457144239 0.0078121266878728559 0 0.0047184638656392209 0.0063919804188395327 0 0.0042205556060785016 0.00687562535751158 0 0.0046821647422627139 0.007222942022898928 0 0.0047184638656392209 0.0063919804188395327 0 0.0046821647422627139 0.007222942022898928 0 0.005336487327545548 0.0066640417132316169 0 0.0059953057362019226 0.0064148861236480812 0 0.005336487327545548 0.0066640417132316169 0 0.0050098017983140879 0.0057019285352800653 0 0.0047184638656392209 0.0063919804188395327 0 0.005336487327545548 0.0066640417132316169 0 0.0050098017983140879 0.0057019285352800653 0 0.0045774931609418286 0.0047824844535137561 0 0.0034992408205277467 0.0057077477531713577 0 0.0047184638656392209 0.0063919804188395327 0 0.0050098017983140879 0.0057019285352800653 0 0.0042777544507465268 0.0056844692883074362 0 0.004587468803944973 0.0046441241764300601 0 0.0050098017983140879 0.0057019285352800653 0 0.0042777544507465268 0.0056844692883074362 0 0.0055842315571827585 0.004775278773580794 0 0.004587468803944973 0.0046441241764300601 0 0.0050098017983140879 0.0057019285352800653 0 0.0034992408205277467 0.0057077477531713577 0 0.0030891191914480167 0.007542896066604925 0 0.00068995554524923586 0.0042240161946042977 0 0.0027696362421641809 0.0058693475365264106 0 0.0011590753800454722 0.006931563365222786 0 0.0024607916048050506 0.0062343572964476618 0 0.0030891191914480167 0.007542896066604925 0 0.0042893237749310961 0.0079800977616745136 0 0.0034226191246101703 0.0090619029781323201 0 0.0045081092729865107 0.0093948308471172148 0 0.0026829797626603952 0.008646158494516035 0 0.0036642163703849324 0.0070236254237425588 0 0.0037489934922294299 0.0075290831578570146 0 0.0032817929017794128 0.010203844805139955 0 0.0034226191246101703 0.0090619029781323201 0 0.0045081092729865107 0.0093948308471172148 0 0.0032220047478444241 0.0095031556308119245 0 0.0030891191914480167 0.007542896066604925 0 0.0030891191914480167 0.007542896066604925 0 0.0034482986794455704 0.0072999999759382501 0 0.0042205556060785016 0.00687562535751158 0 0.0034912598255936616 0.0066053990859614078 0 0.0037489934922294299 0.0075290831578570146 0 0.0042205556060785016 0.00687562535751158 0 0.0037489934922294299 0.0075290831578570146 0 0.0042035385457144239 0.0078121266878728559 0 0.0037489934922294299 0.0075290831578570146 0 0.0036082141334056765 0.0087773936959947424 0 0.0042035385457144239 0.0078121266878728559 0 0.0036082141334056765 0.0087773936959947424 0 0.0044401243434140855 0.0083300500764238901 0 0.0042035385457144239 0.0078121266878728559 0 0.0026829797626603952 0.008646158494516035 0 0.0026748167437520842 0.010618356795438459 0 0.0036082141334056765 0.0087773936959947424 0 0.0026829797626603952 0.008646158494516035 0 0.0037489934922294299 0.0075290831578570146 0 0.0036082141334056765 0.0087773936959947424 0 0.0026748167437520842 0.010618356795438459 0 0.0036082141334056765 0.0087773936959947424 0 0.0039139877468923629 0.0096530107899128487 0 0.0036082141334056765 0.0087773936959947424 0 0.0044401243434140855 0.0083300500764238901 0 0.0039139877468923629 0.0096530107899128487 0 0.0049951930355424971 0.0085808698624066215 0 0.0044401243434140855 0.0083300500764238901 0 0.0039139877468923629 0.0096530107899128487 0 0.0049951930355424971 0.0085808698624066215 0 0.0050657819050094139 0.0092627459521791751 0 0.0039139877468923629 0.0096530107899128487 0 0.0049951930355424971 0.0085808698624066215 0 0.0044401243434140855 0.0083300500764238901 0 0.005237360366085215 0.0076837865978827136 0 0.0046821647422627139 0.007222942022898928 0 0.0044401243434140855 0.0083300500764238901 0 0.0042035385457144239 0.0078121266878728559 0 0.0046821647422627139 0.007222942022898928 0 0.0044401243434140855 0.0083300500764238901 0 0.005237360366085215 0.0076837865978827136 0 0.0046821647422627139 0.007222942022898928 0 0.005336487327545548 0.0066640417132316169 0 0.005237360366085215 0.0076837865978827136 0 0.006040750937031227 0.0072304592872736882 0 0.005336487327545548 0.0066640417132316169 0 0.005237360366085215 0.0076837865978827136 0 0.006040750937031227 0.0072304592872736882 0 0.005237360366085215 0.0076837865978827136 0 0.0057680217153123084 0.0080907871012623513 0 0.0049951930355424971 0.0085808698624066215 0 0.005237360366085215 0.0076837865978827136 0 0.0057680217153123084 0.0080907871012623513 0 0.0049951930355424971 0.0085808698624066215 0 0.0057680217153123084 0.0080907871012623513 0 0.0050657819050094139 0.0092627459521791751 0 0.0057680217153123084 0.0080907871012623513 0 0.0050657819050094139 0.0092627459521791751 0 0.0063032839116332479 0.0084680077394712529 0 0.0054776185041560841 0.009613061545928895 0 0.0050657819050094139 0.0092627459521791751 0 0.0063032839116332479 0.0084680077394712529 0 0.0054776185041560841 0.009613061545928895 0 0.0058435866649685737 0.010246913174942088 0 0.0063032839116332479 0.0084680077394712529 0 0.0079321876257445953 0.0071698768506409851 0 0.0079139132704798016 0.0078916324316614904 0 0.0077585844283069357 0.0070322961474479743 0 0.0054776185041560841 0.009613061545928895 0 0.0058435866649685737 0.010246913174942088 0 0.0047848180548202444 0.010458219404522214 0 0.0058435866649685737 0.010246913174942088 0 0.0047848180548202444 0.010458219404522214 0 0.0041832968880413492 0.011654493531922496 0 0.0047848180548202444 0.010458219404522214 0 0.0040715116273596641 0.010483921862332636 0 0.0041832968880413492 0.011654493531922496 0 0.0067932814197519129 0.0087060380428719674 0 0.0047886938874735618 0.010230238810092367 0 0.0054776185041560841 0.009613061545928895 0 0.0047848180548202444 0.010458219404522214 0 0.0050657819050094139 0.0092627459521791751 0 0.0047848180548202444 0.010458219404522214 0 0.0050657819050094139 0.0092627459521791751 0 0.0040715116273596641 0.010483921862332636 0 0.0050657819050094139 0.0092627459521791751 0 0.0039139877468923629 0.0096530107899128487 0 0.0040715116273596641 0.010483921862332636 0 0.0039139877468923629 0.0096530107899128487 0 0.0031554222493444923 0.011236895248000728 0 0.0040715116273596641 0.010483921862332636 0 0.0026748167437520842 0.010618356795438459 0 0.0039139877468923629 0.0096530107899128487 0 0.0031554222493444923 0.011236895248000728 0 0.0031554222493444923 0.011236895248000728 0 0.0040715116273596641 0.010483921862332636 0 0.0041832968880413492 0.011654493531922496 0 0.0053281485642236595 0.0088242369311301427 0 0.0031920515824869298 0.01068774919580402 0 0.0051446754607946581 0.01098320250576231 0 0.0047886938874735618 0.010230238810092367 0 0.0030610714468783701 0.011583644321865183 0 0.0031554222493444923 0.011236895248000728 0 0.0041832968880413492 0.011654493531922496 0 0.0028347978856947775 0.012515650468622351 0 0.0031920515824869298 0.01068774919580402 0 0.0027695978323452387 0.012208381749038461 0 0.0038910361212070614 0.012345930324742467 0 0.0031920515824869298 0.01068774919580402 0 0.0051446754607946581 0.01098320250576231 0 0.0038910361212070614 0.012345930324742467 0 0.0051446754607946581 0.01098320250576231 0 0.0065856522211144193 0.0092444608527264566 0 0.0066387602219225633 0.011662530229961363 0 0.0076456523323391772 0.010418720150278138 0 0.0065856522211144193 0.0092444608527264566 0 0.0066387602219225633 0.011662530229961363 0 0.0076456523323391772 0.010418720150278138 0 0.0079621882653889177 0.012106715209178689 0 0.0093146502740048126 0.01013590219954336 0 0.0076456523323391772 0.010418720150278138 0 0.0079621882653889177 0.012106715209178689 0 0.0066387602219225633 0.011662530229961363 0 0.0079321876257445953 0.0071698768506409851 0 0.0079139132704798016 0.0078916324316614904 0 0.0065856522211144193 0.0092444608527264566 0 0.0076456523323391772 0.010418720150278138 0 0.0079139132704798016 0.0078916324316614904 0 0.0093146502740048126 0.01013590219954336 0 0.0076456523323391772 0.010418720150278138 0 0.0079139132704798016 0.0078916324316614904 0 0.0065856522211144193 0.0092444608527264566 0 0.0053281485642236595 0.0088242369311301427 0 0.0051446754607946581 0.01098320250576231 0 0.0065856522211144193 0.0092444608527264566 0 0.0079321876257445953 0.0071698768506409851 0 0.0053281485642236595 0.0088242369311301427 0 0.0065856522211144193 0.0092444608527264566 0 0.0019333233267489485 0.013633832393699452 0 0.0017550694253105231 0.01280256849741397 0 0.0019556957434536584 0.013598718138847245 0 0.0019333233267489485 0.013633832393699452 0 0.001416546887787455 0.01245408470794541 0 0.0017550694253105231 0.01280256849741397 0 0.001416546887787455 0.01245408470794541 0 0.0017550694253105231 0.01280256849741397 0 0.0019716884989718782 0.011827010183806492 0 0.0017550694253105231 0.01280256849741397 0 0.0021164123941261421 0.012064767476845093 0 0.0018474209650970912 0.012950460590812306 0 0.0017550694253105231 0.01280256849741397 0 0.0018474209650970912 0.012950460590812306 0 0.0019556957434536584 0.013598718138847245 0 0.0017550694253105231 0.01280256849741397 0 0.0021164123941261421 0.012064767476845093 0 0.0019716884989718782 0.011827010183806492 0 0.0026748167437520842 0.010618356795438459 0 0.0021164123941261421 0.012064767476845093 0 0.0019716884989718782 0.011827010183806492 0 0.0026748167437520842 0.010618356795438459 0 0.0031554222493444923 0.011236895248000728 0 0.0021164123941261421 0.012064767476845093 0 0.0031554222493444923 0.011236895248000728 0 0.0021164123941261421 0.012064767476845093 0 0.0021711291252468888 0.01245918878267056 0 0.0031554222493444923 0.011236895248000728 0 0.0028347978856947775 0.012515650468622351 0 0.0021711291252468888 0.01245918878267056 0 0.0028347978856947775 0.012515650468622351 0 0.0021711291252468888 0.01245918878267056 0 0.0019578296490380797 0.012566986224400282 0 0.0031920515824869298 0.01068774919580402 0 0.0027695978323452387 0.012208381749038461 0 0.0019578296490380797 0.012566986224400282 0 0.0030610714468783701 0.011583644321865183 0 0.0020567802076385069 0.012439986439234711 0 0.0021711291252468888 0.01245918878267056 0 0.0019578296490380797 0.012566986224400282 0 0.0018791192471562777 0.012847445288896956 0 0.0019578296490380797 0.012566986224400282 0 0.0018791192471562777 0.012847445288896956 0 0.0018222064697005344 0.012807054646860185 0 0.0021711291252468888 0.01245918878267056 0 0.0018474209650970912 0.012950460590812306 0 0.0018791192471562777 0.012847445288896956 0 0.0021164123941261421 0.012064767476845093 0 0.0021711291252468888 0.01245918878267056 0 0.0018474209650970912 0.012950460590812306 0 0.0018791192471562777 0.012847445288896956 0 0.0019429808021107701 0.013302217399759415 0 0.0018222064697005344 0.012807054646860185 0 0.0018474209650970912 0.012950460590812306 0 0.0018791192471562777 0.012847445288896956 0 0.0019429808021107701 0.013302217399759415 0 0.002440230468823227 0.014409271974799669 0 0.0026147594915787642 0.014196146282899931 0 0.0018474209650970912 0.012950460590812306 0 0.0019429808021107701 0.013302217399759415 0 0.0019556957434536584 0.013598718138847245 0 0.0027344744871787147 0.016112601374358819 0 0.0030623618929375013 0.015478794657702265 0 0.0031390149837988469 0.0158515863131761 0 0.0027344744871787147 0.016112601374358819 0 0.0029834289090918528 0.016204238476157956 0 0.0031390149837988469 0.0158515863131761 0 0.0030623618929375013 0.015478794657702265 0 0.0031390149837988469 0.0158515863131761 0 0.0033871794430355845 0.01558102618140531 0 0.0031390149837988469 0.0158515863131761 0 0.0033871794430355845 0.01558102618140531 0 0.0033388106471628327 0.015809328830205558 0 0.0029834289090918528 0.016204238476157956 0 0.0033388106471628327 0.015809328830205558 0 0.0030397729322945424 0.016312225352467208 0 0.0029834289090918528 0.016204238476157956 0 0.0031390149837988469 0.0158515863131761 0 0.0033388106471628327 0.015809328830205558 0 0.0033388106471628327 0.015809328830205558 0 0.0037830483105229999 0.015204100458266579 0 0.0037390466065409769 0.015561361575152132 0 0.0033871794430355845 0.01558102618140531 0 0.0033388106471628327 0.015809328830205558 0 0.0037830483105229999 0.015204100458266579 0 0.0026147594915787642 0.014196146282899931 0 0.0031740129805098529 0.014196161828575618 0 0.0019578296490380797 0.012566986224400282 0 0.0018222064697005344 0.012807054646860185 0 0.0023895957140655155 0.013153221145890046 0 0.0027695978323452387 0.012208381749038461 0 0.0019578296490380797 0.012566986224400282 0 0.0023895957140655155 0.013153221145890046 0 0.0027695978323452387 0.012208381749038461 0 0.0023895957140655155 0.013153221145890046 0 0.0038910361212070614 0.012345930324742467 0 0.0037830483105229999 0.015204100458266579 0 0.0037390466065409769 0.015561361575152132 0 0.0044705843392774834 0.014416484734761332 0 0.0037390466065409769 0.015561361575152132 0 0.0039709093859575505 0.016130278312718734 0 0.0044943754785282926 0.015594094958141663 0 0.003627549695692863 0.01661983047263061 0 0.0039709093859575505 0.016130278312718734 0 0.0035841022780433124 0.016081791428667162 0 0.0037390466065409769 0.015561361575152132 0 0.0039709093859575505 0.016130278312718734 0 0.0035841022780433124 0.016081791428667162 0 0.0033588944238684528 0.016394797385455337 0 0.0035841022780433124 0.016081791428667162 0 0.0033256974925547069 0.016084163099754561 0 0.003627549695692863 0.01661983047263061 0 0.0033588944238684528 0.016394797385455337 0 0.0035841022780433124 0.016081791428667162 0 0.0033388106471628327 0.015809328830205558 0 0.0037390466065409769 0.015561361575152132 0 0.0033256974925547069 0.016084163099754561 0 0.0037390466065409769 0.015561361575152132 0 0.0035841022780433124 0.016081791428667162 0 0.0033256974925547069 0.016084163099754561 0 0.0033388106471628327 0.015809328830205558 0 0.0033256974925547069 0.016084163099754561 0 0.0030397729322945424 0.016312225352467208 0 0.0033256974925547069 0.016084163099754561 0 0.0031424383960932862 0.016376312691701641 0 0.0030397729322945424 0.016312225352467208 0 0.0031579983981792144 0.016643565399487609 0 0.0031424383960932862 0.016376312691701641 0 0.0029073653291514174 0.016501993428938089 0 0.0031579983981792144 0.016643565399487609 0 0.0033588944238684528 0.016394797385455337 0 0.0031424383960932862 0.016376312691701641 0 0.0033588944238684528 0.016394797385455337 0 0.0033256974925547069 0.016084163099754561 0 0.0031424383960932862 0.016376312691701641 0 0.0031424383960932862 0.016376312691701641 0 0.0029073653291514174 0.016501993428938089 0 0.0030397729322945424 0.016312225352467208 0 0.0024891315532873442 0.016959566075218452 0 0.0029073653291514174 0.016501993428938089 0 0.0030397729322945424 0.016312225352467208 0 0.0024891315532873442 0.016959566075218452 0 0.0029834289090918528 0.016204238476157956 0 0.0030397729322945424 0.016312225352467208 0 0.0068595683303445841 0.013701577434908265 0 0.0056384697877538761 0.012970831113696566 0 0.0055943976953933532 0.014883037680830376 0 0.0068595683303445841 0.013701577434908265 0 0.0075045198188279233 0.014492845955356042 0 0.0081763643275593791 0.013827450675232736 0 0.0068595683303445841 0.013701577434908265 0 0.0079621882653889177 0.012106715209178689 0 0.0081763643275593791 0.013827450675232736 0 0.0068595683303445841 0.013701577434908265 0 0.0079621882653889177 0.012106715209178689 0 0.0066387602219225633 0.011662530229961363 0 0.0051446754607946581 0.01098320250576231 0 0.0056384697877538761 0.012970831113696566 0 0.0066387602219225633 0.011662530229961363 0 0.0068595683303445841 0.013701577434908265 0 0.0056384697877538761 0.012970831113696566 0 0.0066387602219225633 0.011662530229961363 0 0.0056384697877538761 0.012970831113696566 0 0.0038910361212070614 0.012345930324742467 0 0.0044705843392774834 0.014416484734761332 0 0.0051446754607946581 0.01098320250576231 0 0.0056384697877538761 0.012970831113696566 0 0.0038910361212070614 0.012345930324742467 0 0.0023895957140655155 0.013153221145890046 0 0.0038910361212070614 0.012345930324742467 0 0.0044705843392774834 0.014416484734761332 0 0.0031740129805098529 0.014196161828575618 0 0.0044232929681932952 0.014470800422419104 0 0.0056384697877538761 0.012970831113696566 0 0.0044705843392774834 0.014416484734761332 0 0.0055943976953933532 0.014883037680830376 0 0.0055943976953933532 0.014883037680830376 0 0.0044943754785282926 0.015594094958141663 0 0.0053140322780288185 0.015869800660589451 0 0.0044705843392774834 0.014416484734761332 0 0.0055943976953933532 0.014883037680830376 0 0.0044943754785282926 0.015594094958141663 0 0.0037390466065409769 0.015561361575152132 0 0.0044705843392774834 0.014416484734761332 0 0.0044943754785282926 0.015594094958141663 0 0.0046303348805212087 0.01655572158535985 0 0.0039709093859575505 0.016130278312718734 0 0.0044943754785282926 0.015594094958141663 0 0.0046303348805212087 0.01655572158535985 0 0.0044943754785282926 0.015594094958141663 0 0.0053140322780288185 0.015869800660589451 0 0.0055943976953933532 0.014883037680830376 0 0.0053140322780288185 0.015869800660589451 0 0.0061403871111704962 0.015912294130576984 0 0.0053585887089784854 0.016553870381704031 0 0.0053140322780288185 0.015869800660589451 0 0.0061403871111704962 0.015912294130576984 0 0.0061403871111704962 0.015912294130576984 0 0.0066498857397210565 0.014849660853751162 0 0.007149409655275071 0.015246101637250976 0 0.0068595683303445841 0.013701577434908265 0 0.0055943976953933532 0.014883037680830376 0 0.0066498857397210565 0.014849660853751162 0 0.0055943976953933532 0.014883037680830376 0 0.0061403871111704962 0.015912294130576984 0 0.0066498857397210565 0.014849660853751162 0 0.0068595683303445841 0.013701577434908265 0 0.0066498857397210565 0.014849660853751162 0 0.0075045198188279233 0.014492845955356042 0 0.0075045198188279233 0.014492845955356042 0 0.007149409655275071 0.015246101637250976 0 0.0082534795579703342 0.014745213705862086 0 0.0066498857397210565 0.014849660853751162 0 0.0075045198188279233 0.014492845955356042 0 0.007149409655275071 0.015246101637250976 0 0.0084713933852252517 0.013057937524789572 0 0.0083849504023459209 0.013220100204420934 0 0.0070944787511464562 0.016284404168268124 0 0.007149409655275071 0.015246101637250976 0 0.0082534795579703342 0.014745213705862086 0 0.0070944787511464562 0.016284404168268124 0 0.0061403871111704962 0.015912294130576984 0 0.007149409655275071 0.015246101637250976 0 0.0098211902825939539 0.0099279037395199159 0 0.008475541706235613 0.0099088144003089337 0 0.0087117998403008576 0.011587151821084307 0 0.008475541706235613 0.0099088144003089337 0 0.0071846663861612993 0.010805225982560047 0 0.0087117998403008576 0.011587151821084307 0 0.0071846663861612993 0.010805225982560047 0 0.0076936488073294767 0.012225121411728424 0 0.0087117998403008576 0.011587151821084307 0 0.0083849504023459209 0.013220100204420934 0 0.0077226395088036675 0.013676071691223278 0 0.0082534795579703342 0.014745213705862086 0 0.008073019324773419 0.013819602639147315 0 0.007703436552935196 0.013610401005827416 0 0.0076936488073294767 0.012225121411728424 0 0.0087117998403008576 0.011587151821084307 0 0.007703436552935196 0.013610401005827416 0 0.0071846663861612993 0.010805225982560047 0 0.0076936488073294767 0.012225121411728424 0 0.0068947100986350499 0.013597282298955134 0 0.0075285367360632613 0.0038077181999151151 0 0.0087435317570442091 0.0070065155044240629 0 0.0076936488073294767 0.012225121411728424 0 0.007703436552935196 0.013610401005827416 0 0.0068947100986350499 0.013597282298955134 0 0.0082534795579703342 0.014745213705862086 0 0.0081763643275593791 0.013827450675232736 0 0.008073019324773419 0.013819602639147315 0 0.0075045198188279233 0.014492845955356042 0 0.0082534795579703342 0.014745213705862086 0 0.0081763643275593791 0.013827450675232736 0 0.0081763643275593791 0.013827450675232736 0 0.0099979372143047425 0.013852629685028203 0 0.0093209055428065211 0.012553323172675252 0 0.0082576234909292334 0.013810909559197478 0 0.0091123857571336776 0.013663270295635157 0 0.008073019324773419 0.013819602639147315 0 0.007703436552935196 0.013610401005827416 0 0.0068947100986350499 0.013597282298955134 0 0.0099979372143047425 0.013852629685028203 0 0.010624157434861538 0.012970094726291051 0 0.011528209965266304 0.013831548390450898 0 0.0091123857571336776 0.013663270295635157 0 0.0087435317570442091 0.0070065155044240629 0 0.0099979372143047425 0.013852629685028203 0 0.010624157434861538 0.012970094726291051 0 0.0093209055428065211 0.012553323172675252 0 0.010624157434861538 0.012970094726291051 0 0.010438839551836502 0.011604917052063519 0 0.0093209055428065211 0.012553323172675252 0 0.0092919923586114086 0.0094124440500004316 0 0.0096491419165317151 0.0041771535230499951 0 0.010624157434861538 0.012970094726291051 0 0.010438839551836502 0.011604917052063519 0 0.011784358956838607 0.01299312385543433 0 0.0079621882653889177 0.012106715209178689 0 0.0093209055428065211 0.012553323172675252 0 0.0093146502740048126 0.01013590219954336 0 0.0079621882653889177 0.012106715209178689 0 0.0081763643275593791 0.013827450675232736 0 0.0093209055428065211 0.012553323172675252 0 0.010438839551836502 0.011604917052063519 0 0.0093209055428065211 0.012553323172675252 0 0.0093146502740048126 0.01013590219954336 0 0.0066947987286946993 -0.0036767894702673756 0 0.0090913122638136817 -0.0043668077929939876 0 0.010048941568585022 -0.00066883944055380661 0 0.0073670766131611913 0.0058608341909985691 0 0.0074806826442067702 0.0059310052084332798 0 0.0075071069255144268 0.0058002710310803667 0 0.0096491419165317151 0.0041771535230499951 0 0.0088301191150272646 0.0018518360718592481 0 0.0090913122638136817 -0.0043668077929939876 0 0.01135535701967863 -0.0049794857530112502 0 0.010048941568585022 -0.00066883944055380661 0 0.0090913122638136817 -0.0043668077929939876 0 0.01135535701967863 -0.0049794857530112502 0 0.0094140834908793009 -0.0068711588057633775 0 0.0096491419165317151 0.0041771535230499951 0 0.008226933287827436 -0.0031551874607583801 0 0.0096491419165317151 0.0041771535230499951 0 0.0087435317570442091 0.0070065155044240629 0 0.010624157434861538 0.012970094726291051 0 0.011784358956838607 0.01299312385543433 0 0.011528209965266304 0.013831548390450898 0 0.0087435317570442091 0.0070065155044240629 0 0.008226933287827436 -0.0031551874607583801 0 0.0095572021871646057 0.0034603864799539986 0 0.010034012699193778 0.001927017729248179 0 0.0079222243146042821 0.0017976954848128092 0 0.007596214804431115 -0.00030497537588341828 0 0.0067446915393774677 -0.00037487059778563731 0 0.0067492201454146241 -0.0011179830991002086 0 0.008226933287827436 -0.0031551874607583801 0 0.0051389580581674638 -0.0080769649691535012 0 0.0066947987286946993 -0.0036767894702673756 0 0.0090913122638136817 -0.0043668077929939876 0 0.0094140834908793009 -0.0068711588057633775 0 0.0066947987286946993 -0.0036767894702673756 0 0.0094140834908793009 -0.0068711588057633775 0 0.0045991662726970707 -0.0072209953842248013 0 0.009579356736787132 -0.0076648677417338129 0 0.0076649706107745231 -0.0096332493653958056 0 0.0052508014050295301 -0.0079367112579083292 0 0.008226933287827436 -0.0031551874607583801 0 0.0067180885798557273 -0.0054918394065509519 0 0.0067446915393774677 -0.00037487059778563731 0 0.0059497469099374705 -0.0012098287754056366 0 0.0067492201454146241 -0.0011179830991002086 0 0.0059497469099374705 -0.0012098287754056366 0 0.0067492201454146241 -0.0011179830991002086 0 0.0063144514900286847 -0.0017391489143229223 0 0.0067492201454146241 -0.0011179830991002086 0 0.0063144514900286847 -0.0017391489143229223 0 0.0071011593384763148 -0.0019448565127810164 0 0.0059497469099374705 -0.0012098287754056366 0 0.0063144514900286847 -0.0017391489143229223 0 0.0057005050719623205 -0.0019620968129520338 0 0.007596214804431115 -0.00030497537588341828 0 0.0067492201454146241 -0.0011179830991002086 0 0.0071011593384763148 -0.0019448565127810164 0 0.0081914293690694539 -0.0022939076361348952 0 0.007596214804431115 -0.00030497537588341828 0 0.0071011593384763148 -0.0019448565127810164 0 0.0074078045226930109 -0.0034155474138118733 0 0.0071011593384763148 -0.0019448565127810164 0 0.0060655293549011806 -0.00244911556777592 0 0.0074078045226930109 -0.0034155474138118733 0 0.0081914293690694539 -0.0022939076361348952 0 0.0071011593384763148 -0.0019448565127810164 0 0.0063144514900286847 -0.0017391489143229223 0 0.0057005050719623205 -0.0019620968129520338 0 0.0060655293549011806 -0.00244911556777592 0 0.0063144514900286847 -0.0017391489143229223 0 0.0071011593384763148 -0.0019448565127810164 0 0.0060655293549011806 -0.00244911556777592 0 0.0060655293549011806 -0.00244911556777592 0 0.0051790288697973882 -0.0020649685446885633 0 0.0048326786971495221 -0.002434145722296921 0 0.0059030473028736522 -0.0035613930356872057 0 0.0060655293549011806 -0.00244911556777592 0 0.0048326786971495221 -0.002434145722296921 0 0.0057005050719623205 -0.0019620968129520338 0 0.0060655293549011806 -0.00244911556777592 0 0.0051790288697973882 -0.0020649685446885633 0 0.0058619944430364276 -0.0046889183519892748 0 0.0055195769126582519 -0.0068170675101505507 0 0.0057293728153495612 -0.011598232214093151 0 0.0046408620983924747 -0.011229049572205959 0 0.0042417507121513291 -0.011815072156162986 0 0.0055195769126582519 -0.0068170675101505507 0 0.0047702910889264316 -0.010716514078655981 0 0.0052608031882940779 -0.0088421212706045037 0 0.004759748037068131 -0.00935187326305662 0 0.0044156236749765404 -0.0089747978883463666 0 0.0046408620983924747 -0.011229049572205959 0 0.0042417507121513291 -0.011815072156162986 0 0.0042603917710638808 -0.011106546573284503 0 0.0055195769126582519 -0.0068170675101505507 0 0.0045582143607101949 -0.010215808576569533 0 0.0045582143607101949 -0.010215808576569533 0 0.0047702910889264316 -0.010716514078655981 0 0.0042417507121513291 -0.011815072156162986 0 0.0025778669659796247 -0.010193406690745777 0 0.00080831199558244269 -0.012358665377043804 0 0.0032072948641055248 -0.017123145820573379 0 0.0045582143607101949 -0.010215808576569533 0 0.0039476586867885667 -0.016295602198980515 0 0.0054663464168869186 -0.014734650076602468 0 0.0050310113742613972 -0.014258325691332919 0 0.0039476586867885667 -0.016295602198980515 0 0.0050310113742613972 -0.014258325691332919 0 0.0024015133928722539 -0.014672938973897317 0 0.0047702910889264316 -0.010716514078655981 0 0.0015526272848903049 -0.013689207316753597 0 0.0042417507121513291 -0.011815072156162986 0 0.0038639775246853904 -0.010619706446988796 0 0.0042603917710638808 -0.011106546573284503 0 0.0038639775246853904 -0.010619706446988796 0 0.0042603917710638808 -0.011106546573284503 0 0.0048103458187612313 -0.0098772475874822751 0 0.0038639775246853904 -0.010619706446988796 0 0.0025778669659796247 -0.010193406690745777 0 0.0048103458187612313 -0.0098772475874822751 0 0.0025778669659796247 -0.010193406690745777 0 0.0048103458187612313 -0.0098772475874822751 0 0.0052508014050295301 -0.0079367112579083292 0 0.0042417507121513291 -0.011815072156162986 0 0.0038639775246853904 -0.010619706446988796 0 0.0025778669659796247 -0.010193406690745777 0 0.0025778669659796247 -0.010193406690745777 0 0.00082673030197559082 -0.0081448094575470691 0 0.0052508014050295301 -0.0079367112579083292 0 0.0076649706107745231 -0.0096332493653958056 0 0.0057293728153495612 -0.011598232214093151 0 0.0048103458187612313 -0.0098772475874822751 0 0.0076649706107745231 -0.0096332493653958056 0 0.0048103458187612313 -0.0098772475874822751 0 0.0052508014050295301 -0.0079367112579083292 0 0.0059497469099374705 -0.0012098287754056366 0 0.0057005050719623205 -0.0019620968129520338 0 0.0051482446650230234 -0.0020643745320590816 0 0.0067180885798557273 -0.0054918394065509519 0 0.0055195769126582519 -0.0068170675101505507 0 0.0057293728153495612 -0.011598232214093151 0 0.0046408620983924747 -0.011229049572205959 0 0.0048103458187612313 -0.0098772475874822751 0 0.0046408620983924747 -0.011229049572205959 0 0.0042603917710638808 -0.011106546573284503 0 0.0048103458187612313 -0.0098772475874822751 0 -0.0010927487260303597 -0.014048634230380146 0 0.0015526272848903049 -0.013689207316753597 0 -0.0025855130198593271 -0.011407747678086274 0 -0.0018810323364897529 -0.013066117169348248 0 -0.00075030729772912171 -0.010664239517398619 0 -0.0018810323364897529 -0.013066117169348248 0 0.00080831199558244269 -0.012358665377043804 0 -0.00075030729772912171 -0.010664239517398619 0 0.0013840270915048553 -0.016462573259480865 0 -0.00014303369974965322 -0.014921149702625387 0 0.0024015133928722539 -0.014672938973897317 0 0.0025778669659796247 -0.010193406690745777 0 0.00080831199558244269 -0.012358665377043804 0 -0.00075030729772912171 -0.010664239517398619 0 0.0025778669659796247 -0.010193406690745777 0 -0.00075030729772912171 -0.010664239517398619 0 0.00082673030197559082 -0.0081448094575470691 0 -0.0025855130198593271 -0.011407747678086274 0 -0.00075030729772912171 -0.010664239517398619 0 -0.0027133734453069001 -0.0085031256412453453 0 -0.00075030729772912171 -0.010664239517398619 0 -0.0027133734453069001 -0.0085031256412453453 0 0.00082673030197559082 -0.0081448094575470691 0 -0.0027133734453069001 -0.0085031256412453453 0 0.00082673030197559082 -0.0081448094575470691 0 -0.00065362250353977647 -0.0043208594509034828 0 -0.0020474445357877317 -0.014265067707621239 0 0.00048183607800843481 -0.011317051825495646 0 0.00082673030197559082 -0.0081448094575470691 0 -0.00065362250353977647 -0.0043208594509034828 0 0.0023833884880830897 -0.0048327594110657655 0 -0.0015931176801752042 -0.01772196298085434 0 -0.0016080119937670612 -0.020256084922126643 0 0.0014225376758318674 -0.018616929667377324 0 0.00082673030197559082 -0.0081448094575470691 0 0.0045991662726970707 -0.0072209953842248013 0 0.0023833884880830897 -0.0048327594110657655 0 0.00090886781167696809 -0.0079601637767099404 0 0.0051389580581674638 -0.0080769649691535012 0 -0.00065362250353977647 -0.0043208594509034828 0 0.0023833884880830897 -0.0048327594110657655 0 0.0018153729047876409 8.2396944184253855e-05 0 0.0023833884880830897 -0.0048327594110657655 0 0.0041979181365965753 -0.0022445415711071738 0 0.0018153729047876409 8.2396944184253855e-05 0 0.0066947987286946993 -0.0036767894702673756 0 0.0041979181365965753 -0.0022445415711071738 0 0.0069699793047877222 0.00097409900014975605 0 0.0045991662726970707 -0.0072209953842248013 0 0.0023833884880830897 -0.0048327594110657655 0 0.0041979181365965753 -0.0022445415711071738 0 0.0066947987286946993 -0.0036767894702673756 0 0.0045991662726970707 -0.0072209953842248013 0 0.0041979181365965753 -0.0022445415711071738 0 0.0041979181365965753 -0.0022445415711071738 0 0.0047819109411381035 0.0014952214520640758 0 0.0069699793047877222 0.00097409900014975605 0 0.0041979181365965753 -0.0022445415711071738 0 0.0047819109411381035 0.0014952214520640758 0 0.0018153729047876409 8.2396944184253855e-05 0 0.0047230748343704354 -0.013757618982966137 0 0.0025298009922949754 -0.014259378502084185 0 0.0039976617884648355 -0.011573775313506614 0 0.0044751566372941056 -0.016089315369670832 0 0.0047230748343704354 -0.013757618982966137 0 0.0025298009922949754 -0.014259378502084185 0 0.0044751566372941056 -0.016089315369670832 0 0.0047230748343704354 -0.013757618982966137 0 0.0071134999678300346 -0.013383077898664065 0 0.0047819109411381035 0.0014952214520640758 0 0.0018153729047876409 8.2396944184253855e-05 0 0.0048846829010740517 0.0046376519242069432 0 0.0030714429344711985 -0.0082858696435099376 0 0.0061437123624952421 -0.0024288362915514468 0 0.0056994666794385525 0.0043059114795763959 0 0.0061055403036162888 0.0047430419370293334 0 0.006214599186696021 0.0040233047558840976 0 0.0061437123624952421 -0.0024288362915514468 0 0.0045025580682391333 0.0016884672947875057 0 0.0047819109411381035 0.0014952214520640758 0 0.0069699793047877222 0.00097409900014975605 0 0.006214599186696021 0.0040233047558840976 0 0.0047819109411381035 0.0014952214520640758 0 0.0048846829010740517 0.0046376519242069432 0 0.006214599186696021 0.0040233047558840976 0 -0.0015931176801752042 -0.01772196298085434 0 0.0013195398142744226 -0.016328307586374231 0 -6.2360336101580655e-05 -0.014939080694549316 0 -0.0015931176801752042 -0.01772196298085434 0 0.0014225376758318674 -0.018616929667377324 0 0.0013195398142744226 -0.016328307586374231 0 0.00048183607800843481 -0.011317051825495646 0 0.0030714429344711985 -0.0082858696435099376 0 0.0014225376758318674 -0.018616929667377324 0 0.0044751566372941056 -0.016089315369670832 0 0.0013195398142744226 -0.016328307586374231 0 0.0044751566372941056 -0.016089315369670832 0 0.0013195398142744226 -0.016328307586374231 0 0.0025298009922949754 -0.014259378502084185 0 0.0025298009922949754 -0.014259378502084185 0 -6.2360336101580655e-05 -0.014939080694549316 0 0.001480532320283761 -0.012258837961223337 0 -0.001058621778978976 -0.013099760667282646 0 -6.2360336101580655e-05 -0.014939080694549316 0 0.001480532320283761 -0.012258837961223337 0 0.0013195398142744226 -0.016328307586374231 0 0.0025298009922949754 -0.014259378502084185 0 -6.2360336101580655e-05 -0.014939080694549316 0 0.001480532320283761 -0.012258837961223337 0 1.7843610689630089e-05 -0.011224248415336684 0 0.0011802237922908304 -0.0095940381915642792 0 -0.001058621778978976 -0.013099760667282646 0 0.001480532320283761 -0.012258837961223337 0 1.7843610689630089e-05 -0.011224248415336684 0 0.001480532320283761 -0.012258837961223337 0 0.0011802237922908304 -0.0095940381915642792 0 0.0039976617884648355 -0.011573775313506614 0 0.0025298009922949754 -0.014259378502084185 0 0.001480532320283761 -0.012258837961223337 0 0.0039976617884648355 -0.011573775313506614 0 0.0048277871048684751 0.0027861078661966612 0 0.0033527988327837948 0.001146127308459174 0 0.0055371149256163675 0.0034629789381229242 0 0.0020432603687940165 -0.0040827647547353532 0 0.0047932455352425853 -0.0043782963579287321 0 0.0051352051858326213 0.0031697877918306977 0 0.0050937106398600681 0.0030152960022124349 0 0.0048277871048684751 0.0027861078661966612 0 0.0038861895157896926 0.0015538295394332093 0 0.0048441019946988085 0.0023867514262973385 0 -0.0010207287936728144 -0.0095803228605609511 0 1.7843610689630089e-05 -0.011224248415336684 0 0.0011802237922908304 -0.0095940381915642792 0 0.0022320456374783151 0.00013818601498047036 0 0.0048277871048684751 0.0027861078661966612 0 0.0033527988327837948 0.001146127308459174 0 0.0056784260335168892 0.0040104057781217544 0 0.0058384580053670735 0.0044016585058705452 0 0.0056713731694959368 0.0040838645559575053 0 0.0059528562725841795 0.0046548184594750871 0 0.0058384580053670735 0.0044016585058705452 0 0.0056713731694959368 0.0040838645559575053 0 0.0059528562725841795 0.0046548184594750871 0 0.0058384580053670735 0.0044016585058705452 0 0.0061055403036162888 0.0047430419370293334 0 0.0058867526696292785 0.0044538687558564284 0 0.0058384580053670735 0.0044016585058705452 0 0.0061055403036162888 0.0047430419370293334 0 0.0061437123624952421 -0.0024288362915514468 0 0.0077980138758278559 0.002744858702588691 0 0.0058867526696292785 0.0044538687558564284 0 0.0056784260335168892 0.0040104057781217544 0 0.0058384580053670735 0.0044016585058705452 0 0.0058867526696292785 0.0044538687558564284 0 0.0056784260335168892 0.0040104057781217544 0 0.0055371149256163675 0.0034629789381229242 0 0.0047230748343704354 -0.013757618982966137 0 0.0071134999678300346 -0.013383077898664065 0 0.0039976617884648355 -0.011573775313506614 0 0.0061437123624952421 -0.0024288362915514468 0 0.0047932455352425853 -0.0043782963579287321 0 0.0056784260335168892 0.0040104057781217544 0 0.0055371149256163675 0.0034629789381229242 0 0.0054896005789907953 0.0035212078578102232 0 0.0056784260335168892 0.0040104057781217544 0 0.0054896005789907953 0.0035212078578102232 0 0.0056713731694959368 0.0040838645559575053 0 0.0054896005789907953 0.0035212078578102232 0 0.0055133125890148406 0.0037633325992716842 0 0.0056713731694959368 0.0040838645559575053 0 0.0048277871048684751 0.0027861078661966612 0 0.0055371149256163675 0.0034629789381229242 0 0.0054896005789907953 0.0035212078578102232 0 0.0051352051858326213 0.0031697877918306977 0 0.0048277871048684751 0.0027861078661966612 0 0.0054896005789907953 0.0035212078578102232 0 0.0051352051858326213 0.0031697877918306977 0 0.0054896005789907953 0.0035212078578102232 0 0.0053414012001787607 0.0034326231255906183 0 0.0054896005789907953 0.0035212078578102232 0 0.0053414012001787607 0.0034326231255906183 0 0.0055133125890148406 0.0037633325992716842 0 0.0055133125890148406 0.0037633325992716842 0 0.0056713731694959368 0.0040838645559575053 0 0.0057729469857712868 0.0043685827205809727 0 0.0059528562725841795 0.0046548184594750871 0 0.0056713731694959368 0.0040838645559575053 0 0.0057729469857712868 0.0043685827205809727 0 0.0053011683566240734 0.0036368878557454438 0 0.0055133125890148406 0.0037633325992716842 0 0.0057729469857712868 0.0043685827205809727 0 0.0053011683566240734 0.0036368878557454438 0 0.0057729469857712868 0.0043685827205809727 0 0.0066862467167362527 0.0056704142145080462 0 0.0072127028812226119 0.0070318909676012594 0 0.0070909150214636951 0.0067748072525798727 0 0.0066862467167362527 0.0056704142145080462 0 0.0063760306045561313 0.005238357612145912 0 0.0066990301333820874 0.0054830499603094086 0 0.0059528562725841795 0.0046548184594750871 0 0.0057729469857712868 0.0043685827205809727 0 0.0066862467167362527 0.0056704142145080462 0 0.0059528562725841795 0.0046548184594750871 0 0.0061055403036162888 0.0047430419370293334 0 0.0066862467167362527 0.0056704142145080462 0 0.0066862467167362527 0.0056704142145080462 0 0.0071980682618252544 0.0052335365722003509 0 0.0068143695600881675 0.0049327116503334965 0 0.0061055403036162888 0.0047430419370293334 0 0.0066862467167362527 0.0056704142145080462 0 0.0068143695600881675 0.0049327116503334965 0 0.0072653700872961384 0.0057891534855793025 0 0.0072538206891121235 0.0068377425994913341 0 0.0073993441172937524 0.0064869796340877991 0 0.0066862467167362527 0.0056704142145080462 0 0.0072653700872961384 0.0057891534855793025 0 0.0072538206891121235 0.0068377425994913341 0 0.0066862467167362527 0.0056704142145080462 0 0.0071980682618252544 0.0052335365722003509 0 0.0072653700872961384 0.0057891534855793025 0 0.0070909150214636951 0.0067748072525798727 0 0.0066862467167362527 0.0056704142145080462 0 0.0072538206891121235 0.0068377425994913341 0 0.0071752480658995596 0.0070336410971798408 0 0.0070909150214636951 0.0067748072525798727 0 0.0072538206891121235 0.0068377425994913341 0 0.0071295695009884049 0.0073669274698866041 0 0.0071752480658995596 0.0070336410971798408 0 0.0072538206891121235 0.0068377425994913341 0 0.0065438325497589149 0.0077657063983618043 0 0.0071295695009884049 0.0073669274698866041 0 0.0073741384638968729 0.007595817551786393 0 0.0071295695009884049 0.0073669274698866041 0 0.0072538206891121235 0.0068377425994913341 0 0.0073741384638968729 0.007595817551786393 0 0.0065438325497589149 0.0077657063983618043 0 0.0073741384638968729 0.007595817551786393 0 0.0063032839116332479 0.0084680077394712529 0 0.0079321876257445953 0.0071698768506409851 0 0.0073741384638968729 0.007595817551786393 0 0.0077585844283069357 0.0070322961474479743 0 0.0058435866649685737 0.010246913174942088 0 0.0073741384638968729 0.007595817551786393 0 0.0063032839116332479 0.0084680077394712529 0 0.0067932814197519129 0.0087060380428719674 0 0.0073031636082486343 0.0077818951403550206 0 0.0073741384638968729 0.007595817551786393 0 0.0077585844283069357 0.0070322961474479743 0 0.0073993441172937524 0.0064869796340877991 0 0.0072538206891121235 0.0068377425994913341 0 0.0073741384638968729 0.007595817551786393 0 0.0073993441172937524 0.0064869796340877991 0 0.0073993441172937524 0.0064869796340877991 0 0.0073643627638735869 0.0059122168416204778 0 0.0077031649447060211 0.0062331479193389137 0 0.0072653700872961384 0.0057891534855793025 0 0.0073993441172937524 0.0064869796340877991 0 0.0073643627638735869 0.0059122168416204778 0 0.0077585844283069357 0.0070322961474479743 0 0.0073993441172937524 0.0064869796340877991 0 0.0077031649447060211 0.0062331479193389137 0 0.0079139132704798016 0.0078916324316614904 0 0.0077585844283069357 0.0070322961474479743 0 0.0077031649447060211 0.0062331479193389137 0 0.0079560638899959686 0.0078506752934101205 0 0.0083305011306526941 0.008051458479696235 0 0.0073670766131611913 0.0058608341909985691 0 0.0073643627638735869 0.0059122168416204778 0 0.0073244981577087909 0.0054333124437824275 0 0.0073670766131611913 0.0058608341909985691 0 0.0073643627638735869 0.0059122168416204778 0 0.0077031649447060211 0.0062331479193389137 0 0.0092919923586114086 0.0094124440500004316 0 0.0083305011306526941 0.008051458479696235 0 0.0073670766131611913 0.0058608341909985691 0 0.0075071069255144268 0.0058002710310803667 0 0.0073244981577087909 0.0054333124437824275 0 0.0075071069255144268 0.0058002710310803667 0 0.007596800096265584 0.0046432037167091489 0 0.0073244981577087909 0.0054333124437824275 0 0.0066947987286946993 -0.0036767894702673756 0 0.010048941568585022 -0.00066883944055380661 0 0.0069699793047877222 0.00097409900014975605 0 0.010048941568585022 -0.00066883944055380661 0 0.0069699793047877222 0.00097409900014975605 0 0.007596800096265584 0.0046432037167091489 0 0.0088301191150272646 0.0018518360718592481 0 0.0077185637333420428 0.0047416637303812079 0 0.0069699793047877222 0.00097409900014975605 0 0.006214599186696021 0.0040233047558840976 0 0.007596800096265584 0.0046432037167091489 0 0.0061055403036162888 0.0047430419370293334 0 0.0068143695600881675 0.0049327116503334965 0 0.006214599186696021 0.0040233047558840976 0 0.0068143695600881675 0.0049327116503334965 0 0.006214599186696021 0.0040233047558840976 0 0.007596800096265584 0.0046432037167091489 0 0.0071980682618252544 0.0052335365722003509 0 0.0068143695600881675 0.0049327116503334965 0 0.007596800096265584 0.0046432037167091489 0 0.0072653700872961384 0.0057891534855793025 0 0.0073643627638735869 0.0059122168416204778 0 0.0073244981577087909 0.0054333124437824275 0 0.0071980682618252544 0.0052335365722003509 0 0.0072653700872961384 0.0057891534855793025 0 0.0073244981577087909 0.0054333124437824275 0 0.0071980682618252544 0.0052335365722003509 0 0.007596800096265584 0.0046432037167091489 0 0.0073244981577087909 0.0054333124437824275 0 
</DataArray>
</PointData>
<CellData Scalars="region_id,cross_section_updated," Vectors="" Tensors="stress,">
<DataArray type="Float64" Name="region_id" format="ascii">
5 5 5 6 5 6 5 5 5 6 5 6 5 5 6 5 5 5 5 5 5 5 5 5 5 5 5 5 5 5 6 5 5 6 5 5 5 5 5 5 5 5 5 5 5 5 5 6 5 6 5 5 6 5 5 5 5 5 5 5 5 5 5 5 6 6 5 5 5 5 5 5 5 5 5 5 5 5 6 5 5 5 5 5 5 5 6 5 5 5 5 6 5 5 5 5 5 5 5 6 5 5 6 5 5 5 5 6 5 5 5 6 6 5 5 5 5 5 5 5 6 5 5 5 5 6 5 5 5 5 5 5 6 5 5 5 5 6 5 6 5 5 5 5 6 5 5 5 5 5 5 6 6 5 5 5 6 5 6 5 5 5 5 5 5 5 5 5 5 5 5 5 6 5 5 6 5 5 5 5 6 5 6 5 5 6 5 5 5 5 5 6 5 5 6 6 5 6 5 5 5 5 5 5 6 6 5 5 6 5 5 5 5 5 5 5 5 5 5 5 5 5 5 5 5 5 5 5 5 5 5 5 6 5 5 5 6 5 5 5 5 5 5 5 5 5 6 5 5 5 5 5 5 5 5 5 5 5 5 5 5 5 5 6 5 5 5 5 5 5 5 5 5 5 5 5 5 5 5 5 5 5 5 5 6 5 6 5 5 5 5 5 5 5 5 5 5 5 5 5 5 5 5 6 5 5 5 6 5 5 5 5 5 5 5 6 5 5 6 5 5 5 5 5 5 5 6 5 5 6 5 5 5 5 5 6 5 5 5 5 5 5 5 6 5 5 5 5 5 5 5 5 5 6 5 5 5 5 6 5 5 5 6 5 6 5 5 6 5 5 5 5 5 5 5 5 5 5 5 5 5 6 5 5 5 5 6 5 5 5 5 5 5 5 5 5 5 5 5 5 5 5 5 5 5 5 5 5 5 5 5 5 5 6 5 6 5 5 6 5 5 5 5 5 5 6 5 5 5 5 5 5 6 5 5 5 6 5 6 5 5 5 5 5 5 5 5 5 5 5 5 5 5 5 5 5 5 5 5 5 5 5 5 5 6 5 5 5 5 5 5 5 5 6 5 5 5 5 5 5 5 6 5 5 5 5 5 5 5 6 5 5 5 5 5 6 5 5 5 5 6 6 5 5 6 5 5 5 5 5 5 5 5 5 6 5 5 5 5 5 5 5 5 5 5 5 5 5 5 5 6 5 6 5 6 5 6 5 5 5 5 5 6 5 5 5 5 5 5 5 5 5 5 5 5 6 5 5 5 5 5 5 5 6 6 5 5 5 5 5 5 6 5 5 5 6 6 6 5 5 5 5 6 5 6 5 5 6 5 5 5 6 5 5 5 5 5 5 5 5 5 5 5 5 5 5 5 5 5 5 5 6 6 6 5 6 5 5 5 6 5 6 5 5 5 5 5 5 5 6 5 5 5 5 5 5 5 5 6 5 5 5 5 5 5 5 5 5 5 5 5 5 5 6 5 5 5 5 5 5 5 5 5 5 5 5 6 5 5 5 6 5 5 6 6 5 5 5 6 6 5 5 5 5 5 5 6 5 5 6 6 5 5 5 5 6 5 5 5 5 5 5 5 5 5 5 5 5 5 5 5 5 6 5 5 5 5 5 6 5 5 5 5 5 5 6 5 5 5 5 5 5 5 5 5 5 5 5 5 5 5 5 5 6 5 5 5 6 5 5 5 5 5 5 5 5 5 5 5 5 5 5 5 5 5 5 5 5 5 5 5 5 5 5 5 5 5 5 5 5 5 5 5 5 5 5 5 6 5 5 5 5 5 5 6 5 5 5 5 5 5 5 5 5 5 5 5 5 5 5 5 5 5 5 5 6 5 5 5 5 5 6 5 5 5 5 5 5 5 5 5 5 5 5 5 6 5 5 6 6 5 5 5 5 5 5 5 5 5 5 5 5 5 5 5 5 5 5 5 5 5 5 5 5 5 5 5 5 5 5 5 5 5 5 6 5 5 5 6 5 5 5 5 5 5 6 6 5 6 5 6 5 5 5 5 5 5 5 5 6 5 5 5 5 5 5 5 5 5 5 5 5 5 6 5 6 5 5 5 5 5 5 5 5 5 5 5 5 5 6 5 5 5 5 5 5 5 5 5 6 5 5 6 5 5 6 6 5 5 6 5 6 5 5 5 6 6 5 5 5 5 5 6 5 5 5 5 5 6 6 5 5 5 5 5 5 5 6 5 5 6 5 5 6 6 5 5 5 5 5 5 5 5 5 5 5 5 6 5 5 5 5 5 5 5 5 5 5 5 5 5 5 5 5 5 5 5 5 5 5 5 5 5 5 5 5 6 5 5 5 5 5 5 5 5 5 5 5 5 5 5 5 5 5 5 5 5 5 5 6 5 5 6 5 5 5 6 5 5 5 5 5 5 5 5 5 5 5 6 5 5 5 5 5 5 5 5 6 5 5 5 5 5 5 5 5 5 6 6 5 5 5 5 5 5 5 5 5 5 5 5 5 5 5 5 5 5 5 5 5 5 5 5 5 5 5 5 5 5 5 5 5 5 6 5 5 5 5 5 5 5 5 5 5 5 5 5 5 6 5 6 5 5 5 5 5 5 5 5 5 5 5 5 5 5 5 5 5 5 5 5 6 5 5 5 6 5 6 6 5 5 5 5 5 5 5 5 5 5 5 5 5 5 5 5 5 5 5 5 6 5 6 5 5 5 6 5 5 5 5 5 5 5 5 5 6 5 5 6 6 5 6 5 6 5 5 5 5 5 5 6 5 5 5 6 5 5 5 5 5 5 5 6 5 5 5 5 5 6 6 5 5 5 5 5 5 5 5 5 5 5 5 5 5 5 5 5 5 5 5 5 5 6 5 5 5 5 5 6 6 6 5 5 5 5 6 5 5 5 5 5 5 5 5 5 6 5 5 5 5 5 5 5 5 5 5 5 5 5 6 5 5 5 5 5 5 5 5 5 5 5 5 5 6 5 5 5 5 5 5 5 5 5 5 5 5 5 5 5 5 6 5 5 5 5 5 5 5 5 6 5 5 5 5 5 5 5 5 6 5 5 5 6 5 6 5 5 5 5 5 5 5 5 5 5 5 6 5 6 5 5 5 5 6 5 5 5 5 6 5 5 5 5 5 5 5 5 5 5 5 5 5 5 5 5 5 5 5 5 5 5 5 5 5 5 5 5 5 5 6 5 6 5 5 5 5 5 5 6 5 5 5 5 5 5 5 6 5 5 5 5 5 5 5 5 5 5 5 5 5 6 5 5 5 5 5 5 5 5 6 5 5 5 5 6 5 5 6 5 5 5 5 5 5 5 5 5 5 5 5 5 5 5 5 5 5 5 5 5 5 5 5 5 5 5 5 5 5 5 6 5 5 5 5 5 5 5 5 5 5 5 5 5 5 5 5 5 5 5 5 5 5 6 6 5 6 5 6 5 5 5 6 6 5 5 5 5 5 5 5 5 5 5 5 6 5 5 5 5 6 5 5 5 5 5 5 5 5 5 5 5 5 5 5 5 5 5 6 5 5 5 5 5 5 5 5 5 5 6 5 5 5 5 5 6 6 5 5 5 5 5 5 5 5 5 6 5 5 5 5 5 5 5 5 6 5 5 5 5 5 5 5 5 6 5 5 5 5 5 5 5 6 5 5 6 6 5 5 5 5 5 5 6 5 5 5 5 5 5 5 5 5 5 5 5 6 5 5 5 5 6 5 5 6 5 5 5 6 5 6 5 6 5 5 5 6 5 5 5 5 5 5 5 5 5 5 5 5 5 5 6 5 5 5 6 5 6 5 5 5 5 5 5 5 6 5 5 5 6 5 5 5 5 5 5 5 5 5 5 5 5 5 5 5 5 5 5 5 5 5 5 5 5 5 5 5 6 5 5 5 6 6 5 5 5 5 5 5 5 5 6 5 5 5 5 5 5 5 5 5 5 6 5 5 5 6 5 5 5 5 5 5 5 5 5 5 5 5 5 5 5 5 5 5 5 5 5 5 5 5 5 5 5 6 5 5 5 5 5 5 5 5 6 5 5 5 5 5 5 5 6 5 5 5 5 5 5 5 5 5 5 5 6 5 6 5 5 6 5 6 6 5 5 5 5 5 5 5 5 5 6 5 5 5 6 5 5 6 5 5 5 5 5 5 6 5 5 5 5 6 5 6 5 5 6 6 6 6 5 5 5 5 5 6 5 5 5 5 5 6 5 5 5 5 6 5 6 5 5 6 5 5 5 5 5 5 5 6 5 5 5 6 5 5 5 5 6 5 5 5 6 5 5 5 6 5 5 6 6 5 5 5 5 6 5 5 5 5 5 5 5 5 5 5 5 5 5 5 5 5 5 5 5 5 5 5 5 5 6 5 5 5 5 5 5 5 5 5 6 5 5 5 5 5 5 5 6 5 5 5 5 5 5 5 5 5 5 5 5 5 5 5 5 5 6 5 5 5 5 5 6 6 5 5 5 5 5 6 5 5 5 6 5 5 5 5 5 5 6 5 5 6 6 5 5 5 5 5 5 6 5 5 5 5 5 6 5 5 6 5 5 5 5 6 5 6 5 5 5 6 5 5 6 5 5 5 5 5 5 5 5 6 5 5 5 5 5 6 5 5 5 5 5 5 5 5 5 6 5 6 5 5 5 5 5 5 5 5 5 5 5 6 5 5 5 5 5 5 5 5 5 5 5 5 6 5 5 6 5 5 6 5 5 5 6 5 5 5 5 5 6 5 5 6 5 5 5 6 5 5 5 5 6 5 5 5 5 5 5 5 5 5 5 5 5 6 5 5 5 6 5 5 5 5 5 5 6 5 5 5 5 5 5 6 5 5 5 5 5 5 5 5 5 5 5 5 5 5 5 5 6 5 5 5 5 5 5 6 5 5 5 5 5 5 5 5 5 5 5 5 5 6 5 5 5 5 5 5 5 5 6 5 5 5 5 5 5 6 5 5 5 5 5 5 5 5 5 5 5 5 5 5 5 5 5 5 5 5 5 5 5 5 5 5 5 5 5 5 6 5 5 5 6 5 5 5 6 5 5 6 5 5 5 5 6 5 5 5 5 5 5 5 6 5 5 5 5 5 5 5 5 5 5 5 5 5 5 5 5 5 5 5 5 5 5 5 5 6 5 5 5 5 5 6 5 6 5 5 6 5 5 5 5 5 5 6 5 5 5 5 5 6 5 5 5 6 5 5 5 5 5 5 5 6 5 5 6 5 5 5 5 6 5 5 5 5 5 6 5 5 6 5 5 5 5 5 5 5 5 5 6 5 5 6 6 5 5 5 5 5 5 5 5 5 5 5 5 5 5 5 5 5 5 5 5 5 5 5 5 5 5 5 5 5 6 5 5 5 5 5 5 5 5 5 5 5 5 5 5 5 5 5 6 5 5 6 5 5 5 5 6 6 5 5 5 5 5 5 5 5 5 5 5 5 5 5 5 5 5 5 5 5 5 5 6 5 5 6 5 5 5 5 5 5 5 5 5 5 5 5 5 5 5 5 5 5 6 5 5 5 6 5 5 5 5 5 5 5 5 5 5 5 5 5 5 5 5 5 5 5 5 5 5 5 5 5 5 5 5 5 6 5 6 5 6 5 5 5 5 5 6 5 5 5 6 5 5 5 5 5 6 5 5 6 5 5 5 5 6 5 5 5 5 5 5 5 5 5 5 5 5 5 5 5 5 5 5 5 5 6 5 5 5 6 5 5 5 5 5 5 5 5 5 5 5 5 5 5 5 6 5 5 5 5 5 5 5 5 5 5 5 5 5 5 5 5 5 5 5 5 5 5 5 5 5 5 5 5 5 5 5 5 5 5 5 5 5 5 5 5 5 5 5 5 5 5 5 6 5 5 5 5 5 6 5 5 5 5 5 5 5 5 5 5 5 5 5 5 5 5 5 5 5 5 5 5 5 5 5 5 5 5 6 5 5 5 5 6 5 5 6 5 5 5 5 5 5 5 5 5 6 5 5 5 6 5 5 5 5 5 5 5 6 5 5 5 5 5 5 5 6 5 5 5 5 5 5 5 6 5 5 5 5 6 5 5 6 5 6 5 5 6 5 5 5 5 5 6 5 6 6 5 5 5 5 5 5 5 6 5 5 5 6 5 5 5 5 5 6 5 5 6 5 5 6 5 6 5 5 5 5 5 5 5 5 5 5 5 5 5 5 5 5 5 5 5 5 5 5 5 6 5 5 5 5 6 5 5 5 5 5 5 6 5 5 5 5 5 5 5 5 5 5 5 5 5 5 5 5 5 5 5 5 5 5 5 5 5 5 5 5 5 5 5 5 5 5 5 5 5 5 5 5 5 5 5 5 5 5 5 5 5 5 5 5 5 5 5 5 5 5 5 5 5 5 5 5 5 5 5 6 5 5 5 5 5 5 5 5 5 5 5 5 5 5 5 5 5 5 5 5 5 5 5 5 5 5 5 5 5 5 5 5 5 5 5 5 5 5 5 5 5 5 5 5 5 5 5 5 5 5 5 5 5 5 5 5 5 5 5 5 5 5 6 5 5 5 5 5 5 5 5 5 5 5 5 5 6 5 5 5 5 5 5 5 5 5 5 5 6 5 5 5 5 5 5 5 5 5 6 6 5 6 5 6 5 6 5 5 6 5 5 5 5 5 5 5 6 5 5 5 5 6 6 5 5 5 5 5 5 6 6 5 5 5 6 5 5 5 5 5 5 5 5 5 5 5 5 5 5 5 5 5 5 5 5 5 5 6 5 5 5 6 5 5 5 5 6 5 5 5 5 5 5 5 5 5 5 6 5 5 5 5 5 5 5 5 5 5 5 5 6 5 5 5 5 5 5 5 5 5 6 5 5 5 5 5 5 6 5 5 5 5 5 5 5 5 5 5 6 6 5 5 5 6 5 5 5 5 6 5 5 5 5 5 5 5 5 5 5 5 5 5 6 5 5 5 5 5 5 6 5 5 5 5 6 5 6 5 5 5 5 5 5 5 5 5 5 5 5 5 5 5 5 5 5 5 5 5 5 5 5 6 5 5 5 5 5 5 5 5 5 6 5 5 5 5 5 5 5 5 5 5 6 5 5 6 5 5 5 5 5 6 5 5 6 6 5 5 6 5 5 5 5 5 5 5 5 5 5 5 5 5 5 5 5 6 5 6 5 5 5 5 5 6 5 5 5 5 5 6 5 5 5 5 5 5 5 5 5 6 5 5 6 5 6 5 5 5 6 5 5 6 5 5 5 5 6 5 5 5 5 5 6 5 5 5 5 5 5 5 5 5 5 5 5 5 5 5 5 5 5 5 5 5 5 5 5 5 5 6 5 5 5 6 5 5 5 5 5 5 5 5 5 5 5 6 5 5 6 5 5 5 5 5 6 5 5 5 5 5 5 5 5 5 5 5 5 5 5 5 5 5 5 6 5 5 5 5 5 5 6 5 5 5 5 5 6 5 5 5 5 5 5 5 5 5 5 5 5 5 5 5 6 5 5 5 5 5 5 5 5 5 5 5 5 6 5 5 5 5 5 5 5 5 5 5 5 5 5 5 5 5 5 5 5 5 5 5 5 6 5 5 5 5 5 6 5 5 6 5 6 5 5 6 5 5 5 5 5 5 5 5 5 5 6 5 5 5 5 5 5 5 5 5 5 5 5 5 5 5 5 5 5 5 5 5 5 5 5 5 5 5 5 5 6 5 5 5 5 5 5 5 5 5 5 5 6 5 5 5 5 5 5 6 5 5 5 5 5 5 5 5 5 5 5 5 5 6 5 5 6 5 5 5 6 5 6 5 5 5 5 5 5 6 5 5 6 5 6 5 5 5 5 5 5 6 6 5 5 6 5 5 5 5 5 5 5 5 5 5 5 5 5 5 5 5 5 5 5 5 5 5 5 6 5 5 5 5 6 6 5 5 5 5 5 5 5 5 5 6 5 5 6 6 5 5 5 6 5 5 5 5 5 5 6 5 5 5 5 5 5 6 5 5 5 5 5 5 5 5 6 5 5 5 6 5 5 5 6 5 5 6 5 6 5 5 5 5 5 5 5 5 5 5 5 5 5 5 5 5 5 5 5 5 5 5 5 5 6 5 5 5 5 5 5 6 5 5 5 6 5 5 5 5 5 5 5 5 5 5 5 5 5 5 5 5 6 5 5 5 5 6 5 5 6 5 5 5 5 5 5 6 5 5 5 5 5 5 6 5 5 5 5 5 5 5 5 5 5 5 5 5 5 5 6 5 6 5 5 6 5 5 5 5 5 5 5 5 5 5 5 5 5 6 5 5 5 5 5 5 5 5 5 5 5 5 5 5 5 5 5 5 5 5 5 5 5 5 5 5 5 6 5 5 6 5 5 5 6 5 5 6 5 5 5 5 6 5 5 5 5 6 5 5 5 6 5 6 6 5 5 5 5 5 5 5 5 5 5 5 5 5 5 6 5 5 5 6 5 5 5 5 5 5 5 6 5 5 5 5 5 5 5 5 5 6 5 5 5 5 5 5 5 5 5 6 5 5 5 5 5 5 5 5 5 5 6 5 5 5 5 5 5 5 5 5 5 5 5 5 6 5 5 6 5 5 5 5 5 5 5 5 5 5 5 5 5 5 6 5 5 5 5 6 5 5 5 6 6 5 5 5 5 5 5 5 5 5 5 5 5 5 5 5 5 5 5 5 5 5 5 6 5 5 5 5 5 5 5 5 5 5 5 5 5 5 5 5 5 5 5 5 5 5 5 5 5 6 5 5 5 5 6 6 5 5 5 5 5 5 5 6 5 5 5 5 5 5 6 5 5 5 5 5 5 5 5 6 5 5 5 5 5 5 5 5 5 5 5 5 5 5 5 5 5 5 5 6 5 5 5 5 5 5 5 6 5 5 5 6 5 5 5 5 5 5 5 5 5 5 5 6 5 6 5 6 5 5 5 6 5 5 5 5 5 5 5 5 5 6 5 5 5 5 5 5 5 5 5 5 5 5 5 5 6 6 5 5 6 5 5 5 5 6 5 6 6 6 5 6 6 5 5 5 5 5 6 5 5 6 5 5 5 5 5 5 6 5 5 5 6 5 5 5 6 5 5 5 5 6 5 6 5 5 5 6 6 6 5 6 5 5 5 5 6 5 6 5 6 5 5 6 6 5 6 6 5 5 5 5 5 5 5 6 5 5 6 5 5 5 5 6 5 5 5 5 5 5 5 6 6 5 5 5 6 5 5 5 6 5 6 5 5 5 6 5 5 6 5 5 6 6 5 5 5 6 5 5 5 5 5 6 5 5 5 5 5 5 5 5 5 5 5 5 5 5 5 5 5 5 5 5 5 5 5 5 5 5 5 5 5 5 5 5 5 5 5 5 5 5 5 6 5 5 6 5 6 5 6 5 5 5 6 6 5 5 6 6 5 5 5 5 6 6 5 5 5 6 5 5 5 5 5 5 5 5 5 5 5 5 6 5 5 5 5 5 5 5 5 5 5 5 5 5 6 6 5 5 5 5 5 5 6 6 6 5 5 5 5 5 5 5 5 5 5 5 6 6 5 5 6 5 6 5 5 5 6 5 5 5 5 5 5 5 5 5 5 6 5 5 5 5 5 5 5 5 6 5 5 5 5 5 5 5 5 5 6 5 5 5 5 5 5 5 6 5 5 5 5 5 5 5 5 5 5 5 5 5 6 5 5 5 5 5 5 6 5 5 5 5 5 5 5 6 5 6 5 6 5 5 5 6 5 5 5 5 5 5 5 6 5 5 6 5 6 5 5 5 5 5 5 6 5 5 5 5 5 5 5 5 5 5 5 6 6 5 6 5 5 6 5 5 5 5 5 6 5 5 5 5 5 5 5 5 6 5 5 6 5 5 5 5 6 5 5 5 5 5 5 6 5 5 5 6 5 5 5 5 6 5 6 6 5 5 5 5 5 5 5 5 6 5 5 5 5 5 5 5 5 5 5 5 5 5 6 5 5 5 5 5 5 5 5 5 5 5 5 5 6 5 5 5 5 5 5 6 5 5 5 5 5 5 5 5 5 6 5 5 5 5 5 5 5 5 5 5 5 5 5 6 5 5 5 5 6 5 5 5 6 5 5 5 6 5 5 6 6 5 5 5 6 5 5 5 5 5 5 5 5 5 5 5 5 6 5 6 5 5 5 5 5 6 6 5 5 5 5 6 5 6 5 6 5 5 5 5 5 5 5 5 5 5 5 5 5 5 5 5 5 5 5 5 5 5 5 5 5 5 5 5 5 5 5 5 5 5 5 5 5 5 5 5 5 5 5 5 5 5 5 6 5 6 5 5 5 5 6 5 5 5 5 5 5 5 5 5 5 5 5 5 5 5 5 5 5 5 6 5 5 5 5 5 5 5 6 5 5 6 5 5 6 5 5 5 5 5 5 5 5 6 5 5 5 5 5 5 6 5 5 5 5 5 5 5 5 6 5 5 5 5 5 6 5 6 6 5 5 5 6 5 6 5 5 5 5 5 5 5 5 5 5 5 5 5 5 5 5 6 6 5 5 5 5 5 5 5 5 5 5 5 5 6 5 5 6 5 5 5 5 6 5 5 5 5 5 5 5 5 5 5 5 5 5 5 5 5 5 5 5 5 5 5 5 5 5 5 5 5 5 5 5 5 5 5 5 5 6 5 6 5 5 5 5 5 5 5 6 5 5 5 5 6 5 5 6 5 5 5 5 5 5 5 5 5 5 5 5 5 5 5 5 5 5 6 6 5 5 5 5 5 5 5 5 5 5 5 5 5 5 5 5 5 5 5 5 5 5 5 6 5 5 5 5 5 5 5 5 5 5 5 5 5 5 5 5 6 5 5 5 6 5 5 5 6 5 6 5 5 6 5 5 6 5 5 5 5 5 5 5 5 5 6 5 5 5 5 5 5 6 6 5 5 5 5 5 5 5 5 6 5 5 6 5 5 5 5 5 5 5 6 5 5 5 6 5 5 5 6 6 5 5 5 5 5 5 5 5 5 5 5 6 5 6 5 5 6 5 5 5 6 5 5 5 5 5 5 5 6 5 5 5 6 5 5 5 6 6 5 5 5 5 6 5 5 5 5 5 5 5 5 6 6 5 5 5 5 6 6 6 5 6 5 6 6 5 6 5 5 5 6 5 5 5 5 5 5 6 5 6 5 6 6 6 6 5 5 5 5 6 6 5 5 5 6 6 5 5 5 5 6 5 5 6 5 5 5 5 6 6 5 5 5 5 6 5 6 5 5 5 5 6 5 5 5 5 5 5 5 5 5 5 5 5 5 5 5 5 5 5 5 5 5 5 6 5 5 5 5 5 5 5 5 5 5 5 5 5 5 5 5 5 5 5 5 5 5 5 5 5 6 5 5 5 5 6 5 5 6 5 5 5 6 5 6 5 5 5 5 5 5 5 5 6 5 5 5 6 5 5 5 5 5 5 5 6 5 6 5 5 6 5 6 5 5 5 5 5 5 5 5 5 5 5 5 5 5 6 6 5 5 5 5 5 5 5 5 5 5 5 5 6 5 5 5 5 5 5 5 5 5 5 5 5 5 5 6 5 6 5 5 5 5 5 5 5 5 5 6 5 5 5 5 5 5 5 6 5 6 5 5 5 6 5 6 5 5 5 5 5 6 5 5 6 6 5 5 5 5 6 5 5 5 5 5 5 5 5 5 5 5 5 5 5 5 5 5 6 6 5 5 6 5 5 5 6 5 5 5 5 5 5 5 6 5 6 5 5 5 6 5 5 5 5 5 5 5 5 5 6 5 5 5 6 5 5 5 5 5 5 6 5 5 5 5 5 5 6 5 5 5 5 5 6 5 5 6 5 5 5 6 5 5 5 5 5 5 5 6 6 5 5 5 5 5 5 5 5 6 5 5 5 5 6 5 5 6 5 5 5 5 5 5 5 5 5 5 5 5 5 5 5 5 5 5 5 5 5 5 5 5 5 5 5 5 5 5 5 5 5 5 5 5 5 5 6 5 5 5 5 5 5 5 5 5 5 5 5 5 5 5 5 5 6 5 5 5 5 5 5 5 5 5 5 5 5 5 5 5 5 5 5 5 5 5 5 5 5 5 5 5 5 5 5 5 5 5 5 5 5 5 5 5 5 5 5 5 5 5 5 5 5 5 5 5 5 5 5 5 5 5 5 5 5 5 5 5 5 5 5 5 5 5 5 5 5 5 5 5 5 5 5 5 5 5 5 5 5 5 5 5 5 5 5 5 6 5 5 5 5 5 5 5 6 5 5 5 5 5 5 6 5 5 5 5 5 5 5 5 5 5 5 5 5 5 6 5 6 5 5 5 5 5 5 5 5 5 5 5 5 5 5 5 5 6 5 5 6 5 5 5 5 5 5 6 5 5 5 5 5 6 5 5 5 5 5 5 5 6 5 6 5 5 5 5 5 6 5 6 5 6 5 6 5 5 5 5 5 5 5 5 5 5 5 5 5 5 5 5 5 5 5 5 5 5 5 5 5 5 5 5 5 6 5 5 5 5 5 5 5 5 5 5 5 5 5 5 5 5 5 5 5 5 5 5 5 5 5 5 6 5 5 5 6 5 5 6 5 5 5 5 5 5 6 5 5 6 5 5 6 5 5 5 5 5 5 5 5 5 5 6 5 5 5 5 5 5 5 6 5 5 5 5 5 5 5 5 5 6 5 5 5 5 5 5 5 5 5 5 5 5 5 5 5 5 6 5 5 5 5 5 5 5 5 5 5 5 5 5 5 5 5 5 5 5 5 5 5 5 5 6 5 5 5 5 5 5 5 5 5 5 6 6 5 5 5 5 5 5 5 5 5 5 5 5 6 5 5 5 5 6 5 5 5 5 5 5 5 5 6 5 5 5 5 5 5 5 5 6 5 5 5 6 5 5 5 5 5 5 5 5 5 6 6 5 5 5 5 5 5 5 5 5 5 5 5 5 5 5 5 5 5 5 5 5 5 5 5 5 5 5 5 5 5 5 5 5 5 5 5 5 5 5 5 5 5 5 5 5 5 5 5 5 5 5 5 5 5 5 5 5 5 5 5 5 5 5 5 5 5 5 5 5 5 5 5 5 5 5 5 5 5 5 5 5 5 5 5 5 5 5 5 5 5 5 5 5 5 5 5 5 5 5 5 5 5 5 5 5 5 5 5 5 5 5 5 5 5 5 5 5 5 5 5 5 6 5 5 6 5 6 6 5 5 5 6 5 5 6 5 5 5 5 5 5 6 5 5 5 5 5 5 5 5 5 5 5 5 5 5 5 5 5 5 5 5 5 5 5 5 5 5 5 5 5 5 5 5 5 5 5 5 5 5 5 5 5 5 5 5 5 5 5 5 5 5 6 6 5 5 5 5 5 5 6 5 5 5 5 5 6 5 5 5 5 5 6 5 5 5 5 5 5 5 5 5 5 6 5 6 5 5 5 5 5 6 5 5 5 5 5 6 5 6 5 5 5 5 5 6 5 5 5 5 5 5 5 5 5 5 5 5 5 5 5 5 5 5 6 5 5 5 6 6 5 5 5 5 5 5 5 5 6 5 5 5 5 5 5 5 5 5 5 5 5 5 6 5 5 5 5 5 5 5 5 5 5 5 5 5 5 5 5 5 5 5 5 5 5 5 5 5 5 5 5 5 5 5 5 5 5 5 5 5 5 5 5 5 5 5 5 5 5 5 5 5 5 5 5 6 5 5 5 5 5 5 5 6 5 5 5 6 5 5 5 5 5 5 5 5 5 5 5 5 5 5 5 6 5 5 5 6 5 5 5 5 5 5 5 6 5 5 5 5 5 5 6 5 5 6 5 5 5 5 5 5 5 5 5 5 6 5 5 5 6 5 5 5 5 6 5 5 5 5 5 5 5 5 5 5 6 5 5 5 5 5 5 5 6 5 5 5 5 5 5 5 5 5 5 5 5 5 6 5 6 5 5 5 5 5 5 6 5 6 5 5 5 5 5 5 5 5 5 6 5 5 5 5 5 5 5 5 5 5 5 5 5 5 5 5 5 5 5 5 5 5 5 5 5 5 5 5 5 5 5 5 5 5 5 6 5 5 5 5 5 5 6 5 5 5 5 6 5 5 5 6 5 5 5 6 5 5 5 5 5 5 5 5 5 5 5 5 5 5 5 5 5 5 5 5 5 6 5 5 5 5 5 5 5 5 5 5 6 5 5 6 5 5 5 5 5 5 5 5 5 5 5 5 5 5 5 5 5 5 5 5 5 5 5 5 6 6 5 5 6 6 5 5 5 5 5 5 5 5 5 5 5 5 5 5 6 5 5 5 5 6 5 5 5 5 5 5 5 5 5 5 5 5 5 6 5 5 5 5 5 5 5 5 5 5 6 5 5 5 5 5 6 5 5 5 5 5 5 5 5 5 5 5 5 5 5 5 6 5 5 5 6 6 5 5 5 6 6 5 5 6 5 5 5 5 6 5 5 5 5 5 5 5 5 6 5 5 5 5 6 6 5 6 5 5 5 5 6 5 6 5 5 5 5 6 5 6 5 5 5 5 5 5 5 5 5 5 5 5 5 6 5 5 5 5 5 6 5 5 5 5 5 6 5 6 5 5 5 5 5 5 5 5 6 5 5 5 5 5 5 5 5 5 5 5 5 5 6 5 5 5 5 6 5 5 5 5 5 5 5 5 5 5 5 5 6 5 5 5 5 5 5 5 5 5 5 5 5 5 5 5 5 5 5 5 5 5 5 5 5 5 5 5 5 5 5 5 6 5 5 5 5 5 5 5 6 5 5 5 5 6 5 5 5 5 5 6 5 5 5 5 5 5 5 5 6 5 5 5 5 5 5 5 5 5 5 5 5 5 5 5 6 5 5 5 5 5 5 5 5 5 5 5 6 5 5 6 5 5 5 5 5 5 5 5 5 5 5 5 5 5 5 5 6 5 5 5 5 5 5 5 5 5 5 5 5 5 6 5 5 5 5 5 5 5 5 5 5 5 5 5 5 5 5 5 5 5 6 5 5 5 5 5 6 5 5 5 5 6 5 5 5 5 5 5 6 6 5 5 5 5 5 5 5 5 5 5 5 5 5 5 5 5 5 5 5 5 5 6 5 5 5 5 5 5 5 5 5 5 5 5 5 5 5 5 5 5 5 5 5 5 5 5 5 5 5 5 5 5 5 5 5 5 5 5 5 6 5 5 5 6 5 5 6 5 5 5 5 5 5 5 5 5 5 6 5 5 5 5 6 5 5 5 5 5 5 5 5 5 5 6 5 5 5 6 5 5 6 6 5 5 5 5 5 5 5 5 5 5 5 5 5 5 5 5 6 5 5 5 6 5 6 5 5 5 5 6 5 5 5 5 5 6 5 5 5 5 6 6 5 6 5 5 6 5 6 5 5 5 5 6 5 5 5 5 5 5 6 5 5 6 6 5 5 5 5 5 5 5 5 5 5 5 5 5 5 5 5 6 5 6 5 6 5 5 5 5 5 5 5 5 5 5 5 5 5 5 5 5 5 5 5 5 6 5 5 5 5 5 5 6 5 6 5 5 6 5 5 6 5 5 5 5 5 5 5 6 5 5 5 5 6 5 5 5 5 5 5 6 5 5 5 5 6 5 5 5 5 5 5 5 5 5 6 5 5 5 5 5 5 5 5 5 5 5 5 5 6 5 5 6 5 5 5 6 6 5 6 5 5 5 6 5 5 5 5 6 5 5 6 5 6 5 5 5 5 5 6 6 5 5 5 5 5 5 5 5 5 5 5 5 5 5 5 5 6 5 5 5 5 5 5 5 5 5 5 5 5 5 5 5 5 5 5 5 5 5 5 5 5 5 5 5 5 5 5 5 5 5 5 5 5 5 5 5 5 5 5 5 5 5 5 6 5 5 5 5 5 5 6 5 5 5 5 5 5 5 5 6 6 5 5 5 5 5 5 5 5 5 5 5 5 5 5 5 5 5 5 5 5 5 5 6 6 5 5 5 5 5 5 5 5 5 5 5 5 5 5 5 6 5 5 5 5 5 5 5 5 5 5 5 5 5 5 6 5 5 5 5 5 5 5 5 5 5 5 5 5 5 5 5 5 5 5 5 5 5 5 5 5 5 5 5 5 5 5 5 5 5 5 5 5 5 5 5 5 5 5 5 5 5 5 5 5 5 5 5 5 5 5 5 5 5 5 5 5 5 5 5 5 5 5 5 5 6 5 5 5 5 5 5 5 5 5 5 5 5 5 5 5 5 6 5 5 5 5 6 5 5 5 5 5 5 6 5 5 5 5 6 5 6 5 6 5 5 5 5 6 5 5 6 5 6 5 5 5 5 5 5 5 5 5 5 5 5 5 5 5 5 5 5 5 5 5 5 5 5 5 5 5 5 6 5 5 6 5 5 5 5 5 5 5 5 5 5 5 5 6 5 5 5 5 5 5 5 5 5 5 5 5 5 5 6 5 5 5 5 5 5 5 6 5 6 5 5 6 5 6 5 6 5 5 5 5 5 5 5 5 5 5 6 5 5 5 5 5 5 5 5 5 5 6 5 5 5 6 5 6 6 5 5 6 5 5 5 5 6 5 5 5 5 6 5 5 6 5 5 5 5 5 5 5 6 5 5 5 6 5 5 5 5 5 5 5 5 5 5 5 5 5 5 6 5 5 5 6 5 5 5 5 5 5 5 5 5 6 5 5 5 5 6 5 5 5 6 5 5 6 5 5 5 5 5 5 5 5 5 5 5 5 5 5 6 5 5 5 5 5 5 5 5 5 5 5 5 5 5 5 5 5 5 5 5 5 5 5 5 5 6 5 5 5 5 5 5 6 5 5 5 5 5 5 5 5 5 5 5 5 5 5 5 5 5 5 5 5 5 5 5 6 5 5 5 5 5 5 5 6 5 5 5 5 5 5 5 6 5 5 6 5 5 5 5 5 5 5 5 5 5 5 5 5 5 5 5 5 5 5 5 5 5 5 5 5 5 5 5 5 5 5 5 5 5 5 5 5 5 5 5 5 5 5 5 5 6 5 5 6 5 5 5 5 6 6 5 5 5 5 5 5 6 5 5 5 6 5 5 5 5 6 5 5 5 5 5 6 5 5 5 5 5 5 6 5 5 5 5 5 5 5 5 5 6 5 5 5 5 5 6 5 5 6 6 5 5 5 5 5 5 5 5 5 5 5 5 6 5 5 5 5 5 5 5 5 5 5 5 5 5 5 5 5 5 5 5 5 5 5 6 5 5 5 5 5 5 5 5 6 5 5 5 5 6 5 5 6 6 5 5 5 5 5 5 5 5 5 5 5 5 5 5 5 5 5 5 5 5 5 5 5 5 5 5 5 5 5 5 5 5 5 5 5 5 5 5 5 5 5 5 5 5 6 5 6 5 5 5 5 5 5 5 5 5 5 5 5 5 5 5 5 5 5 6 5 5 5 6 5 5 5 5 5 5 5 5 5 5 5 5 5 6 5 5 5 5 5 5 5 5 5 5 5 5 5 5 5 5 6 5 6 5 5 5 5 5 5 5 5 5 5 5 6 5 5 5 6 5 5 5 5 6 5 5 6 6 5 6 5 5 5 5 5 5 5 5 5 5 5 5 5 5 5 5 5 5 5 5 5 5 5 5 5 5 6 5 6 5 5 5 6 5 5 5 5 5 5 6 5 5 5 5 5 5 5 6 6 5 5 6 6 5 6 5 5 6 6 5 5 6 5 5 6 5 5 5 5 5 6 5 5 5 5 6 5 5 5 5 5 5 5 5 5 5 5 6 5 5 5 6 5 6 6 5 5 5 5 6 5 5 5 6 5 5 5 6 5 5 5 5 5 5 6 5 5 5 5 5 5 5 5 5 6 6 5 5 5 5 5 5 5 5 5 5 5 5 5 5 5 5 5 6 5 5 5 5 5 5 5 5 5 5 5 5 5 5 6 5 5 5 6 5 5 5 5 5 5 5 5 5 5 5 5 5 5 5 5 5 5 6 5 5 5 5 5 5 6 5 5 5 5 5 5 5 6 5 5 5 5 5 5 5 5 5 5 5 5 6 5 5 5 5 5 5 5 6 5 5 5 5 5 5 5 5 5 5 5 5 5 5 5 5 5 5 5 5 5 5 5 5 5 5 5 5 5 5 5 5 5 5 6 5 5 5 6 5 5 5 5 5 5 5 5 5 5 5 6 5 5 5 5 6 5 5 5 5 5 5 5 5 5 6 6 5 6 5 5 5 5 5 5 5 5 5 5 6 5 5 5 5 5 6 5 6 5 5 5 5 5 5 5 5 5 5 5 5 5 5 6 5 5 5 5 5 5 5 5 5 6 5 5 5 5 5 6 5 5 5 5 5 6 6 5 5 6 5 5 5 6 6 6 5 5 5 6 5 6 5 5 5 5 5 5 5 5 6 5 5 5 6 5 5 6 6 5 5 5 5 5 5 5 5 5 5 5 5 5 5 5 5 5 5 5 5 6 5 5 5 5 5 5 5 5 6 5 5 6 5 5 6 6 6 5 5 5 5 5 5 5 5 5 5 5 5 5 5 5 5 6 5 6 5 6 5 5 6 5 5 5 6 5 6 5 6 5 5 5 5 5 5 5 6 5 5 5 5 5 5 5 5 5 5 5 5 5 5 5 5 5 5 5 5 5 5 5 5 5 5 5 5 5 5 5 5 5 6 5 6 5 5 5 5 5 5 5 5 5 5 5 5 5 5 5 5 5 5 5 5 5 5 6 6 5 5 5 6 6 5 5 6 5 5 5 6 5 6 5 5 5 5 6 5 6 5 5 6 6 5 5 5 5 5 5 5 5 5 5 6 5 5 5 5 5 5 5 5 5 5 5 5 5 5 5 6 5 5 5 5 5 5 6 5 5 5 5 5 5 5 5 6 5 5 6 6 6 5 5 5 5 6 6 5 5 6 5 5 5 5 5 5 5 6 5 5 5 5 5 6 6 5 5 5 6 5 5 5 6 5 6 5 5 5 5 5 5 5 5 5 5 5 5 5 5 5 5 5 5 5 5 5 5 5 5 6 5 5 5 5 5 5 5 5 6 5 5 5 5 5 6 5 6 5 6 5 5 5 5 6 5 5 5 5 5 6 5 5 6 5 6 5 5 5 5 6 6 5 5 5 5 6 5 5 5 5 6 5 5 6 5 5 6 5 5 5 6 5 6 5 5 5 6 5 5 6 5 5 5 6 5 5 5 5 5 5 5 5 5 5 5 5 5 5 5 6 5 5 5 5 5 6 5 5 6 5 5 5 6 5 5 5 5 5 5 6 5 5 5 5 5 5 5 5 5 5 5 5 5 5 5 5 5 5 5 5 5 5 5 5 5 5 5 5 5 6 5 5 5 5 6 5 5 5 5 5 5 5 5 5 5 5 5 6 5 5 6 5 5 5 6 5 5 6 5 5 5 6 5 5 6 5 5 6 5 6 5 5 5 6 6 5 5 5 5 5 5 5 6 5 6 6 5 5 6 5 6 5 5 5 5 5 5 5 6 5 5 6 6 5 5 5 5 5 6 5 5 5 5 5 5 5 5 5 5 5 5 5 5 5 5 5 6 5 5 5 5 6 5 5 5 6 5 6 6 5 5 5 5 5 5 5 5 5 5 6 5 5 6 5 5 5 5 5 5 6 5 5 5 5 5 5 5 5 5 5 5 5 5 5 5 5 5 6 5 5 5 6 5 6 5 5 5 5 5 5 5 5 6 5 5 5 6 5 6 5 5 5 6 5 5 5 5 5 5 5 5 5 6 5 5 5 5 6 5 5 5 5 5 5 5 6 5 6 5 6 5 5 5 5 5 5 5 5 5 5 5 5 5 5 5 5 5 6 5 6 5 5 5 6 5 5 5 5 5 5 5 6 6 5 5 5 6 5 6 5 6 5 5 5 6 5 5 5 6 5 5 5 6 5 5 5 5 5 6 5 5 5 5 6 5 5 5 5 6 5 5 5 5 5 5 5 5 6 5 5 5 5 6 5 5 5 5 5 5 5 6 5 5 5 5 5 5 5 5 5 5 5 6 6 5 5 5 5 5 5 5 6 5 5 5 5 5 5 5 5 6 5 5 5 5 5 5 5 5 5 5 5 6 5 5 5 5 6 5 6 6 5 5 5 6 5 5 5 5 5 5 6 5 5 5 5 5 5 5 5 5 6 6 5 6 5 5 6 5 5 5 6 5 6 6 6 5 6 5 6 5 5 5 5 6 6 6 6 5 6 5 5 5 5 6 5 5 5 5 6 5 6 5 5 5 5 5 5 5 5 6 5 5 6 5 5 5 6 5 5 5 5 5 5 5 5 5 5 5 5 6 5 5 5 5 5 6 5 6 6 5 6 5 5 5 5 5 5 5 5 6 5 5 6 5 5 5 6 5 5 5 5 5 5 5 5 5 5 5 5 5 5 5 5 5 5 5 5 5 5 5 6 6 5 5 5 5 5 6 5 5 5 5 5 5 6 5 5 5 5 5 5 5 5 5 5 5 5 5 5 5 6 5 5 5 5 6 5 5 5 5 5 5 5 5 6 5 5 5 6 6 5 5 5 6 5 5 5 5 5 5 5 6 5 5 5 5 5 5 5 5 5 5 5 5 6 5 5 5 5 5 5 6 5 5 5 5 6 5 5 5 5 5 6 5 5 5 5 6 5 5 5 5 5 5 5 5 5 5 5 5 5 5 5 5 6 5 6 5 5 5 6 5 6 5 5 5 5 5 5 6 5 5 5 5 5 5 5 5 5 5 5 5 5 5 5 5 5 5 5 5 5 5 5 5 5 5 5 5 5 5 5 5 5 5 5 5 6 5 5 6 5 5 5 5 5 5 5 5 6 5 5 5 5 5 5 5 5 5 5 5 5 5 5 6 5 6 5 5 5 5 5 5 6 5 5 5 5 5 5 5 5 5 5 5 5 5 5 6 5 5 6 5 5 5 5 5 5 6 6 5 6 5 5 5 5 5 6 5 5 5 5 6 5 5 5 5 5 6 5 5 5 5 5 5 5 6 5 5 5 5 5 5 5 5 5 5 5 5 5 5 6 5 6 5 5 5 5 5 5 6 5 5 5 5 5 5 5 5 5 5 5 6 5 5 5 5 5 5 5 6 5 5 5 5 5 5 5 6 5 5 6 5 5 6 6 5 5 5 5 5 5 5 5 5 5 5 5 5 5 5 6 5 5 5 5 5 5 6 5 6 5 5 5 5 5 5 5 5 5 5 6 5 5 5 5 5 5 5 5 5 5 5 5 5 5 5 5 5 5 5 5 5 6 5 5 5 5 5 5 6 5 5 5 5 5 6 5 5 5 5 5 6 5 5 6 5 5 5 5 5 5 5 5 6 5 5 5 6 5 5 5 5 5 5 5 5 5 5 6 5 5 5 5 5 5 5 5 5 5 5 5 5 5 5 5 5 5 5 5 5 5 5 5 6 5 6 5 5 5 5 5 5 5 5 5 6 5 6 5 5 5 5 6 5 5 5 6 5 6 5 5 6 5 5 5 5 5 5 5 5 6 5 5 5 5 6 5 5 5 6 5 5 5 6 5 5 5 5 5 5 5 5 6 5 5 5 5 5 5 5 5 5 5 5 5 5 5 6 5 5 5 6 5 5 6 5 5 5 5 5 5 6 5 5 5 5 5 5 5 5 5 5 5 5 5 5 5 5 5 5 5 5 5 5 6 5 5 5 5 5 5 5 5 5 5 5 5 5 5 5 5 5 5 5 5 5 6 5 6 5 5 5 5 5 5 5 5 5 5 5 5 5 5 5 5 5 6 5 5 5 5 5 5 5 5 5 5 5 5 6 5 5 5 5 5 5 5 5 5 5 6 5 5 5 6 5 5 5 5 5 6 5 5 5 5 5 6 5 5 5 5 5 5 6 5 5 6 5 5 5 5 5 6 5 5 5 5 5 5 5 5 5 5 5 5 5 5 5 5 5 5 5 5 5 5 5 5 6 5 5 5 5 5 5 6 5 5 6 6 5 5 5 5 5 5 5 5 5 5 5 5 5 5 5 5 5 5 5 6 5 5 6 5 5 6 5 5 5 5 5 5 5 5 6 6 5 5 5 5 5 5 6 5 5 5 5 5 6 5 5 5 5 5 5 5 5 5 5 5 5 5 5 5 5 5 5 5 5 5 5 5 5 5 5 5 5 5 5 5 5 5 5 5 5 5 5 5 5 5 5 5 5 5 5 5 5 5 5 5 5 5 5 5 5 5 5 5 5 5 5 6 5 5 5 5 5 5 5 6 5 5 5 5 5 5 5 5 5 5 6 5 5 5 5 6 5 5 5 5 6 5 5 5 5 5 5 6 5 5 5 5 5 5 5 5 5 5 6 5 5 5 5 5 5 5 6 5 5 5 5 5 5 5 5 6 5 5 6 5 5 5 5 5 5 5 5 6 5 5 5 5 5 6 5 6 5 5 5 5 5 6 5 5 5 6 5 5 5 5 5 5 5 5 5 6 5 5 5 5 6 5 5 5 5 5 5 5 5 5 5 5 5 5 6 5 5 5 5 5 5 5 5 5 6 5 5 5 5 5 5 5 5 5 5 5 5 5 5 5 5 5 5 6 6 5 5 5 5 5 5 5 5 5 5 5 5 6 5 5 5 5 5 5 5 5 5 5 5 5 5 5 5 6 5 5 5 5 5 6 5 5 6 5 5 5 5 5 5 6 5 5 5 5 5 5 5 5 5 5 5 5 5 5 5 5 5 5 5 5 5 5 5 5 5 5 5 5 5 5 5 5 5 5 6 5 5 5 5 6 5 5 5 5 5 6 5 5 5 5 5 5 5 5 5 5 5 5 5 5 5 5 5 5 5 5 5 5 5 5 5 5 5 5 5 5 5 6 5 5 6 5 5 5 5 5 5 6 5 5 5 5 6 5 5 5 5 5 5 5 5 5 5 5 5 6 5 5 5 5 6 5 5 5 5 5 5 5 5 5 5 5 5 5 5 5 5 5 5 6 5 5 5 5 5 5 5 5 5 5 5 5 5 5 5 5 5 5 5 5 5 5 5 5 5 5 5 5 5 5 5 5 5 5 5 5 5 5 5 5 5 6 5 5 5 5 5 5 6 6 6 6 5 5 5 5 6 5 5 5 5 6 5 5 5 5 5 5 5 5 5 5 5 5 5 6 5 5 5 5 5 5 5 5 6 5 5 5 5 5 5 5 6 5 5 5 6 5 6 5 5 5 6 6 5 5 5 5 5 5 5 5 5 5 5 5 5 5 5 5 5 5 5 5 5 5 5 5 5 6 5 5 5 5 5 5 5 6 5 5 5 5 5 5 5 5 5 5 5 5 5 5 5 5 5 5 5 5 5 5 5 5 6 5 5 5 5 5 5 6 5 5 5 5 5 5 5 5 5 6 5 5 5 5 5 5 5 5 5 5 5 5 5 5 5 5 5 5 5 5 5 5 5 5 5 5 5 5 6 5 5 5 5 5 5 5 5 5 5 5 5 5 5 6 5 5 5 5 5 6 5 5 5 6 5 5 5 5 6 5 5 6 5 5 6 5 5 5 5 5 5 6 5 5 6 6 5 6 5 5 6 5 5 5 6 5 5 5 5 5 5 5 5 5 5 5 5 5 6 5 6 5 5 6 6 5 6 5 5 6 5 5 5 5 5 5 5 5 5 6 5 5 6 5 5 5 5 5 5 5 5 6 5 5 5 6 5 5 5 5 5 5 5 5 5 5 5 6 5 6 5 5 5 5 6 5 5 5 5 5 5 5 5 5 5 6 5 6 5 5 5 5 5 5 6 5 5 5 6 5 5 5 5 5 5 5 5 5 5 5 5 6 5 5 5 5 5 5 5 5 5 5 5 5 5 5 5 6 5 5 5 5 5 5 6 5 5 6 5 5 5 5 6 5 5 5 5 5 5 5 
</DataArray>
<DataArray type="Float64" Name="stress" NumberOfComponents="9" format="ascii">
-0.14674666976237349 -853.15100910525143 0 -853.15100910525143 3087.7157801117282 0 0 0 0 -210.97088834438327 114.7885747500768 0 114.7885747500768 1648.5711272813933 0 0 0 0 -158.46983646907904 -1832.6484637879912 0 -1832.6484637879912 5488.6240901923884 0 0 0 0 -2.1937408411052988 0.59106100720930499 0 0.59106100720930499 15.450099038068743 0 0 0 0 428.64638825846851 -1786.51900623234 0 -1786.51900623234 2076.6931209383765 0 0 0 0 -1.1814408735907089 0.98954662446411135 0 0.98954662446411135 14.202955996286505 0 0 0 0 -42.762868315607832 -218.7666465557013 0 -218.7666465557013 1670.3483984328341 0 0 0 0 698.46994432255167 -2527.4617061004683 0 -2527.4617061004683 3664.4814247193281 0 0 0 0 -381.47931621280372 -681.97332759221899 0 -681.97332759221899 4452.3047440019072 0 0 0 0 1.6600290280989038 0.64602780586943709 0 0.64602780586943709 32.785658739202034 0 0 0 0 341.40839456329815 -462.48376518979785 0 -462.48376518979785 3368.3709282525524 0 0 0 0 1.347686584891612 -3.9252741983810893 0 -3.9252741983810893 3.0963251822607276 0 0 0 0 0.68388344180987648 -66.448290205546073 0 -66.448290205546073 149.52232651312806 0 0 0 0 277.71172150744673 -304.31953230095314 0 -304.31953230095314 1536.5978419973108 0 0 0 0 2.6320861829701658 19.963943195793831 0 19.963943195793831 50.267759338965334 0 0 0 0 -164.35336263316265 -8.4849683359425399 0 -8.4849683359425399 41.95910179639759 0 0 0 0 297.80414767431711 -649.48670728494471 0 -649.48670728494471 983.62203708056768 0 0 0 0 468.23871384962206 -1469.1796754110474 0 -1469.1796754110474 2572.2556850960682 0 0 0 0 740.64497191805037 -997.1874122040681 0 -997.1874122040681 1048.7693758058667 0 0 0 0 1434.0357451808184 -2307.9254970456404 0 -2307.9254970456404 3351.2337976872222 0 0 0 0 -552.39186020419356 641.95142300119915 0 641.95142300119915 2186.9066755998138 0 0 0 0 556.69194508500061 -486.89125540302484 0 -486.89125540302484 3960.576659384431 0 0 0 0 -138.01638933156971 -569.67403171316619 0 -569.67403171316619 5485.2153694673034 0 0 0 0 1129.3110974860062 -999.19697909684328 0 -999.19697909684328 5506.7481628696405 0 0 0 0 611.17708569351009 -913.30883952805198 0 -913.30883952805198 5679.0705608892604 0 0 0 0 867.64733115965669 -1579.0216454395995 0 -1579.0216454395995 4466.8902418624493 0 0 0 0 142.9499070143537 -1599.834529407075 0 -1599.834529407075 5483.6881347056624 0 0 0 0 573.77307096676827 -2120.2499287602113 0 -2120.2499287602113 4161.7762637717897 0 0 0 0 -93.080385568542169 485.09962489289319 0 485.09962489289319 2420.5666369489918 0 0 0 0 1399.8070300792911 -2598.2660228637778 0 -2598.2660228637778 4713.6829226312693 0 0 0 0 -0.66355420170138935 4.878962618942694 0 4.878962618942694 25.863970742216623 0 0 0 0 -32.437504275282151 645.23111618401163 0 645.23111618401163 397.17975823693268 0 0 0 0 -138.37456388056376 1337.8046886944649 0 1337.8046886944649 5496.1779850434832 0 0 0 0 5.3768399996406444 -10.528937162882585 0 -10.528937162882585 15.439713672309921 0 0 0 0 -1.8108971225886563 -1997.0562990871404 0 -1997.0562990871404 4991.6420855764736 0 0 0 0 558.75509087798139 -1741.3581276827681 0 -1741.3581276827681 -14.339490024460247 0 0 0 0 -423.86629871462037 269.52011289466463 0 269.52011289466463 753.4952698118941 0 0 0 0 -176.49379795753953 273.99155336629337 0 273.99155336629337 288.77189721629111 0 0 0 0 441.2412493686071 365.50064556545112 0 365.50064556545112 297.64273240252805 0 0 0 0 245.53199433886022 320.64575047798098 0 320.64575047798098 22.70277935298509 0 0 0 0 -43.225758795783804 168.92248441629636 0 168.92248441629636 -42.989443579921499 0 0 0 0 208.53495188530576 -265.16037432436133 0 -265.16037432436133 39.437663859294844 0 0 0 0 618.48206210336934 -253.63584901217837 0 -253.63584901217837 571.59529971334268 0 0 0 0 318.20246062361673 215.20730570910382 0 215.20730570910382 206.72960038041492 0 0 0 0 213.95667340727783 -22.002929403938197 0 -22.002929403938197 -28.328231180130388 0 0 0 0 -139.50602548470658 -130.21019011538738 0 -130.21019011538738 31.51990047590516 0 0 0 0 45.271582558791124 166.35648414814023 0 166.35648414814023 233.98520835809177 0 0 0 0 -0.347815216558649 35.980787229973544 0 35.980787229973544 -23.215357052286564 0 0 0 0 93.978598609712833 -157.75903772324091 0 -157.75903772324091 -191.33023002122354 0 0 0 0 -8.8313600015293616 39.596035260658169 0 39.596035260658169 -11.00835315243782 0 0 0 0 20.375732955003286 88.738205250476312 0 88.738205250476312 -88.78772446342191 0 0 0 0 23.739737794955317 66.423949417809126 0 66.423949417809126 -156.5809636288177 0 0 0 0 0.66352679217699784 0.18881069076718404 0 0.18881069076718404 -10.130871693340588 0 0 0 0 15.326104522829155 212.50841349157417 0 212.50841349157417 373.91249086821335 0 0 0 0 8.636983892002263 216.18502110426925 0 216.18502110426925 372.45865770247474 0 0 0 0 -19.416965242539845 129.53723314684612 0 129.53723314684612 312.21681457805971 0 0 0 0 2.3785290910031449 126.0213296950169 0 126.0213296950169 306.55059476797032 0 0 0 0 -33.537637189897623 102.36080725427018 0 102.36080725427018 -16.250306061672745 0 0 0 0 -58.046792985819593 165.45794267046585 0 165.45794267046585 -5.3311687463137787 0 0 0 0 -9.9838072914294571 134.73546411147254 0 134.73546411147254 -139.00608723262849 0 0 0 0 14.083173406842207 179.75725447997684 0 179.75725447997684 -65.662119671469554 0 0 0 0 109.30457864357629 -2.8543003117883927 0 -2.8543003117883927 -277.41939035235555 0 0 0 0 8.5607859437109255 205.67123056313721 0 205.67123056313721 367.01964619687351 0 0 0 0 97.376504842164195 168.38605584592733 0 168.38605584592733 -114.14294482942205 0 0 0 0 -3.2453067346202538 -2.3298383547280821 0 -2.3298383547280821 14.156204217200951 0 0 0 0 -16.371933541430575 41.705636368530776 0 41.705636368530776 -10.599695044734105 0 0 0 0 -71.601427683417569 125.99746077586315 0 125.99746077586315 -118.67344141108333 0 0 0 0 -83.704094772855569 16.846864707913483 0 16.846864707913483 157.22327873227187 0 0 0 0 31.445025472172347 242.8950140393863 0 242.8950140393863 353.48427956925298 0 0 0 0 263.59696623818036 20.368780483855517 0 20.368780483855517 -20.628613042383222 0 0 0 0 4.9380811717583128 -68.656716495599539 0 -68.656716495599539 -42.822275455429917 0 0 0 0 120.717205890277 124.8108995022485 0 124.8108995022485 -142.51957793801557 0 0 0 0 296.79743004927877 20.88977473302657 0 20.88977473302657 457.39640952395712 0 0 0 0 -105.3685819700213 122.88021364334782 0 122.88021364334782 1463.3231339829945 0 0 0 0 22.892168761956782 214.12149607026367 0 214.12149607026367 363.00721818012607 0 0 0 0 139.16709133086889 392.39623273371944 0 392.39623273371944 555.57893538942153 0 0 0 0 -151.68221893601833 57.502314193960046 0 57.502314193960046 957.31537104391464 0 0 0 0 -295.33526938076466 -400.03557526368968 0 -400.03557526368968 1397.2678487099984 0 0 0 0 -1.1313296206307495 -1.6499061490589924 0 -1.6499061490589924 9.0475929157468613 0 0 0 0 -114.47641049016269 28.718669884729024 0 28.718669884729024 279.19287167367293 0 0 0 0 -102.93735100263088 94.480114406391294 0 94.480114406391294 369.91858095499629 0 0 0 0 -115.38570572294461 139.98049321542203 0 139.98049321542203 541.48242634195776 0 0 0 0 21.150238856425631 223.35741821002739 0 223.35741821002739 376.04198671565246 0 0 0 0 -98.971487139489113 -13.954860858360917 0 -13.954860858360917 178.23129469348351 0 0 0 0 -169.79870343984476 -53.13266590116109 0 -53.13266590116109 350.60332257848495 0 0 0 0 -179.85879852592939 11.968087707951781 0 11.968087707951781 314.6023619030093 0 0 0 0 -13.107112258528883 -60.02277145490828 0 -60.02277145490828 120.37694630129454 0 0 0 0 11.427226056906193 141.6457160509035 0 141.6457160509035 182.38170384023397 0 0 0 0 -194.70996995191263 -117.39065370730532 0 -117.39065370730532 206.75688850697497 0 0 0 0 -64.236209132749991 -0.98027963656022621 0 -0.98027963656022621 223.18692207666754 0 0 0 0 10.900378180418727 -214.34828100270533 0 -214.34828100270533 337.63769601157401 0 0 0 0 -14.971678556660823 -51.89288433411491 0 -51.89288433411491 126.28042829159656 0 0 0 0 90.315445552915662 339.24082600379188 0 339.24082600379188 626.71233559762186 0 0 0 0 98.495118310184239 323.99583488589269 0 323.99583488589269 787.12441421253243 0 0 0 0 -233.30775371519215 -22.00808502054133 0 -22.00808502054133 710.39816907763816 0 0 0 0 -0.14729921332020976 157.42481526173651 0 157.42481526173651 552.70560628005478 0 0 0 0 190.7712161276938 -193.17909142415738 0 -193.17909142415738 315.82169620806235 0 0 0 0 523.85318110346373 180.65585955895949 0 180.65585955895949 331.00797865883214 0 0 0 0 -90.59268565687222 125.36998431445681 0 125.36998431445681 328.31463195779088 0 0 0 0 -5.9591201287192996 -14.391103583950695 0 -14.391103583950695 23.948807216640603 0 0 0 0 236.77542982315885 87.058537115110084 0 87.058537115110084 124.24037510500057 0 0 0 0 44.895708414198907 -55.05608620030398 0 -55.05608620030398 67.636496022692882 0 0 0 0 0.48951092513268657 12.502728144037462 0 12.502728144037462 29.723014655252825 0 0 0 0 201.64910746788297 250.2577999845671 0 250.2577999845671 230.22312132688239 0 0 0 0 40.449845159474776 134.03702768856601 0 134.03702768856601 226.11376460061183 0 0 0 0 37.254683343855035 137.92740388661332 0 137.92740388661332 299.57442101623747 0 0 0 0 0.28403875766378184 42.934955446151434 0 42.934955446151434 67.036510257865302 0 0 0 0 2.1010437902543915 0.21054592368616909 0 0.21054592368616909 -0.58983266186146466 0 0 0 0 -6.2641095324143716 61.617995077369415 0 61.617995077369415 174.82627660597791 0 0 0 0 -1.7625630579636322 43.316321004160272 0 43.316321004160272 148.52770396036067 0 0 0 0 10.941863649949482 50.096974479420169 0 50.096974479420169 224.23510435574281 0 0 0 0 11.011409973463136 55.596985024068402 0 55.596985024068402 134.10337620787124 0 0 0 0 5.6013733239428714 36.599937310432324 0 36.599937310432324 8.5893065933565111 0 0 0 0 0.61202402725939464 73.14908176191966 0 73.14908176191966 234.12608187067235 0 0 0 0 -21.69647310333994 39.769805235599051 0 39.769805235599051 261.99246273118479 0 0 0 0 -8.2146384698010024 77.130466758912917 0 77.130466758912917 250.64866689400515 0 0 0 0 -24.033065249369884 15.654153138078982 0 15.654153138078982 216.10065294441301 0 0 0 0 -638.34483100171133 -484.92105440175146 0 -484.92105440175146 -669.30713160529558 0 0 0 0 -1828.8012287023589 -1053.6274962478856 0 -1053.6274962478856 236.03790183964065 0 0 0 0 87.856446251129455 241.87755012442176 0 241.87755012442176 268.58126983916736 0 0 0 0 -11.512568863629081 -1.8950422956517912 0 -1.8950422956517912 17.670835428085354 0 0 0 0 -1171.2435191875836 80.527262387820883 0 80.527262387820883 2642.3395878527008 0 0 0 0 -525.50224922857296 -71.71875896576239 0 -71.71875896576239 102.74717696681091 0 0 0 0 -484.42678539786357 3424.7880512635647 0 3424.7880512635647 5489.0489698462115 0 0 0 0 -1139.0593283009869 1144.5942895123462 0 1144.5942895123462 3154.6050047197641 0 0 0 0 6.5192299939312806 7.7034286932205305 0 7.7034286932205305 12.285358225895692 0 0 0 0 417.06858124818825 1900.2957779527515 0 1900.2957779527515 -392.16774907012586 0 0 0 0 -1080.2808852489022 195.86842869735119 0 195.86842869735119 1027.6564386174286 0 0 0 0 577.54225628345625 1128.4551628674235 0 1128.4551628674235 761.27659750058956 0 0 0 0 -817.5751583965648 128.08608329178242 0 128.08608329178242 337.66336977871833 0 0 0 0 -1116.051868846363 466.00268759341998 0 466.00268759341998 144.67136209541695 0 0 0 0 -1201.6086034101065 -479.74745989976782 0 -479.74745989976782 216.60565865602985 0 0 0 0 5.9912599454367435 17.632640374199042 0 17.632640374199042 37.304320456795438 0 0 0 0 -207.04676120277074 -1299.1014113025594 0 -1299.1014113025594 5500.2923572236905 0 0 0 0 46.804534510599844 192.4089435966016 0 192.4089435966016 1147.4871207342658 0 0 0 0 82.827058866639121 595.23014941777092 0 595.23014941777092 5484.5996373114758 0 0 0 0 287.29783363125398 -690.7695799100693 0 -690.7695799100693 419.74772241632309 0 0 0 0 2.530434457439322 -3.9387294016134433 0 -3.9387294016134433 22.453993441620298 0 0 0 0 -185.72372580981872 661.78051618710015 0 661.78051618710015 -90.072588844399434 0 0 0 0 -17.571067112659936 14.87745123618356 0 14.87745123618356 53.882009486156164 0 0 0 0 -30.482902217805076 -5.4893266336985107 0 -5.4893266336985107 106.98784800884459 0 0 0 0 -39.480168334046539 12.505377591558499 0 12.505377591558499 77.334334080040207 0 0 0 0 -21.262161689406639 53.923044216542621 0 53.923044216542621 70.833278870559298 0 0 0 0 -20.940341906235517 59.572876136480772 0 59.572876136480772 108.49842816013552 0 0 0 0 -20.459034803777719 9.3781341981170812 0 9.3781341981170812 30.077817341864716 0 0 0 0 -35.377939512981357 27.510650644471752 0 27.510650644471752 131.70535058268433 0 0 0 0 -42.571320166677651 18.879859640925133 0 18.879859640925133 105.03289620747819 0 0 0 0 -20.680904299118765 2.6684214032156888 0 2.6684214032156888 117.03853087910102 0 0 0 0 -52.224834595608627 -4.0081592405622359 0 -4.0081592405622359 107.48178529067445 0 0 0 0 -8.083145875446462 -12.027453732694994 0 -12.027453732694994 40.15847951376054 0 0 0 0 -15.601921680698979 7.4553708371167886 0 7.4553708371167886 41.564504867375945 0 0 0 0 -9.2542825607371206 -18.140009613749356 0 -18.140009613749356 42.804910375322379 0 0 0 0 -9.2674233092504252 9.6845804995029425 0 9.6845804995029425 42.754349924661142 0 0 0 0 -8.5712338417110914 4.3705267571640434 0 4.3705267571640434 89.935974653337325 0 0 0 0 117.10153633666798 -192.49920178872708 0 -192.49920178872708 -327.52156432493939 0 0 0 0 -116.75264018785272 -59.171959828127001 0 -59.171959828127001 -101.40179738932056 0 0 0 0 -12.397836038497354 -5.3079800121057303 0 -5.3079800121057303 33.557205048581181 0 0 0 0 17.884398910731761 300.52344549931149 0 300.52344549931149 -344.26379114262818 0 0 0 0 -13.101263435259218 19.157955527070357 0 19.157955527070357 59.243952663350825 0 0 0 0 223.48739901694742 -120.54305808613572 0 -120.54305808613572 -182.23041037980511 0 0 0 0 119.03728645834815 143.94206270449649 0 143.94206270449649 694.66516450227937 0 0 0 0 440.06203241456569 -222.96158319068491 0 -222.96158319068491 634.06584351608763 0 0 0 0 217.5718812200131 -1337.6366543354234 0 -1337.6366543354234 2785.4073079846567 0 0 0 0 -916.61198633335141 -430.70590747358801 0 -430.70590747358801 5489.3473728627723 0 0 0 0 -826.69130980745842 1180.4624914042288 0 1180.4624914042288 5491.747603794618 0 0 0 0 -865.09488163034052 368.63073688995064 0 368.63073688995064 2662.7598144744989 0 0 0 0 59.728643278817003 -221.04088750977826 0 -221.04088750977826 2505.4072948150751 0 0 0 0 -4.9707309618578961 -462.34569486689725 0 -462.34569486689725 302.97350928533706 0 0 0 0 473.12588070962846 407.5679704578215 0 407.5679704578215 731.04991567968682 0 0 0 0 459.53925115370299 -403.37728710487136 0 -403.37728710487136 102.93508280970855 0 0 0 0 -259.88900999542216 474.04596538852638 0 474.04596538852638 424.58983495429857 0 0 0 0 -775.3926321955239 -84.862995353330916 0 -84.862995353330916 343.58853316570458 0 0 0 0 -0.046009932844480905 -5.7579956585558705 0 -5.7579956585558705 40.778570193412179 0 0 0 0 773.80768004048389 2018.4242603111779 0 2018.4242603111779 1625.6569843834441 0 0 0 0 888.47082539478845 -2164.1689385538666 0 -2164.1689385538666 2356.859193463577 0 0 0 0 1.7627140801755492 2.5436266080785614 0 2.5436266080785614 17.207709218232253 0 0 0 0 -631.7880279303165 -837.93159241414105 0 -837.93159241414105 5492.4091034254097 0 0 0 0 -202.57709347496854 850.44429849173866 0 850.44429849173866 1931.0097196486313 0 0 0 0 542.04695626009118 -572.30205918996944 0 -572.30205918996944 964.851988113267 0 0 0 0 -572.9138085518714 -299.66318155556201 0 -299.66318155556201 71.0788149091386 0 0 0 0 8.2616926207897432 -22.485842692729932 0 -22.485842692729932 36.456228011317819 0 0 0 0 -289.08158306381642 43.287956930405926 0 43.287956930405926 210.9805423345133 0 0 0 0 -2.3823820625312653 -8.138588817820132 0 -8.138588817820132 65.585674831010465 0 0 0 0 -32.75140492563844 2.6213360113179078 0 2.6213360113179078 71.337826749957458 0 0 0 0 11.72364429195234 -415.32736826916698 0 -415.32736826916698 -198.05971493964898 0 0 0 0 -9.5481272784747588 -8.5063579485442062 0 -8.5063579485442062 33.120156385049626 0 0 0 0 -8.552466394079147 3.3939443787458003 0 3.3939443787458003 57.42688687973714 0 0 0 0 -222.10110724411484 86.275561744476363 0 86.275561744476363 88.880992665421218 0 0 0 0 -115.08144936632289 149.43235883318994 0 149.43235883318994 91.464827204594258 0 0 0 0 -166.34366698930148 115.36520037618175 0 115.36520037618175 71.258355983358342 0 0 0 0 -92.723874273531464 79.420776804960042 0 79.420776804960042 38.34010405933077 0 0 0 0 -9.113567063193452 8.2134951324676067 0 8.2134951324676067 70.085093882316585 0 0 0 0 -30.293891859125893 17.353764175069955 0 17.353764175069955 44.147981421003351 0 0 0 0 -27.079742748125454 7.1593277463925915 0 7.1593277463925915 58.548092545330292 0 0 0 0 -10.280465457397725 12.656285647918338 0 12.656285647918338 27.715032231733346 0 0 0 0 -19.220209757996251 14.842487137640319 0 14.842487137640319 43.740958751559184 0 0 0 0 3.3828307174026122 50.881013204721967 0 50.881013204721967 20.421576589869801 0 0 0 0 0.12811364732036878 1.9730877674507781 0 1.9730877674507781 -4.1732776586991633 0 0 0 0 -26.618055800923685 16.057029233270441 0 16.057029233270441 145.16259684838587 0 0 0 0 2.4046299021147206 -131.15179666242329 0 -131.15179666242329 441.38718201621668 0 0 0 0 29.471444011801395 -139.14070983074635 0 -139.14070983074635 302.34440842783079 0 0 0 0 -7.8042523008534772 -98.893157525402785 0 -98.893157525402785 372.29208093765192 0 0 0 0 -165.75627294303195 13.306121789704775 0 13.306121789704775 25.161590500414604 0 0 0 0 107.73488181273933 -77.970738002099097 0 -77.970738002099097 126.28845764655853 0 0 0 0 -28.945561872846007 38.324308880106202 0 38.324308880106202 16.96206937856774 0 0 0 0 -5.9529755979413288 15.061453989156014 0 15.061453989156014 21.972707808368 0 0 0 0 32.310107507299108 -16.239379698701669 0 -16.239379698701669 -127.5023889943468 0 0 0 0 -16.261363703132702 -135.50474510644563 0 -135.50474510644563 145.02710860103252 0 0 0 0 -0.0099521669632141041 0.27731855153243856 0 0.27731855153243856 9.931053305261571 0 0 0 0 430.21796234455701 -851.86944279980708 0 -851.86944279980708 1582.1650587869808 0 0 0 0 203.6617306938997 430.09586332382605 0 430.09586332382605 334.02950472136945 0 0 0 0 643.04684941950927 286.558759549971 0 286.558759549971 60.607809376393561 0 0 0 0 -1.23944178395368 29.449689838456834 0 29.449689838456834 344.13012202073878 0 0 0 0 9.6698060983262621 392.57508675422287 0 392.57508675422287 1394.187117427191 0 0 0 0 -0.0065531613281564205 313.04699047327449 0 313.04699047327449 826.42948547528067 0 0 0 0 -139.03002463970006 -326.40226543739118 0 -326.40226543739118 1260.360536342967 0 0 0 0 53.06622729873925 -137.23290838718822 0 -137.23290838718822 350.33341537117667 0 0 0 0 214.24658413872567 -375.66751517220109 0 -375.66751517220109 544.04605681510293 0 0 0 0 121.39780192359649 -244.55342021194156 0 -244.55342021194156 447.62871459283633 0 0 0 0 -82.773803682987818 -157.16637605495634 0 -157.16637605495634 556.78759096187423 0 0 0 0 -45.651197404886261 -246.810637254428 0 -246.810637254428 762.11104574979254 0 0 0 0 -187.86217104409843 -167.05615608948574 0 -167.05615608948574 751.28906890765757 0 0 0 0 -149.96510424387998 -135.69055001201923 0 -135.69055001201923 763.89430524171621 0 0 0 0 -132.62016076536747 33.395864152451395 0 33.395864152451395 754.85839030530678 0 0 0 0 -43.038085715501438 -109.20223142771647 0 -109.20223142771647 314.96661537856562 0 0 0 0 -45.450270976247339 -199.56906524745864 0 -199.56906524745864 669.11699593265985 0 0 0 0 -99.403357114379105 -76.224355251601082 0 -76.224355251601082 684.71851827730825 0 0 0 0 -51.783308099304122 -118.9930903806744 0 -118.9930903806744 709.14164352533408 0 0 0 0 -152.08193583250886 -119.25388885423308 0 -119.25388885423308 707.94294997316319 0 0 0 0 -84.371997967400603 -98.289585160731804 0 -98.289585160731804 707.30444508222809 0 0 0 0 -77.871273234594355 -98.745917634965735 0 -98.745917634965735 623.22364459512755 0 0 0 0 -30.925011254475976 -29.86919645575108 0 -29.86919645575108 720.81277587576187 0 0 0 0 -0.43670183975459764 -1.3071653779514065 0 -1.3071653779514065 0.061676355938972804 0 0 0 0 -25.722902490844717 -1.4029667053255253 0 -1.4029667053255253 603.5438709291775 0 0 0 0 -23.044249108640543 -60.883367951199034 0 -60.883367951199034 499.56153397606977 0 0 0 0 -37.87837753026588 -61.377747297265159 0 -61.377747297265159 569.90127564879367 0 0 0 0 -1.3355491691121557 -3.2662318567175816 0 -3.2662318567175816 6.6634453608956372 0 0 0 0 46.983554935990469 -81.674150189573993 0 -81.674150189573993 326.50656363581948 0 0 0 0 45.776205849788766 -95.552061487825995 0 -95.552061487825995 315.26777799145202 0 0 0 0 -4.7095553522158298 1.7610889941061032 0 1.7610889941061032 56.306160900611303 0 0 0 0 5.3719249259261233 -4.4339121216835338 0 -4.4339121216835338 44.251045397570124 0 0 0 0 -11.13457721548275 -4.4500533870159416 0 -4.4500533870159416 67.839096147756209 0 0 0 0 4.1266914995921979 0.49154471917427145 0 0.49154471917427145 44.081584443840256 0 0 0 0 -9.0133205369229472 -16.994210787852353 0 -16.994210787852353 46.976690066047013 0 0 0 0 -191.82285051827785 -177.2150506368198 0 -177.2150506368198 54.49151982737385 0 0 0 0 83.626033470027323 -49.83137446915498 0 -49.83137446915498 36.318656288611237 0 0 0 0 -3.3766161166107906 -23.118786485502497 0 -23.118786485502497 31.358783457031933 0 0 0 0 -120.71485056861275 -130.57685306749772 0 -130.57685306749772 30.70305051007017 0 0 0 0 -37.730053121574201 36.004948300120304 0 36.004948300120304 119.20307289398625 0 0 0 0 -331.69152431860948 -23.007720689507551 0 -23.007720689507551 150.09105123000336 0 0 0 0 64.077756734667673 2.7311509402061347 0 2.7311509402061347 516.68180386655149 0 0 0 0 0.32216797146975296 32.303229732890031 0 32.303229732890031 667.9692007357371 0 0 0 0 -7.0423872360915993 27.73300154475146 0 27.73300154475146 712.22816440752649 0 0 0 0 -0.29636676746304147 160.00511936159455 0 160.00511936159455 636.10612166443025 0 0 0 0 102.49122009483654 191.35021960169252 0 191.35021960169252 430.75323300730088 0 0 0 0 81.143319082570088 18.968057000543922 0 18.968057000543922 531.46236332657281 0 0 0 0 124.88710386076127 51.284890694718342 0 51.284890694718342 46.506784508794226 0 0 0 0 -49.931617584330525 -0.66053598996950313 0 -0.66053598996950313 823.31837148198974 0 0 0 0 -74.660551612550989 63.168402278679423 0 63.168402278679423 744.12618689662486 0 0 0 0 -32.246174192787294 -25.096061168937013 0 -25.096061168937013 683.41094602499652 0 0 0 0 15.370499537199066 -103.93378059758106 0 -103.93378059758106 729.21295748910052 0 0 0 0 -7.6000720762203855 -50.741341108980123 0 -50.741341108980123 709.0960509601282 0 0 0 0 34.331031092114245 -33.893938708766655 0 -33.893938708766655 537.53781951012206 0 0 0 0 -0.036839488101694684 -0.67480413226209635 0 -0.67480413226209635 0.42779479162724421 0 0 0 0 7.7089197951827373 -68.591703133308329 0 -68.591703133308329 664.98992215422913 0 0 0 0 14.868224490636749 -19.459126420122629 0 -19.459126420122629 619.70610051628319 0 0 0 0 -4.6589741603947914 -64.107588016820955 0 -64.107588016820955 596.34052164295281 0 0 0 0 7.4086673545207304 -24.141893378924578 0 -24.141893378924578 636.27891841898963 0 0 0 0 -41.536984229506743 -37.537170468174736 0 -37.537170468174736 635.1885964491812 0 0 0 0 -7.9062488921390468 -80.161841019784333 0 -80.161841019784333 674.25098533506389 0 0 0 0 8.7693055392751376 -46.288278128220554 0 -46.288278128220554 733.0109206593188 0 0 0 0 18.002349063776592 -54.140932339182655 0 -54.140932339182655 680.16563693841454 0 0 0 0 37.620678654318908 -94.951675774354953 0 -94.951675774354953 687.55956903263359 0 0 0 0 -1.1380131167497893 -89.776848204899579 0 -89.776848204899579 766.01455162407365 0 0 0 0 60.22332455468495 -128.99829846736975 0 -128.99829846736975 763.57184927421622 0 0 0 0 63.956422489040051 -158.68922780007779 0 -158.68922780007779 813.9672814788064 0 0 0 0 106.28607819540775 -79.408794264920289 0 -79.408794264920289 714.56545508768613 0 0 0 0 -31.360902704611362 -66.502266726005473 0 -66.502266726005473 827.43824244168354 0 0 0 0 31.200684482301767 -148.21824132818438 0 -148.21824132818438 506.87120349240286 0 0 0 0 163.10547616372241 -54.57620544481324 0 -54.57620544481324 758.49400433052506 0 0 0 0 177.59572866022972 -174.68349302561546 0 -174.68349302561546 781.26700497997808 0 0 0 0 310.97048121507032 -326.52301102329511 0 -326.52301102329511 927.32539512365474 0 0 0 0 121.36775062588276 -574.93910813122056 0 -574.93910813122056 883.46395977251086 0 0 0 0 169.652322592161 -170.91673476826691 0 -170.91673476826691 1476.5976204467588 0 0 0 0 12.194779566610377 -13.567779213397188 0 -13.567779213397188 -12.665415904112251 0 0 0 0 -525.45534823894195 284.9125403278158 0 284.9125403278158 -110.89848104969133 0 0 0 0 -4.0914250030579922 -7.3405367018689276 0 -7.3405367018689276 15.212919002081932 0 0 0 0 -38.904192999797488 -361.88880402490031 0 -361.88880402490031 1142.8129658004473 0 0 0 0 152.99092370424387 -259.79927038764436 0 -259.79927038764436 1093.1992201644462 0 0 0 0 92.898113666073186 -346.3435752793157 0 -346.3435752793157 1049.5486070475745 0 0 0 0 -165.75158448454658 -319.38601388760253 0 -319.38601388760253 1138.68405713416 0 0 0 0 -77.854451152775255 -174.94984288982596 0 -174.94984288982596 886.59600190565106 0 0 0 0 69.025341473061417 -201.91462339644204 0 -201.91462339644204 811.38212603883585 0 0 0 0 -60.926718799122682 -98.811301716472371 0 -98.811301716472371 761.20037852041423 0 0 0 0 16.755882197623578 -162.41047025934677 0 -162.41047025934677 809.42840000163415 0 0 0 0 -78.647352766907716 -85.941867726287455 0 -85.941867726287455 826.50799212683705 0 0 0 0 -379.6234577799255 686.14291799338207 0 686.14291799338207 716.88675203861203 0 0 0 0 -392.91124758699971 184.39017489008984 0 184.39017489008984 973.24170559186314 0 0 0 0 -96.222149609147891 -10.683460609179747 0 -10.683460609179747 1064.959200694866 0 0 0 0 -729.216569362683 -39.522929036043934 0 -39.522929036043934 1063.7360228390862 0 0 0 0 -60.991636568288413 -164.57441238159663 0 -164.57441238159663 597.57019723551275 0 0 0 0 -97.223529019290623 221.34383893428594 0 221.34383893428594 1372.5915029679018 0 0 0 0 378.55627932159678 406.57875891061849 0 406.57875891061849 753.16786906629568 0 0 0 0 2.5306646561738066 -16.386396026568008 0 -16.386396026568008 21.048018259019102 0 0 0 0 199.63253871550239 777.29256702625389 0 777.29256702625389 1318.8151330560213 0 0 0 0 -462.18200935733148 -1120.020438465639 0 -1120.020438465639 -866.64748259428598 0 0 0 0 -929.15316703281314 112.60601742212748 0 112.60601742212748 937.26263199970708 0 0 0 0 -0.90791881398315866 -22.446908796780548 0 -22.446908796780548 31.138956065084557 0 0 0 0 -202.6022178776384 -605.95999982948706 0 -605.95999982948706 -193.92872483060637 0 0 0 0 44.869099826432603 320.53686535450925 0 320.53686535450925 884.2890533121099 0 0 0 0 -85.193209494475866 199.33741422894127 0 199.33741422894127 973.75413243599178 0 0 0 0 -176.71952431502905 42.774226729216025 0 42.774226729216025 359.05496583203785 0 0 0 0 -39.968286004910624 85.204949684033636 0 85.204949684033636 -181.57058557030109 0 0 0 0 120.12262479747642 -135.9583333103219 0 -135.9583333103219 86.87180761709169 0 0 0 0 415.0142781592167 698.7018973969025 0 698.7018973969025 447.23747239551449 0 0 0 0 -3.7144910532741573 -1.690739502482316 0 -1.690739502482316 6.9230636567317845 0 0 0 0 -1655.0982984163879 -1897.5879278148677 0 -1897.5879278148677 -628.46218971807684 0 0 0 0 816.79275371850508 -833.72295642527752 0 -833.72295642527752 56.089118337469699 0 0 0 0 3.8839405934404159 -9.3153842661055961 0 -9.3153842661055961 27.325678573316452 0 0 0 0 -341.28890113665966 -159.31172111675551 0 -159.31172111675551 184.41869948949898 0 0 0 0 265.00975887709774 -233.18841598583094 0 -233.18841598583094 -190.89283547729065 0 0 0 0 91.946269320530007 -357.11447484662131 0 -357.11447484662131 71.66016258939635 0 0 0 0 -630.91173564643759 215.46279747685185 0 215.46279747685185 485.0859832168353 0 0 0 0 -342.16400529451312 -357.70982110869591 0 -357.70982110869591 625.02337178567541 0 0 0 0 -526.97807936610525 -501.81797971267952 0 -501.81797971267952 119.61198917991715 0 0 0 0 -577.44772462639412 -41.857535253329843 0 -41.857535253329843 201.03271252274499 0 0 0 0 11.246883263633363 -41.210019066688872 0 -41.210019066688872 89.218031421181479 0 0 0 0 -554.21051979844651 -14.756054355348169 0 -14.756054355348169 169.38974741306447 0 0 0 0 16.21173738866878 -147.82329585091065 0 -147.82329585091065 -364.84250017575687 0 0 0 0 26.479108952185243 -45.053251188429897 0 -45.053251188429897 -30.674985043098417 0 0 0 0 -212.64017699955059 -421.75055360043916 0 -421.75055360043916 -146.27606236073188 0 0 0 0 298.67447440147225 -137.43403528404815 0 -137.43403528404815 -189.26090737018967 0 0 0 0 92.159348273501791 -519.06241315045918 0 -519.06241315045918 -123.87403771340905 0 0 0 0 72.558077061705148 -157.75961085126255 0 -157.75961085126255 947.42740184944705 0 0 0 0 106.56557177607249 -113.96346223996079 0 -113.96346223996079 93.878190377043211 0 0 0 0 8.093065981353174 -24.902155565976855 0 -24.902155565976855 70.222686028320311 0 0 0 0 -623.32728269558197 -319.43259168237273 0 -319.43259168237273 834.93305593494733 0 0 0 0 -92.756802552113584 475.29230666928197 0 475.29230666928197 619.06155637332995 0 0 0 0 163.54686511601494 1068.2087550182478 0 1068.2087550182478 1282.0769111202681 0 0 0 0 -225.685767561852 527.54176033568365 0 527.54176033568365 1545.9060297578981 0 0 0 0 -222.17315618118619 853.99710202960705 0 853.99710202960705 3109.4299213866616 0 0 0 0 -581.48714550658178 -994.87406875890883 0 -994.87406875890883 3004.5888087498461 0 0 0 0 -828.28732232224525 -1462.5160776834509 0 -1462.5160776834509 671.04592336059432 0 0 0 0 -2.1089649674908291 -4.0120651176799242 0 -4.0120651176799242 16.276041887314136 0 0 0 0 -631.98676401935882 -650.89951773201756 0 -650.89951773201756 3417.6624278987729 0 0 0 0 511.93091952267662 296.40053793889274 0 296.40053793889274 -207.13123779903981 0 0 0 0 324.80616031395448 -146.25650662380212 0 -146.25650662380212 523.03790149162523 0 0 0 0 920.27421598499041 -1198.0747981044551 0 -1198.0747981044551 1748.7910321346426 0 0 0 0 1794.630574889713 500.65050748789508 0 500.65050748789508 778.16556646805839 0 0 0 0 710.31271414141429 -542.91638324716769 0 -542.91638324716769 111.87588595715351 0 0 0 0 714.90968506758736 340.46604601178842 0 340.46604601178842 48.122171418464859 0 0 0 0 143.69701598740039 -262.92268605370191 0 -262.92268605370191 -275.3711537545023 0 0 0 0 271.72339281617218 352.58426896035417 0 352.58426896035417 -639.75632105158002 0 0 0 0 31.562579289037235 -37.30094123972475 0 -37.30094123972475 -41.238987251503261 0 0 0 0 -11.646637541416567 105.70205169339897 0 105.70205169339897 199.76125460272306 0 0 0 0 -258.36851457087255 407.48338744642751 0 407.48338744642751 120.21386041078949 0 0 0 0 305.00335262788758 -61.136036703428545 0 -61.136036703428545 -344.52686507861654 0 0 0 0 -403.65581999295273 146.52555997336458 0 146.52555997336458 -121.12586073396233 0 0 0 0 31.741537643132538 -37.591215890432665 0 -37.591215890432665 -35.389309157822311 0 0 0 0 -109.82155690206218 -40.074837568941803 0 -40.074837568941803 340.2177045300341 0 0 0 0 216.10126965677227 100.69495105370879 0 100.69495105370879 -142.71184469394939 0 0 0 0 23.425861445276496 -280.51778747653589 0 -280.51778747653589 -141.84372115029328 0 0 0 0 11.837633816114689 -15.35074029462065 0 -15.35074029462065 -6.1374238585034391 0 0 0 0 54.223814604626796 -1.3919618205509323 0 -1.3919618205509323 -79.46950228366768 0 0 0 0 20.311552466083548 -49.563632510335083 0 -49.563632510335083 -39.917294601281981 0 0 0 0 -106.98480912003583 -398.4153589305788 0 -398.4153589305788 1146.3379005812603 0 0 0 0 435.66756533925286 237.38795778400163 0 237.38795778400163 -523.6737942325999 0 0 0 0 10.337345082954718 -19.683146612275948 0 -19.683146612275948 4.478597536968266 0 0 0 0 357.82244430121682 629.55985365583911 0 629.55985365583911 452.9761973267814 0 0 0 0 -39.060393122847131 -699.73364153251896 0 -699.73364153251896 262.91115586430533 0 0 0 0 -579.78317839352076 -190.0745093026635 0 -190.0745093026635 3982.4951187438928 0 0 0 0 -297.23004705680569 742.16936073583929 0 742.16936073583929 3576.6281594875909 0 0 0 0 -837.13763968756916 521.13023969070127 0 521.13023969070127 2414.8118957479892 0 0 0 0 -978.01725026177792 711.94616288226098 0 711.94616288226098 5319.1938530359184 0 0 0 0 -104.34246242839981 2961.4486713148654 0 2961.4486713148654 3024.9028990441875 0 0 0 0 2031.8428238056222 -367.44445694130263 0 -367.44445694130263 3128.5480907191231 0 0 0 0 98.911137661775228 58.437497980412445 0 58.437497980412445 2871.2552912301035 0 0 0 0 -77.12567990696698 374.91503037320217 0 374.91503037320217 4020.8444168206042 0 0 0 0 349.48364955781642 876.88987883088339 0 876.88987883088339 2852.1325728837983 0 0 0 0 -214.51340979299675 -205.37340273759037 0 -205.37340273759037 3125.2355132996745 0 0 0 0 -456.69941048011253 439.6077540274091 0 439.6077540274091 310.73589358583558 0 0 0 0 10.32122789397086 13.737999874982876 0 13.737999874982876 21.825892887930991 0 0 0 0 198.12124636485851 -943.0186949539202 0 -943.0186949539202 3434.8743641289548 0 0 0 0 112.26958840435964 292.49724713550677 0 292.49724713550677 -240.75949885387672 0 0 0 0 146.42308400058573 369.89702786791895 0 369.89702786791895 -90.731115891510854 0 0 0 0 312.16085024747281 1809.89491308367 0 1809.89491308367 913.11036601293017 0 0 0 0 -11.857668225125318 6.2993543577660205 0 6.2993543577660205 -3.6748469772898602 0 0 0 0 424.24963310185694 -616.28256672021962 0 -616.28256672021962 829.45999542621348 0 0 0 0 97.910583566491141 362.17637466720407 0 362.17637466720407 176.02152277628193 0 0 0 0 79.373919140585031 129.5349703359243 0 129.5349703359243 232.64513659864315 0 0 0 0 87.305067696990136 165.65607190578885 0 165.65607190578885 45.152094035060145 0 0 0 0 35.864170684379133 79.825961470662151 0 79.825961470662151 108.58715043879783 0 0 0 0 39.69193912458195 89.433527863599011 0 89.433527863599011 -37.479736069122737 0 0 0 0 31.394933112477702 120.13112779840594 0 120.13112779840594 17.19959271204425 0 0 0 0 -141.23395664125019 15.689457577660505 0 15.689457577660505 -183.21026440852438 0 0 0 0 -19.921783195642092 175.93839907693473 0 175.93839907693473 6.5351673107070383 0 0 0 0 -80.387762733831551 46.385881211899687 0 46.385881211899687 88.063724790801643 0 0 0 0 0.19584344766690265 57.978893546358449 0 57.978893546358449 221.14547543364461 0 0 0 0 16.832100390314736 31.345955309763667 0 31.345955309763667 75.114298497646814 0 0 0 0 62.654561624298822 71.95925535060087 0 71.95925535060087 215.33512004245131 0 0 0 0 9.2527130584630868 115.16289997867716 0 115.16289997867716 219.77474207515274 0 0 0 0 13.780155897690747 120.26187285978813 0 120.26187285978813 186.09299503489456 0 0 0 0 68.90245522660814 107.85462811545585 0 107.85462811545585 185.34727725046105 0 0 0 0 75.190045302693761 110.82334356412321 0 110.82334356412321 121.92658194321848 0 0 0 0 23.756515170873087 53.139439804566791 0 53.139439804566791 120.84719422608032 0 0 0 0 96.184175662027883 76.165876026483602 0 76.165876026483602 88.048324964416679 0 0 0 0 96.866444972908255 107.85599752630139 0 107.85599752630139 120.27981818068656 0 0 0 0 135.09690902247439 131.5655050578498 0 131.5655050578498 96.966886064439677 0 0 0 0 123.52108675425734 174.13529053110688 0 174.13529053110688 147.23073193342861 0 0 0 0 109.08425077392258 138.48755942192656 0 138.48755942192656 128.49537061122828 0 0 0 0 118.7986425580184 146.9715434769314 0 146.9715434769314 103.4113324166683 0 0 0 0 91.00941414134104 134.0425091204379 0 134.0425091204379 109.76521486997081 0 0 0 0 316.45552475350996 283.80173015298351 0 283.80173015298351 198.12070734649024 0 0 0 0 -17.324357354130115 5.7266469504843727 0 5.7266469504843727 10.615428671777181 0 0 0 0 117.76992935975704 144.43628526007524 0 144.43628526007524 99.904048854441498 0 0 0 0 -34.552254469474477 25.959703995137914 0 25.959703995137914 -9.849353085332325 0 0 0 0 -219.72645377043864 278.16971860734338 0 278.16971860734338 -276.55618868907914 0 0 0 0 -715.08531460072822 -199.05226217347445 0 -199.05226217347445 528.35686733602779 0 0 0 0 -12.067700927050403 -6.1193355365343507 0 -6.1193355365343507 63.673660199822109 0 0 0 0 149.89691583610056 93.304529141627427 0 93.304529141627427 116.97087153083703 0 0 0 0 -26.835721476966683 -280.68957158246485 0 -280.68957158246485 1295.8615691569285 0 0 0 0 559.31856717839298 -423.84584684771562 0 -423.84584684771562 497.49063857849978 0 0 0 0 118.21727637246113 608.8489066920838 0 608.8489066920838 -77.562163224298274 0 0 0 0 318.41216781097319 -1282.6173399861582 0 -1282.6173399861582 2263.5350926044339 0 0 0 0 675.77852469912034 1187.8695484491072 0 1187.8695484491072 1616.28488028227 0 0 0 0 1.1783374125313437 -1.7831097131466791 0 -1.7831097131466791 25.868887154579909 0 0 0 0 200.04514859750782 174.97880623782112 0 174.97880623782112 -410.32337555380946 0 0 0 0 -161.84962488756446 770.399915630951 0 770.399915630951 1563.4627244361204 0 0 0 0 -260.47508670256917 482.33846090990482 0 482.33846090990482 741.83593623345951 0 0 0 0 -318.13241083405933 365.21718109022913 0 365.21718109022913 1774.8582950527161 0 0 0 0 -374.3728531594694 -281.51629148228676 0 -281.51629148228676 836.17426345752756 0 0 0 0 -360.11705518601337 21.047816520207562 0 21.047816520207562 -112.28701962732885 0 0 0 0 -44.716734847856898 9.2863024111447316 0 9.2863024111447316 21.040927836681306 0 0 0 0 -271.85049586691912 -631.55850120939431 0 -631.55850120939431 -287.25086606456534 0 0 0 0 -62.380641482201099 -65.676549237694417 0 -65.676549237694417 45.953167201130782 0 0 0 0 -81.605436966902289 30.939059009917401 0 30.939059009917401 64.884547662630212 0 0 0 0 -1.6738483711606111 3.3272559579308805 0 3.3272559579308805 4.1140576144750867 0 0 0 0 -166.99477853467943 -517.80304327281192 0 -517.80304327281192 -513.22734987308104 0 0 0 0 -47.523731281936392 13.226829060643723 0 13.226829060643723 1.2190531312392068 0 0 0 0 366.05311369737865 -260.11167698888312 0 -260.11167698888312 -547.53239325410686 0 0 0 0 -425.63537787677382 -131.30078968779253 0 -131.30078968779253 107.98705028343829 0 0 0 0 208.35971922175463 -50.506896425467858 0 -50.506896425467858 62.61150258158159 0 0 0 0 391.11987838746154 -64.217046868041507 0 -64.217046868041507 90.199467285754508 0 0 0 0 130.00110286014865 185.4217401296155 0 185.4217401296155 -130.33969762260676 0 0 0 0 -61.872632322353638 19.867442737944657 0 19.867442737944657 -320.72103688953212 0 0 0 0 68.80624992328012 -89.350640813194332 0 -89.350640813194332 -229.44801332043426 0 0 0 0 69.554649183648507 354.36419323747396 0 354.36419323747396 -76.722921732784016 0 0 0 0 29.100542242879783 336.74214702466998 0 336.74214702466998 -59.921557915193262 0 0 0 0 275.47256970937678 133.79649034198519 0 133.79649034198519 -331.33617831332958 0 0 0 0 602.58620992367071 650.97188342297341 0 650.97188342297341 84.987520825176034 0 0 0 0 826.31966375320121 1055.7916602509249 0 1055.7916602509249 904.00561782112345 0 0 0 0 1510.3194838305312 221.39836752206611 0 221.39836752206611 151.73264359127279 0 0 0 0 448.15326761783331 -645.0061292298742 0 -645.0061292298742 1257.3253049981213 0 0 0 0 199.40241321025178 1229.2690067177773 0 1229.2690067177773 1941.9713203207211 0 0 0 0 -259.92759799440182 588.30100911899717 0 588.30100911899717 2511.1603355284606 0 0 0 0 295.60883357794978 -1116.0452099574431 0 -1116.0452099574431 1049.1880252852279 0 0 0 0 537.20029041167004 -90.564354760295828 0 -90.564354760295828 270.0599758305907 0 0 0 0 217.06503537627435 12.588146904745372 0 12.588146904745372 401.99189241827116 0 0 0 0 540.09862871726091 12.286877223417832 0 12.286877223417832 533.57332824626064 0 0 0 0 360.83536197723964 -60.998757684392331 0 -60.998757684392331 1614.6018199054233 0 0 0 0 992.33750972858684 -193.45725171512458 0 -193.45725171512458 2215.1621972275025 0 0 0 0 369.51194081686958 -625.81430102528248 0 -625.81430102528248 1958.2767836391722 0 0 0 0 34.342826073571132 -400.57812499254942 0 -400.57812499254942 1719.9981487574405 0 0 0 0 272.57332746146886 -31.663971009160377 0 -31.663971009160377 2067.0062617154908 0 0 0 0 -0.56825648747236346 0.47706294046710696 0 0.47706294046710696 10.547421898090874 0 0 0 0 -178.48134432811773 479.48299818785745 0 479.48299818785745 1154.8647164139256 0 0 0 0 -514.81263707279061 -653.02976773037517 0 -653.02976773037517 1951.306875809707 0 0 0 0 -0.36333277381984341 -16.816310059009993 0 -16.816310059009993 1222.171105644491 0 0 0 0 -393.54269222801196 104.95139162580017 0 104.95139162580017 2426.6921816208924 0 0 0 0 -155.47036779100551 -160.6869663563848 0 -160.6869663563848 -125.44901907607345 0 0 0 0 228.81337321084737 355.27944225906685 0 355.27944225906685 3.8432154428592185 0 0 0 0 48.515216129813901 -551.39523935285979 0 -551.39523935285979 218.78789292229339 0 0 0 0 164.39954479229419 413.22889330350154 0 413.22889330350154 -212.10155032658804 0 0 0 0 -0.74129783536736382 2.1796712426827458 0 2.1796712426827458 17.683582838030134 0 0 0 0 -621.55720246579347 342.15029422574253 0 342.15029422574253 235.18023870920297 0 0 0 0 -376.48489309440129 -79.195120489705005 0 -79.195120489705005 -36.800533342277049 0 0 0 0 -200.86415299252752 18.310251537441218 0 18.310251537441218 -84.699001018787385 0 0 0 0 0.41758407690213761 -68.14350352659676 0 -68.14350352659676 -181.58550700440537 0 0 0 0 17.841810479821845 -63.264409164614335 0 -63.264409164614335 -108.36386259307619 0 0 0 0 -0.23701381594034721 58.0018522238679 0 58.0018522238679 250.4206639406766 0 0 0 0 129.31835608455481 151.98692073209531 0 151.98692073209531 -104.48953275305394 0 0 0 0 0.059923007343339836 1.5610007891884035 0 1.5610007891884035 7.1453298298561094 0 0 0 0 363.65379455076101 478.13304109362207 0 478.13304109362207 204.82435383778648 0 0 0 0 -210.54671856708117 -139.8937068658779 0 -139.8937068658779 368.32441956279217 0 0 0 0 184.62837611712064 323.83685091320149 0 323.83685091320149 169.65279356908286 0 0 0 0 236.64974712910259 198.17764825439372 0 198.17764825439372 240.94437112986634 0 0 0 0 482.8230147936647 193.36713072411658 0 193.36713072411658 -27.950390243684524 0 0 0 0 371.40096770531784 -18.756008290429236 0 -18.756008290429236 528.087575699843 0 0 0 0 322.79716398363041 233.15172289023758 0 233.15172289023758 193.59863209443574 0 0 0 0 -11.991698665153379 -60.03124797934899 0 -60.03124797934899 123.06659065746115 0 0 0 0 282.75450900134979 -148.03242556106125 0 -148.03242556106125 47.691248277056729 0 0 0 0 -176.6192880326048 -415.4229646688982 0 -415.4229646688982 115.22177181833013 0 0 0 0 391.54321780798477 19.011058906773542 0 19.011058906773542 -40.223704656717018 0 0 0 0 247.39493468797082 -428.60127521244431 0 -428.60127521244431 382.44857747390051 0 0 0 0 -29.177607746522483 -71.199090768235692 0 -71.199090768235692 -67.074344584732899 0 0 0 0 -11.128770039310925 -60.784405041586098 0 -60.784405041586098 109.10841313929879 0 0 0 0 20.711207746783884 -282.02449730531225 0 -282.02449730531225 -132.73838420073844 0 0 0 0 40.505710860877798 -76.986633997759782 0 -76.986633997759782 -38.370169626570714 0 0 0 0 25.780653713912898 -46.03526875541138 0 -46.03526875541138 -85.396697924428736 0 0 0 0 -66.950689184270686 4.6992791595621384 0 4.6992791595621384 -24.167760594304127 0 0 0 0 6.0172588601919923 -53.226683913695666 0 -53.226683913695666 -16.943931454761497 0 0 0 0 8.2728746042088552 -3.1750227614072912 0 -3.1750227614072912 -2.5572805669197578 0 0 0 0 -46.509412290087653 192.10011659398879 0 192.10011659398879 2059.0728388848074 0 0 0 0 -74.246885234081674 -12.192871876257414 0 -12.192871876257414 133.69191633856099 0 0 0 0 15.921885071251406 11.92741304336414 0 11.92741304336414 33.654445391276681 0 0 0 0 -283.23563013773446 -228.0683931488893 0 -228.0683931488893 2560.3077089177386 0 0 0 0 -175.8348288496768 -36.355092913479893 0 -36.355092913479893 2392.4591918641527 0 0 0 0 156.7019298503472 626.88503797351223 0 626.88503797351223 2964.5754767349135 0 0 0 0 -335.66607539468168 -54.728313844370859 0 -54.728313844370859 3075.2002382215724 0 0 0 0 -109.26155001489951 -397.39545425520919 0 -397.39545425520919 2569.1755558134464 0 0 0 0 97.676935945435503 -9.1468064025611966 0 -9.1468064025611966 3174.9917517891736 0 0 0 0 345.22423132019321 278.50699728030304 0 278.50699728030304 -18.717378154658945 0 0 0 0 199.18339806402014 110.78827084483783 0 110.78827084483783 2324.2878084007243 0 0 0 0 -90.048219760108623 8.118621874586097 0 8.118621874586097 444.82490201393375 0 0 0 0 6.5315611715886659 4.4593254935306845 0 4.4593254935306845 5.2430265468018433 0 0 0 0 -43.314049067184442 -218.59551307618676 0 -218.59551307618676 2421.3953955300385 0 0 0 0 -260.59411713080772 -498.52552251328598 0 -498.52552251328598 4596.8437910327048 0 0 0 0 332.2415402928907 579.85803374207899 0 579.85803374207899 2559.9829022543563 0 0 0 0 569.64782135288078 -85.471706358730444 0 -85.471706358730444 1965.4983707049396 0 0 0 0 105.98655212502763 -480.92680656918674 0 -480.92680656918674 2197.533490942762 0 0 0 0 -140.91416203355016 284.55130138991808 0 284.55130138991808 1139.4652365391667 0 0 0 0 -183.32980328168685 -70.540595546748591 0 -70.540595546748591 2138.6363038573181 0 0 0 0 181.09937013762533 210.29213534278824 0 210.29213534278824 1371.6930626956164 0 0 0 0 -114.37003848061249 -211.24128172628116 0 -211.24128172628116 1950.0903271542629 0 0 0 0 221.33077856993714 88.203616197752126 0 88.203616197752126 1525.6076621425455 0 0 0 0 -103.0375178781087 -10.663833924540086 0 -10.663833924540086 2174.0481307371228 0 0 0 0 82.710450719532275 425.10177672494319 0 425.10177672494319 2171.4445434159134 0 0 0 0 237.53449128351122 231.12030041632534 0 231.12030041632534 1058.5671835966932 0 0 0 0 -196.33779451305872 224.0010401775653 0 224.0010401775653 1525.1124378191726 0 0 0 0 -231.4019351884408 -269.48835083874292 0 -269.48835083874292 1163.3098956596077 0 0 0 0 24.017306748788343 20.64263184236512 0 20.64263184236512 2.389667157418728 0 0 0 0 18.648397179959829 224.51901162051945 0 224.51901162051945 -108.29470474328264 0 0 0 0 8.4114539179599674 3.3481301927178748 0 3.3481301927178748 -4.2292243136071193 0 0 0 0 -254.67196885053954 53.59234883809404 0 53.59234883809404 141.78136341825302 0 0 0 0 -0.99083437994211288 1.6721515142936312 0 1.6721515142936312 1.2482495752662146 0 0 0 0 -107.23193114893547 -45.777149643348821 0 -45.777149643348821 64.623178231791826 0 0 0 0 14.353492212673812 -2.6072637948834938 0 -2.6072637948834938 10.780434147034981 0 0 0 0 10.743302468301863 4.0563723679078976 0 4.0563723679078976 30.496147271041991 0 0 0 0 59.132525296269307 -54.859739394855751 0 -54.859739394855751 15.196670703968266 0 0 0 0 11.725114022303842 4.9975295540061779 0 4.9975295540061779 28.71122357614513 0 0 0 0 13.61677691658565 1.2425559142648126 0 1.2425559142648126 33.13796556222951 0 0 0 0 300.39547269436821 33.387529197250842 0 33.387529197250842 236.79636315852986 0 0 0 0 -3.1175664817138298 -1.3311691503841701 0 -1.3311691503841701 4.8997506437157625 0 0 0 0 270.333317729236 -982.76366188436805 0 -982.76366188436805 2254.7464777887799 0 0 0 0 -199.98539092142806 -130.99957160108897 0 -130.99957160108897 2391.7456134461681 0 0 0 0 328.73923328049511 138.34491847247409 0 138.34491847247409 102.73042711705784 0 0 0 0 325.29708272883482 -879.03858852954727 0 -879.03858852954727 916.47000954535906 0 0 0 0 286.57322820147158 -277.22495828857063 0 -277.22495828857063 713.32796848026919 0 0 0 0 -193.27612991207201 -374.95127066107557 0 -374.95127066107557 2049.3578453571536 0 0 0 0 -19.340643986201258 169.52017491325387 0 169.52017491325387 1240.6188507768384 0 0 0 0 -86.332272763777382 -62.970572097867262 0 -62.970572097867262 1602.8799046917993 0 0 0 0 -76.131010692895757 63.787365666896221 0 63.787365666896221 484.32898283423856 0 0 0 0 121.21125634043727 -60.68395859003067 0 -60.68395859003067 -74.697878344275523 0 0 0 0 -273.77196399676359 215.26791526425222 0 215.26791526425222 0.40486793426680379 0 0 0 0 -300.2365408084097 181.66106538112217 0 181.66106538112217 13.470484185178066 0 0 0 0 27.562842655544237 41.334084507992358 0 41.334084507992358 50.740652167768417 0 0 0 0 25.152401371109249 346.9102379631513 0 346.9102379631513 274.63738187967829 0 0 0 0 -73.287411027726193 -65.922221446133335 0 -65.922221446133335 -18.952759859967045 0 0 0 0 -95.654212654077128 85.896983285230817 0 85.896983285230817 345.22804635831562 0 0 0 0 -58.209443329360511 178.21674497716776 0 178.21674497716776 -141.57502141944133 0 0 0 0 -499.75456174632382 112.49911934479314 0 112.49911934479314 716.86245831911219 0 0 0 0 -69.34874481913721 371.99157332447794 0 371.99157332447794 177.95385329175042 0 0 0 0 122.56293712449042 105.40164594289672 0 105.40164594289672 -593.65476087079151 0 0 0 0 4.3641348326949867 12.267078977160082 0 12.267078977160082 18.92809478157767 0 0 0 0 31.32415546642294 33.213753274679263 0 33.213753274679263 32.48224168859241 0 0 0 0 -269.65269093788811 39.43983162639779 0 39.43983162639779 103.99696699205379 0 0 0 0 -81.738641725401976 13.237845996001852 0 13.237845996001852 39.633801492629573 0 0 0 0 -269.99185239703002 -97.252869974123314 0 -97.252869974123314 41.441856839635875 0 0 0 0 -391.2809604236827 -5.425466981541831 0 -5.425466981541831 141.99215264845407 0 0 0 0 238.22086845358717 210.37482584298414 0 210.37482584298414 243.35723802130087 0 0 0 0 183.76046776017029 582.25014969339099 0 582.25014969339099 521.16401928635241 0 0 0 0 -3.8502332043698821 0.38702786222152952 0 0.38702786222152952 9.0052273966350072 0 0 0 0 -481.72521963056715 -326.84268121317837 0 -326.84268121317837 -32.078335477533983 0 0 0 0 6.9933645830573141 7.7343078679477912 0 7.7343078679477912 32.066317120763415 0 0 0 0 8.2479563543101904 3.9148611225609784 0 3.9148611225609784 38.406703872809885 0 0 0 0 7.1826112969115492 15.084302876805268 0 15.084302876805268 35.063920908365731 0 0 0 0 0.62640556719806195 9.0004366186010429 0 9.0004366186010429 27.93716586911404 0 0 0 0 -1.913126882663388 2.5720135425410149 0 2.5720135425410149 7.8870356609457986 0 0 0 0 11.814393246786494 33.405820885949652 0 33.405820885949652 43.123578325423296 0 0 0 0 9.5369051438256065 35.941959290241357 0 35.941959290241357 41.171555657929275 0 0 0 0 11.438718478700139 23.221901485047056 0 23.221901485047056 42.236055871879216 0 0 0 0 -10.068634463321459 25.797859254761079 0 25.797859254761079 42.974726320098853 0 0 0 0 -9.8549865450427667 10.497894235100148 0 10.497894235100148 30.709668927302005 0 0 0 0 -70.381518164501813 -25.517815541956224 0 -25.517815541956224 89.589298314996995 0 0 0 0 13.369442850624592 37.874056141155563 0 37.874056141155563 53.814974512299898 0 0 0 0 -9.7886057817213441 37.88057122513419 0 37.88057122513419 42.428945101884892 0 0 0 0 -25.020887895762058 -3.2337970846492681 0 -3.2337970846492681 58.737265207513701 0 0 0 0 -3.6883547449088301 0.0039561250408155502 0 0.0039561250408155502 35.056304855799567 0 0 0 0 -14.511435686099389 -0.64238194665813353 0 -0.64238194665813353 29.091946677071974 0 0 0 0 -26.330554912986145 7.9685177286010003 0 7.9685177286010003 49.830651929161832 0 0 0 0 -18.119776182709302 11.112709616223583 0 11.112709616223583 49.042337234957813 0 0 0 0 -6.0979838437617691 -5.0429501667977377 0 -5.0429501667977377 32.013643810414408 0 0 0 0 -23.44930926738931 0.70385194598929957 0 0.70385194598929957 54.477824300905922 0 0 0 0 -22.354526304528804 5.0119763682887424 0 5.0119763682887424 71.291138341010083 0 0 0 0 -14.928556639651561 -7.3413009879004676 0 -7.3413009879004676 61.694168361224001 0 0 0 0 -11.537647269436661 0.59295103984186426 0 0.59295103984186426 63.092815604730276 0 0 0 0 -2.4702562638356653 -7.0547515733487671 0 -7.0547515733487671 69.28561712426017 0 0 0 0 3.4747969607737961 7.3282509051314264 0 7.3282509051314264 79.90189824756817 0 0 0 0 -1.6579604537569139 -20.605753916635877 0 -20.605753916635877 45.67819807487831 0 0 0 0 -1.9953490097460644 -7.4856835404643789 0 -7.4856835404643789 55.009041403594892 0 0 0 0 -9.3089919294327501 -14.224179004835605 0 -14.224179004835605 59.182864447066095 0 0 0 0 -21.417013030634735 -6.2555997994786594 0 -6.2555997994786594 42.491645086352946 0 0 0 0 -23.745415038967408 -0.59127421665471047 0 -0.59127421665471047 56.536166594887618 0 0 0 0 -22.34757369552517 -2.767626332337386 0 -2.767626332337386 45.782607297238428 0 0 0 0 -21.305156018024491 -6.6708537268277723 0 -6.6708537268277723 43.74133945495123 0 0 0 0 -36.25339780716422 -20.219406791497022 0 -20.219406791497022 34.826662408653647 0 0 0 0 -16.098203992766685 -12.992149435594911 0 -12.992149435594911 51.20899265180924 0 0 0 0 -10.211399747308576 -9.8539298292889725 0 -9.8539298292889725 45.881940307153855 0 0 0 0 -15.837152262391896 -10.786877271631965 0 -10.786877271631965 47.860452047403669 0 0 0 0 -15.802943711195667 -13.213858032919234 0 -13.213858032919234 44.093238567464141 0 0 0 0 -17.88609754715074 -13.413455361616798 0 -13.413455361616798 46.669557163491845 0 0 0 0 -2.8531457982671271 -2.5634099539407629 0 -2.5634099539407629 33.296456407519543 0 0 0 0 2.0166489145415616 -7.4576283084073225 0 -7.4576283084073225 11.823041660372297 0 0 0 0 6.9650605016491287 -2.1999567634463233 0 -2.1999567634463233 16.216057844845622 0 0 0 0 0.92482641226979467 -6.4365434223145712 0 -6.4365434223145712 13.272185487046954 0 0 0 0 4.2493411246935144 -8.9899468307814345 0 -8.9899468307814345 11.624311263120887 0 0 0 0 -17.27463243226515 -12.155984603159595 0 -12.155984603159595 47.230772103066556 0 0 0 0 478.74038193927538 -273.24185767705785 0 -273.24185767705785 80.906094053883862 0 0 0 0 24.210468764764769 -96.171272363695607 0 -96.171272363695607 280.76921620707435 0 0 0 0 -5.7668190276934581 -3.6949869204872812 0 -3.6949869204872812 5.0256041397086477 0 0 0 0 -4.2583559883075068 -11.101032704638783 0 -11.101032704638783 36.108697043091524 0 0 0 0 3.5483625798920428 -2.4295084182157609 0 -2.4295084182157609 5.7802195150431146 0 0 0 0 -255.50469947988461 -177.85816793030972 0 -177.85816793030972 2284.9116804856458 0 0 0 0 100.80490832369765 -595.49749388404598 0 -595.49749388404598 2424.2673390697164 0 0 0 0 12.834580965133796 -455.49774435035943 0 -455.49774435035943 3314.0932064387889 0 0 0 0 337.77026447716025 -990.60046111309202 0 -990.60046111309202 2911.9195249807963 0 0 0 0 64.649606698186517 -781.4104248451913 0 -781.4104248451913 3695.9262296194793 0 0 0 0 -27.825636945009819 -311.48722739751975 0 -311.48722739751975 1983.8932256983826 0 0 0 0 338.60404119146682 218.48825012962334 0 218.48825012962334 49.532421598327346 0 0 0 0 1.8764983728936113 -3.0253993639890666 0 -3.0253993639890666 5.1728688615301053 0 0 0 0 341.08263778892564 783.29396664167871 0 783.29396664167871 2345.4544085272646 0 0 0 0 70.744925890336845 -636.61738368435181 0 -636.61738368435181 2210.1861423657683 0 0 0 0 -315.95948243408066 -354.87099589046557 0 -354.87099589046557 2219.0983659272024 0 0 0 0 -202.53426523177427 -65.729367938678479 0 -65.729367938678479 2486.6734021988377 0 0 0 0 360.20766116707352 -234.82204760154855 0 -234.82204760154855 1866.893462384236 0 0 0 0 -164.023028501211 -685.01105752891453 0 -685.01105752891453 1644.2515624005755 0 0 0 0 -0.51854072194717971 -248.81477762979921 0 -248.81477762979921 1684.5383178722841 0 0 0 0 21.30067306482724 0.13521682706777938 0 0.13521682706777938 39.675379189517116 0 0 0 0 0.51952657164551597 -1.5970021109117738 0 -1.5970021109117738 -0.060623861922437072 0 0 0 0 321.55341109191653 -431.51122020181356 0 -431.51122020181356 968.90887386312534 0 0 0 0 0.10026209825555127 -13.117633837187896 0 -13.117633837187896 67.394634994430817 0 0 0 0 -5.4177791313245791 -5.283377160638338 0 -5.283377160638338 57.44357427227078 0 0 0 0 15.034843711585467 -3.6074946896696929 0 -3.6074946896696929 57.544916027114596 0 0 0 0 -2.4290579181063308 -16.031181788523099 0 -16.031181788523099 71.890611261624144 0 0 0 0 13.242954280319548 19.064985917571903 0 19.064985917571903 110.62496949089109 0 0 0 0 9.554733485563041 -15.374804127815878 0 -15.374804127815878 85.996457344823284 0 0 0 0 5.0831598616826241 -2.1107863572979113 0 -2.1107863572979113 99.587796374165919 0 0 0 0 16.503960220049532 12.520030305882756 0 12.520030305882756 103.41795988261583 0 0 0 0 9.0020950582476651 -2.421132502015098 0 -2.421132502015098 155.18915448602638 0 0 0 0 55.565177815226939 0.38254044100176543 0 0.38254044100176543 98.807861024048179 0 0 0 0 -11.286901123874401 29.411887763595587 0 29.411887763595587 149.79510231383028 0 0 0 0 -0.16044797164188013 45.534447899932275 0 45.534447899932275 105.42615555610973 0 0 0 0 29.522116123955151 47.553251150122378 0 47.553251150122378 105.14913371264993 0 0 0 0 0.088851763852636129 -0.24141532359132611 0 -0.24141532359132611 -0.51654323413413294 0 0 0 0 8.8466746690319695 54.776503513814532 0 54.776503513814532 163.59733065528053 0 0 0 0 101.70212671745959 -41.925534532798338 0 -41.925534532798338 -32.393341008384596 0 0 0 0 134.15785352807922 206.21836414883001 0 206.21836414883001 113.35772735838691 0 0 0 0 48.415349223781817 186.64032026478526 0 186.64032026478526 501.51036443863995 0 0 0 0 65.47627412528999 147.3031122591201 0 147.3031122591201 124.52675117005856 0 0 0 0 -16.748537079083121 36.02838051757135 0 36.02838051757135 58.22337351430906 0 0 0 0 -8.7917082648057558 9.8068700035005349 0 9.8068700035005349 55.864600193744991 0 0 0 0 -15.679669431207458 3.6919737137068296 0 3.6919737137068296 50.756585108174477 0 0 0 0 -8.3678455897576782 18.860662387858611 0 18.860662387858611 88.894870500305842 0 0 0 0 13.647312119948921 16.0763020355771 0 16.0763020355771 69.047917499265168 0 0 0 0 29.931141409201587 -13.953917729377281 0 -13.953917729377281 26.611035783367697 0 0 0 0 39.085580035553761 -21.227617294687661 0 -21.227617294687661 29.354337339857011 0 0 0 0 -2.2424433530961618 0.74476927611144106 0 0.74476927611144106 5.7858579138923005 0 0 0 0 -4.3510628944078178 33.775460539298365 0 33.775460539298365 76.619249407587631 0 0 0 0 4.004580931264627 29.923599509711494 0 29.923599509711494 47.374411131837405 0 0 0 0 -30.692959393477395 10.509479628526606 0 10.509479628526606 25.236837632572133 0 0 0 0 -8.6428642175623729 -5.9583456586707371 0 -5.9583456586707371 49.908465557261025 0 0 0 0 -32.181811973458025 0.69992368610110134 0 0.69992368610110134 22.994930096669123 0 0 0 0 89.284601392537297 13.445257524523186 0 13.445257524523186 154.63337026536465 0 0 0 0 -12.047950606995618 6.0433218670170277 0 6.0433218670170277 67.657373510731361 0 0 0 0 1.3095393862522036 14.360130382847856 0 14.360130382847856 33.017926845358431 0 0 0 0 -2.4107011543419503 116.31083078678057 0 116.31083078678057 660.61877030474716 0 0 0 0 -56.622284859822685 -35.76031819547643 0 -35.76031819547643 462.00314915632771 0 0 0 0 49.693476710046525 78.168035680777393 0 78.168035680777393 189.59711423097178 0 0 0 0 -14.972004995820292 9.1681723610971062 0 9.1681723610971062 25.584777545799341 0 0 0 0 -5.9451729206960238 -53.372598807134466 0 -53.372598807134466 -12.675473204003325 0 0 0 0 49.408761015907658 67.384142345748842 0 67.384142345748842 -217.62618067735457 0 0 0 0 -85.822565692225908 76.701842066890094 0 76.701842066890094 133.9064728692174 0 0 0 0 10.21364697975514 -137.01672577741556 0 -137.01672577741556 194.48946163780056 0 0 0 0 -75.669336919565467 70.943430141196586 0 70.943430141196586 416.54796609625919 0 0 0 0 46.3779704162082 -187.8913613173645 0 -187.8913613173645 494.79220996488584 0 0 0 0 38.256342450275497 -37.358275741775287 0 -37.358275741775287 -26.375323433778249 0 0 0 0 -4.0857210118256111 -15.297849305162117 0 -15.297849305162117 30.913556319908082 0 0 0 0 72.514066405999984 57.700495726021472 0 57.700495726021472 -147.23606851580553 0 0 0 0 -11.247896386941648 1.5507228242349811 0 1.5507228242349811 24.306006697937846 0 0 0 0 -8.3387623411499376 5.0455361587222285 0 5.0455361587222285 18.858747705903909 0 0 0 0 -1.1657849567657923 -2.3327454147599553 0 -2.3327454147599553 4.2796020341056078 0 0 0 0 -25.8993596430455 94.875057178083807 0 94.875057178083807 701.43904071893485 0 0 0 0 -67.338879785114244 62.544886871796734 0 62.544886871796734 724.681092083978 0 0 0 0 0.23443330171699017 39.225993039282912 0 39.225993039282912 671.19903941612574 0 0 0 0 29.563899031527455 -17.820119434283697 0 -17.820119434283697 37.498394247297256 0 0 0 0 -2.3270667722267939 -2.0118934967725295 0 -2.0118934967725295 4.7193367020741448 0 0 0 0 258.57386896467369 14.046689270704519 0 14.046689270704519 673.57941973044944 0 0 0 0 68.832996723119209 205.81210039869256 0 205.81210039869256 983.72576490553911 0 0 0 0 -125.48590613070155 115.99627141255769 0 115.99627141255769 1046.412639014874 0 0 0 0 -46.054268801828584 306.83257953168504 0 306.83257953168504 845.91162209081813 0 0 0 0 -118.01354471219065 319.59073556392104 0 319.59073556392104 1216.7680298575142 0 0 0 0 -84.731998674711576 234.68897262480459 0 234.68897262480459 918.27348280959995 0 0 0 0 -63.364559246604585 45.524329530613613 0 45.524329530613613 768.64579377739574 0 0 0 0 -55.520754554211564 101.33494302554755 0 101.33494302554755 636.02255327059538 0 0 0 0 0.82256314111170559 61.411808380449656 0 61.411808380449656 445.02935796254314 0 0 0 0 -74.706116491597641 289.46120110119591 0 289.46120110119591 1835.1755434947554 0 0 0 0 75.575916254505501 -212.2193134631234 0 -212.2193134631234 1284.0858203310054 0 0 0 0 -0.94329772657965005 371.27998380175995 0 371.27998380175995 1566.5414149829594 0 0 0 0 717.04501016682923 602.88857717372593 0 602.88857717372593 798.33110187380225 0 0 0 0 -367.94756484252332 -403.1729286596601 0 -403.1729286596601 684.39032947777014 0 0 0 0 0.39500243567905707 159.46846269764501 0 159.46846269764501 71.467104652125272 0 0 0 0 862.9243310568055 1172.5741906120384 0 1172.5741906120384 1414.5738374436587 0 0 0 0 -0.45345877964803971 -1.2187059015467128 0 -1.2187059015467128 14.819140468895739 0 0 0 0 393.1512855448857 483.16663047395559 0 483.16663047395559 541.33469923923258 0 0 0 0 216.84957047646594 630.47341652672185 0 630.47341652672185 901.68007841092185 0 0 0 0 47.671685311286183 398.65283350539539 0 398.65283350539539 668.79932383750565 0 0 0 0 43.188383654024619 401.26961623442185 0 401.26961623442185 743.92178487547062 0 0 0 0 302.69814254350922 305.88027835650428 0 305.88027835650428 395.8703900364635 0 0 0 0 -0.6478428181951611 -5.8655405498802651 0 -5.8655405498802651 37.557223204917079 0 0 0 0 109.77870297176179 259.71299043358158 0 259.71299043358158 430.14719853062707 0 0 0 0 42.675146904721259 305.72701819245412 0 305.72701819245412 589.21647052836488 0 0 0 0 152.45705871389828 217.84946312222019 0 217.84946312222019 232.5048446127621 0 0 0 0 33.293514732227777 -45.190943356152275 0 -45.190943356152275 130.22830875705404 0 0 0 0 -53.37331014839765 -53.327503873792011 0 -53.327503873792011 164.37011548843293 0 0 0 0 -42.375002383289825 -9.0558990747922508 0 -9.0558990747922508 56.851373854995472 0 0 0 0 0.44585443703474326 -14.741939933524492 0 -14.741939933524492 49.623322899810319 0 0 0 0 -6.7709092753614755 4.9589013355143834 0 4.9589013355143834 51.450039617659058 0 0 0 0 -30.047789246500365 16.397773337819672 0 16.397773337819672 48.713333342631813 0 0 0 0 -24.757442841476148 77.521559381799307 0 77.521559381799307 -5.0453468817577232 0 0 0 0 -0.10533594089644292 97.634765594433702 0 97.634765594433702 10.671884092138498 0 0 0 0 -105.68919809174511 110.73852478812842 0 110.73852478812842 49.115751958845067 0 0 0 0 -185.97340736820922 1.480576258203655 0 1.480576258203655 47.819930346304318 0 0 0 0 139.16311274332111 558.91938944969297 0 558.91938944969297 1765.6511485533847 0 0 0 0 5.2162940477574011 -126.91197849158198 0 -126.91197849158198 1196.6319191367365 0 0 0 0 45.855888646825406 311.87913215142908 0 311.87913215142908 1252.5895337165566 0 0 0 0 183.31704366037229 322.10616771870991 0 322.10616771870991 1014.9231139955809 0 0 0 0 123.00249404521674 378.17846667702543 0 378.17846667702543 1061.0256614220125 0 0 0 0 130.13927016155139 397.27149409573758 0 397.27149409573758 869.2065172563307 0 0 0 0 464.02786606649806 574.98816822301524 0 574.98816822301524 919.82386710471474 0 0 0 0 -505.64751258859451 525.59876934916247 0 525.59876934916247 299.17685893064481 0 0 0 0 -163.81777759332363 76.118374380428577 0 76.118374380428577 -38.801309859671164 0 0 0 0 -28.885839813598068 -183.81570300327439 0 -183.81570300327439 1969.4322695203518 0 0 0 0 -357.99541136769437 539.48372308230319 0 539.48372308230319 -387.38719364540884 0 0 0 0 39.650194492423886 19.302381072012423 0 19.302381072012423 23.758776593532531 0 0 0 0 85.423803154804773 -270.1446396214742 0 -270.1446396214742 925.76500871370081 0 0 0 0 106.27721675701468 32.659288664348423 0 32.659288664348423 440.71948449314368 0 0 0 0 -65.490413920276524 -59.234698294778354 0 -59.234698294778354 181.96145878502284 0 0 0 0 20.801261387715023 -18.041282609692075 0 -18.041282609692075 -6.7833060465833057 0 0 0 0 32.302623872430559 40.985964918509126 0 40.985964918509126 550.98429705867602 0 0 0 0 162.50009996343033 -230.93395746644819 0 -230.93395746644819 562.57719902970712 0 0 0 0 58.578481137814379 -6.2877405977633316 0 -6.2877405977633316 646.31202684590244 0 0 0 0 -14.640274141747796 -106.07521157352312 0 -106.07521157352312 186.91758989106165 0 0 0 0 -9.4644417327399424 36.459042269125348 0 36.459042269125348 558.53325058928749 0 0 0 0 47.402326903073515 114.46581832896527 0 114.46581832896527 435.12144819382229 0 0 0 0 18.890692747152571 151.09725781319139 0 151.09725781319139 414.13879047123191 0 0 0 0 -11.514745263969189 218.66036985425308 0 218.66036985425308 707.39686149041518 0 0 0 0 -0.53849105457629776 170.1228744375403 0 170.1228744375403 922.52967382804491 0 0 0 0 25.549711324118107 180.65601698149112 0 180.65601698149112 786.99777300661663 0 0 0 0 26.352852637028263 61.090148754126858 0 61.090148754126858 805.67372536670882 0 0 0 0 14.458172363712947 198.83809836138971 0 198.83809836138971 632.40092231429298 0 0 0 0 -0.38973520415675011 185.77056295966031 0 185.77056295966031 824.70165322505636 0 0 0 0 32.572099481158148 304.57115264503227 0 304.57115264503227 661.22864221299824 0 0 0 0 48.749671195908377 365.40641703353322 0 365.40641703353322 848.72184663527878 0 0 0 0 23.205100709696126 274.21873537299689 0 274.21873537299689 762.85705281369155 0 0 0 0 35.75458297183286 337.06043537677033 0 337.06043537677033 1003.3468667598499 0 0 0 0 145.67924025295724 469.14518329521525 0 469.14518329521525 782.45102600596147 0 0 0 0 69.333317040554903 353.56176429059997 0 353.56176429059997 837.78727996101952 0 0 0 0 87.407604423018711 387.18281521182507 0 387.18281521182507 710.47753578826087 0 0 0 0 85.688740483217771 395.73122841186705 0 395.73122841186705 703.70356472529238 0 0 0 0 20.6699304071808 280.04048498698103 0 280.04048498698103 615.89638219885819 0 0 0 0 17.998612134637369 348.16562985877681 0 348.16562985877681 730.51495346569573 0 0 0 0 16.53868464925381 359.71251672177459 0 359.71251672177459 803.8590862689598 0 0 0 0 16.816486226293392 371.14653454097174 0 371.14653454097174 730.48692097404273 0 0 0 0 71.947455553407963 321.2757261544466 0 321.2757261544466 754.19103354692925 0 0 0 0 5.4999244515329337 281.67194141923392 0 281.67194141923392 754.55647735044477 0 0 0 0 -22.668944858207396 308.3085855350073 0 308.3085855350073 820.57307706711435 0 0 0 0 185.72804630050268 422.52227524788759 0 422.52227524788759 636.54000312977587 0 0 0 0 178.66166563160732 323.47527867257304 0 323.47527867257304 585.4705067333125 0 0 0 0 123.87283143097011 287.50043348756299 0 287.50043348756299 701.64743322026334 0 0 0 0 342.31174632851253 457.01314851523057 0 457.01314851523057 380.79266146227019 0 0 0 0 191.48375817192027 151.89707492747402 0 151.89707492747402 238.3967420351255 0 0 0 0 233.49679592435677 303.65167154424125 0 303.65167154424125 578.50970494817011 0 0 0 0 148.05433270878984 392.22313385505549 0 392.22313385505549 669.16923492410569 0 0 0 0 229.95352373680726 400.46074931244948 0 400.46074931244948 667.9019903888202 0 0 0 0 345.16492471231146 560.42464104656028 0 560.42464104656028 840.24726690587704 0 0 0 0 254.92711575106659 412.41879751133456 0 412.41879751133456 681.20266720588552 0 0 0 0 332.21085981117187 311.1156895659351 0 311.1156895659351 735.14147620239237 0 0 0 0 0.1327101883094528 -32.629300166950145 0 -32.629300166950145 96.586322506111742 0 0 0 0 -512.16478233089833 53.51212328227848 0 53.51212328227848 312.58907104065293 0 0 0 0 -484.809120363999 -200.48093701054859 0 -200.48093701054859 162.74698687484488 0 0 0 0 -189.48390275743077 164.78335136786336 0 164.78335136786336 252.81570815239684 0 0 0 0 -76.044648116214375 129.72940912733611 0 129.72940912733611 215.17775876700762 0 0 0 0 -389.38244459588532 1.1629768092680024 0 1.1629768092680024 183.37207749881782 0 0 0 0 -185.90377052742406 -90.995865403761854 0 -90.995865403761854 525.71424665789527 0 0 0 0 -4.9899706414642768 -28.005269085259542 0 -28.005269085259542 95.298893325085885 0 0 0 0 247.63573243451538 117.09914126479998 0 117.09914126479998 472.4996239344764 0 0 0 0 230.19722029653349 -32.059179223011597 0 -32.059179223011597 -382.27274919510819 0 0 0 0 -107.80216431703047 291.12680927151814 0 291.12680927151814 977.31599572935374 0 0 0 0 -179.60717332719651 -91.075437850449816 0 -91.075437850449816 14.791704816860147 0 0 0 0 -59.901151606824669 -2.0863033416826511 0 -2.0863033416826511 68.676594423275674 0 0 0 0 -90.372153050740962 -17.592587988547166 0 -17.592587988547166 31.485716547787888 0 0 0 0 -172.37431810645649 8.7845848422148265 0 8.7845848422148265 100.98979319352657 0 0 0 0 -65.707536432940287 18.21121962757752 0 18.21121962757752 70.400145458523184 0 0 0 0 -60.185589782300667 49.883906758856028 0 49.883906758856028 102.57013896220815 0 0 0 0 -77.323407610847426 23.542675222211983 0 23.542675222211983 74.366669164039195 0 0 0 0 -97.413981841949862 123.67057830505655 0 123.67057830505655 146.62632620485601 0 0 0 0 -46.311423210840985 145.49040645035257 0 145.49040645035257 91.138388060906436 0 0 0 0 -60.649022870762792 229.44951839515306 0 229.44951839515306 196.73631149646826 0 0 0 0 -127.18319722972228 201.8376865167229 0 201.8376865167229 207.27507970662555 0 0 0 0 -165.63978803510281 90.611757461824709 0 90.611757461824709 162.31173479135032 0 0 0 0 -166.28195707874693 99.053639826393919 0 99.053639826393919 147.72493568173377 0 0 0 0 -43.01384888361099 192.02491148481568 0 192.02491148481568 738.61676014287514 0 0 0 0 63.068039329831663 251.05778390180785 0 251.05778390180785 770.02032086686813 0 0 0 0 66.58731731608168 281.22714411329071 0 281.22714411329071 635.35254091503157 0 0 0 0 143.07468495871763 154.53775104861415 0 154.53775104861415 791.06920140539296 0 0 0 0 0.85880453477664176 -2.8960755821534008 0 -2.8960755821534008 4.8589368287751427 0 0 0 0 131.31278523484889 84.735207553902001 0 84.735207553902001 -113.15412542986451 0 0 0 0 64.693688014787767 285.84532543900423 0 285.84532543900423 826.90249471565767 0 0 0 0 63.132468937943486 247.99827416590415 0 247.99827416590415 693.8064915037794 0 0 0 0 -85.177628405983342 -77.329995166539447 0 -77.329995166539447 -37.4227265464433 0 0 0 0 -122.40060037512376 -224.27383378453669 0 -224.27383378453669 -117.17882554570679 0 0 0 0 -10.499966078435092 -24.486265572133462 0 -24.486265572133462 77.592956547718813 0 0 0 0 230.37516984778995 -112.78037138897344 0 -112.78037138897344 -371.19473859693971 0 0 0 0 -38.042679608886829 -210.99009769852273 0 -210.99009769852273 -211.70029535854701 0 0 0 0 -90.731569609313738 -222.69009848643327 0 -222.69009848643327 -157.40906895906664 0 0 0 0 -49.769939024836276 -131.92038901903288 0 -131.92038901903288 -73.889950242999475 0 0 0 0 -25.493100483251283 -88.193578144067942 0 -88.193578144067942 -59.52883573010331 0 0 0 0 -82.454455784303718 -84.297844805056229 0 -84.297844805056229 -40.285579422212322 0 0 0 0 -37.578577988404504 -65.136722832205123 0 -65.136722832205123 -37.614473684399854 0 0 0 0 -119.40460484756477 -151.79970578034408 0 -151.79970578034408 -60.277150171808898 0 0 0 0 -99.673281209044944 -124.67116248875391 0 -124.67116248875391 -53.917099700483959 0 0 0 0 -32.951567224652536 -94.460444391297642 0 -94.460444391297642 -47.541995429579401 0 0 0 0 34.916850967949358 53.789675595304288 0 53.789675595304288 423.86708709024242 0 0 0 0 5.9285879078452126 -29.334517723531462 0 -29.334517723531462 -27.905424876167672 0 0 0 0 41.655876277948664 43.84347074085963 0 43.84347074085963 428.27847058544285 0 0 0 0 5.1906476697559611 -11.241023975326584 0 -11.241023975326584 -2.3024272693196508 0 0 0 0 20.653092134547478 -53.815547653997783 0 -53.815547653997783 -56.185273561277427 0 0 0 0 -98.315669138763042 -2.910723312292248 0 -2.910723312292248 407.86711985783768 0 0 0 0 -15.854374756840798 -43.475724256598482 0 -43.475724256598482 -2.4389876032694531 0 0 0 0 -1.8846325395408288 8.0764224461375704 0 8.0764224461375704 42.517210325449867 0 0 0 0 -99.982630697821151 -67.623308463022113 0 -67.623308463022113 360.98837870033458 0 0 0 0 -127.61368825591126 133.07005778813618 0 133.07005778813618 236.69447595406382 0 0 0 0 -45.514208916596544 57.934580746252323 0 57.934580746252323 185.36986490317577 0 0 0 0 -28.526419110352435 -57.705427632317878 0 -57.705427632317878 -23.981005346551683 0 0 0 0 40.2745829334159 -175.70382918968789 0 -175.70382918968789 176.238836014556 0 0 0 0 -133.19799659692217 99.061828289413825 0 99.061828289413825 327.96445411082823 0 0 0 0 -164.94407423032681 115.76856659218902 0 115.76856659218902 340.14959697393351 0 0 0 0 -128.21048143681583 -92.403378973598592 0 -92.403378973598592 133.64984137256397 0 0 0 0 48.251335503126029 -8.0991719767407631 0 -8.0991719767407631 297.13023320946377 0 0 0 0 74.48980404321992 88.950381221889984 0 88.950381221889984 243.19568290418829 0 0 0 0 189.20292397186222 -43.288781086572271 0 -43.288781086572271 305.37764509243425 0 0 0 0 413.67822518732646 53.499229349079542 0 53.499229349079542 313.52747790230205 0 0 0 0 148.31186895192923 102.29559954786964 0 102.29559954786964 315.32595895428676 0 0 0 0 68.661161444248137 36.742038100375794 0 36.742038100375794 261.4074053010263 0 0 0 0 -172.80026178494904 59.503918324306142 0 59.503918324306142 376.53818949335255 0 0 0 0 25.24895358518188 107.59395661763847 0 107.59395661763847 401.88099655712722 0 0 0 0 -107.00805314846366 -101.70558789151255 0 -101.70558789151255 -48.594408280623611 0 0 0 0 -133.84759214469398 37.440909807092794 0 37.440909807092794 375.82546519243624 0 0 0 0 130.81706503135501 73.377721775555983 0 73.377721775555983 396.58522308073589 0 0 0 0 168.96080652628734 13.819627969875 0 13.819627969875 337.1113705735188 0 0 0 0 557.454018916309 69.502180909388699 0 69.502180909388699 365.94696699769702 0 0 0 0 166.64137770394518 28.524665019358508 0 28.524665019358508 377.76552211202215 0 0 0 0 649.10384821066691 -285.7264435038669 0 -285.7264435038669 355.24376797585865 0 0 0 0 416.60069279094023 -400.3578674896271 0 -400.3578674896271 497.5616503788624 0 0 0 0 -166.60159809547258 -145.01532577406033 0 -145.01532577406033 -46.097528120095376 0 0 0 0 345.33366524237499 -190.17223204026232 0 -190.17223204026232 321.44329540571198 0 0 0 0 233.81923623107286 -323.73141017253511 0 -323.73141017253511 552.6467673733714 0 0 0 0 106.32247095527055 -187.35570988274412 0 -187.35570988274412 417.44572245702147 0 0 0 0 339.67847350145894 -199.74316577910213 0 -199.74316577910213 372.54528015482356 0 0 0 0 191.13734866066079 -72.278737772721797 0 -72.278737772721797 282.11589196606656 0 0 0 0 208.60199572893544 -135.00309474702226 0 -135.00309474702226 157.80168612540001 0 0 0 0 95.513105702174926 -142.40850338490418 0 -142.40850338490418 245.8643126275856 0 0 0 0 19.699414725760107 -117.336321477007 0 -117.336321477007 -140.64563266001642 0 0 0 0 -39.253303231300379 134.01639850539505 0 134.01639850539505 120.37976178044846 0 0 0 0 -57.998315358056757 5.824628857134428 0 5.824628857134428 53.796665475177576 0 0 0 0 63.506869493994145 -105.50427269101056 0 -105.50427269101056 261.60439391236287 0 0 0 0 96.877984355100125 17.762617839558516 0 17.762617839558516 76.813266943383496 0 0 0 0 -102.39918620786659 38.633375109544431 0 38.633375109544431 -2.9613318684860133 0 0 0 0 -20.460356002883156 -4.2587442227504368 0 -4.2587442227504368 23.036169580577223 0 0 0 0 -109.91477687672977 2.289261410216568 0 2.289261410216568 -49.133550352882594 0 0 0 0 -213.35950229240461 75.934894466394326 0 75.934894466394326 -15.465724483510712 0 0 0 0 94.553549447034129 -49.146245160707622 0 -49.146245160707622 -36.630841468082508 0 0 0 0 -13.218878748729367 141.17688872738654 0 141.17688872738654 -87.504787931626197 0 0 0 0 -16.857871650365269 10.216000296815764 0 10.216000296815764 30.779129514063243 0 0 0 0 -17.059450759996253 25.440830818144605 0 25.440830818144605 64.535240318393335 0 0 0 0 -7.0088418846312148 9.031734798432808 0 9.031734798432808 6.9574525063035821 0 0 0 0 -8.4542201372220642 11.314947061360613 0 11.314947061360613 33.614596921781185 0 0 0 0 -26.310891719439098 5.7145811655063881 0 5.7145811655063881 59.761298155397526 0 0 0 0 -3.1118814649825834 2.3397851458784658 0 2.3397851458784658 41.507943667902225 0 0 0 0 -26.635596834531782 16.788751895248424 0 16.788751895248424 35.997628510987852 0 0 0 0 -63.858714522816769 1.6406368047622095 0 1.6406368047622095 49.436215557008438 0 0 0 0 -127.11110499465576 150.47837667127897 0 150.47837667127897 129.26293824371533 0 0 0 0 12.806858145117531 -129.03066648097774 0 -129.03066648097774 -132.96078021128778 0 0 0 0 19.289602364937309 132.17617268589674 0 132.17617268589674 78.776499493797019 0 0 0 0 -162.04391070622296 -340.37971182070032 0 -340.37971182070032 873.23510900355177 0 0 0 0 -26.991629518179252 9.7690391661890317 0 9.7690391661890317 63.100927835552284 0 0 0 0 186.83419645251706 -174.47179368100478 0 -174.47179368100478 382.32067225920036 0 0 0 0 -406.40629179591815 -99.719804447289789 0 -99.719804447289789 923.31994111981476 0 0 0 0 0.35073536155323382 21.357814982300624 0 21.357814982300624 66.623643888786319 0 0 0 0 3.7568570919635391 -2.7115597393651001 0 -2.7115597393651001 11.641796898918955 0 0 0 0 25.685154960810905 34.870793008478358 0 34.870793008478358 61.125166518613696 0 0 0 0 -20.139707435999298 32.728639399399981 0 32.728639399399981 75.832885828800499 0 0 0 0 -48.216900149542198 -2.427210106048733 0 -2.427210106048733 65.429976117768092 0 0 0 0 -48.328128320932592 13.491081249056151 0 13.491081249056151 77.060891011031345 0 0 0 0 -510.95536836581232 260.77692317918991 0 260.77692317918991 661.12077197214239 0 0 0 0 -231.12434539131573 -58.599296527288971 0 -58.599296527288971 189.617004872096 0 0 0 0 28.167415955889737 44.91396553573577 0 44.91396553573577 -42.302730139650521 0 0 0 0 18.024474810979882 126.78295977518428 0 126.78295977518428 -169.90937103496981 0 0 0 0 -96.169413829596124 -170.27036159577256 0 -170.27036159577256 -7.3550043361028656 0 0 0 0 -101.51490009497684 -111.23174130309053 0 -111.23174130309053 -204.34526561931125 0 0 0 0 -402.35367115523923 -209.83888043625484 0 -209.83888043625484 9.8302507788612274 0 0 0 0 -245.57116754395793 23.394282476918306 0 23.394282476918306 -30.27235172764631 0 0 0 0 11.987212365174855 123.12075297012052 0 123.12075297012052 208.39994228510932 0 0 0 0 -4.6848768381603225 -2.3307804777570311 0 -2.3307804777570311 18.384298762049752 0 0 0 0 19.718142061299886 116.58734035774251 0 116.58734035774251 122.79332399542909 0 0 0 0 -3.1416515970777876 -3.9292918239454053 0 -3.9292918239454053 23.885403631268218 0 0 0 0 -235.64316671756478 8.9775163190497551 0 8.9775163190497551 96.90627302815119 0 0 0 0 -243.11105137061531 -66.569208103312121 0 -66.569208103312121 125.31180788448546 0 0 0 0 -73.293882194270282 7.6233143263671082 0 7.6233143263671082 47.253236437580199 0 0 0 0 -141.10645219565822 46.004188965656795 0 46.004188965656795 169.93341274878912 0 0 0 0 -111.20491102807671 148.15588224647581 0 148.15588224647581 241.71315164805856 0 0 0 0 72.213579267876412 179.26396704678336 0 179.26396704678336 176.32863960516988 0 0 0 0 42.974455068158022 137.94241976574995 0 137.94241976574995 196.79419413743017 0 0 0 0 -37.067549283471635 159.6455919913351 0 159.6455919913351 191.12247474619653 0 0 0 0 72.166577793434953 177.01479642523918 0 177.01479642523918 102.60799342257087 0 0 0 0 32.643059346241898 158.5674992120039 0 158.5674992120039 182.50440392256132 0 0 0 0 103.44261362035468 122.93986181233777 0 122.93986181233777 144.93026432256011 0 0 0 0 73.180310035651928 133.05513043127576 0 133.05513043127576 292.17990754901257 0 0 0 0 293.52811848247893 236.3609791728486 0 236.3609791728486 -591.06158378356486 0 0 0 0 6.8419749749316452 0.066551708510218077 0 0.066551708510218077 0.57776558583511672 0 0 0 0 -93.387973842962992 198.30704927690385 0 198.30704927690385 545.8707862537849 0 0 0 0 300.72460775914283 373.77262140393941 0 373.77262140393941 195.32368635431339 0 0 0 0 -1.7962119788078326 -203.42792760906741 0 -203.42792760906741 408.64914125508221 0 0 0 0 -81.242957314721934 -5.1409928465436678 0 -5.1409928465436678 142.28526845481247 0 0 0 0 -197.05162743383107 -163.40138934119022 0 -163.40138934119022 154.07392147238716 0 0 0 0 -270.04618253211265 -59.04748970206856 0 -59.04748970206856 292.43936130466136 0 0 0 0 -288.99655522673947 29.286520682668197 0 29.286520682668197 1639.4049363732702 0 0 0 0 729.45407722514119 354.15602496766587 0 354.15602496766587 329.41053006118455 0 0 0 0 370.3924144443281 300.95944920814509 0 300.95944920814509 -276.33837967245199 0 0 0 0 -19.939266664309912 -0.69838068614933491 0 -0.69838068614933491 -1.5393091907544942 0 0 0 0 -201.59710874380835 82.91327589773573 0 82.91327589773573 20.684199271025136 0 0 0 0 -101.46821242808073 56.062599335971754 0 56.062599335971754 -38.608785417971376 0 0 0 0 -43.661960586804831 -8.7649317962909095 0 -8.7649317962909095 12.493408572320448 0 0 0 0 -53.458797717243669 39.956217654747888 0 39.956217654747888 -289.36179684319359 0 0 0 0 290.77494685482134 -177.01918060323078 0 -177.01918060323078 -191.81532452280226 0 0 0 0 -26.784719570708859 -27.987179819420732 0 -27.987179819420732 30.158562273988878 0 0 0 0 -15.068055609329974 -12.957909870187265 0 -12.957909870187265 19.3454636358274 0 0 0 0 -221.02311628219104 -53.343456326329033 0 -53.343456326329033 64.001040071249008 0 0 0 0 250.10092836082185 111.93582202208927 0 111.93582202208927 77.625027775327908 0 0 0 0 -65.852301370302996 1.7913398774550728 0 1.7913398774550728 50.006066079082728 0 0 0 0 -16.667755060305353 8.267891473864438 0 8.267891473864438 30.462299647828331 0 0 0 0 -27.216149537287762 -3.1576539563946682 0 -3.1576539563946682 44.672947857907019 0 0 0 0 -178.29998811844428 -268.67583266769361 0 -268.67583266769361 11.291291357003502 0 0 0 0 -142.49992200041561 -104.55406672294339 0 -104.55406672294339 -39.728129846494994 0 0 0 0 144.00284625525455 98.894740058996831 0 98.894740058996831 99.602868414964178 0 0 0 0 -54.906092624723328 2.9164680061650472 0 2.9164680061650472 93.519247211950372 0 0 0 0 -0.14263539802884395 8.2357224548190402 0 8.2357224548190402 20.724543063001079 0 0 0 0 194.454276895558 254.03320106210595 0 254.03320106210595 175.2586883204458 0 0 0 0 -197.54242830083967 253.2819314717708 0 253.2819314717708 384.71288388421817 0 0 0 0 -63.086413295604416 222.39752874411624 0 222.39752874411624 171.37731022125809 0 0 0 0 141.60841365581655 138.17742925150378 0 138.17742925150378 183.97662953965482 0 0 0 0 -152.14954921851449 -185.37033555061134 0 -185.37033555061134 -89.224248176760739 0 0 0 0 -64.17458137573314 3.0782209463254162 0 3.0782209463254162 48.840464589683393 0 0 0 0 -78.663499131376739 163.66505399286689 0 163.66505399286689 234.78165651820018 0 0 0 0 -198.233348880633 73.433141666107986 0 73.433141666107986 160.92223651256063 0 0 0 0 -93.148767030782324 -112.95183474360056 0 -112.95183474360056 -77.513691740226932 0 0 0 0 -134.03820673006589 -232.77314212842248 0 -232.77314212842248 -50.760312788945157 0 0 0 0 91.880746495344283 68.851642150213593 0 68.851642150213593 193.61735356802819 0 0 0 0 6.6497582529735695 -29.261936219277089 0 -29.261936219277089 87.012637130028963 0 0 0 0 -26.269058422772659 4.6583924962296095 0 4.6583924962296095 52.170150163301457 0 0 0 0 -147.7987704333168 -35.689190667770163 0 -35.689190667770163 -473.46728044905467 0 0 0 0 -71.826024668444461 42.828761167871562 0 42.828761167871562 -315.01571925240569 0 0 0 0 -11.614384420111492 185.75458413392334 0 185.75458413392334 -428.61056058946997 0 0 0 0 6.0506736250472386 216.46303603507113 0 216.46303603507113 -238.84721075347625 0 0 0 0 -31.264181701419602 244.94832914507788 0 244.94832914507788 -260.19282394650509 0 0 0 0 -183.08009835112534 82.354585169698112 0 82.354585169698112 -284.2170249008268 0 0 0 0 -100.85443316935834 -54.453349157553021 0 -54.453349157553021 -526.18021084240172 0 0 0 0 -36.611105360803236 20.100207217022273 0 20.100207217022273 30.751035565900224 0 0 0 0 2.257098200294422 148.45617622514692 0 148.45617622514692 49.859204756154213 0 0 0 0 28.733905119371229 -97.650771382133826 0 -97.650771382133826 -451.80456900747959 0 0 0 0 -60.252506370868751 28.22722101478513 0 28.22722101478513 15.822784940286255 0 0 0 0 2.8648453034184058 179.11303017492173 0 179.11303017492173 321.22608471908825 0 0 0 0 -13.104504787286714 49.562695792912564 0 49.562695792912564 364.77035473885189 0 0 0 0 28.18034302855996 14.456910107811069 0 14.456910107811069 16.265094475007572 0 0 0 0 18.330928535383023 5.3579116618534499 0 5.3579116618534499 0.66223230633340791 0 0 0 0 0.12164972026948817 212.13899654115448 0 212.13899654115448 -293.46373136763577 0 0 0 0 -130.07452718772402 104.49205274495762 0 104.49205274495762 856.05321540860314 0 0 0 0 -97.028954688670638 104.6291114692649 0 104.6291114692649 148.45704099068826 0 0 0 0 -43.922231651770744 48.681880452128098 0 48.681880452128098 111.01394454298133 0 0 0 0 -68.605812733652783 1.7467008180574339 0 1.7467008180574339 232.39156809409906 0 0 0 0 -95.837842959763293 274.62097407483088 0 274.62097407483088 175.13574457706454 0 0 0 0 153.43477515365703 -144.50945957538352 0 -144.50945957538352 -129.71730526905594 0 0 0 0 -74.256568426173772 231.95774094655008 0 231.95774094655008 649.82574885047507 0 0 0 0 3.6151197365406915 -199.04949009017218 0 -199.04949009017218 543.16693189555372 0 0 0 0 -90.840733086566615 634.78231820969086 0 634.78231820969086 -569.4030152142841 0 0 0 0 -336.42350917294425 312.22426582787739 0 312.22426582787739 -248.64610598773288 0 0 0 0 418.30218181089731 601.80880576717027 0 601.80880576717027 -1358.9238586740066 0 0 0 0 -4.4743186446097098 0.34921460571814578 0 0.34921460571814578 -0.50300675240903558 0 0 0 0 12.489512777663549 199.64174113555782 0 199.64174113555782 391.21375876296952 0 0 0 0 -31.343763420158211 76.784766725861118 0 76.784766725861118 641.70560001142439 0 0 0 0 -38.528370920741793 334.60895803040444 0 334.60895803040444 35.982619308022549 0 0 0 0 233.99586331382307 186.65957314698608 0 186.65957314698608 -316.07927479949285 0 0 0 0 -43.104681184853689 8.9982310577252065 0 8.9982310577252065 -158.16123710982356 0 0 0 0 185.19897372097876 -71.05150740040699 0 -71.05150740040699 -135.86958058601886 0 0 0 0 208.4099728264755 20.572541258105048 0 20.572541258105048 -41.858709481006372 0 0 0 0 92.658163271665529 13.976302736533057 0 13.976302736533057 -2.9103506667306647 0 0 0 0 263.27539530688409 104.61784850474214 0 104.61784850474214 -89.854410740808817 0 0 0 0 92.131384058426192 142.19718192203436 0 142.19718192203436 -84.319625069678295 0 0 0 0 319.93582071066476 -242.34008764370037 0 -242.34008764370037 768.46714504955162 0 0 0 0 -33.964803690110784 308.525433217299 0 308.525433217299 1616.2191811115008 0 0 0 0 126.94900526184756 -16.913343419633748 0 -16.913343419633748 645.10668786220049 0 0 0 0 336.43706504433248 -284.96314795946455 0 -284.96314795946455 165.77817195851821 0 0 0 0 811.12681837001946 -542.58381366284448 0 -542.58381366284448 427.80904367699259 0 0 0 0 467.68468833066549 96.92927446840531 0 96.92927446840531 -198.28172418639588 0 0 0 0 629.8251587912282 -896.91648234912645 0 -896.91648234912645 2370.3474171433336 0 0 0 0 356.44559704798121 90.306095760686731 0 90.306095760686731 993.69328332762234 0 0 0 0 1810.2320063768402 -214.20464005663234 0 -214.20464005663234 491.76806026127088 0 0 0 0 303.66606295671045 607.96861921056552 0 607.96861921056552 208.63022605267179 0 0 0 0 -190.08022062896362 768.2691870408853 0 768.2691870408853 205.4495850266976 0 0 0 0 202.81597731278816 319.92955378126499 0 319.92955378126499 -248.72779788090509 0 0 0 0 -902.90774120550486 407.87674168146623 0 407.87674168146623 504.28697804113472 0 0 0 0 503.05605243326863 1045.0939548117931 0 1045.0939548117931 651.81475747562945 0 0 0 0 -1161.6965135574537 640.90363914129557 0 640.90363914129557 1577.1070229001562 0 0 0 0 -884.16606763471646 -2332.2610592089695 0 -2332.2610592089695 897.45347621366091 0 0 0 0 385.88873315076086 -563.19136947740481 0 -563.19136947740481 -261.02562560909428 0 0 0 0 457.11686533538341 -1219.155075333736 0 -1219.155075333736 1420.5378964848023 0 0 0 0 15.405119476893795 -14.593175507282254 0 -14.593175507282254 16.709915785167709 0 0 0 0 340.94274330823464 1112.5575705824012 0 1112.5575705824012 3190.3143807489378 0 0 0 0 -88.962222308116907 309.19488420401467 0 309.19488420401467 1283.2009400168681 0 0 0 0 101.91431115104751 273.74348870614631 0 273.74348870614631 1289.186728920773 0 0 0 0 140.55772338784936 515.00713027866004 0 515.00713027866004 1436.3720381162566 0 0 0 0 -544.62286227538607 -46.256636928184889 0 -46.256636928184889 291.44857312279055 0 0 0 0 -74.218742411052517 394.37749287762563 0 394.37749287762563 265.79855642968323 0 0 0 0 27.000957751177339 310.69113417963672 0 310.69113417963672 333.71161329292227 0 0 0 0 -453.771181922697 -24.546975350254797 0 -24.546975350254797 174.43458728961923 0 0 0 0 -722.78691757615161 -667.10765162452299 0 -667.10765162452299 -328.73337734081815 0 0 0 0 -204.12752382228064 -79.395613816843252 0 -79.395613816843252 -292.57601025337317 0 0 0 0 -877.10452048338266 -428.88253032077046 0 -428.88253032077046 271.50571332468826 0 0 0 0 -144.17122767127876 -417.88207111964584 0 -417.88207111964584 127.30730699164269 0 0 0 0 96.36620159895665 485.89053187171339 0 485.89053187171339 554.02564352052286 0 0 0 0 -112.51113170282042 363.09019273298327 0 363.09019273298327 985.08661134407157 0 0 0 0 -40.203703161518206 103.77233665884705 0 103.77233665884705 1091.0883951627911 0 0 0 0 65.0916287311411 158.07599016562745 0 158.07599016562745 185.65680633434386 0 0 0 0 -88.142650626192335 342.44143324469769 0 342.44143324469769 611.11026250466239 0 0 0 0 136.52018903143835 517.66519544412586 0 517.66519544412586 420.43090582027799 0 0 0 0 163.46381652755917 265.29390394726215 0 265.29390394726215 614.01210178763722 0 0 0 0 10.835910069199599 32.114873325852386 0 32.114873325852386 535.68365414557047 0 0 0 0 112.35786833668681 336.60791567838169 0 336.60791567838169 610.86105169232542 0 0 0 0 -706.09531426899048 130.30091075251403 0 130.30091075251403 94.137867014967924 0 0 0 0 -9.7974722206251279 -16.104696619604212 0 -16.104696619604212 53.938248531905174 0 0 0 0 -308.41136269492563 -197.68285932218714 0 -197.68285932218714 -33.318427677935688 0 0 0 0 416.96382638505634 662.87760398890259 0 662.87760398890259 439.51789661071962 0 0 0 0 -10.207586394812495 1.3649867763204639 0 1.3649867763204639 15.562317093750153 0 0 0 0 448.09006331511773 369.32197329313203 0 369.32197329313203 451.20009791300981 0 0 0 0 -304.29509171327118 84.668885528975807 0 84.668885528975807 89.524994103638164 0 0 0 0 -409.85895024527781 378.90966467912949 0 378.90966467912949 -201.27308751315286 0 0 0 0 -2.719525713707128 -9.9464291923910082 0 -9.9464291923910082 40.757549697011655 0 0 0 0 -1996.2843013272613 -719.64918946105172 0 -719.64918946105172 516.04807258365327 0 0 0 0 -591.9063517354025 181.19484222956089 0 181.19484222956089 65.642803718670621 0 0 0 0 1062.605085877025 853.03970119721998 0 853.03970119721998 386.94576015540224 0 0 0 0 165.96360449103486 595.46314022839942 0 595.46314022839942 599.30415505636483 0 0 0 0 -12.241605609739054 507.52953493427776 0 507.52953493427776 288.32418498228071 0 0 0 0 451.53765577767626 206.70017152262153 0 206.70017152262153 395.89030347058724 0 0 0 0 208.98935421820534 532.07753562630933 0 532.07753562630933 772.24652257405978 0 0 0 0 39.729300291978689 -76.385001804655985 0 -76.385001804655985 162.55084828252438 0 0 0 0 1253.228132802069 1479.0852028370282 0 1479.0852028370282 2322.2778214109567 0 0 0 0 -400.20914618382085 -459.56644737733586 0 -459.56644737733586 2852.2200224519765 0 0 0 0 418.77451321269473 170.65522241969302 0 170.65522241969302 544.20605795464508 0 0 0 0 1.9180067876906577 -5.75678362373624 0 -5.75678362373624 14.117009652334559 0 0 0 0 -458.94991109342641 -430.0250425027175 0 -430.0250425027175 447.26683906637481 0 0 0 0 -430.38650213778237 67.462474985703011 0 67.462474985703011 1469.625183739583 0 0 0 0 -255.65023769704567 -742.81549741202616 0 -742.81549741202616 1450.6817219583054 0 0 0 0 -1286.4454579181402 -1261.3403760257934 0 -1261.3403760257934 958.67510222946294 0 0 0 0 -1557.6190167117529 -1424.0267307098693 0 -1424.0267307098693 930.67462936698576 0 0 0 0 -1636.3855462568608 -1706.3883306748903 0 -1706.3883306748903 278.19166982495517 0 0 0 0 1627.0539553184794 2557.3487049215028 0 2557.3487049215028 2363.513391375629 0 0 0 0 -1891.8210464691292 -1303.1527726866334 0 -1303.1527726866334 1228.3617725366494 0 0 0 0 -1.1532742444404604 -9.6665329544398588 0 -9.6665329544398588 35.083181601154592 0 0 0 0 -786.98604267423798 -683.00767126774008 0 -683.00767126774008 263.83251546538668 0 0 0 0 -734.76419264609149 -949.88503474181107 0 -949.88503474181107 -1198.3811991439434 0 0 0 0 -601.42745428303897 330.84020592973684 0 330.84020592973684 14.388979503553855 0 0 0 0 -1165.9872173769581 180.54956096930255 0 180.54956096930255 -509.4730886585312 0 0 0 0 -707.49735260036459 146.36285921948479 0 146.36285921948479 102.26779826584971 0 0 0 0 -541.5916504095876 -365.08840196144592 0 -365.08840196144592 -47.377049574773991 0 0 0 0 -1384.362782540873 -732.7015261574561 0 -732.7015261574561 -3.3684174403897487 0 0 0 0 -374.89112030355864 1149.7176410553075 0 1149.7176410553075 5168.7734711714438 0 0 0 0 1965.942275665715 739.02842474446516 0 739.02842474446516 -1207.0331263954431 0 0 0 0 0.6621428192425789 -27.166026851894188 0 -27.166026851894188 81.488610770196317 0 0 0 0 17.059492978263364 4.8520748278331212 0 4.8520748278331212 2.1774905142595458 0 0 0 0 1782.5865340168239 -505.9874762679683 0 -505.9874762679683 4180.9968620350119 0 0 0 0 2283.851059097964 1503.4377192335232 0 1503.4377192335232 -1200.8516952607897 0 0 0 0 1413.7528072186687 637.61192743584979 0 637.61192743584979 -1198.0228131579988 0 0 0 0 1815.377044085657 1376.6892817155749 0 1376.6892817155749 -1212.3364064521629 0 0 0 0 1734.6107785410152 2085.7570715120073 0 2085.7570715120073 7.59730705950642 0 0 0 0 552.31009215510858 806.50922378015821 0 806.50922378015821 1453.2945611449686 0 0 0 0 553.24287607818951 503.25047858945618 0 503.25047858945618 214.59397060786432 0 0 0 0 144.21544681846308 -197.14396823316929 0 -197.14396823316929 544.545779189124 0 0 0 0 657.6358884234869 678.01151713173022 0 678.01151713173022 1234.2811782268109 0 0 0 0 335.31101679383937 -213.32397816744924 0 -213.32397816744924 1387.398657754442 0 0 0 0 202.78423354837832 -15.20570445258636 0 -15.20570445258636 1102.4913073805219 0 0 0 0 613.39753843497965 -250.60852877993602 0 -250.60852877993602 509.62055308806885 0 0 0 0 442.80647432087062 -411.986970317128 0 -411.986970317128 512.84991305051835 0 0 0 0 275.51662033700541 -197.95384982450378 0 -197.95384982450378 245.0170652710658 0 0 0 0 837.34961266791652 -14.430404332932085 0 -14.430404332932085 -138.39973147612181 0 0 0 0 628.23757602425394 -138.58154478476354 0 -138.58154478476354 338.77614630263997 0 0 0 0 770.6328395221899 -157.74792534178414 0 -157.74792534178414 46.554253583279205 0 0 0 0 1127.4713017551549 -444.10170901684614 0 -444.10170901684614 384.82170626387233 0 0 0 0 808.89850550908159 -172.86455622443464 0 -172.86455622443464 938.057524179545 0 0 0 0 773.2909998025716 -383.51406868890626 0 -383.51406868890626 1031.5411332958611 0 0 0 0 987.87289846766362 -52.392063871200662 0 -52.392063871200662 261.88408093922772 0 0 0 0 1372.3269503022748 -223.04343799967319 0 -223.04343799967319 1060.3853765865788 0 0 0 0 907.48084539375122 -624.34472953077056 0 -624.34472953077056 1909.832645824994 0 0 0 0 2335.8970861291746 -894.66294097169884 0 -894.66294097169884 2366.331973760738 0 0 0 0 910.49027785481303 -292.05847151530907 0 -292.05847151530907 2245.1610412023729 0 0 0 0 619.90275415889482 -477.95306947095378 0 -477.95306947095378 1221.0481033470132 0 0 0 0 628.64999039522809 -240.74150513310451 0 -240.74150513310451 2053.01461101725 0 0 0 0 941.06678424603888 134.57629462366458 0 134.57629462366458 2300.6920018858509 0 0 0 0 584.50362702374696 49.824680995225208 0 49.824680995225208 1524.8111303224578 0 0 0 0 804.58735451858411 1132.2546316993248 0 1132.2546316993248 2636.2405424125609 0 0 0 0 778.20345437577635 -747.70660079593654 0 -747.70660079593654 4082.0673131596704 0 0 0 0 399.97523425651889 1009.4160891691718 0 1009.4160891691718 4330.7543246920395 0 0 0 0 -216.52544413860232 -152.64879919728992 0 -152.64879919728992 1797.5611231625408 0 0 0 0 -1145.562467666683 -834.60164798501501 0 -834.60164798501501 1100.2114747142768 0 0 0 0 -5.5338934114107161 13.907746887840105 0 13.907746887840105 1.4331041532345239 0 0 0 0 -1729.3653242926011 -908.93734452611534 0 -908.93734452611534 1387.2903460137895 0 0 0 0 2020.3973949456413 1378.3258684388711 0 1378.3258684388711 3268.8646134741721 0 0 0 0 -1319.1724175040581 1863.363846232387 0 1863.363846232387 5165.5866066063172 0 0 0 0 -975.72263942860172 -482.79565207017367 0 -482.79565207017367 1929.4949620691477 0 0 0 0 122.92611060562194 -371.47495224117301 0 -371.47495224117301 1170.0759653019049 0 0 0 0 -1791.4552085409123 119.51335476392705 0 119.51335476392705 4046.8510119372513 0 0 0 0 296.9066760630667 95.139119830128038 0 95.139119830128038 1019.7326535799948 0 0 0 0 389.6751888251456 -230.92853046333767 0 -230.92853046333767 1219.8790187325503 0 0 0 0 1246.8716221573122 -214.37093552143779 0 -214.37093552143779 1200.2029215822549 0 0 0 0 487.12483825234085 230.40611610020278 0 230.40611610020278 2005.6572792724473 0 0 0 0 -355.47808308648928 -208.3161216285589 0 -208.3161216285589 2350.1562934471294 0 0 0 0 -297.67610477356357 -545.14471808023518 0 -545.14471808023518 1836.4492711592466 0 0 0 0 -182.97890006676244 -181.21190531295724 0 -181.21190531295724 1473.0967688090641 0 0 0 0 -70.921392822754569 -417.18763416171714 0 -417.18763416171714 1596.2552630320133 0 0 0 0 10.505671150528123 48.357095029919861 0 48.357095029919861 21.818335849030149 0 0 0 0 403.99900771100329 302.87428228111821 0 302.87428228111821 -685.46081500420405 0 0 0 0 -6.8136264563533899 9.2766957584845215 0 9.2766957584845215 11.762398480007732 0 0 0 0 546.83701315407961 -232.00649988473742 0 -232.00649988473742 199.93386554167955 0 0 0 0 414.63811692927266 97.285365553107113 0 97.285365553107113 -339.41498444753233 0 0 0 0 -196.31850639850018 -447.82311700904393 0 -447.82311700904393 433.28276379470481 0 0 0 0 -284.2345435366733 -127.6685039155127 0 -127.6685039155127 -704.064064915583 0 0 0 0 -281.94453584832081 -147.36730253869609 0 -147.36730253869609 269.17599757666903 0 0 0 0 -564.26800274476409 445.08214594022138 0 445.08214594022138 -7.7524492108786944 0 0 0 0 -62.947147807448346 -36.683533775736578 0 -36.683533775736578 -329.63819093164057 0 0 0 0 -858.55032795977604 841.18086991965538 0 841.18086991965538 -1253.7995944567956 0 0 0 0 291.41488414408377 156.06148331302393 0 156.06148331302393 -82.231268638861366 0 0 0 0 549.8269234534564 300.16844036738621 0 300.16844036738621 -105.81061558570946 0 0 0 0 173.52739492167893 462.48352491352125 0 462.48352491352125 -613.39914356618829 0 0 0 0 372.19947649816459 352.97267724442645 0 352.97267724442645 -248.56079401310126 0 0 0 0 -20.014441715309658 263.16167156026495 0 263.16167156026495 -24.782633020629873 0 0 0 0 -29.455042740562931 263.95665676347562 0 263.95665676347562 52.904649483243702 0 0 0 0 0.32925529794920294 187.29268646811761 0 187.29268646811761 -25.518448179907864 0 0 0 0 -160.53618715955236 195.20946925556927 0 195.20946925556927 19.844835684372811 0 0 0 0 35.492090846806605 262.61889883719414 0 262.61889883719414 -24.975161337380996 0 0 0 0 226.40650032555277 172.07744504827133 0 172.07744504827133 -74.751875984509752 0 0 0 0 -36.961859196433579 113.36413776796871 0 113.36413776796871 14.870222090132302 0 0 0 0 -26.444127469920204 84.840905353768903 0 84.840905353768903 -0.69311706619919278 0 0 0 0 -32.591907168801612 16.631233991149671 0 16.631233991149671 44.546410013143714 0 0 0 0 -139.39439006955217 120.65519566214061 0 120.65519566214061 17.706919886986725 0 0 0 0 -41.511319813624141 79.980700071151659 0 79.980700071151659 -16.569023829462822 0 0 0 0 -46.912296191796486 108.34174992935732 0 108.34174992935732 -80.523379785430734 0 0 0 0 35.093788402709734 29.625994357028475 0 29.625994357028475 12.507430000857823 0 0 0 0 -26.987684229494334 33.800302812778682 0 33.800302812778682 93.739629256509943 0 0 0 0 61.437870042592493 34.730690951091503 0 34.730690951091503 17.281580215041828 0 0 0 0 -0.051541100196061507 1.3177882765128004 0 1.3177882765128004 7.7900031204828295 0 0 0 0 -96.539878884483187 138.94888316176366 0 138.94888316176366 187.98042979824731 0 0 0 0 75.126678164262557 177.51049807285744 0 177.51049807285744 -170.00638066790998 0 0 0 0 70.656275871126127 221.6871995820984 0 221.6871995820984 -70.313533283537254 0 0 0 0 224.67544266812183 37.450344786200731 0 37.450344786200731 -80.256714312490658 0 0 0 0 287.35300698067476 67.258555902888475 0 67.258555902888475 -90.653715044943965 0 0 0 0 242.9532192591796 93.915593559009722 0 93.915593559009722 -68.573652170594869 0 0 0 0 128.68976174931595 49.854841289605247 0 49.854841289605247 15.518762871546642 0 0 0 0 203.36141066887649 -13.817219624048448 0 -13.817219624048448 -3.8491538684284023 0 0 0 0 148.61911457191627 -83.942486422860384 0 -83.942486422860384 70.933960909693269 0 0 0 0 311.31662545210202 -62.663195771558094 0 -62.663195771558094 5.1862580771121429 0 0 0 0 202.530256935117 -94.220961464307038 0 -94.220961464307038 13.963857524984633 0 0 0 0 181.66969455340359 -173.63568452454911 0 -173.63568452454911 240.7282758425863 0 0 0 0 442.89763649386077 -206.04820200498216 0 -206.04820200498216 57.865521826279291 0 0 0 0 399.56075075174704 -23.165384953734247 0 -23.165384953734247 -39.28236207968439 0 0 0 0 444.75331160406495 -100.80222762281483 0 -100.80222762281483 55.263938804055215 0 0 0 0 571.58695748106766 81.539365813165205 0 81.539365813165205 -111.82682570835459 0 0 0 0 371.45044319511362 156.9099300832313 0 156.9099300832313 -56.693722989562957 0 0 0 0 246.18098449377248 174.24618706214824 0 174.24618706214824 -111.57758706843015 0 0 0 0 408.35711318186077 -25.614114102485473 0 -25.614114102485473 -48.886105576195405 0 0 0 0 12.758712648205346 15.478935894603637 0 15.478935894603637 63.533375464350684 0 0 0 0 29.992478251076093 -41.239156725652549 0 -41.239156725652549 58.229277161835938 0 0 0 0 -334.84990684088234 -51.612657241617853 0 -51.612657241617853 174.04072291374905 0 0 0 0 -26.99011974989649 31.838401233377681 0 31.838401233377681 32.484652086612556 0 0 0 0 -251.26941180826361 185.49130511601834 0 185.49130511601834 688.88767898651713 0 0 0 0 -16.756778038984521 28.136566567303817 0 28.136566567303817 76.419318647531327 0 0 0 0 21.465568432172404 24.913698699314409 0 24.913698699314409 43.75120001011237 0 0 0 0 -5.6391308060045802 44.705746159211344 0 44.705746159211344 18.96193929562321 0 0 0 0 1.7199152957782644 46.676696781629289 0 46.676696781629289 60.96561837795889 0 0 0 0 155.33376173137913 255.93241420457343 0 255.93241420457343 -286.34769533090002 0 0 0 0 15.83714744466306 456.94298782297119 0 456.94298782297119 715.69985127171094 0 0 0 0 610.81743718680264 -925.52224242809461 0 -925.52224242809461 969.26449460459116 0 0 0 0 3.5147712641600037 40.167094722201 0 40.167094722201 71.936547106801299 0 0 0 0 3.9553725718142232 44.756556818305398 0 44.756556818305398 85.357194983946101 0 0 0 0 8.5087078914912126 49.435857999626023 0 49.435857999626023 79.159522244583059 0 0 0 0 7.7844666898856758 47.285874680596862 0 47.285874680596862 67.782555454119574 0 0 0 0 8.1960188394505167 50.463131407326728 0 50.463131407326728 85.870095157530159 0 0 0 0 6.8311261865505806 14.110361009410155 0 14.110361009410155 4.2442114238103841 0 0 0 0 20.930386124411598 31.933711845194921 0 31.933711845194921 4.2240745657181833 0 0 0 0 11.113205080495391 23.036232251208276 0 23.036232251208276 11.033471570975962 0 0 0 0 -12.218541243752455 7.1734440030263045 0 7.1734440030263045 9.2465999990386081 0 0 0 0 24.237124763748021 31.155411313077565 0 31.155411313077565 10.260773358507805 0 0 0 0 46.206773054225778 40.45105093040911 0 40.45105093040911 4.6704704897356351 0 0 0 0 31.608014824101616 28.741728096714525 0 28.741728096714525 13.306691660409001 0 0 0 0 21.339928532303702 48.129884381567535 0 48.129884381567535 67.828899097337853 0 0 0 0 17.041578221983166 22.705679288419191 0 22.705679288419191 2.0864214723297199 0 0 0 0 15.021844616851013 23.250074462092016 0 23.250074462092016 24.920268883296558 0 0 0 0 12.174225821319851 42.819321257658885 0 42.819321257658885 65.839851848159014 0 0 0 0 5.8640873902222665 41.974727141408948 0 41.974727141408948 69.943012221789104 0 0 0 0 7.6128151425418764 44.481873115022609 0 44.481873115022609 73.275402910090634 0 0 0 0 15.917329441083893 24.079011276175152 0 24.079011276175152 74.461103315945365 0 0 0 0 11.995611181177992 30.256073627027945 0 30.256073627027945 96.528374802684993 0 0 0 0 21.993690627685851 20.539015376974504 0 20.539015376974504 1.3895518556585902 0 0 0 0 -0.24103051871225034 12.135900684937951 0 12.135900684937951 25.336965802336636 0 0 0 0 27.963992657092604 27.249936881991744 0 27.249936881991744 6.8077360522729577 0 0 0 0 31.126900087184197 30.406405784633534 0 30.406405784633534 7.7104719468188705 0 0 0 0 22.030825267996136 21.511589770797201 0 21.511589770797201 9.4856314343231247 0 0 0 0 45.771745626974734 17.895439255829842 0 17.895439255829842 63.621994367691514 0 0 0 0 19.438613089280352 10.238131002284717 0 10.238131002284717 87.173737861565314 0 0 0 0 65.593679548438558 55.570579095387075 0 55.570579095387075 182.23261434912274 0 0 0 0 -1.6611898864061914 59.297558890946675 0 59.297558890946675 250.98683477792656 0 0 0 0 7.454735881389567 -32.82169600471326 0 -32.82169600471326 197.72438432840863 0 0 0 0 67.813969796354286 1.1486601275173598 0 1.1486601275173598 37.478662713863741 0 0 0 0 9.0825513180700046 77.521463173661289 0 77.521463173661289 62.679615354667476 0 0 0 0 17.51191542470805 22.146284886987132 0 22.146284886987132 12.510815899405685 0 0 0 0 13.597153704015909 147.53870833777182 0 147.53870833777182 415.15771849600424 0 0 0 0 3.9910269119664008 -105.15229041668863 0 -105.15229041668863 184.85483132712397 0 0 0 0 137.15791418299955 216.047877928464 0 216.047877928464 285.46141665262985 0 0 0 0 -317.15045191742934 82.365610635599296 0 82.365610635599296 596.38093138596014 0 0 0 0 102.07000902143136 234.45968604995869 0 234.45968604995869 557.05010940802822 0 0 0 0 7.7096009679206672 2.6743761462931843 0 2.6743761462931843 3.8773086143299338 0 0 0 0 20.26204310853343 10.536293380657327 0 10.536293380657327 4.6801296713569798 0 0 0 0 47.081417836718174 9.0796651390264742 0 9.0796651390264742 2.5827107824479754 0 0 0 0 39.251586577652233 30.924376740484149 0 30.924376740484149 -8.3707867938792333 0 0 0 0 -21.77895953539246 7.3002970723919134 0 7.3002970723919134 396.56679728316522 0 0 0 0 -2.3457065835377762 -60.019903463187802 0 -60.019903463187802 437.89526854302676 0 0 0 0 -163.54078593675604 -167.7291149319426 0 -167.7291149319426 365.98649837618723 0 0 0 0 49.936992790111702 -24.959700230668204 0 -24.959700230668204 154.44862212205771 0 0 0 0 -224.95676515300966 142.52240557243931 0 142.52240557243931 309.82671952734381 0 0 0 0 137.47067490121253 -49.831291210048221 0 -49.831291210048221 383.05093097078498 0 0 0 0 -152.22118069265889 -13.506793793239922 0 -13.506793793239922 688.59489596297499 0 0 0 0 470.70208996307701 -15.865857911223429 0 -15.865857911223429 358.70365071979904 0 0 0 0 -186.88191246887436 126.68631943075161 0 126.68631943075161 327.78363688087848 0 0 0 0 7.3434136126461453 124.88388573141128 0 124.88388573141128 281.58806157334038 0 0 0 0 -143.67905976004067 -40.52063719592843 0 -40.52063719592843 373.14594383601798 0 0 0 0 -399.56233067556605 35.835248323892301 0 35.835248323892301 488.2545909996843 0 0 0 0 -413.60923118301264 113.82144539596629 0 113.82144539596629 329.01284709607717 0 0 0 0 -350.5715361440175 69.15330400437233 0 69.15330400437233 180.10275069886848 0 0 0 0 -280.35167335741903 168.6338857199371 0 168.6338857199371 232.83790200774092 0 0 0 0 -237.06983820797564 45.940267038233287 0 45.940267038233287 333.73757226167072 0 0 0 0 -84.082400279974308 104.46561914370977 0 104.46561914370977 239.24106713826768 0 0 0 0 135.79856082758374 180.7754985288484 0 180.7754985288484 254.52019518325443 0 0 0 0 177.06864691211717 174.51039012579713 0 174.51039012579713 254.51254297295236 0 0 0 0 -409.0594726536433 -142.79960938378781 0 -142.79960938378781 216.84052209965012 0 0 0 0 0.23292084503677257 2.8229772779155269 0 2.8229772779155269 -2.1662342981698544 0 0 0 0 -412.34471878797831 32.755318376672221 0 32.755318376672221 402.03016320859024 0 0 0 0 97.891059763989688 186.65030623919301 0 186.65030623919301 267.54516185649118 0 0 0 0 145.99012611299895 185.44336546429258 0 185.44336546429258 211.51325382660434 0 0 0 0 -57.891254565880033 204.57911782195788 0 204.57911782195788 266.40832530366606 0 0 0 0 74.139557917411821 162.31886367317929 0 162.31886367317929 243.43219387386489 0 0 0 0 -3.1700586968768079 31.574654365494737 0 31.574654365494737 45.784255911211119 0 0 0 0 91.95716445083238 151.53678837486078 0 151.53678837486078 174.70263185994068 0 0 0 0 21.147802888078758 45.958118617899174 0 45.958118617899174 59.957170226441406 0 0 0 0 126.02601191672147 172.87417700031801 0 172.87417700031801 208.63783507929656 0 0 0 0 126.0656079380592 171.05554902760923 0 171.05554902760923 225.29305006700451 0 0 0 0 29.738939191185636 122.94041535308406 0 122.94041535308406 133.26439001573033 0 0 0 0 -196.76653452480241 420.6647113621475 0 420.6647113621475 199.00876478968576 0 0 0 0 111.06183950687713 133.42052960531208 0 133.42052960531208 126.07838483381644 0 0 0 0 110.49571332255618 146.35357016525086 0 146.35357016525086 199.30677164538065 0 0 0 0 88.552791206031543 147.06966707293032 0 147.06966707293032 211.64200871234061 0 0 0 0 75.904674137842449 131.83018499022 0 131.83018499022 273.99958803565096 0 0 0 0 49.38098940787404 87.537439517138409 0 87.537439517138409 201.19327963577234 0 0 0 0 -76.488491699143196 -135.42408488121873 0 -135.42408488121873 197.16824617186285 0 0 0 0 -21.403273097029341 180.33215445673704 0 180.33215445673704 1093.9493474184128 0 0 0 0 -89.021896590893448 -140.33699774419074 0 -140.33699774419074 956.11297905235915 0 0 0 0 -329.15199019055399 77.992877874406986 0 77.992877874406986 1001.7628156373967 0 0 0 0 -145.13920359341228 -301.82850913178117 0 -301.82850913178117 969.22983556002146 0 0 0 0 13.208849264404847 7.1433627949664924 0 7.1433627949664924 4.3847905360897244 0 0 0 0 -250.03848810606405 -334.12253851325659 0 -334.12253851325659 1382.9602137889306 0 0 0 0 -956.47362042504392 -120.63636970650987 0 -120.63636970650987 -393.30217669444392 0 0 0 0 -306.49132508351283 -64.115828074378442 0 -64.115828074378442 1450.3169561695104 0 0 0 0 -115.26750207100122 538.04749890242238 0 538.04749890242238 1.0436520351504441 0 0 0 0 -290.02943274883455 261.50232573238463 0 261.50232573238463 165.11058673428488 0 0 0 0 281.72213850115077 416.26148302400543 0 416.26148302400543 7.0875838977663079 0 0 0 0 10.012788882761015 214.56274160700559 0 214.56274160700559 13.859364069503499 0 0 0 0 27.893210320846265 155.37366545581608 0 155.37366545581608 199.24329482045141 0 0 0 0 -130.53488981689134 90.726674750017992 0 90.726674750017992 239.90732508894871 0 0 0 0 32.750963640324699 11.103608816119959 0 11.103608816119959 205.0011213470134 0 0 0 0 -28.541520652634063 80.97544461065263 0 80.97544461065263 125.69969060635776 0 0 0 0 100.90463407363859 38.198930121281592 0 38.198930121281592 120.0638299495331 0 0 0 0 221.16589821885441 126.37710393736961 0 126.37710393736961 47.544984995096456 0 0 0 0 36.436056973708759 23.175828414331818 0 23.175828414331818 14.563648406565164 0 0 0 0 221.78743683107496 127.06012346594343 0 127.06012346594343 -120.46643561497331 0 0 0 0 299.42267947982327 473.9757071401109 0 473.9757071401109 59.997235452101449 0 0 0 0 304.82176771066406 133.0015039202699 0 133.0015039202699 -152.94260579264665 0 0 0 0 362.70556303456942 229.63523568645178 0 229.63523568645178 -51.673314044746803 0 0 0 0 207.82425179680286 39.552965290211432 0 39.552965290211432 -151.29287354277039 0 0 0 0 136.0090422086696 -113.93823382264236 0 -113.93823382264236 -124.49058856930662 0 0 0 0 56.598838960498597 -77.478054386989243 0 -77.478054386989243 89.182688845095981 0 0 0 0 99.884893159018247 67.65518900504685 0 67.65518900504685 -127.51184246646881 0 0 0 0 60.673576873511593 49.276892688612861 0 49.276892688612861 -43.707399942082702 0 0 0 0 43.025438221462537 -9.0941313888615696 0 -9.0941313888615696 -63.851462706021266 0 0 0 0 46.860309205463182 -87.755162207140529 0 -87.755162207140529 414.79433000528661 0 0 0 0 61.647666581377052 32.887500842625741 0 32.887500842625741 999.9822893090568 0 0 0 0 243.60944377218493 528.69084415542602 0 528.69084415542602 349.60091170397936 0 0 0 0 6.8181311504301547 3.4123940288587278 0 3.4123940288587278 2.4397748843071412 0 0 0 0 257.31161973212784 409.01253751397417 0 409.01253751397417 590.87156982788292 0 0 0 0 439.1177658280626 82.904935669392216 0 82.904935669392216 492.49825561701437 0 0 0 0 -188.06811054292302 248.45133905532566 0 248.45133905532566 449.66689959447831 0 0 0 0 71.138875348851911 75.741029357534899 0 75.741029357534899 503.19765579568048 0 0 0 0 321.63562794654263 234.03948330716958 0 234.03948330716958 399.64134439220652 0 0 0 0 306.75637705620102 154.09328820758674 0 154.09328820758674 264.59449922508793 0 0 0 0 370.24587297358266 177.81355839596654 0 177.81355839596654 273.06930032680975 0 0 0 0 603.73860320249605 66.679392742327764 0 66.679392742327764 300.61920203965565 0 0 0 0 557.04799838210886 451.94470642441865 0 451.94470642441865 246.57858797660447 0 0 0 0 37.561963540205397 382.13815413109842 0 382.13815413109842 395.00350447704841 0 0 0 0 407.04526647977218 115.75429166857793 0 115.75429166857793 409.33197426248807 0 0 0 0 227.9382194681566 198.08723955908317 0 198.08723955908317 100.60072853357997 0 0 0 0 -317.88431916006721 64.518782938590448 0 64.518782938590448 342.54825853908551 0 0 0 0 144.08853351049493 330.91044294406311 0 330.91044294406311 346.83387297324225 0 0 0 0 123.35266278207109 288.77892992108536 0 288.77892992108536 348.12120099872118 0 0 0 0 -201.01768497573357 97.482864163939666 0 97.482864163939666 27.36145017171475 0 0 0 0 -15.095627497024793 -20.774599840728413 0 -20.774599840728413 14.674162947673494 0 0 0 0 -130.24198521890457 46.52035484681619 0 46.52035484681619 80.118057726765983 0 0 0 0 -20.819691773171144 -1.4002277239633258 0 -1.4002277239633258 92.185107986701041 0 0 0 0 -107.47362919388252 165.24423351128644 0 165.24423351128644 678.44203425841988 0 0 0 0 -161.90021010154396 6.4156998048601963 0 6.4156998048601963 697.25975135866611 0 0 0 0 83.820409657895652 234.62730857787392 0 234.62730857787392 -128.94619609687652 0 0 0 0 -64.099000168394014 563.54277672098397 0 563.54277672098397 873.42957301469141 0 0 0 0 53.506230357852473 -117.83206032002818 0 -117.83206032002818 -268.34523751593952 0 0 0 0 -89.155129645321722 -55.252842156798579 0 -55.252842156798579 178.8814528494695 0 0 0 0 -55.956179164092958 -59.686193781478579 0 -59.686193781478579 91.828606415492516 0 0 0 0 -91.326443397527328 -67.019816721163807 0 -67.019816721163807 265.34643030035659 0 0 0 0 -50.640363825445093 -169.43316626348678 0 -169.43316626348678 92.642713666435156 0 0 0 0 97.265726699519291 111.3829636231676 0 111.3829636231676 266.10779652129713 0 0 0 0 -286.01604200701695 96.425090698772692 0 96.425090698772692 639.1910152195851 0 0 0 0 -17.055591409394765 563.39618256676476 0 563.39618256676476 774.81228142886539 0 0 0 0 120.28549245570684 331.43925529759144 0 331.43925529759144 440.43031224785955 0 0 0 0 124.87168218506122 371.55552648562298 0 371.55552648562298 497.57215441521839 0 0 0 0 -13.99158401852128 193.68804336825269 0 193.68804336825269 208.39723911331384 0 0 0 0 -42.716111161762029 -80.607683261956993 0 -80.607683261956993 81.4299725346401 0 0 0 0 617.48075962568146 -725.94662900381081 0 -725.94662900381081 -105.22262452134601 0 0 0 0 -602.63820620259412 -31.175012654537568 0 -31.175012654537568 952.03383483199286 0 0 0 0 -61.557562768652133 13.704988683661213 0 13.704988683661213 301.26708114923713 0 0 0 0 -6.5982863566457297 -4.9749668937736828 0 -4.9749668937736828 -6.3455077202977694 0 0 0 0 1368.2664019075064 434.81928567730938 0 434.81928567730938 -841.6328771470653 0 0 0 0 -22.933018514378517 3.6969918536959483 0 3.6969918536959483 50.426399884906452 0 0 0 0 -501.14928835744877 128.76446923906406 0 128.76446923906406 421.85426705238933 0 0 0 0 -268.45111785995334 113.84339508092671 0 113.84339508092671 358.81975466845324 0 0 0 0 38.487995137292273 -35.058988137749111 0 -35.058988137749111 193.78427459740487 0 0 0 0 -77.118996551337659 15.596286126099585 0 15.596286126099585 297.44758772771456 0 0 0 0 -66.841748694003172 -53.622058380875387 0 -53.622058380875387 190.64793674829343 0 0 0 0 72.091459207043044 -23.463253709811397 0 -23.463253709811397 146.65672372383415 0 0 0 0 16.617233458940973 -19.073078109780909 0 -19.073078109780909 148.62432523020834 0 0 0 0 18.074040175554728 -50.066867030149297 0 -50.066867030149297 235.79416577835218 0 0 0 0 -51.744603256835035 74.518075664695061 0 74.518075664695061 235.48132913187146 0 0 0 0 -7.2423075752374189 74.698352297476958 0 74.698352297476958 127.82445334477234 0 0 0 0 -50.792729899283131 95.229641365207499 0 95.229641365207499 178.48270371209946 0 0 0 0 -1.9485842443473551 38.874196590478007 0 38.874196590478007 215.71880108105563 0 0 0 0 -134.84975869816026 -39.094057650392642 0 -39.094057650392642 248.16898714609852 0 0 0 0 -30.938884390580231 25.647570438924632 0 25.647570438924632 242.81302081401941 0 0 0 0 -431.20337971301706 36.251103823975427 0 36.251103823975427 -124.73595424299128 0 0 0 0 -297.15750807436496 22.623065501844394 0 22.623065501844394 337.00220764036931 0 0 0 0 226.76601286848549 -8.0455462434183573 0 -8.0455462434183573 318.15380321182602 0 0 0 0 -1134.6100897835931 586.4628280258039 0 586.4628280258039 685.11760336882435 0 0 0 0 -10.77181558222874 -1.5413820410190908 0 -1.5413820410190908 29.224530540728921 0 0 0 0 -704.58686295610096 -1351.1476942676236 0 -1351.1476942676236 -568.39015939249657 0 0 0 0 -2521.771072292715 -2385.6050504412269 0 -2385.6050504412269 -1063.3749255404691 0 0 0 0 126.61519632622549 -494.30790755630005 0 -494.30790755630005 -589.50388260235195 0 0 0 0 175.20943418469687 -92.850299548648763 0 -92.850299548648763 -562.96235801352304 0 0 0 0 -23.132921889635647 2.8013855045689979 0 2.8013855045689979 61.749512341773801 0 0 0 0 -95.601606240146793 621.71953694807598 0 621.71953694807598 765.14512074895902 0 0 0 0 -2014.032442429394 -393.13799156981986 0 -393.13799156981986 -123.70799310394796 0 0 0 0 -101.28967412663405 -639.46215146474424 0 -639.46215146474424 -510.84861783991801 0 0 0 0 59.110069541185794 42.499481545793969 0 42.499481545793969 1066.2386109483195 0 0 0 0 -206.27084395980273 -424.89803061628481 0 -424.89803061628481 -931.54806047008606 0 0 0 0 -1416.2177843484915 -477.62118631891644 0 -477.62118631891644 -40.586159228230827 0 0 0 0 -882.13528676354326 -242.57557409637957 0 -242.57557409637957 -84.416100509173702 0 0 0 0 614.75127273277303 -863.78250899721752 0 -863.78250899721752 -372.03286751973792 0 0 0 0 190.96453959430971 1657.0582485688847 0 1657.0582485688847 3595.2582476115786 0 0 0 0 97.254283861509066 784.36019377399134 0 784.36019377399134 1538.071700168075 0 0 0 0 638.38342260769059 701.84202952636406 0 701.84202952636406 535.12667923641857 0 0 0 0 1720.9045314411451 929.20414302095742 0 929.20414302095742 555.87956626521191 0 0 0 0 2169.6518793329465 2783.3598454816624 0 2783.3598454816624 1553.9929691505968 0 0 0 0 1035.084397188645 2651.6901944637939 0 2651.6901944637939 2713.7481366587454 0 0 0 0 1378.5143586892464 1938.2483002191293 0 1938.2483002191293 1470.3766392833786 0 0 0 0 1129.0820891988114 1803.5148686932516 0 1803.5148686932516 1473.2865479124011 0 0 0 0 648.84488148891978 1795.3164596596034 0 1795.3164596596034 2067.8592858577613 0 0 0 0 1097.7159717565082 1021.7843887813506 0 1021.7843887813506 884.55774253138225 0 0 0 0 749.80068167218633 -90.671264054020867 0 -90.671264054020867 414.72217187879141 0 0 0 0 510.70755466683477 1128.3450947977835 0 1128.3450947977835 1295.6310182723682 0 0 0 0 477.72602306825479 479.87627938309015 0 479.87627938309015 640.56114606151823 0 0 0 0 803.12186383422977 1238.7179987787604 0 1238.7179987787604 1102.3841879501706 0 0 0 0 1322.4872456339544 1263.5762201366015 0 1263.5762201366015 1110.6406918746652 0 0 0 0 870.51760548491438 1469.7885691927513 0 1469.7885691927513 1450.7723317829659 0 0 0 0 1126.4503067866535 1384.8523162372294 0 1384.8523162372294 1167.3787815712858 0 0 0 0 1311.4191863650994 1553.7899679936236 0 1553.7899679936236 1303.730988839292 0 0 0 0 1628.6773602099311 1663.2655358738848 0 1663.2655358738848 1196.9237304427588 0 0 0 0 1635.1890695603279 1389.9723374089081 0 1389.9723374089081 351.55960847396636 0 0 0 0 2223.5674066980764 1803.9573519994738 0 1803.9573519994738 443.54117010493064 0 0 0 0 1618.8887777802884 1976.8438156206685 0 1976.8438156206685 1354.1017421057331 0 0 0 0 3.8422135326300815 -3.8730994061132122 0 -3.8730994061132122 24.333444795588662 0 0 0 0 309.68160113322847 -399.34836415141763 0 -399.34836415141763 -97.237654709926574 0 0 0 0 -29.012193744678953 -72.414273120241546 0 -72.414273120241546 110.83226138531768 0 0 0 0 115.11250601167603 -366.04915786280981 0 -366.04915786280981 676.41942071783706 0 0 0 0 -26.392865085348603 -133.44294322910719 0 -133.44294322910719 900.34799124879646 0 0 0 0 -0.43500645220410661 79.420340880154072 0 79.420340880154072 1769.5754255124193 0 0 0 0 943.17881588185992 1668.8977988277329 0 1668.8977988277329 874.2517226846976 0 0 0 0 6.7049543455798357 877.53907185703974 0 877.53907185703974 2107.5168483991001 0 0 0 0 34.132954125707329 736.86342354012595 0 736.86342354012595 1107.7549112869965 0 0 0 0 -9.1980218180363664 -16.473632025190966 0 -16.473632025190966 61.942884156038929 0 0 0 0 -1577.1053870749977 -135.89242620681367 0 -135.89242620681367 276.97275797242764 0 0 0 0 1436.7474402042753 -479.7927152364573 0 -479.7927152364573 2243.3576117194898 0 0 0 0 -1190.7404018865545 -823.80163571386947 0 -823.80163571386947 -919.4993477590906 0 0 0 0 -1576.0780375417235 -481.13015451317136 0 -481.13015451317136 -484.88363753713202 0 0 0 0 -1433.542303385153 -496.60534005431691 0 -496.60534005431691 -504.18042069510557 0 0 0 0 1944.1101556923004 1268.4384581380873 0 1268.4384581380873 -378.52831552285352 0 0 0 0 -2186.4928923901066 -1260.1226665700992 0 -1260.1226665700992 -129.37632269176538 0 0 0 0 -10.673599237084664 7.3972167469768237 0 7.3972167469768237 12.955714750352115 0 0 0 0 -2178.1459485569758 -395.96139420373947 0 -395.96139420373947 -113.27235123518039 0 0 0 0 -1506.152569537373 -858.97117218628409 0 -858.97117218628409 28.969401489477605 0 0 0 0 -1144.9085142826443 -381.69768613856286 0 -381.69768613856286 -364.74261157395085 0 0 0 0 -228.5683285247087 -525.49506327870768 0 -525.49506327870768 -214.06024120798975 0 0 0 0 -1433.9870799122368 -505.91504511255152 0 -505.91504511255152 -103.74089663871564 0 0 0 0 -1096.1100995561083 -1068.3572642411455 0 -1068.3572642411455 -314.21723612758797 0 0 0 0 -868.06779865747649 -848.64465870829008 0 -848.64465870829008 35.147235449287109 0 0 0 0 -964.51565908862563 -775.90103111923963 0 -775.90103111923963 489.66791327286046 0 0 0 0 -266.46389353078212 -483.1032329587033 0 -483.1032329587033 248.48427895469649 0 0 0 0 282.35849677151646 -430.24383012579347 0 -430.24383012579347 -120.58397696146858 0 0 0 0 -363.26148036324309 -535.94962302150452 0 -535.94962302150452 153.95781275047921 0 0 0 0 -386.32225637592512 -429.62590832488968 0 -429.62590832488968 -63.626545559149235 0 0 0 0 -1624.3822510413775 -1510.423338431181 0 -1510.423338431181 -189.37488241007668 0 0 0 0 -4.3595204901876929 -1.8449754396339841 0 -1.8449754396339841 29.204331013710828 0 0 0 0 -1350.8532943759478 -863.72870308542042 0 -863.72870308542042 794.60345111534116 0 0 0 0 -1676.5606505811306 -1237.5626562177204 0 -1237.5626562177204 490.58105999678082 0 0 0 0 -860.75313321120166 -813.6647599471471 0 -813.6647599471471 -314.03607495268807 0 0 0 0 -1.1674173809617847 -153.82507321791491 0 -153.82507321791491 -86.841130520639126 0 0 0 0 46.004444454940767 -16.38034498419438 0 -16.38034498419438 -132.61867842435822 0 0 0 0 660.30046604316294 -241.94862799005932 0 -241.94862799005932 -83.92281730843024 0 0 0 0 -346.45124198437617 -62.096485973823292 0 -62.096485973823292 34.868172319547739 0 0 0 0 -223.82075952646869 -210.64164155651815 0 -210.64164155651815 214.3326602056477 0 0 0 0 -0.44134934025784606 -0.92427829617644663 0 -0.92427829617644663 8.6838315165766744 0 0 0 0 -166.76017378152122 -111.99459002834919 0 -111.99459002834919 -39.473541134604602 0 0 0 0 125.23374934953085 -243.69632921061566 0 -243.69632921061566 286.34493152788491 0 0 0 0 0.43091659428630524 -25.256216361078259 0 -25.256216361078259 -0.018294632973265834 0 0 0 0 -294.15307618244907 147.09137968257426 0 147.09137968257426 132.89875335496617 0 0 0 0 -0.18387667690025833 -0.22190240707702724 0 -0.22190240707702724 3.3741308341150216 0 0 0 0 -302.97365247812741 -112.03690162507701 0 -112.03690162507701 449.09135408962902 0 0 0 0 -0.20057129101618135 -120.27705624063674 0 -120.27705624063674 499.413957218625 0 0 0 0 -4.1738267337649555 -2.0301691132025326 0 -2.0301691132025326 -4.2698170853815363 0 0 0 0 830.11616724793259 723.62970273031169 0 723.62970273031169 -262.53792091723881 0 0 0 0 -380.49954970388626 -800.42972403370368 0 -800.42972403370368 2474.9161926152592 0 0 0 0 -657.45681985085002 41.552337855275255 0 41.552337855275255 127.02195051674062 0 0 0 0 -669.54451094132082 158.81207860038558 0 158.81207860038558 1327.5618874249049 0 0 0 0 -429.50463079783248 107.93273869475524 0 107.93273869475524 329.40235362786916 0 0 0 0 -248.7829476789459 255.49431610120519 0 255.49431610120519 92.236286052240757 0 0 0 0 -44.053028954402635 174.96236549361493 0 174.96236549361493 -89.812692206401152 0 0 0 0 -80.775627197793909 102.10690739244092 0 102.10690739244092 219.1735349833034 0 0 0 0 -165.47768042113194 81.761678849085001 0 81.761678849085001 241.09424494885025 0 0 0 0 -112.12162142338218 -67.08230575012567 0 -67.08230575012567 311.91527010776917 0 0 0 0 -139.13043587460379 -52.396881287670112 0 -52.396881287670112 358.45765008156377 0 0 0 0 -24.650303776277951 -108.34007486046175 0 -108.34007486046175 330.88252822705545 0 0 0 0 -75.487824568540987 -132.48688149598092 0 -132.48688149598092 358.23574297025334 0 0 0 0 120.52882307947129 -110.16105969419004 0 -110.16105969419004 325.12287663329334 0 0 0 0 80.692237351480912 10.49408660903282 0 10.49408660903282 254.03204153268598 0 0 0 0 -42.40891106712138 59.067179189027229 0 59.067179189027229 262.37331217044266 0 0 0 0 3.0577627249565467 0.25683602140634321 0 0.25683602140634321 270.44951381730061 0 0 0 0 -68.190531368899599 -39.723886592611962 0 -39.723886592611962 299.45159582668566 0 0 0 0 34.930472704656353 -61.794218087918125 0 -61.794218087918125 365.36718008453317 0 0 0 0 -115.9401189473827 -138.31553742564165 0 -138.31553742564165 356.94617652933812 0 0 0 0 10.944952238886714 -205.66983694764349 0 -205.66983694764349 346.06279276165151 0 0 0 0 -40.165057359815705 -152.17442481381295 0 -152.17442481381295 339.27152488028514 0 0 0 0 -67.613858325689009 -153.28806196057121 0 -153.28806196057121 357.7173617707449 0 0 0 0 -15.049645025825157 -100.34377151909575 0 -100.34377151909575 242.83396525980788 0 0 0 0 0.039535666164321429 -142.03420616857329 0 -142.03420616857329 313.9130880087323 0 0 0 0 -79.028784077016724 -43.449333136260975 0 -43.449333136260975 226.96032315305638 0 0 0 0 -30.083179304734983 -65.556155658086936 0 -65.556155658086936 206.35000133016729 0 0 0 0 -56.320473812053137 -106.66077029620646 0 -106.66077029620646 290.03520691633457 0 0 0 0 -46.502778500437273 -79.901872797912802 0 -79.901872797912802 311.2216171164182 0 0 0 0 -34.316957334421659 -53.381346219284751 0 -53.381346219284751 194.83513107855106 0 0 0 0 -58.895998638395881 -15.653263615567994 0 -15.653263615567994 194.56420581624843 0 0 0 0 -0.73934155023023418 0.17582387024197033 0 0.17582387024197033 -0.15907619048658717 0 0 0 0 -0.078966723995042232 -105.83878323098 0 -105.83878323098 125.92484479447012 0 0 0 0 6.3616287175577497 -50.235316625417909 0 -50.235316625417909 -43.47811481980898 0 0 0 0 134.58248186438959 -269.00496577724698 0 -269.00496577724698 679.58885982276843 0 0 0 0 -51.871221231561776 68.030860117520206 0 68.030860117520206 763.4334358617125 0 0 0 0 86.149258050920253 62.137993594951695 0 62.137993594951695 485.40331678566145 0 0 0 0 45.439763751535793 -157.655774160492 0 -157.655774160492 537.99730706270202 0 0 0 0 44.591328352502387 -7.8750245943374466 0 -7.8750245943374466 335.79579569940688 0 0 0 0 355.85374278022641 -85.53991486801533 0 -85.53991486801533 349.9437740498106 0 0 0 0 52.895192217245608 -117.62893843608617 0 -117.62893843608617 424.13816908933222 0 0 0 0 -18.579559160652479 -108.68995541025652 0 -108.68995541025652 426.56665392385912 0 0 0 0 -20.292066733058164 -124.64438513474306 0 -124.64438513474306 353.99314094187866 0 0 0 0 -58.033083632907733 -120.3930743697565 0 -120.3930743697565 387.36953022904345 0 0 0 0 -36.70330627451176 -14.979795480321627 0 -14.979795480321627 352.4997270279855 0 0 0 0 -30.568269422488584 -22.766727866532165 0 -22.766727866532165 211.11732931990991 0 0 0 0 -50.097358487591237 7.2759061253163964 0 7.2759061253163964 379.25486006494612 0 0 0 0 -51.632482464733584 -35.530123986740364 0 -35.530123986740364 599.00158556405222 0 0 0 0 -46.287067878151902 -20.183498507627519 0 -20.183498507627519 387.10139744100161 0 0 0 0 -53.552830957631386 10.777218821458519 0 10.777218821458519 424.90901038807351 0 0 0 0 -29.754923624158891 98.948564788122894 0 98.948564788122894 389.77008535590721 0 0 0 0 19.546190171266062 36.68989048799267 0 36.68989048799267 72.298476109630428 0 0 0 0 -28.103845560078383 13.065168319211807 0 13.065168319211807 61.574266746320063 0 0 0 0 1.3564955493165769 27.254975255567842 0 27.254975255567842 302.34104596759425 0 0 0 0 -2.7875403525464941 0.49486013285445551 0 0.49486013285445551 1.7918407864662527 0 0 0 0 -0.45978998717752262 -0.25544293057293999 0 -0.25544293057293999 -1.2503990156385782 0 0 0 0 87.891930109764417 -12.276358570437878 0 -12.276358570437878 -13.489186788327061 0 0 0 0 -0.34836356244311117 0.21769113695529541 0 0.21769113695529541 1.6436948288983615 0 0 0 0 0.43474688626520219 30.901168658961979 0 30.901168658961979 377.00466907711234 0 0 0 0 -1.3319382744818486 -6.2735517686733715 0 -6.2735517686733715 19.309578983559845 0 0 0 0 5.2890780067317564 -8.4265235380298691 0 -8.4265235380298691 26.518182903237175 0 0 0 0 55.880531066599815 16.426002500957111 0 16.426002500957111 74.121915214200271 0 0 0 0 134.63124385857463 -107.51681408936565 0 -107.51681408936565 109.47531084208458 0 0 0 0 11.005761780328243 -25.49099195401925 0 -25.49099195401925 -14.474025625826243 0 0 0 0 3.596175878583642 -7.0909996656016148 0 -7.0909996656016148 -3.5798775153650695 0 0 0 0 137.52617939841275 191.62333134806249 0 191.62333134806249 206.20806679246016 0 0 0 0 214.93065919660842 -270.76620809278393 0 -270.76620809278393 195.47184033837402 0 0 0 0 4.1717119027937031 -115.55972741970254 0 -115.55972741970254 235.90502149422537 0 0 0 0 5.389760412168016 -113.42615701489558 0 -113.42615701489558 236.02140148397302 0 0 0 0 39.386121841039255 -111.73923660313449 0 -111.73923660313449 230.81750008114614 0 0 0 0 -34.214806774219483 -54.267918065583217 0 -54.267918065583217 394.17238923109835 0 0 0 0 -50.349010691389338 7.7883242045354564 0 7.7883242045354564 187.89899569074623 0 0 0 0 39.780594938416812 -31.059491561187315 0 -31.059491561187315 298.20412780038896 0 0 0 0 -17.147749647069531 89.347585708252154 0 89.347585708252154 296.95256559925087 0 0 0 0 -148.97061178612563 -20.277978729034658 0 -20.277978729034658 252.88453111697163 0 0 0 0 -234.09184212565572 71.839747475176409 0 71.839747475176409 216.36388467816141 0 0 0 0 3.7104436892098218 27.746856347682751 0 27.746856347682751 153.15209278263058 0 0 0 0 -47.25882170870986 -39.256748410713044 0 -39.256748410713044 167.5994677466806 0 0 0 0 -61.075096107088839 -61.229396306272974 0 -61.229396306272974 170.35460500366753 0 0 0 0 -49.195462303853901 -51.201500221228343 0 -51.201500221228343 124.09639610649901 0 0 0 0 -465.31449464739353 307.61277709995193 0 307.61277709995193 241.58720037058811 0 0 0 0 8.9574373858710974 22.548021845679926 0 22.548021845679926 116.26425616156308 0 0 0 0 -505.46102539807282 246.27146201953292 0 246.27146201953292 168.14162886605482 0 0 0 0 -230.89100149821752 212.03533531552239 0 212.03533531552239 931.58623448133585 0 0 0 0 -197.0213947478087 95.497460549959214 0 95.497460549959214 201.52770320856507 0 0 0 0 -232.92034201622255 -112.14915162792749 0 -112.14915162792749 599.09298119411687 0 0 0 0 237.25093804184087 -296.82374691209043 0 -296.82374691209043 287.07064229212119 0 0 0 0 -210.34936519799294 -76.471717472966702 0 -76.471717472966702 210.65215019420975 0 0 0 0 -522.06933431780226 130.73287576597795 0 130.73287576597795 198.07806753178011 0 0 0 0 -326.95256440528613 -136.38609470721713 0 -136.38609470721713 356.69162776095618 0 0 0 0 55.562842223930602 -184.88055522463401 0 -184.88055522463401 160.66035523487335 0 0 0 0 -81.671760821864723 -83.71775661099673 0 -83.71775661099673 150.46066196872562 0 0 0 0 168.87499222982541 -275.00256886695661 0 -275.00256886695661 281.86875992277055 0 0 0 0 200.7828381651957 -106.46505568079738 0 -106.46505568079738 64.91024348398787 0 0 0 0 57.244423322316379 -91.613759728688819 0 -91.613759728688819 164.5477688460378 0 0 0 0 69.478734847779378 -68.872193797826185 0 -68.872193797826185 102.81903083802899 0 0 0 0 -125.7102008140705 -112.36700303846737 0 -112.36700303846737 172.57996467649355 0 0 0 0 -128.81183685812269 4.4515199254278741 0 4.4515199254278741 175.83733398494951 0 0 0 0 -37.882172170938702 -21.923042367194284 0 -21.923042367194284 169.81774774537189 0 0 0 0 5.7581884520122983 32.255151144044611 0 32.255151144044611 185.83184764908043 0 0 0 0 -75.413074636253668 82.121476078944397 0 82.121476078944397 171.70559133499046 0 0 0 0 -66.734413222332364 114.33093524615106 0 114.33093524615106 202.4269474534085 0 0 0 0 -72.874687158226152 136.62917718429526 0 136.62917718429526 157.66681361913652 0 0 0 0 -73.241151769182551 91.932970538460722 0 91.932970538460722 141.67753655480919 0 0 0 0 -63.93453549468029 49.285357827197004 0 49.285357827197004 274.49871546705253 0 0 0 0 -16.923475542528649 86.980414547913824 0 86.980414547913824 167.79266604263103 0 0 0 0 -351.48087416903763 -67.230295317494893 0 -67.230295317494893 278.88873190838785 0 0 0 0 -193.01109527490576 118.49241812038235 0 118.49241812038235 218.28537360983319 0 0 0 0 15.755170122218601 39.404651005806954 0 39.404651005806954 87.145278758413042 0 0 0 0 18.309774634695259 37.574338422799883 0 37.574338422799883 95.122832719182043 0 0 0 0 -3.3322175225985866 6.6064041787877272 0 6.6064041787877272 18.326363215229712 0 0 0 0 -6.6572664344885197 62.683161512120932 0 62.683161512120932 99.260990615738592 0 0 0 0 22.149068144166449 38.394767132014749 0 38.394767132014749 89.942862017649531 0 0 0 0 24.635521115387746 35.871575618680254 0 35.871575618680254 91.146461936790729 0 0 0 0 15.934710320231261 40.464149533431737 0 40.464149533431737 93.394504415573465 0 0 0 0 398.75757511625079 255.55156973981502 0 255.55156973981502 147.88442983933419 0 0 0 0 -2.9617956084266535 1.6427391491452354 0 1.6427391491452354 3.105940404861343 0 0 0 0 -1.0151209985111409 -2.1841255513564874 0 -2.1841255513564874 -0.46012552046558142 0 0 0 0 25.482977461905648 46.061332169960224 0 46.061332169960224 72.220941770801801 0 0 0 0 -14.767872715401154 25.794985291135163 0 25.794985291135163 -34.983023717306423 0 0 0 0 130.2499964568724 137.00479131010616 0 137.00479131010616 184.0761201272544 0 0 0 0 232.95898876432057 196.60194232445792 0 196.60194232445792 206.70048389665681 0 0 0 0 216.6338912932797 177.78947111741581 0 177.78947111741581 132.53215393250503 0 0 0 0 216.22044203541896 173.35667179826282 0 173.35667179826282 132.70139568688319 0 0 0 0 132.2057766480666 107.54372206419066 0 107.54372206419066 82.081822263526192 0 0 0 0 115.69618371283832 126.66181090769624 0 126.66181090769624 59.119056419847766 0 0 0 0 27.853493353755312 49.617000871559867 0 49.617000871559867 76.961380740642198 0 0 0 0 -3.3784207503032695 -1.912297271800103 0 -1.912297271800103 -5.719193655848656 0 0 0 0 100.20452013148315 80.695174991094973 0 80.695174991094973 68.948358029425435 0 0 0 0 8.8908948188882277 47.205633049499738 0 47.205633049499738 83.275108752655797 0 0 0 0 37.964880040716707 54.019593145629187 0 54.019593145629187 76.910152436117414 0 0 0 0 34.72179534444939 64.696242644612539 0 64.696242644612539 94.565025790063373 0 0 0 0 -36.231403156507895 56.569017542449728 0 56.569017542449728 108.50681308540516 0 0 0 0 -11.110829780042422 114.38868284064574 0 114.38868284064574 102.65015575106372 0 0 0 0 117.18120219463526 121.48308601533063 0 121.48308601533063 75.538394337047066 0 0 0 0 99.021391779740952 137.21696382934897 0 137.21696382934897 95.028333284053588 0 0 0 0 1.6075465356633272 17.148681034376565 0 17.148681034376565 9.9071297088381556 0 0 0 0 71.309135582898307 133.63848886032429 0 133.63848886032429 70.914147930148829 0 0 0 0 45.94424456748493 138.67982782561739 0 138.67982782561739 96.830711028022051 0 0 0 0 218.45968034713587 42.290827507727954 0 42.290827507727954 137.44369269555318 0 0 0 0 28.584682944703673 3.9583466263957234 0 3.9583466263957234 189.93251955778214 0 0 0 0 75.80681768907175 59.098600657830502 0 59.098600657830502 253.95077081059571 0 0 0 0 -6.0570806496139085 102.60146800401708 0 102.60146800401708 222.29488524323096 0 0 0 0 28.667570580453003 31.648261068310603 0 31.648261068310603 181.2280493562339 0 0 0 0 -12.494072883702302 31.288468670074508 0 31.288468670074508 84.813823880273958 0 0 0 0 -3.7624247791615679 -1.7303268635304931 0 -1.7303268635304931 0.400845093210215 0 0 0 0 34.124167196421013 78.601465501769781 0 78.601465501769781 79.446461169522081 0 0 0 0 24.61131159227341 77.14811724295032 0 77.14811724295032 148.4057705244777 0 0 0 0 14.8236164637608 52.686762423330947 0 52.686762423330947 89.826353075794032 0 0 0 0 -74.051067421110929 32.731127115213894 0 32.731127115213894 156.18227365097755 0 0 0 0 13.266378741843823 69.797422765015654 0 69.797422765015654 178.87563005733682 0 0 0 0 -5.1415994531862452 49.864560174270082 0 49.864560174270082 160.44117741281661 0 0 0 0 -73.707360779713781 76.152763696522015 0 76.152763696522015 194.03984907326958 0 0 0 0 -0.47387155019037852 12.990321299186414 0 12.990321299186414 112.78476156679001 0 0 0 0 -152.87129485917103 17.007626690319739 0 17.007626690319739 152.51720327048679 0 0 0 0 -93.668762521112512 59.648359370345133 0 59.648359370345133 182.87298242305405 0 0 0 0 -1.672351688400159 2.2803642487123952 0 2.2803642487123952 19.912089763104902 0 0 0 0 -24.399299344400866 -14.454648654079683 0 -14.454648654079683 46.891169320004209 0 0 0 0 -9.2125870535608101 17.502581865642497 0 17.502581865642497 106.98715098593175 0 0 0 0 -6.3881625270805671 96.169922694114575 0 96.169922694114575 258.25157461728668 0 0 0 0 -6.1831161140448785 11.513337499160571 0 11.513337499160571 101.74308540079244 0 0 0 0 -44.097220682094303 59.49811566308199 0 59.49811566308199 267.69636667902705 0 0 0 0 -43.05809484353523 4.7200763874508027 0 4.7200763874508027 229.82343668684189 0 0 0 0 9.8410172717321984 51.728489891467689 0 51.728489891467689 242.49988168221716 0 0 0 0 -22.853949018376969 -27.295066799569188 0 -27.295066799569188 23.083209624927303 0 0 0 0 -7.3096954121583622 14.185092160261775 0 14.185092160261775 118.18177037277519 0 0 0 0 -4.4634784162187771 15.323734757126488 0 15.323734757126488 104.48626393722907 0 0 0 0 0.1840855796544929 3.2671419633091432 0 3.2671419633091432 100.07520551266134 0 0 0 0 -15.7928035578052 -1.0869626340497689 0 -1.0869626340497689 99.044361355258701 0 0 0 0 -2.482452920169635 2.1706440135067169 0 2.1706440135067169 109.26273079952182 0 0 0 0 -0.18247845187920575 3.4188335215158645 0 3.4188335215158645 93.066906005240298 0 0 0 0 7.3868974894055555 5.5399948443431413 0 5.5399948443431413 89.989087676687518 0 0 0 0 35.086557678579084 -12.209083048261988 0 -12.209083048261988 44.004497609015225 0 0 0 0 52.76803298836694 -40.285640552975153 0 -40.285640552975153 75.82004892168797 0 0 0 0 1.5288610200159383 -11.231733361910983 0 -11.231733361910983 62.793899239786015 0 0 0 0 1.1534114074221407 -10.303652931347209 0 -10.303652931347209 103.49487882918447 0 0 0 0 -76.841627249184512 -9.714462678480686 0 -9.714462678480686 110.92270731350652 0 0 0 0 4.6079897010855051 21.409682069611108 0 21.409682069611108 91.890356906205412 0 0 0 0 -1.9653464926046809 14.638863305333444 0 14.638863305333444 94.306975349671575 0 0 0 0 -5.210708298440295 13.905257362323738 0 13.905257362323738 95.408824916422759 0 0 0 0 -3.878298235713828 15.572790671061284 0 15.572790671061284 97.233595831086404 0 0 0 0 -0.4317728689179603 21.180730419800767 0 21.180730419800767 58.877125384383476 0 0 0 0 8.7405950137092034 22.222246234632976 0 22.222246234632976 68.236725366011797 0 0 0 0 16.083963409234229 37.250051883336511 0 37.250051883336511 89.781419565540773 0 0 0 0 0.3020743197766933 43.784603549947519 0 43.784603549947519 130.6208549385052 0 0 0 0 5.7053731011540032 5.4919362955246376 0 5.4919362955246376 17.79905887409755 0 0 0 0 -3.9042694539016338 12.970131414536183 0 12.970131414536183 94.029164556349201 0 0 0 0 40.441444542412682 17.854619467881776 0 17.854619467881776 110.75483529386474 0 0 0 0 88.261969955186942 56.906592438972439 0 56.906592438972439 15.939011725841283 0 0 0 0 22.349894506380732 19.037488224580876 0 19.037488224580876 18.224201077755101 0 0 0 0 31.975384690538704 61.388519867072318 0 61.388519867072318 197.05505670479488 0 0 0 0 1.7485994671932943 -4.9617942201515604 0 -4.9617942201515604 -4.3532369459908891 0 0 0 0 16.860450087721006 -4.7186500499368833 0 -4.7186500499368833 32.858783907416068 0 0 0 0 7.1151713743217702 14.766776387291229 0 14.766776387291229 1.876866631896811 0 0 0 0 8.4290321788980691 3.6193921075750382 0 3.6193921075750382 106.43199928130588 0 0 0 0 87.474180039508838 55.49321110233916 0 55.49321110233916 55.58217811083523 0 0 0 0 5.9069363388325655 4.4794801585567257 0 4.4794801585567257 39.412307179321942 0 0 0 0 3.1564317010830294 -1.3576800707174375 0 -1.3576800707174375 7.4273302187729566 0 0 0 0 27.234195752522282 44.025157660827972 0 44.025157660827972 149.46765827734998 0 0 0 0 20.497821438648316 43.015404055464387 0 43.015404055464387 171.92034014345154 0 0 0 0 44.679765299324572 54.67440474797877 0 54.67440474797877 171.46589018201848 0 0 0 0 29.871540196641945 -34.104916716827574 0 -34.104916716827574 196.49863130208587 0 0 0 0 36.738600209073411 0.073001184669919894 0 0.073001184669919894 113.05706786976407 0 0 0 0 35.828015522874921 29.800601033980456 0 29.800601033980456 159.12049813646809 0 0 0 0 27.466620942628651 35.479279331660564 0 35.479279331660564 115.16206248228991 0 0 0 0 45.940030777028369 26.433684790070402 0 26.433684790070402 103.28279198642122 0 0 0 0 38.737010592316437 22.775770344112971 0 22.775770344112971 116.41004767511549 0 0 0 0 46.099205543313701 24.692950905892417 0 24.692950905892417 74.293836993376317 0 0 0 0 56.45489679077491 56.421021584285882 0 56.421021584285882 134.13585938837787 0 0 0 0 -547.61190327847635 -279.9543216463735 0 -279.9543216463735 390.77719205962785 0 0 0 0 -10.868503230066381 -83.119539113737289 0 -83.119539113737289 155.2368299086769 0 0 0 0 -345.19781705887726 71.390621125323378 0 71.390621125323378 104.70969101320225 0 0 0 0 -1.7770091048277266 13.814979371461719 0 13.814979371461719 3.423190839005211 0 0 0 0 -145.60846495743863 123.93218118068984 0 123.93218118068984 264.7636665786095 0 0 0 0 261.37746885408706 -48.555191097961142 0 -48.555191097961142 158.91323460424826 0 0 0 0 -57.545924076029223 72.776248943374412 0 72.776248943374412 -35.399905311895054 0 0 0 0 1.3085761944809171 -0.69904058343202813 0 -0.69904058343202813 -1.9226198982429596 0 0 0 0 14.386531103009474 5.1635557874105871 0 5.1635557874105871 24.054416757651779 0 0 0 0 0.083473649276452733 -1.7729787198290161 0 -1.7729787198290161 1.8348535445991079 0 0 0 0 -15.221003844112602 49.908805855366154 0 49.908805855366154 335.23166149057761 0 0 0 0 4.7771092154616781 19.56210662311787 0 19.56210662311787 31.021299664367689 0 0 0 0 73.368167912869467 -104.71636451526138 0 -104.71636451526138 227.50006930291693 0 0 0 0 -0.57669053007884941 78.935832396637124 0 78.935832396637124 148.96858205105127 0 0 0 0 8.5109154269083405 -99.430740136225012 0 -99.430740136225012 167.00626511908558 0 0 0 0 -222.141813332119 -118.46212561724906 0 -118.46212561724906 162.37626408334836 0 0 0 0 -203.99435844940945 -148.95812741329928 0 -148.95812741329928 195.72888776274158 0 0 0 0 0.30360749577518042 3.3156723625425499 0 3.3156723625425499 5.1465100020076449 0 0 0 0 -200.9309389361415 -57.712928792900129 0 -57.712928792900129 324.48340954142623 0 0 0 0 -69.600693329860405 -37.790736495748206 0 -37.790736495748206 -41.190811713626317 0 0 0 0 -276.48841571597472 84.205727391042274 0 84.205727391042274 64.986938709773312 0 0 0 0 0.33134970035602285 5.4631476160510211 0 5.4631476160510211 14.474530745823749 0 0 0 0 -133.70900143111703 149.10065393464629 0 149.10065393464629 -42.808317574879766 0 0 0 0 -19.796263714675661 35.658959565654186 0 35.658959565654186 3.0092553053682423 0 0 0 0 -29.984790081344499 14.34544679547821 0 14.34544679547821 71.24274218559367 0 0 0 0 45.604753353038177 27.806405046205327 0 27.806405046205327 73.49870413604549 0 0 0 0 41.595977479357316 15.091171414878772 0 15.091171414878772 6.6028987132813199 0 0 0 0 -61.106032570725347 59.150607198303987 0 59.150607198303987 -28.808916749192576 0 0 0 0 -50.452420495815659 25.830870426513684 0 25.830870426513684 9.2428159049195528 0 0 0 0 -4.7709708266884263 58.569049790449753 0 58.569049790449753 9.4450831844078493 0 0 0 0 86.419914358036664 44.129668449205838 0 44.129668449205838 34.218967206194066 0 0 0 0 -167.8240238745766 88.038566176768654 0 88.038566176768654 21.590778022924496 0 0 0 0 -190.80049997793765 -3.4472873203560539 0 -3.4472873203560539 9.4831416348060884 0 0 0 0 -116.95086994609528 15.789780439696187 0 15.789780439696187 0.8999462550636963 0 0 0 0 -111.76507124773775 1.6657227373425485 0 1.6657227373425485 -52.523473847119021 0 0 0 0 49.962263690578766 13.464597500342279 0 13.464597500342279 70.268042392386633 0 0 0 0 50.568423202959821 8.5653143402887508 0 8.5653143402887508 75.766587318255915 0 0 0 0 53.851953078330553 -0.031735868691612268 0 -0.031735868691612268 79.057399097664529 0 0 0 0 47.783752911800548 -0.95838575770744683 0 -0.95838575770744683 51.249596699899485 0 0 0 0 41.334791779960142 12.559098013536641 0 12.559098013536641 92.171449476783891 0 0 0 0 27.862459186691922 -10.934181458982493 0 -10.934181458982493 84.002468473964655 0 0 0 0 35.701138636512042 23.501323911681538 0 23.501323911681538 38.072535762748885 0 0 0 0 27.852196994568658 26.352059657666359 0 26.352059657666359 40.660380990933845 0 0 0 0 27.292740255212266 45.046991535808047 0 45.046991535808047 -2.7088667993166382 0 0 0 0 17.437298163616106 12.343246839953281 0 12.343246839953281 32.270889325900498 0 0 0 0 53.450705261502662 6.2329215306492642 0 6.2329215306492642 59.023166848757683 0 0 0 0 45.866278675712238 26.949661815424406 0 26.949661815424406 33.058453719420868 0 0 0 0 246.65183594595737 300.7088228458565 0 300.7088228458565 -276.39765025933502 0 0 0 0 272.34225278312806 106.3185912399365 0 106.3185912399365 96.041269077833761 0 0 0 0 10.476584172288941 3.1020101601961176 0 3.1020101601961176 0.50513308957228276 0 0 0 0 449.49368185456751 339.13147857272645 0 339.13147857272645 -690.74127141797453 0 0 0 0 567.24123905581791 701.91575575315869 0 701.91575575315869 187.29646008384407 0 0 0 0 65.262436754323971 8.6706122111381774 0 8.6706122111381774 54.768335943059355 0 0 0 0 8.4884763395211564 31.872227679107365 0 31.872227679107365 68.217395397728495 0 0 0 0 10.691184903208271 34.18954553487719 0 34.18954553487719 80.455668567470582 0 0 0 0 -475.7121811574732 -81.466224539146424 0 -81.466224539146424 425.44833139218099 0 0 0 0 -1.7463115833411393 -531.40553079728306 0 -531.40553079728306 365.62533244308543 0 0 0 0 484.21778997495267 502.11762886881365 0 502.11762886881365 504.13708974064139 0 0 0 0 662.42378723856336 -122.9770704210805 0 -122.9770704210805 40.762329130473518 0 0 0 0 228.80105192212977 153.3390900642371 0 153.3390900642371 162.5592460054886 0 0 0 0 24.987109622996684 196.22672625503651 0 196.22672625503651 169.66125835346247 0 0 0 0 -54.926502496157809 117.04095205040903 0 117.04095205040903 79.352340827037551 0 0 0 0 133.6231314023351 -95.429065739941279 0 -95.429065739941279 -140.20347149245936 0 0 0 0 5.1137102450624861 4.1603448523820212 0 4.1603448523820212 17.035057818150108 0 0 0 0 133.73786381845821 244.85494629902314 0 244.85494629902314 270.34093976582199 0 0 0 0 108.72734771963223 164.5054689186436 0 164.5054689186436 241.14995417111913 0 0 0 0 163.93607785196809 308.51569892088764 0 308.51569892088764 345.71383610107296 0 0 0 0 216.14727158641369 286.45528950681364 0 286.45528950681364 255.67356874147299 0 0 0 0 3.4963325565590821 51.767047447481673 0 51.767047447481673 529.91427312096994 0 0 0 0 13.437485763932273 34.383807533072286 0 34.383807533072286 225.95700109536483 0 0 0 0 55.847298120493633 47.287809169984257 0 47.287809169984257 210.71055722367055 0 0 0 0 13.230291839074198 164.42642066354438 0 164.42642066354438 1012.9420518965308 0 0 0 0 -88.332433327979061 195.5654268083899 0 195.5654268083899 -226.63473086490853 0 0 0 0 195.82949910423258 -114.20114631757151 0 -114.20114631757151 -495.44271025266664 0 0 0 0 21.945360699194346 12.358407063968706 0 12.358407063968706 5.814043566365859 0 0 0 0 106.21663974760304 303.57182857464528 0 303.57182857464528 -871.4906353344312 0 0 0 0 29.805173343447223 -0.6446227920612273 0 -0.6446227920612273 88.156165954362223 0 0 0 0 5.6136027247302991 64.146583743173323 0 64.146583743173323 183.76315722172149 0 0 0 0 26.980421320086123 18.131268958273587 0 18.131268958273587 10.106844661067118 0 0 0 0 27.11503234445081 47.325328405172513 0 47.325328405172513 58.026168111242441 0 0 0 0 20.079999164858236 26.166148170762426 0 26.166148170762426 60.553394464987377 0 0 0 0 28.683605908227037 8.8321856679581288 0 8.8321856679581288 2.8532313566720404 0 0 0 0 19.497143531656548 24.856877891435033 0 24.856877891435033 14.830436653275683 0 0 0 0 13.913817270789878 28.256084837434173 0 28.256084837434173 39.139236742783396 0 0 0 0 32.240873537592051 28.831674560979991 0 28.831674560979991 4.5651204805471934 0 0 0 0 40.504183031775028 44.742007019038283 0 44.742007019038283 36.148466368531899 0 0 0 0 22.122270334347377 47.459444267381514 0 47.459444267381514 87.189053081312522 0 0 0 0 28.000064856187237 55.930816081624471 0 55.930816081624471 75.898475158798192 0 0 0 0 -1.810239885977353 45.051420479301669 0 45.051420479301669 154.75304509988382 0 0 0 0 8.7767802913913329 96.375675778922414 0 96.375675778922414 195.46473553069336 0 0 0 0 10.324781803994483 81.921356282712622 0 81.921356282712622 159.00253559290286 0 0 0 0 32.46504951447605 91.038291076278256 0 91.038291076278256 136.25494252824501 0 0 0 0 29.717122302711232 61.475320566195421 0 61.475320566195421 121.97348467099073 0 0 0 0 13.280417033911363 78.937236602687335 0 78.937236602687335 160.7792516932077 0 0 0 0 41.217260682060441 75.117969293387432 0 75.117969293387432 196.60852708252196 0 0 0 0 37.073842426090778 78.827100663098463 0 78.827100663098463 183.31760405263049 0 0 0 0 31.461187341016739 100.5230735361813 0 100.5230735361813 185.96358152551329 0 0 0 0 -0.47225649505162437 102.61923227499938 0 102.61923227499938 191.53037148775729 0 0 0 0 0.090907038833393017 108.84082111652788 0 108.84082111652788 228.57744068709462 0 0 0 0 25.17603416339233 125.28372144462242 0 125.28372144462242 181.13167035415245 0 0 0 0 93.681067218735734 173.98119221742718 0 173.98119221742718 264.4244129237286 0 0 0 0 25.59599545731453 133.45234528209767 0 133.45234528209767 242.73722029144119 0 0 0 0 1.2063996146598583 77.184251254108858 0 77.184251254108858 304.83973480226086 0 0 0 0 3.3189601102221786 74.508824323529552 0 74.508824323529552 215.66192796485439 0 0 0 0 13.908072854999318 69.001916493611589 0 69.001916493611589 180.56991224548256 0 0 0 0 510.02196647938763 276.16890292516655 0 276.16890292516655 -427.91457225955855 0 0 0 0 77.585204811568346 100.68192349471941 0 100.68192349471941 105.44572551085938 0 0 0 0 110.80712192075725 21.92600917882919 0 21.92600917882919 222.72284108959866 0 0 0 0 -265.84724301092501 -128.47151250526804 0 -128.47151250526804 729.05476347767399 0 0 0 0 -14.757646889760508 230.01576496986672 0 230.01576496986672 302.91552269863314 0 0 0 0 -402.19166366368154 260.99381846390497 0 260.99381846390497 625.85139582108241 0 0 0 0 36.516134130237333 70.010421325705465 0 70.010421325705465 322.05614580809561 0 0 0 0 426.26905952332891 -196.83107806199769 0 -196.83107806199769 491.40744831003394 0 0 0 0 363.12344070521067 138.88977314422846 0 138.88977314422846 247.23624697860214 0 0 0 0 631.47258911061363 -19.879087106357474 0 -19.879087106357474 209.9901337743031 0 0 0 0 -0.035879623323680221 -7.295910859297237 0 -7.295910859297237 8.7954613702083222 0 0 0 0 423.55647252008976 552.45000392682482 0 552.45000392682482 513.03651607562642 0 0 0 0 20.073529633307771 -54.417747424316985 0 -54.417747424316985 -125.5806723685148 0 0 0 0 141.89509046880994 366.78912186350863 0 366.78912186350863 514.01972547921241 0 0 0 0 43.866484727677744 44.872930046474721 0 44.872930046474721 -95.681727750407845 0 0 0 0 7.725181672583858 72.042046831460539 0 72.042046831460539 32.290756549205526 0 0 0 0 -9.510768535146326 -23.610285839681183 0 -23.610285839681183 16.772705834519002 0 0 0 0 88.092217720883582 0.14215180175801834 0 0.14215180175801834 -39.772870183097439 0 0 0 0 -8.1367344681229223 15.655837698212153 0 15.655837698212153 7.9208842271310616 0 0 0 0 2.077432529295038 23.15109598368872 0 23.15109598368872 25.365975188391531 0 0 0 0 4.6902148984736414 16.539990375589241 0 16.539990375589241 39.978151304097992 0 0 0 0 27.218926831272256 15.178330240617925 0 15.178330240617925 31.300282072123082 0 0 0 0 60.461882582349062 76.837766604614444 0 76.837766604614444 54.937266368144265 0 0 0 0 41.857833907371059 55.339599443717816 0 55.339599443717816 126.40600006426757 0 0 0 0 74.385990061970915 25.817884349419273 0 25.817884349419273 152.69123262925132 0 0 0 0 78.663962534923485 95.44055513188141 0 95.44055513188141 139.74577802948625 0 0 0 0 58.440492853456817 76.195197955772528 0 76.195197955772528 156.2562415991124 0 0 0 0 70.511647516388621 119.09077893054564 0 119.09077893054564 231.70720474695554 0 0 0 0 152.31272093172083 73.666314091107779 0 73.666314091107779 152.75170592497307 0 0 0 0 140.68555148185987 22.347211150015937 0 22.347211150015937 198.68570170292878 0 0 0 0 -4.4078807212690165 17.04010780475474 0 17.04010780475474 38.423958933680062 0 0 0 0 93.31737559657256 62.26629310741292 0 62.26629310741292 149.9806870854336 0 0 0 0 55.531590063852953 53.571040577257499 0 53.571040577257499 64.995675741115647 0 0 0 0 93.580881536843663 43.386305585976515 0 43.386305585976515 268.41157718026807 0 0 0 0 63.616344661441872 53.515653700054827 0 53.515653700054827 51.979256424870982 0 0 0 0 16.989122436555878 16.908497444614426 0 16.908497444614426 63.019230877359661 0 0 0 0 117.56363745437375 52.286581303938874 0 52.286581303938874 99.912118689884664 0 0 0 0 -2.2415117179951718 19.038718758817936 0 19.038718758817936 59.757496692825207 0 0 0 0 35.691067720305341 62.349478261462096 0 62.349478261462096 99.667200362537571 0 0 0 0 65.046912077864363 70.101909512053226 0 70.101909512053226 16.664905166911922 0 0 0 0 118.40322172683045 -36.346159150030871 0 -36.346159150030871 182.06561255086854 0 0 0 0 78.377368082206885 21.189504019996093 0 21.189504019996093 179.89836539524549 0 0 0 0 83.102560050927423 42.793484529887792 0 42.793484529887792 83.729141853196779 0 0 0 0 95.493308593215261 -4.9926786220312351 0 -4.9926786220312351 89.964469296886818 0 0 0 0 37.305217503761014 3.2017824111535447 0 3.2017824111535447 167.76794596585387 0 0 0 0 89.240694059933958 46.746989563747775 0 46.746989563747775 190.93856153757952 0 0 0 0 31.547421009192476 22.535727033573494 0 22.535727033573494 224.03734050581807 0 0 0 0 54.522157220478221 29.346294049551943 0 29.346294049551943 78.400642456093919 0 0 0 0 26.272212225834348 26.968091766540681 0 26.968091766540681 15.614008841574806 0 0 0 0 55.537217030584543 71.754357423757028 0 71.754357423757028 0.61414525286818389 0 0 0 0 30.500647433314953 24.860628205511603 0 24.860628205511603 106.3974771881185 0 0 0 0 27.610625387228083 8.4185745758295525 0 8.4185745758295525 63.20592695713276 0 0 0 0 -1.3988605571629229 13.359637978537847 0 13.359637978537847 16.513524212215469 0 0 0 0 130.19159433609457 77.221406760014361 0 77.221406760014361 23.336575801080471 0 0 0 0 103.06688197262156 -11.853846417565364 0 -11.853846417565364 -93.352623521842361 0 0 0 0 57.929294998534772 39.595964797917873 0 39.595964797917873 17.740012119540921 0 0 0 0 125.68174981509947 45.001777571305865 0 45.001777571305865 29.491340680222493 0 0 0 0 120.8406664340132 34.754927354350002 0 34.754927354350002 29.351213435089448 0 0 0 0 113.2772929006569 54.26164939555747 0 54.26164939555747 45.326617785758572 0 0 0 0 93.922215621199939 63.216708086656581 0 63.216708086656581 20.466328214388341 0 0 0 0 72.564383074162834 17.056855184189772 0 17.056855184189772 22.876556606119266 0 0 0 0 91.831925907808795 -49.445079431255635 0 -49.445079431255635 -267.0218039072497 0 0 0 0 32.866988792599429 -17.633490956960102 0 -17.633490956960102 25.991087066158173 0 0 0 0 55.690592165214184 15.67017460657371 0 15.67017460657371 72.635722934253863 0 0 0 0 97.507842623188481 27.798148197805858 0 27.798148197805858 -5.1683873332985968 0 0 0 0 93.90709952130419 115.09398980404512 0 115.09398980404512 262.3009736512322 0 0 0 0 34.487945907596441 -46.419808902370278 0 -46.419808902370278 42.422929744639987 0 0 0 0 14.639884281946209 1.6734799874884843 0 1.6734799874884843 -2.7130756539979188 0 0 0 0 102.82756464308113 149.61630081313706 0 149.61630081313706 360.91807922282896 0 0 0 0 21.814126543727962 5.7097056816049019 0 5.7097056816049019 3.8342793719345423 0 0 0 0 44.161093020881708 12.037036817055196 0 12.037036817055196 8.327897657181893 0 0 0 0 40.686368790131382 -1.0414127895492129 0 -1.0414127895492129 25.075360956318036 0 0 0 0 52.426044904689235 -4.4084247178325029 0 -4.4084247178325029 7.2180344082494514 0 0 0 0 37.734688264634187 23.983746318622622 0 23.983746318622622 -9.8286507974877111 0 0 0 0 52.876945422726521 9.0746499094336457 0 9.0746499094336457 -12.07216617386689 0 0 0 0 48.878537501667964 5.3470402581642738 0 5.3470402581642738 4.657899954761433 0 0 0 0 106.40561816146328 27.597638381412253 0 27.597638381412253 -45.922143085772404 0 0 0 0 63.195802814994749 -31.772667390505376 0 -31.772667390505376 -38.110844694267143 0 0 0 0 76.83534550655645 296.95410951931558 0 296.95410951931558 -339.25219016579649 0 0 0 0 364.23497631875398 -317.57939576540957 0 -317.57939576540957 268.48848650687432 0 0 0 0 54.232551131917717 0.29809193082473939 0 0.29809193082473939 16.980114950798452 0 0 0 0 6.1154598479933391 3.7724923738827556 0 3.7724923738827556 2.6811570928208397 0 0 0 0 55.872206257328799 -49.86519517263514 0 -49.86519517263514 6.982773113399162 0 0 0 0 -14.690301575443755 205.21691709849074 0 205.21691709849074 1105.4429112115758 0 0 0 0 -26.578041265928732 104.41524589298388 0 104.41524589298388 434.62146577175008 0 0 0 0 302.81158966998191 296.65532417954819 0 296.65532417954819 477.44300198883866 0 0 0 0 68.423648290121491 39.18546632865764 0 39.18546632865764 -310.15360959524696 0 0 0 0 24.754335241298129 13.365945728812449 0 13.365945728812449 3.778271870019438 0 0 0 0 50.093550424328555 235.0050035749282 0 235.0050035749282 359.02090320488787 0 0 0 0 44.162193886188106 307.91863466271025 0 307.91863466271025 643.20291128689132 0 0 0 0 1067.0833107752969 618.81961179418431 0 618.81961179418431 -314.03894312476041 0 0 0 0 -256.74068994880872 470.03940658395004 0 470.03940658395004 1847.1912845843908 0 0 0 0 11.404340983955713 4.939526612640293 0 4.939526612640293 1.6180971034090703 0 0 0 0 647.39382175848732 396.3666102900097 0 396.3666102900097 -964.92013963474892 0 0 0 0 2.7230676535026888 -5.2401239031732985 0 -5.2401239031732985 13.391148218740909 0 0 0 0 42.135995862947311 185.1127189034014 0 185.1127189034014 1163.9288215634406 0 0 0 0 674.38146420262274 617.09900881806971 0 617.09900881806971 -150.98891835573886 0 0 0 0 14.925076123637858 -18.219607680100509 0 -18.219607680100509 27.942786191428581 0 0 0 0 -262.73360544388925 -708.22681878330332 0 -708.22681878330332 340.87278619506833 0 0 0 0 73.890147915399666 153.96534298372626 0 153.96534298372626 163.04241991860545 0 0 0 0 59.699985748775362 115.98009852691757 0 115.98009852691757 61.547637419653711 0 0 0 0 125.49620980223517 161.6782408181698 0 161.6782408181698 163.36269880087639 0 0 0 0 0.84135065699774714 125.20714194618722 0 125.20714194618722 184.85245644302995 0 0 0 0 33.153252309855816 103.02434095190165 0 103.02434095190165 173.14698339798269 0 0 0 0 11.557623541953944 149.08805716343295 0 149.08805716343295 129.02118766949206 0 0 0 0 70.887508306596459 109.91573461972361 0 109.91573461972361 120.50539864778948 0 0 0 0 531.21303773243199 9.4016645744050038 0 9.4016645744050038 -395.648518231661 0 0 0 0 50.978920849083806 82.576879043961526 0 82.576879043961526 190.47972655543572 0 0 0 0 674.72268786732457 -187.95344894734444 0 -187.95344894734444 -226.25956993773434 0 0 0 0 57.971599574761484 102.6351972801547 0 102.6351972801547 118.90196298566823 0 0 0 0 -140.32977697887054 741.05604615079574 0 741.05604615079574 368.4798911367252 0 0 0 0 -3.9050027974335535 -161.33552152951597 0 -161.33552152951597 459.13656034700034 0 0 0 0 -180.24385345455448 -20.471733726390084 0 -20.471733726390084 346.61371544294525 0 0 0 0 779.84302948132608 306.91038511758961 0 306.91038511758961 416.59811773693218 0 0 0 0 26.28001852758203 13.444085485762713 0 13.444085485762713 1.6571106081174563 0 0 0 0 -81.654555636698205 -12.880828619825479 0 -12.880828619825479 348.17658365210627 0 0 0 0 258.70275719586516 9.6718659976068011 0 9.6718659976068011 80.079812732961727 0 0 0 0 -12.912620669158059 -119.15500227378652 0 -119.15500227378652 309.85701679369959 0 0 0 0 19.648417525227451 17.155401329952298 0 17.155401329952298 24.773448075588718 0 0 0 0 -92.585981551923851 -33.727962959288561 0 -33.727962959288561 219.454599559911 0 0 0 0 -143.54675875643841 105.95078620490222 0 105.95078620490222 204.25812118285103 0 0 0 0 84.043999469208757 163.07620470034817 0 163.07620470034817 53.269259373199475 0 0 0 0 40.005902408983275 87.441909385589213 0 87.441909385589213 121.52047001929301 0 0 0 0 51.457877240789458 79.193447589663265 0 79.193447589663265 242.30327565857078 0 0 0 0 29.394181057075002 41.331455820363772 0 41.331455820363772 213.86194974447153 0 0 0 0 -20.275665543606031 2.5962068365972186 0 2.5962068365972186 29.669209253566933 0 0 0 0 -14.985118542669781 3.2582862472058594 0 3.2582862472058594 164.40405661649103 0 0 0 0 -42.489985020963104 33.83814204265218 0 33.83814204265218 455.44092144050228 0 0 0 0 210.34651491979093 -149.40763760366826 0 -149.40763760366826 442.32642663273327 0 0 0 0 97.374671189090805 -200.99226757958604 0 -200.99226757958604 666.06982309012528 0 0 0 0 44.359451162812547 -193.88749363499664 0 -193.88749363499664 685.54517103209946 0 0 0 0 13.968063216981292 16.519292911534251 0 16.519292911534251 14.360004557891614 0 0 0 0 142.84918365210797 -27.620339289504045 0 -27.620339289504045 127.99115369545507 0 0 0 0 33.898763489054545 21.815225560909312 0 21.815225560909312 30.173116525122168 0 0 0 0 -71.74479657718075 3.3369278860664053 0 3.3369278860664053 678.2735337727936 0 0 0 0 -61.061995423895496 338.1771186431688 0 338.1771186431688 1008.4331688510865 0 0 0 0 -75.087266335798631 -428.66285815797528 0 -428.66285815797528 933.86485373335017 0 0 0 0 104.24958900906859 -188.8382646850805 0 -188.8382646850805 609.11507334057023 0 0 0 0 -119.69607633376836 -320.07975914442795 0 -320.07975914442795 698.66421269562125 0 0 0 0 53.165392020086074 -183.85858029610972 0 -183.85858029610972 881.67604413573281 0 0 0 0 200.63071850205233 -284.75908121676184 0 -284.75908121676184 690.1652543921391 0 0 0 0 19.094665732589419 -369.32524911734436 0 -369.32524911734436 733.16487937007332 0 0 0 0 423.92817988351089 -250.04468684790481 0 -250.04468684790481 619.7744428651713 0 0 0 0 222.18928848002906 64.642705034504615 0 64.642705034504615 1072.030166688186 0 0 0 0 43.539979255940125 -134.16904677146522 0 -134.16904677146522 1045.557887508563 0 0 0 0 51.326709259277777 -145.35212510951533 0 -145.35212510951533 860.65321758822392 0 0 0 0 189.7842290773242 -236.70239652096643 0 -236.70239652096643 1114.5421174372095 0 0 0 0 288.1335299551256 -333.38433672851534 0 -333.38433672851534 999.81388343183789 0 0 0 0 187.40607821395363 -13.95577955998948 0 -13.95577955998948 1442.1956636514369 0 0 0 0 222.83439229686655 -111.36728952192607 0 -111.36728952192607 713.10844922192337 0 0 0 0 134.01115363632925 -185.7692160944207 0 -185.7692160944207 686.22653193990118 0 0 0 0 164.56021497592837 -314.63054030119201 0 -314.63054030119201 895.58206087377039 0 0 0 0 -76.405156949657339 221.24722505983982 0 221.24722505983982 1700.4509949707717 0 0 0 0 6.7592289328368338 -65.770311631568916 0 -65.770311631568916 2447.5054832024616 0 0 0 0 5.4267144328623544 -9.3433124123912421 0 -9.3433124123912421 1328.1519846339579 0 0 0 0 135.3017611692303 788.14955353266123 0 788.14955353266123 1309.7127491395731 0 0 0 0 3.2596366144226963 -8.0731888025484402 0 -8.0731888025484402 20.689233295569267 0 0 0 0 140.27516785118678 949.31937494906742 0 949.31937494906742 2214.5319129201725 0 0 0 0 191.49635984126417 -957.59579227121139 0 -957.59579227121139 138.68337889606482 0 0 0 0 330.98633467249238 -1117.3699958192301 0 -1117.3699958192301 278.80834169192167 0 0 0 0 379.09835124601051 998.41732679956658 0 998.41732679956658 1482.307350252333 0 0 0 0 -193.80038726963448 -622.6079959538456 0 -622.6079959538456 641.62274613182672 0 0 0 0 -91.534291833540919 -995.37149077928188 0 -995.37149077928188 1651.6714215359852 0 0 0 0 84.079064529247262 -390.59415311999692 0 -390.59415311999692 565.585573446735 0 0 0 0 53.088922189432196 -461.01305774330103 0 -461.01305774330103 406.41432453216839 0 0 0 0 -321.6398008971355 10.293683252235496 0 10.293683252235496 -75.642846818518592 0 0 0 0 6.8976833221179206 -21.356576384410666 0 -21.356576384410666 52.52075088212905 0 0 0 0 -700.14300317895504 -446.86000037012673 0 -446.86000037012673 100.78418448457523 0 0 0 0 -273.97457407047932 -26.442342163340072 0 -26.442342163340072 643.96599384456931 0 0 0 0 176.46884360340482 -29.14895360844821 0 -29.14895360844821 42.442995214446455 0 0 0 0 -7.9628582818404539 99.85613146648393 0 99.85613146648393 576.03430562961876 0 0 0 0 -257.53958034912284 29.629982911195839 0 29.629982911195839 236.61035195313889 0 0 0 0 -201.98533176244018 -62.632350901214522 0 -62.632350901214522 -28.672873639621685 0 0 0 0 26.9610753814286 -319.99863963254757 0 -319.99863963254757 14.621930651008824 0 0 0 0 12.172068944071064 -30.383282382366289 0 -30.383282382366289 67.553878966533688 0 0 0 0 -513.4864589561912 -235.87526000446451 0 -235.87526000446451 69.330217044029268 0 0 0 0 -474.89156405232643 -23.143294780173164 0 -23.143294780173164 175.43703422643011 0 0 0 0 -300.39823909824918 -12.060653220964014 0 -12.060653220964014 -11.915323142449779 0 0 0 0 -256.14558798283906 -16.162066404904181 0 -16.162066404904181 56.018022235686658 0 0 0 0 -270.16410105441537 70.952478171617258 0 70.952478171617258 224.639516878633 0 0 0 0 -110.02731273051177 138.17994255368103 0 138.17994255368103 189.32405889577058 0 0 0 0 -122.8158094972041 165.66674438653354 0 165.66674438653354 248.58176344749518 0 0 0 0 -266.60042596900405 130.90268589060247 0 130.90268589060247 287.33446057721449 0 0 0 0 -274.24069940685331 -84.907990116498695 0 -84.907990116498695 165.53319168189773 0 0 0 0 24.847233257156404 -22.728452570197987 0 -22.728452570197987 356.10351026353601 0 0 0 0 -140.68036992806083 140.95260222104116 0 140.95260222104116 225.39639846397586 0 0 0 0 13.69796312059043 307.54718872790181 0 307.54718872790181 315.51449382465216 0 0 0 0 249.31361269608897 213.8307063091379 0 213.8307063091379 126.9681200056657 0 0 0 0 21.711155547436647 117.34045458664241 0 117.34045458664241 156.88806607775041 0 0 0 0 5.6234034523931768 167.15964549718592 0 167.15964549718592 210.34701895357284 0 0 0 0 93.486220619641244 151.49421812667424 0 151.49421812667424 123.38087198413268 0 0 0 0 76.155997975976788 155.23778190565645 0 155.23778190565645 133.75345062966517 0 0 0 0 0.9243231248676409 -2.6415923186890993 0 -2.6415923186890993 0.37067889931722675 0 0 0 0 76.155997975976788 155.2377819057001 0 155.2377819057001 133.75345062962151 0 0 0 0 76.155997975962237 155.23778190565645 0 155.23778190565645 133.75345062969427 0 0 0 0 -8.7176784103794489 54.839320130558917 0 54.839320130558917 64.445118685398484 0 0 0 0 8.3072189848280686 95.81341320717911 0 95.81341320717911 125.92076979723061 0 0 0 0 -158.33517670794663 10.615316036069999 0 10.615316036069999 273.34001994958089 0 0 0 0 -58.281899369529697 56.045198143673559 0 56.045198143673559 47.429382223120271 0 0 0 0 -0.67474681250362556 17.5953062588137 0 17.5953062588137 11.66747145840705 0 0 0 0 -74.483034889912233 102.43851771571644 0 102.43851771571644 161.13032656451833 0 0 0 0 -73.973431850057068 93.059064231101956 0 93.059064231101956 271.81745660815795 0 0 0 0 -181.29938698076148 139.82219109923608 0 139.82219109923608 253.59441244836489 0 0 0 0 -123.12613926623817 112.04038379157282 0 112.04038379157282 279.80452731038531 0 0 0 0 -169.86283242442369 48.034813577942259 0 48.034813577942259 220.42363344560727 0 0 0 0 -66.620118100076269 65.733554769069087 0 65.733554769069087 23.955487229968099 0 0 0 0 -80.725916027552387 242.0931987601216 0 242.0931987601216 176.70998087333282 0 0 0 0 -147.04505247910174 173.164915078989 0 173.164915078989 105.33805859433778 0 0 0 0 -154.12486715074192 76.562342531651666 0 76.562342531651666 357.94849150989467 0 0 0 0 -70.329044599985252 63.020794480158543 0 63.020794480158543 30.627311265586741 0 0 0 0 -11.686715603523226 145.34393241586804 0 145.34393241586804 -166.39560463240923 0 0 0 0 -84.567082087929066 170.00617126841098 0 170.00617126841098 -173.32137516668445 0 0 0 0 -112.08574557727081 -91.377435723695726 0 -91.377435723695726 303.6330622046371 0 0 0 0 -64.58998082128528 -54.556228030021884 0 -54.556228030021884 332.11696936975204 0 0 0 0 -166.41877794719039 -167.82945401110919 0 -167.82945401110919 208.32565312657971 0 0 0 0 150.06079617612886 -141.68355949138277 0 -141.68355949138277 -21.151784677691467 0 0 0 0 2.5528100602532859 -5.4385775666055736 0 -5.4385775666055736 7.8274966241604602 0 0 0 0 -104.10928815202533 -43.464617908870423 0 -43.464617908870423 42.522443307505455 0 0 0 0 -92.029171993726777 -196.94231633878371 0 -196.94231633878371 -84.767146588816104 0 0 0 0 13.87433888328227 -8.6917388382673266 0 -8.6917388382673266 6.3503382895687963 0 0 0 0 3.167341863766767 -6.6218368813887416 0 -6.6218368813887416 3.14818508239415 0 0 0 0 314.91020666303666 -329.97229704039273 0 -329.97229704039273 333.96036287606694 0 0 0 0 -197.38943931760059 52.028928564424859 0 52.028928564424859 1503.5530148244798 0 0 0 0 -117.59705657925952 -142.91699056655489 0 -142.91699056655489 1275.1764377594409 0 0 0 0 19.890131542025756 345.11393668589608 0 345.11393668589608 723.08331108037964 0 0 0 0 -166.76866314774361 100.77630965909975 0 100.77630965909975 1115.7771113113995 0 0 0 0 31.330442129888979 -331.87317184672793 0 -331.87317184672793 610.20324343635002 0 0 0 0 0.43205864388892756 -1.2528693050820188 0 -1.2528693050820188 5.945949312005439 0 0 0 0 35.27441558027931 70.732356149605039 0 70.732356149605039 1087.1323584811544 0 0 0 0 581.72215036247508 432.67476068175893 0 432.67476068175893 349.18986911440879 0 0 0 0 210.38030007894486 94.831904906670388 0 94.831904906670388 66.328645302448422 0 0 0 0 68.523624639057743 117.89563391384581 0 117.89563391384581 75.649865362713172 0 0 0 0 2.1239154007889738 17.338495576153946 0 17.338495576153946 -21.420508240997151 0 0 0 0 10.667025484631722 -6.6966513188656904 0 -6.6966513188656904 11.440673347714636 0 0 0 0 -13.847949153766422 17.943124710469419 0 17.943124710469419 103.68016154241923 0 0 0 0 120.3010348670141 89.12507077727787 0 89.12507077727787 107.95317999905092 0 0 0 0 3.4087284276774934 -4.6990205186306433 0 -4.6990205186306433 15.280908014632729 0 0 0 0 140.93004154922892 90.115578257818925 0 90.115578257818925 73.774984418516397 0 0 0 0 8.106630396615401 -18.997733160491407 0 -18.997733160491407 69.880303993602865 0 0 0 0 3.5254739506453916 -2.8063816240246524 0 -2.8063816240246524 42.260617892141454 0 0 0 0 152.69692298303744 65.126784242078429 0 65.126784242078429 -104.00831838775775 0 0 0 0 2.4104063258966217 -8.741216649643313 0 -8.741216649643313 33.735940183181526 0 0 0 0 7.6517275650112424 -2.2649190724332584 0 -2.2649190724332584 29.881031443932443 0 0 0 0 7.0556975648256426 -5.5251134733524339 0 -5.5251134733524339 14.596757260253071 0 0 0 0 2.1225967414657134 14.45194193693942 0 14.45194193693942 44.185740371642169 0 0 0 0 224.73070345844462 -55.645233205897966 0 -55.645233205897966 -87.991455973227858 0 0 0 0 221.58740204858623 -90.015209372060781 0 -90.015209372060781 136.23439904800398 0 0 0 0 0.055576111988102639 -0.046722933058632066 0 -0.046722933058632066 3.3388675249302651 0 0 0 0 -6.7931259480246808 49.691091962966311 0 49.691091962966311 72.856570787302189 0 0 0 0 -2.25812213208701 1.7784831758253858 0 1.7784831758253858 59.562439244109555 0 0 0 0 10.988233956357249 -19.950151475191987 0 -19.950151475191987 45.57574974793723 0 0 0 0 -1.5581508875511645 -30.938199619435181 0 -30.938199619435181 -15.485500171182139 0 0 0 0 -27.926601563165605 -5.3654299925947271 0 -5.3654299925947271 24.890212649770547 0 0 0 0 -0.66984894492088642 -42.219510514958529 0 -42.219510514958529 -11.76523339531559 0 0 0 0 -4.8605919506881037 -44.631955452037801 0 -44.631955452037801 72.250009208168194 0 0 0 0 -166.29169482516591 -19.541794235308771 0 -19.541794235308771 28.349307042735745 0 0 0 0 -104.86032816561783 -155.53177214473544 0 -155.53177214473544 129.43831419238268 0 0 0 0 -5.1481818111933535 211.19067309735692 0 211.19067309735692 -258.78411693443195 0 0 0 0 -30.941062135399989 -51.510631940698659 0 -51.510631940698659 -13.086724401597166 0 0 0 0 2.8915879418887087 -17.571728751471717 0 -17.571728751471717 17.445998822178808 0 0 0 0 -1.5500196478187718 -27.500092383401352 0 -27.500092383401352 -1.4816893326569698 0 0 0 0 -7.1275451373685428 -38.51139694565245 0 -38.51139694565245 25.53412046853191 0 0 0 0 -137.47447245338844 1.3333441753493389 0 1.3333441753493389 44.76815132275442 0 0 0 0 -17.893543955655332 -18.920296013897314 0 -18.920296013897314 32.388947752311651 0 0 0 0 5.3972155105616366 -11.055950298547032 0 -11.055950298547032 23.710260139872844 0 0 0 0 7.7571641092096222 -18.340926017017132 0 -18.340926017017132 13.669138704965633 0 0 0 0 -160.77314349650806 -92.478361503352971 0 -92.478361503352971 56.689360868163931 0 0 0 0 -116.40004998438963 4.2798356994171627 0 4.2798356994171627 22.992502914974466 0 0 0 0 -92.282580485324388 -62.012695314837401 0 -62.012695314837401 97.895430121250683 0 0 0 0 12.771797697296279 -30.055900842628034 0 -30.055900842628034 64.201909228919249 0 0 0 0 2.6441872072973638 -103.56577499695049 0 -103.56577499695049 141.78485566237941 0 0 0 0 67.947596749035029 -80.045134169562516 0 -80.045134169562516 66.312023475838942 0 0 0 0 194.39503635943856 -186.32463265697152 0 -186.32463265697152 80.308201805848512 0 0 0 0 -64.448600531854026 -110.94526698860864 0 -110.94526698860864 93.370774089509723 0 0 0 0 280.95624484250914 -306.38845670899627 0 -306.38845670899627 151.53367908983637 0 0 0 0 -4.5877708501169465 -1.7864012710705879 0 -1.7864012710705879 7.8456415299550599 0 0 0 0 41.313652216947958 -141.85244696424888 0 -141.85244696424888 193.04766622429543 0 0 0 0 -4.6306576595270066 -2.3943402726310268 0 -2.3943402726310268 6.0430806212255277 0 0 0 0 143.46657999378886 -258.55199328678282 0 -258.55199328678282 206.0259738673526 0 0 0 0 41.074372576523274 -264.82753118951587 0 -264.82753118951587 499.25102292906377 0 0 0 0 349.18372272820579 -445.3534037309546 0 -445.3534037309546 456.3370512545298 0 0 0 0 119.57315884342762 -342.72187194933576 0 -342.72187194933576 572.53040570508892 0 0 0 0 102.03245946450534 -17.055452417051129 0 -17.055452417051129 51.882715925479715 0 0 0 0 -79.730526979292335 -107.47107214754215 0 -107.47107214754215 140.36608990937748 0 0 0 0 531.20428922829433 -701.59808485459507 0 -701.59808485459507 322.7151932788488 0 0 0 0 113.33767761696117 -211.93311435187934 0 -211.93311435187934 259.12298174785974 0 0 0 0 130.78003129791119 -435.56839597808721 0 -435.56839597808721 1236.3221007545726 0 0 0 0 540.68210802514443 -203.1150987397574 0 -203.1150987397574 -290.5920090717118 0 0 0 0 -132.96342867081694 -239.54243438649428 0 -239.54243438649428 2246.5537436613158 0 0 0 0 8.9406708412762583 -1.9510441749161629 0 -1.9510441749161629 -0.11691555805585097 0 0 0 0 267.58905702884124 -52.156400422197976 0 -52.156400422197976 821.50495190336369 0 0 0 0 698.10550178836411 -558.3840648238438 0 -558.3840648238438 1209.9700262846818 0 0 0 0 245.37043228989114 -179.06543646115097 0 -179.06543646115097 660.41729186585872 0 0 0 0 193.77930423215912 184.31489553206484 0 184.31489553206484 490.64349695325654 0 0 0 0 416.23390351075801 70.901987138439836 0 70.901987138439836 854.04187457841908 0 0 0 0 66.671323227329594 84.291965368222009 0 84.291965368222009 525.44946110718593 0 0 0 0 99.409229506403761 -65.986341096904653 0 -65.986341096904653 812.24146665649459 0 0 0 0 -86.194314560937528 -29.516120462016261 0 -29.516120462016261 772.41738990336671 0 0 0 0 -20.853967131779427 34.218086002332711 0 34.218086002332711 498.13863941904856 0 0 0 0 41.738449623429347 20.27388020757644 0 20.27388020757644 343.46569587606064 0 0 0 0 -50.489982658301187 198.67493949397249 0 198.67493949397249 381.85926581008971 0 0 0 0 -60.445103186066262 156.21536693736925 0 156.21536693736925 270.67843693836039 0 0 0 0 -34.962772011424896 76.420456824175545 0 76.420456824175545 75.841580745293513 0 0 0 0 -59.188540072828346 57.286975109194827 0 57.286975109194827 267.09333858083846 0 0 0 0 -27.480246955821713 53.09667141481259 0 53.09667141481259 301.11243110287978 0 0 0 0 10.161899689278851 83.85561624867691 0 83.85561624867691 16.043930120616093 0 0 0 0 121.71811256667388 210.66508765074104 0 210.66508765074104 53.713023054389851 0 0 0 0 214.82062631956751 80.571026439651177 0 80.571026439651177 -45.269218288914999 0 0 0 0 51.049728309948094 90.122976574623323 0 90.122976574623323 39.213940148716596 0 0 0 0 -19.417362473879166 -72.95139822335841 0 -72.95139822335841 343.97415115867625 0 0 0 0 231.61136009443851 37.83496888922582 0 37.83496888922582 388.1722098163591 0 0 0 0 -3.2318875222681527 177.40840676716471 0 177.40840676716471 436.4840548052689 0 0 0 0 3.0303422542393292 0.78102521534833613 0 0.78102521534833613 -7.105799173297406 0 0 0 0 -146.60057559152415 -101.40629028853573 0 -101.40629028853573 964.8779498514632 0 0 0 0 -7.4791457838864517 138.87270635825189 0 138.87270635825189 -13.743666733167629 0 0 0 0 -60.8242136331246 49.71252940370232 0 49.71252940370232 244.11673638324828 0 0 0 0 22.818414561354075 67.309414836192445 0 67.309414836192445 238.02470075967449 0 0 0 0 4.478356348287889 91.863083459920745 0 91.863083459920745 214.98767470902203 0 0 0 0 3.3273084775577577 60.328188775547765 0 60.328188775547765 179.60132175627717 0 0 0 0 -75.988797361193065 15.502321764201042 0 15.502321764201042 206.81504933591987 0 0 0 0 -42.634049322014107 69.937593747268693 0 69.937593747268693 164.40751806491426 0 0 0 0 -9.6021699153469733 27.394969861541689 0 27.394969861541689 324.74488685447045 0 0 0 0 -205.8900671670026 170.20772176391256 0 170.20772176391256 380.77485941299528 0 0 0 0 36.741203619381849 58.743271178628675 0 58.743271178628675 451.66624900582065 0 0 0 0 -21.89710689423373 83.414259601984668 0 83.414259601984668 555.24683355724392 0 0 0 0 7.5177608177902506 5.7324692164161348 0 5.7324692164161348 55.552442130177639 0 0 0 0 57.650673533774807 76.810812285009888 0 76.810812285009888 319.55682588705167 0 0 0 0 -86.855554105319243 163.55048217669719 0 163.55048217669719 332.53926231796504 0 0 0 0 -267.68290311768851 25.326592392422754 0 25.326592392422754 444.42075214154465 0 0 0 0 -76.778230858009465 -67.589360993465561 0 -67.589360993465561 413.07940694146237 0 0 0 0 -3.1334415210377458 11.396079135240928 0 11.396079135240928 307.86963843313151 0 0 0 0 236.37292517834157 13.181905601412836 0 13.181905601412836 140.07895181854474 0 0 0 0 82.431896168193816 137.98235373234183 0 137.98235373234183 21.402203058834857 0 0 0 0 -231.06349351744029 -164.90837077397373 0 -164.90837077397373 129.36136631269119 0 0 0 0 57.382138050465073 86.282498174710781 0 86.282498174710781 315.272158010368 0 0 0 0 -30.292962224677467 322.31936537211914 0 322.31936537211914 435.98806667455392 0 0 0 0 -540.48615584831077 -122.88676058953024 0 -122.88676058953024 341.51480116102903 0 0 0 0 -176.3622853648867 -76.882942073039885 0 -76.882942073039885 80.212824361810817 0 0 0 0 -278.76245565004319 -98.490405551176991 0 -98.490405551176991 101.53220658747523 0 0 0 0 -218.76725505462127 -265.37613106810841 0 -265.37613106810841 264.18051402478523 0 0 0 0 33.124336141263029 78.965137501515528 0 78.965137501515528 294.20954570954564 0 0 0 0 -180.30127207420264 -157.27472861821389 0 -157.27472861821389 -77.593736370319675 0 0 0 0 -94.892189899683217 -342.75565027550329 0 -342.75565027550329 -349.47380560040256 0 0 0 0 9.6669149069615941 -12.359760895903825 0 -12.359760895903825 13.184298423243135 0 0 0 0 5.384800679728869 -95.679323919628587 0 -95.679323919628587 285.47268236377204 0 0 0 0 -214.39248190163494 -277.92689887154029 0 -277.92689887154029 -111.68692413215831 0 0 0 0 105.60118078230607 -191.29508780809556 0 -191.29508780809556 347.58713719610569 0 0 0 0 -4.7458682603716049 9.0298207433233166 0 9.0298207433233166 287.1067655368696 0 0 0 0 9.2314282766619726 -319.9410426025006 0 -319.9410426025006 -77.472554187541391 0 0 0 0 -14.858437386660626 -166.22674321365776 0 -166.22674321365776 410.86143867971259 0 0 0 0 184.45282605213742 -187.90459211401503 0 -187.90459211401503 345.28532321624516 0 0 0 0 118.43868555219524 -258.29506991590824 0 -258.29506991590824 319.86882877079915 0 0 0 0 206.12442194013602 -226.59699278512562 0 -226.59699278512562 301.6363479022275 0 0 0 0 222.69560981801988 -153.90603569407904 0 -153.90603569407904 334.79209004924996 0 0 0 0 -4.8884929515935793 7.6731280728081224 0 7.6731280728081224 264.47378865777426 0 0 0 0 -942.10985819635243 259.36009311873931 0 259.36009311873931 1477.2036934330354 0 0 0 0 480.39156608199119 -259.57426562846558 0 -259.57426562846558 219.08603757473975 0 0 0 0 122.54150296358694 -237.34008183715923 0 -237.34008183715923 305.054215511027 0 0 0 0 -77.865804322728138 -50.782520966094808 0 -50.782520966094808 376.53781632433675 0 0 0 0 -50.393126644919903 -325.81641998405757 0 -325.81641998405757 680.88125514204876 0 0 0 0 -222.09379038228508 -366.27593253402301 0 -366.27593253402301 -339.74213938655521 0 0 0 0 3.3164947901490933 -4.2358675314666456 0 -4.2358675314666456 5.0928126423184636 0 0 0 0 -111.7804246855776 386.91724133939715 0 386.91724133939715 1467.9149249684306 0 0 0 0 -315.00895123849841 -186.72534130899294 0 -186.72534130899294 -291.86922005788438 0 0 0 0 -84.126196355307911 -170.1797568316033 0 -170.1797568316033 -307.65219033094036 0 0 0 0 -678.89874521232377 -451.38599977675221 0 -451.38599977675221 1259.2570771041646 0 0 0 0 -586.99752994330083 -681.5867017291821 0 -681.5867017291821 433.71854773300947 0 0 0 0 -559.86620026589844 -399.86181643616874 0 -399.86181643616874 459.55150934506855 0 0 0 0 -193.76369283813619 -413.14431852289272 0 -413.14431852289272 442.50226980910702 0 0 0 0 -221.37146566485103 -573.32871248853189 0 -573.32871248853189 523.86879815286375 0 0 0 0 -146.96665786567064 -474.87558018031268 0 -474.87558018031268 398.38225182971291 0 0 0 0 -299.40279255122005 -605.13378645851117 0 -605.13378645851117 310.43833232483303 0 0 0 0 -727.23936361614733 -365.19608262297334 0 -365.19608262297334 278.5669096999336 0 0 0 0 -456.69045490250755 -172.054644695756 0 -172.054644695756 259.50980414207652 0 0 0 0 -306.00161890357458 -471.82880902832585 0 -471.82880902832585 655.58591630978481 0 0 0 0 -371.07834492146867 -195.57162219897873 0 -195.57162219897873 -328.93108343680797 0 0 0 0 -1060.8990415642838 348.89053381817212 0 348.89053381817212 -24.642063975819838 0 0 0 0 -1791.4590004151414 103.54653928077823 0 103.54653928077823 462.41409026501788 0 0 0 0 -3.7981650068792518 10.175691536005585 0 10.175691536005585 230.98715353094804 0 0 0 0 -1149.294894487035 -338.60094421341091 0 -338.60094421341091 25.753907538193744 0 0 0 0 4.9798439888527355 36.767012077614709 0 36.767012077614709 360.54568026919787 0 0 0 0 -815.83183001593534 79.725497096533218 0 79.725497096533218 376.43278345926137 0 0 0 0 -398.84676346145534 -300.01742887658475 0 -300.01742887658475 313.92450577038471 0 0 0 0 -798.0153257387401 303.29038421849918 0 303.29038421849918 603.38786397792865 0 0 0 0 338.50048549284747 -177.84223402783937 0 -177.84223402783937 539.57564370091131 0 0 0 0 -2.301614785776545 11.880300795524516 0 11.880300795524516 184.93247390760615 0 0 0 0 -1978.9505966599554 442.06274570116511 0 442.06274570116511 742.34757588612592 0 0 0 0 -775.98464678565142 337.27606105932318 0 337.27606105932318 -173.9841126962865 0 0 0 0 722.83483315485319 23.472258200620672 0 23.472258200620672 364.82367663398327 0 0 0 0 825.35618411967516 -25.512553082484374 0 -25.512553082484374 91.853479237021702 0 0 0 0 -10.573443798043627 625.69045298515994 0 625.69045298515994 -166.59510448716628 0 0 0 0 -583.67255572380236 500.81811242494859 0 500.81811242494859 1146.6718382222789 0 0 0 0 -970.84459028715264 -162.10771252128507 0 -162.10771252128507 235.40842724099639 0 0 0 0 453.74338075382457 -165.53844562097947 0 -165.53844562097947 378.6734363706928 0 0 0 0 315.97343636961705 -45.683280268583985 0 -45.683280268583985 282.90228083319926 0 0 0 0 500.01387967929259 -25.971184090720271 0 -25.971184090720271 290.94123330820003 0 0 0 0 713.4544807768234 68.8116137863326 0 68.8116137863326 306.64411119813667 0 0 0 0 352.10980486857716 -101.80432859099164 0 -101.80432859099164 339.75820207158358 0 0 0 0 732.7759170227373 29.139370888995472 0 29.139370888995472 215.19487836767803 0 0 0 0 -2.5952027305603096 -0.82342400257082815 0 -0.82342400257082815 5.6789583233527594 0 0 0 0 325.98818085456696 -189.02340244051265 0 -189.02340244051265 252.50294319214299 0 0 0 0 389.78245914224044 -212.35817755167545 0 -212.35817755167545 87.705341974433395 0 0 0 0 389.48931396307898 -264.45820054357864 0 -264.45820054357864 123.3151838798949 0 0 0 0 304.1602983439916 -354.32978586383251 0 -354.32978586383251 40.893948661847389 0 0 0 0 258.31088844420628 -208.4619282419626 0 -208.4619282419626 358.80316760058486 0 0 0 0 805.01899578973598 -51.679229187098372 0 -51.679229187098372 94.446368039156368 0 0 0 0 279.40776469440266 -201.51060620120734 0 -201.51060620120734 24.638803414869471 0 0 0 0 280.83981101565087 94.69076484265031 0 94.69076484265031 246.206641396755 0 0 0 0 -3.0024445585047665 -0.40584504640608188 0 -0.40584504640608188 7.9430792161705739 0 0 0 0 152.55881951991819 -148.92001405358678 0 -148.92001405358678 120.73302310273721 0 0 0 0 -70.24159036827109 -313.75374883343193 0 -313.75374883343193 73.453823477913829 0 0 0 0 383.18074286397405 -223.83823964125077 0 -223.83823964125077 21.385291599399352 0 0 0 0 -59.872165702583516 -76.681821706009941 0 -76.681821706009941 115.27170411165571 0 0 0 0 -356.79798430517758 119.90346942872748 0 119.90346942872748 -1.4158305699238554 0 0 0 0 -150.44379138062322 27.073448491495583 0 27.073448491495583 73.57652555931827 0 0 0 0 -8.3350257932055314 0.063681843926666204 0 0.063681843926666204 2.3083713905329546 0 0 0 0 -130.44135060837289 -233.88576123392068 0 -233.88576123392068 115.19703496394504 0 0 0 0 -470.26948055395519 -155.34928162813867 0 -155.34928162813867 410.99880776144164 0 0 0 0 -187.85483625180677 -154.19944978373314 0 -154.19944978373314 399.61300295863748 0 0 0 0 148.54204462235168 -181.56492263879773 0 -181.56492263879773 113.15611698126122 0 0 0 0 332.24264223526643 -207.22335561989894 0 -207.22335561989894 87.490321806963038 0 0 0 0 152.38127377824173 -205.67249144729431 0 -205.67249144729431 -113.13882953243228 0 0 0 0 21.154889468724605 34.526621778861227 0 34.526621778861227 -1.6439508919502259 0 0 0 0 62.145154377941708 -68.364497680228851 0 -68.364497680228851 249.34188665759939 0 0 0 0 280.29602401736156 -180.49751548125641 0 -180.49751548125641 306.83768475013858 0 0 0 0 188.57248129827758 -37.961288331976903 0 -37.961288331976903 385.98777072290159 0 0 0 0 273.92863331938588 -181.72727161592957 0 -181.72727161592957 622.2401531344367 0 0 0 0 -50.896505592588312 -146.2986717321769 0 -146.2986717321769 586.90335807426527 0 0 0 0 98.733370401742974 28.513610665837405 0 28.513610665837405 583.18871615953788 0 0 0 0 9.0339762099631855 -117.10895517229801 0 -117.10895517229801 563.88644033592573 0 0 0 0 99.035936553685133 -75.681325914735226 0 -75.681325914735226 1010.0681140748347 0 0 0 0 252.57325827766181 -81.81494170307451 0 -81.81494170307451 641.59137363974878 0 0 0 0 -290.34397732051457 -128.44153944222126 0 -128.44153944222126 396.60820671889451 0 0 0 0 -272.47912006342085 -246.5095869087836 0 -246.5095869087836 364.2254374994518 0 0 0 0 -31.006317050372445 -186.90543415552838 0 -186.90543415552838 378.16767962625454 0 0 0 0 -122.160160763769 -42.944516204019237 0 -42.944516204019237 541.78672895403179 0 0 0 0 -163.92187377073606 -165.17540916710959 0 -165.17540916710959 283.63366089383635 0 0 0 0 -295.08111583416417 309.95402828965393 0 309.95402828965393 -143.23591647668218 0 0 0 0 -391.13345058750929 144.22979856447637 0 144.22979856447637 522.99837941497935 0 0 0 0 -121.72162347493898 187.64970545437154 0 187.64970545437154 930.59394155935661 0 0 0 0 -175.29892559209884 -13.082884574921991 0 -13.082884574921991 571.56349812343615 0 0 0 0 -527.59642308113325 634.30702546256725 0 634.30702546256725 719.45250865363914 0 0 0 0 -401.30474645165759 -178.20101922284084 0 -178.20101922284084 1600.5698862159752 0 0 0 0 -174.88615587015283 -51.79972618920965 0 -51.79972618920965 1668.9705703197615 0 0 0 0 767.52661457126305 -1294.5961534971775 0 -1294.5961534971775 2290.0804296933288 0 0 0 0 -1383.227578323304 -347.82874912775787 0 -347.82874912775787 2663.926184404907 0 0 0 0 0.7368906769961665 2.5473357216777721 0 2.5473357216777721 15.805357255605244 0 0 0 0 96.972680870485419 112.75885868740716 0 112.75885868740716 1001.1504401445054 0 0 0 0 -35.180807176918165 151.2079742158794 0 151.2079742158794 1477.1915087533471 0 0 0 0 36.57969833596826 150.20601780900506 0 150.20601780900506 936.74842575906587 0 0 0 0 33.701017974489403 -9.9990411683352534 0 -9.9990411683352534 2.2537660551976737 0 0 0 0 71.295953214096244 87.63486284094688 0 87.63486284094688 1351.3017312673983 0 0 0 0 428.09525787926214 -547.45767410009648 0 -547.45767410009648 1290.7228706865053 0 0 0 0 -40.917742639334392 90.422958128163373 0 90.422958128163373 1627.9018001206159 0 0 0 0 47.801724737900294 -7.3916059378537895 0 -7.3916059378537895 1.5335207365375165 0 0 0 0 -2790.2440456278982 69.915807256465996 0 69.915807256465996 5329.514438808983 0 0 0 0 78.137875389023975 186.94219385245651 0 186.94219385245651 1053.8389137462509 0 0 0 0 26.73602616765789 -5.9237781003296845 0 -5.9237781003296845 1.9372534696426267 0 0 0 0 540.61490195068654 -1293.8967169870984 0 -1293.8967169870984 3500.9141975286457 0 0 0 0 3737.1621255506734 -2668.0895526077152 0 -2668.0895526077152 2400.9101436670626 0 0 0 0 229.16771850749683 -465.74918515576428 0 -465.74918515576428 3125.1707956105492 0 0 0 0 -339.69323642002109 669.09875024005237 0 669.09875024005237 1363.4545475752229 0 0 0 0 1.7032601699877574 3.6770518915736048 0 3.6770518915736048 44.518984789746717 0 0 0 0 854.85743557053161 447.48594853378472 0 447.48594853378472 -295.25449308095176 0 0 0 0 732.88888403116471 -473.33249279756274 0 -473.33249279756274 545.43208760214111 0 0 0 0 2187.2509954989673 -1932.3251650261473 0 -1932.3251650261473 1888.2834918993021 0 0 0 0 641.65877933443608 -221.34265888258778 0 -221.34265888258778 533.17654937915722 0 0 0 0 233.71792948975008 205.12018404740581 0 205.12018404740581 -346.74546189704097 0 0 0 0 -776.71007865263186 502.93359548301453 0 502.93359548301453 -98.083068067309796 0 0 0 0 748.63978429464305 -267.78366826078764 0 -267.78366826078764 348.07159410579334 0 0 0 0 -0.20490384687383667 9.2665937082062264 0 9.2665937082062264 124.11710022008666 0 0 0 0 738.32531276541158 -165.93211171869552 0 -165.93211171869552 101.05420785642991 0 0 0 0 643.43102331984119 -179.81985819301553 0 -179.81985819301553 386.13414312190253 0 0 0 0 708.89266003966486 -175.83655138338599 0 -175.83655138338599 383.99678252844751 0 0 0 0 370.66910364905834 -103.20267786530349 0 -103.20267786530349 428.19759068607891 0 0 0 0 267.73797902304045 -154.49142836418923 0 -154.49142836418923 858.84028407936421 0 0 0 0 563.11378590082313 -295.28122250597062 0 -295.28122250597062 619.83717416410764 0 0 0 0 -314.88857557617212 -181.40251150597032 0 -181.40251150597032 109.74580296123167 0 0 0 0 -295.24569458208043 42.462070688212407 0 42.462070688212407 2050.8142184022217 0 0 0 0 -1097.0887007132105 -180.67059489635722 0 -180.67059489635722 605.12417576981534 0 0 0 0 -484.84238191408349 715.96073831131798 0 715.96073831131798 480.35398432724105 0 0 0 0 -28.383632796601432 524.40682199006551 0 524.40682199006551 580.41531141231098 0 0 0 0 -26.583878646700953 513.53707744996609 0 513.53707744996609 259.485996472853 0 0 0 0 -236.40692972791612 553.69334251703549 0 553.69334251703549 322.80336219312449 0 0 0 0 103.08917661116857 454.12392985990846 0 454.12392985990846 -5.5540576751809567 0 0 0 0 6.12804076429925 316.36210386816077 0 316.36210386816077 18.518313065287657 0 0 0 0 -223.31025692494131 231.47718573994644 0 231.47718573994644 181.63331457567983 0 0 0 0 -925.51632291245858 336.11913474930043 0 336.11913474930043 511.75823300790216 0 0 0 0 -285.55300153917739 350.54937369392974 0 350.54937369392974 362.51075464302266 0 0 0 0 -692.2505285919807 -158.76946418188527 0 -158.76946418188527 378.79054116377665 0 0 0 0 -226.42329657343589 -4.5721051611908479 0 -4.5721051611908479 294.23820278733365 0 0 0 0 -302.93967245721615 110.66336425494592 0 110.66336425494592 253.52255794382654 0 0 0 0 -66.682067159902317 69.397038043254724 0 69.397038043254724 230.9623250663426 0 0 0 0 -184.38486285543877 36.591865930342465 0 36.591865930342465 295.75615621698671 0 0 0 0 -123.49608965058837 13.265852557618928 0 13.265852557618928 240.94987091483199 0 0 0 0 -10.498918420518825 -38.059094948737993 0 -38.059094948737993 202.3374459850067 0 0 0 0 -188.61375808403966 -9.800913828530156 0 -9.800913828530156 247.07759520589025 0 0 0 0 -183.28516378623817 -47.693132970911392 0 -47.693132970911392 219.33981865333044 0 0 0 0 -221.62370113592604 -47.997629022964702 0 -47.997629022964702 247.9917452573718 0 0 0 0 -142.75227998772363 -10.184403456550172 0 -10.184403456550172 253.31243111807271 0 0 0 0 -60.575252077128425 -412.70080422670435 0 -412.70080422670435 404.24761957085866 0 0 0 0 -6.7581769458892706 -2.621718994634449 0 -2.621718994634449 -4.8936259265296087 0 0 0 0 -1160.6160109904899 745.63971339265117 0 745.63971339265117 -239.18654861847608 0 0 0 0 -20.528272793914219 -29.957514431315218 0 -29.957514431315218 70.861455554197178 0 0 0 0 -145.09541874277284 -145.19455047696101 0 -145.19455047696101 469.15633090370102 0 0 0 0 -509.72087034727519 -26.954483981213343 0 -26.954483981213343 419.8303019369996 0 0 0 0 -20.013406501351696 -44.551116303735327 0 -44.551116303735327 264.18593644172654 0 0 0 0 663.38094096437817 166.7278198703134 0 166.7278198703134 257.46137201964666 0 0 0 0 -122.36809241771931 -226.56834117088221 0 -226.56834117088221 1034.2434988751338 0 0 0 0 601.48741199435426 -458.83152087399139 0 -458.83152087399139 184.50767491844454 0 0 0 0 -113.98329254049315 -35.431621470913228 0 -35.431621470913228 174.95055810025951 0 0 0 0 -78.723142137350806 -360.47450004102575 0 -360.47450004102575 322.39068932853843 0 0 0 0 -633.9483790119084 -29.425634394843655 0 -29.425634394843655 475.23537618335831 0 0 0 0 -0.44248816037146077 -43.371258113982698 0 -43.371258113982698 237.07962376380152 0 0 0 0 240.66132003482818 -362.85794203314572 0 -362.85794203314572 185.80234835948795 0 0 0 0 227.19955558574776 308.82896932148458 0 308.82896932148458 312.15134221583139 0 0 0 0 -122.07133646270086 -409.613973767875 0 -409.613973767875 172.58359500614461 0 0 0 0 157.09824959064281 -562.07779414898687 0 -562.07779414898687 132.47685335062306 0 0 0 0 92.975745518424901 -23.938473633770627 0 -23.938473633770627 84.152195343369385 0 0 0 0 2.780160317710938 -10.842173515536587 0 -10.842173515536587 4.0839047442899243 0 0 0 0 424.90302509367393 -254.29989743574151 0 -254.29989743574151 -52.405331472284161 0 0 0 0 -269.44908922385525 -215.25445330207231 0 -215.25445330207231 256.19110548897879 0 0 0 0 273.55339589182404 -92.333126338467991 0 -92.333126338467991 36.099816586443922 0 0 0 0 -4.9730260243237367 -1.9622595830532248 0 -1.9622595830532248 8.7837191192998034 0 0 0 0 -101.46792229408821 102.67125438598075 0 102.67125438598075 25.549813380552223 0 0 0 0 43.217472273183375 6.4475965571782581 0 6.4475965571782581 0.49623567351227393 0 0 0 0 -19.566345002553135 11.961300850194675 0 11.961300850194675 211.98981557523075 0 0 0 0 -27.354112972068833 -53.642525949280753 0 -53.642525949280753 135.36952512605785 0 0 0 0 174.38472030767662 -220.84034817177599 0 -220.84034817177599 51.897871984183439 0 0 0 0 49.135295487853 -201.69433514824777 0 -201.69433514824777 376.74848379446485 0 0 0 0 196.87890572651304 -301.58428813193314 0 -301.58428813193314 147.76283713516023 0 0 0 0 -0.3142138645808803 -10.631473220379428 0 -10.631473220379428 18.69622625559785 0 0 0 0 -11.985420246416425 -10.752208046079886 0 -10.752208046079886 106.28436002649687 0 0 0 0 -51.357013156026369 -87.00364106521738 0 -87.00364106521738 89.192309498328541 0 0 0 0 -15.391861453347243 -7.1417934839931689 0 -7.1417934839931689 5.60786914678323 0 0 0 0 -130.58677788582645 56.042034541071189 0 56.042034541071189 -17.72378413239494 0 0 0 0 -56.840345577462358 -69.676946646179204 0 -69.676946646179204 414.99209056812106 0 0 0 0 -32.314392675438285 -16.807175539741365 0 -16.807175539741365 109.52614121223269 0 0 0 0 -2.735607294487636 218.4819226871823 0 218.4819226871823 701.50271024758331 0 0 0 0 2.464540095900329 -5.7394724947383899 0 -5.7394724947383899 6.1079272893036318 0 0 0 0 26.888192673974117 -437.38842223454049 0 -437.38842223454049 731.70317949090656 0 0 0 0 -89.725069691301542 -189.10361707056563 0 -189.10361707056563 226.69906213124705 0 0 0 0 -198.47866096417783 -278.26710403367542 0 -278.26710403367542 318.56336269831354 0 0 0 0 -142.27498734005985 -185.58192716328449 0 -185.58192716328449 229.74977740105624 0 0 0 0 94.96429948813784 27.888701809314625 0 27.888701809314625 -217.14450980959737 0 0 0 0 -41.864898977624229 -17.357503928574943 0 -17.357503928574943 -15.24193201970229 0 0 0 0 11.502203102779504 -360.27331625095667 0 -360.27331625095667 538.45773086334066 0 0 0 0 -175.23572251186124 -120.07316953728969 0 -120.07316953728969 102.14374121032961 0 0 0 0 -13.792648852220941 -5.2294358465539545 0 -5.2294358465539545 0.18383686078338002 0 0 0 0 1236.361009525297 269.14622895157845 0 269.14622895157845 761.91592889672211 0 0 0 0 -17.122046013078034 -637.13885077196301 0 -637.13885077196301 1667.3892822421258 0 0 0 0 -245.29740605521602 285.28931947460478 0 285.28931947460478 1880.6957630645957 0 0 0 0 514.2131100145898 512.93888724575481 0 512.93888724575481 539.17142293458164 0 0 0 0 -273.18607004635237 152.71495833875633 0 152.71495833875633 1274.4036251678299 0 0 0 0 -20.584607095659067 -469.54761572185771 0 -469.54761572185771 652.15762263601937 0 0 0 0 -345.34489851877265 211.28333076015588 0 211.28333076015588 1228.5004996917787 0 0 0 0 -350.29775277575368 317.55699492592612 0 317.55699492592612 244.86849610283934 0 0 0 0 -518.7169070569621 114.4263694996589 0 114.4263694996589 634.37203250067796 0 0 0 0 0.52612359710945644 -1.0277291435286457 0 -1.0277291435286457 256.4518526124632 0 0 0 0 -7.5710346014381003 -122.28004671462804 0 -122.28004671462804 252.8747769640222 0 0 0 0 -168.46597262961586 -73.643329131207793 0 -73.643329131207793 212.1084723332533 0 0 0 0 -13.800994008551521 -2.7473418699635364 0 -2.7473418699635364 294.64342438054518 0 0 0 0 -72.544710736924969 -53.595755738977964 0 -53.595755738977964 36.367136921689898 0 0 0 0 32.114212417041017 249.94730432882852 0 249.94730432882852 27.911344195250422 0 0 0 0 -285.1990514422082 -233.98069679747277 0 -233.98069679747277 487.83489502234534 0 0 0 0 -436.58980149058766 190.55598897012533 0 190.55598897012533 198.0247951552883 0 0 0 0 -417.42059094998751 119.94613421708834 0 119.94613421708834 285.70005515105731 0 0 0 0 -396.27495587481894 69.039590784161192 0 69.039590784161192 283.37477223956375 0 0 0 0 -190.56944512208165 -211.74498572615948 0 -211.74498572615948 407.8513231757388 0 0 0 0 -251.49282682595572 136.9609639374321 0 136.9609639374321 243.19894976019714 0 0 0 0 -623.29950708204672 12.622483767518361 0 12.622483767518361 520.05148576039937 0 0 0 0 -112.30983868020076 -143.47623467929225 0 -143.47623467929225 192.99512910166959 0 0 0 0 -77.464657132608636 6.8361274744383991 0 6.8361274744383991 789.45946862865821 0 0 0 0 158.2983933226019 -14.183413099177415 0 -14.183413099177415 448.50903876230223 0 0 0 0 146.17219381866903 -296.21294312098871 0 -296.21294312098871 1915.0122251118446 0 0 0 0 389.62453195741637 -421.38187941936485 0 -421.38187941936485 556.88943694362933 0 0 0 0 412.64281601192306 -358.70285803829756 0 -358.70285803829756 521.23583427825361 0 0 0 0 89.990885832363404 -313.71366065869881 0 -313.71366065869881 527.83955194991722 0 0 0 0 202.14767040397646 -492.19599415039556 0 -492.19599415039556 159.87881658098195 0 0 0 0 319.62218461474271 -623.45690658983767 0 -623.45690658983767 227.42720464910963 0 0 0 0 -66.201490550411449 -541.15327697714383 0 -541.15327697714383 464.3777528150531 0 0 0 0 -660.20164759037095 -34.045982682044269 0 -34.045982682044269 357.65059908544936 0 0 0 0 -53.968111485486588 -538.04380216269055 0 -538.04380216269055 392.82897056551883 0 0 0 0 -1183.4211734240716 -629.18603769526271 0 -629.18603769526271 76.084074475875241 0 0 0 0 190.24458212853619 -692.02454924472113 0 -692.02454924472113 -133.52580499740725 0 0 0 0 280.15789397730646 -196.08353113421254 0 -196.08353113421254 178.52730642641473 0 0 0 0 -260.59615140245245 -773.91971880706114 0 -773.91971880706114 -328.83520107802178 0 0 0 0 -359.48960653864128 -419.14482344832595 0 -419.14482344832595 -180.34554554682109 0 0 0 0 -876.02649223320532 -615.13256720829668 0 -615.13256720829668 -279.73310820975166 0 0 0 0 -488.34109848267281 -771.25802781302627 0 -771.25802781302627 -218.13169205846498 0 0 0 0 456.91471544302794 311.89762835342117 0 311.89762835342117 975.36673985305242 0 0 0 0 334.76989642940856 948.29935692566596 0 948.29935692566596 2463.6846376095782 0 0 0 0 3.5907526649769492 -5.3124905537802789 0 -5.3124905537802789 5.8406380276599066 0 0 0 0 -468.04810851348918 -400.58849802830809 0 -400.58849802830809 -879.20382912398782 0 0 0 0 -210.01897115914107 -1402.8301213463783 0 -1402.8301213463783 -1435.9067252980603 0 0 0 0 -273.15429612750103 -1251.8684973940453 0 -1251.8684973940453 -126.16963899540133 0 0 0 0 109.98051476942715 -445.90194267616607 0 -445.90194267616607 -404.00555136273397 0 0 0 0 -110.60821124670019 -699.61598788821357 0 -699.61598788821357 920.62278137798421 0 0 0 0 -259.02049824380265 -363.70494677641545 0 -363.70494677641545 495.51220679031394 0 0 0 0 -142.17415572982281 -509.68692655558152 0 -509.68692655558152 75.977033958413813 0 0 0 0 483.14907979184591 -241.89910740267987 0 -241.89910740267987 86.002043448286713 0 0 0 0 604.86501699754535 -223.47725988595266 0 -223.47725988595266 -76.055557100175065 0 0 0 0 216.9347069153057 -590.55060444002083 0 -590.55060444002083 -227.76026403679862 0 0 0 0 706.92139831378927 -202.7547062074882 0 -202.7547062074882 -222.05299761539243 0 0 0 0 772.19475200479337 -1.109592153748963 0 -1.109592153748963 92.36746347506778 0 0 0 0 574.49569108508513 -71.01902055276696 0 -71.01902055276696 167.28579283723957 0 0 0 0 -294.73838576354638 -46.233195269291173 0 -46.233195269291173 349.00976615896798 0 0 0 0 242.6211274935572 -230.02549133689899 0 -230.02549133689899 112.04281688812807 0 0 0 0 354.75159861994808 118.8071704435647 0 118.8071704435647 39.898282854846912 0 0 0 0 11.480257847440953 -106.70974131390358 0 -106.70974131390358 47.474984332498934 0 0 0 0 0.29405492159695884 -4.1634013894393256 0 -4.1634013894393256 164.55805542406458 0 0 0 0 121.33958006661692 -84.921603156486526 0 -84.921603156486526 -5.1737476110974967 0 0 0 0 -431.07956878440837 357.21009135682652 0 357.21009135682652 -6.2831915802016738 0 0 0 0 -0.65451336917295089 -3.587195777743716 0 -3.587195777743716 210.56615385325429 0 0 0 0 49.340163464321485 150.29199317308607 0 150.29199317308607 -3.4081371153988584 0 0 0 0 -90.854160847356923 293.77652306064283 0 293.77652306064283 -380.60632493328376 0 0 0 0 112.6840030063683 432.85240136469474 0 432.85240136469474 -341.5493799272308 0 0 0 0 102.41847165200774 412.5751594473968 0 412.5751594473968 -1232.5658762482308 0 0 0 0 -4.2080165678213213 0.60103470592572705 0 0.60103470592572705 -1.3515410003581998 0 0 0 0 -14.326038185993422 4.0490479620511195 0 4.0490479620511195 15.044490698909881 0 0 0 0 -104.37434140783535 280.14640722194417 0 280.14640722194417 -381.2163440725235 0 0 0 0 -2.47499531140204 342.34444405609065 0 342.34444405609065 -22.717192031490413 0 0 0 0 -166.52601693645127 81.624513040485908 0 81.624513040485908 44.060616918890446 0 0 0 0 267.18528703569189 -7.3034787216583936 0 -7.3034787216583936 343.7337090552428 0 0 0 0 419.27608689005331 421.67663891009215 0 421.67663891009215 -16.896494099813935 0 0 0 0 -63.613990600583293 208.04711637256332 0 208.04711637256332 967.03630151821562 0 0 0 0 322.04802285860484 609.48217666256323 0 609.48217666256323 1158.7118480202334 0 0 0 0 821.32247073466988 687.69689542418564 0 687.69689542418564 668.57157229783843 0 0 0 0 169.63741390384038 256.57703563248606 0 256.57703563248606 1867.1057117283781 0 0 0 0 557.8821621519985 1270.4450610392596 0 1270.4450610392596 2200.5257765396891 0 0 0 0 -486.84548863634723 26.693955818042014 0 26.693955818042014 2482.5395468315983 0 0 0 0 -127.86607194408452 323.01549966511084 0 323.01549966511084 2577.7323292105348 0 0 0 0 -300.8011462063065 678.70584721543855 0 678.70584721543855 3898.4451916103062 0 0 0 0 -598.57743156495974 0.93291810873597569 0 0.93291810873597569 4417.4518982810368 0 0 0 0 241.05516482198021 729.74271540566042 0 729.74271540566042 4445.3679548935652 0 0 0 0 -481.88414381227562 431.99566852516546 0 431.99566852516546 5503.3651976748661 0 0 0 0 -194.07248688492263 359.01117776413867 0 359.01117776413867 4157.5011337799733 0 0 0 0 411.76451888191286 2240.7667369578267 0 2240.7667369578267 5249.3895709283679 0 0 0 0 425.05771725999216 -395.48203847223795 0 -395.48203847223795 6751.46914859346 0 0 0 0 3447.3801387816716 229.05252491254214 0 229.05252491254214 5498.2365327728767 0 0 0 0 1932.5417145038714 1379.9459036643475 0 1379.9459036643475 271.37852882765583 0 0 0 0 1633.9766295428658 2370.8287110995898 0 2370.8287110995898 2681.5847059747612 0 0 0 0 2.8285208634437335 -0.28721123556713657 0 -0.28721123556713657 50.248853961814149 0 0 0 0 528.18012901349459 737.36936198943658 0 737.36936198943658 2999.2493129121322 0 0 0 0 548.59881698294055 -325.06607067496952 0 -325.06607067496952 121.89052768738475 0 0 0 0 0.79606818338962926 -2.2587219885512972 0 -2.2587219885512972 121.80532788668165 0 0 0 0 934.53134290068476 105.26207060523666 0 105.26207060523666 156.74999227400986 0 0 0 0 929.22774312895763 -912.2743426408399 0 -912.2743426408399 941.63747132507706 0 0 0 0 516.15504596304982 -452.4946805747386 0 -452.4946805747386 1171.8589443034434 0 0 0 0 629.95737667845242 -1037.5146315081365 0 -1037.5146315081365 3536.8087009644441 0 0 0 0 2351.7806759675327 -2262.2385148146063 0 -2262.2385148146063 3207.8507579511643 0 0 0 0 2288.7534837175326 -1023.0346738435328 0 -1023.0346738435328 379.00031646191928 0 0 0 0 711.95473212470813 -625.96267317012826 0 -625.96267317012826 7047.1702130709673 0 0 0 0 826.41172370244533 -135.2140646711523 0 -135.2140646711523 5500.075225190325 0 0 0 0 2457.4978290481167 1428.0256800571224 0 1428.0256800571224 6249.3587824758051 0 0 0 0 -381.9645500426451 130.84023505009827 0 130.84023505009827 5921.0836935755433 0 0 0 0 848.56173019243715 -812.80925042645868 0 -812.80925042645868 3438.5142195794469 0 0 0 0 -380.12329340876079 348.90987919822146 0 348.90987919822146 3337.8525598631823 0 0 0 0 -1169.2443892199958 677.4635442718245 0 677.4635442718245 5501.1706147077566 0 0 0 0 -1070.2613178747604 1072.3735670095521 0 1072.3735670095521 2732.0530394726084 0 0 0 0 -307.47072601870013 -4.5801234989849036 0 -4.5801234989849036 1069.5259275529315 0 0 0 0 -388.9671844529978 -400.86023898572603 0 -400.86023898572603 3530.4061990981299 0 0 0 0 17.313380019922306 -959.99184448555752 0 -959.99184448555752 -113.26182915816753 0 0 0 0 -925.60304662917736 -437.28490632057401 0 -437.28490632057401 1222.5608969137247 0 0 0 0 -5.6040955227501108 -0.22028532999566153 0 -0.22028532999566153 0.56947205608695306 0 0 0 0 501.25417210954311 115.46862806536785 0 115.46862806536785 -721.20335900143937 0 0 0 0 742.61464030916568 -579.82898369472673 0 -579.82898369472673 -1052.2396286756302 0 0 0 0 -29.434831954328729 -33.464362028799997 0 -33.464362028799997 284.6008049774523 0 0 0 0 -24.164172496185643 -1.0665010449838999 0 -1.0665010449838999 -1.4012585487064779 0 0 0 0 -333.41841755569169 -355.2107019967118 0 -355.2107019967118 848.10013405004065 0 0 0 0 459.59838734845903 1112.8621824446864 0 1112.8621824446864 1553.5506317785334 0 0 0 0 224.08396566061811 366.06275303879738 0 366.06275303879738 1485.7282539265252 0 0 0 0 111.79346463178308 155.74041184366354 0 155.74041184366354 1930.3718485888276 0 0 0 0 166.32579598095987 309.37828894622504 0 309.37828894622504 1887.2350184237334 0 0 0 0 561.15053568066742 -88.157006752495136 0 -88.157006752495136 713.89817218403232 0 0 0 0 231.37327195926969 490.36321661478735 0 490.36321661478735 592.12657702070328 0 0 0 0 -139.72989121165597 193.50865263798255 0 193.50865263798255 1523.1994389126694 0 0 0 0 3.4985840412952598 -180.20454895912121 0 -180.20454895912121 145.09827980169121 0 0 0 0 177.72144560041625 -173.34367471482619 0 -173.34367471482619 127.75494381303633 0 0 0 0 2.3120507628814266 -184.66622270410505 0 -184.66622270410505 223.39144846719864 0 0 0 0 548.0830083653284 -118.09240584179224 0 -118.09240584179224 -130.09132144228852 0 0 0 0 570.95645038651037 90.807315236296404 0 90.807315236296404 492.86773343611094 0 0 0 0 860.71229965707153 -162.77880895274075 0 -162.77880895274075 -89.705640548734891 0 0 0 0 986.38304300252821 466.00773887120067 0 466.00773887120067 -125.15956674501012 0 0 0 0 811.44551238625775 -69.371584617687859 0 -69.371584617687859 -153.2902554964312 0 0 0 0 588.17253260269047 202.45508069568268 0 202.45508069568268 -25.782291760748194 0 0 0 0 -68.782450528866775 186.62501869561129 0 186.62501869561129 16.345303949731715 0 0 0 0 70.749964884179462 -221.37675340576061 0 -221.37675340576061 -349.93290076120741 0 0 0 0 -103.34995863965423 -128.06030569975633 0 -128.06030569975633 216.53501634991335 0 0 0 0 21.991187901219291 -59.547817048320667 0 -59.547817048320667 66.687551738543334 0 0 0 0 -212.43278129502164 -231.04075183348095 0 -231.04075183348095 26.109274048729276 0 0 0 0 40.829143259465582 -31.01431797237592 0 -31.01431797237592 -117.67322229487081 0 0 0 0 -32.668631137891111 -92.472429692523747 0 -92.472429692523747 182.25405161135677 0 0 0 0 -114.12819097169631 -42.359559981736766 0 -42.359559981736766 640.35819460487687 0 0 0 0 36.677251955784868 -18.722535239151739 0 -18.722535239151739 170.73685266156099 0 0 0 0 27.551292217702212 -63.999476462207895 0 -63.999476462207895 3.7684250537414243 0 0 0 0 5.2212630492076642 -48.762692397050614 0 -48.762692397050614 156.07331529479052 0 0 0 0 -4.6133226666629525 -28.363786642026753 0 -28.363786642026753 116.57200341104928 0 0 0 0 18.53650036420354 -12.867485639323331 0 -12.867485639323331 1.5713242520050978 0 0 0 0 -22.503865372994824 0.4417655287575144 0 0.4417655287575144 142.96879847007699 0 0 0 0 -6.8862321903781041 16.727402366447809 0 16.727402366447809 80.835137425072773 0 0 0 0 -12.664921444140418 1.1075658893464606 0 1.1075658893464606 123.27877505455302 0 0 0 0 6.6391129158431532 -16.341415018644355 0 -16.341415018644355 14.16944239756549 0 0 0 0 8.6919135741345599 -15.433297733419067 0 -15.433297733419067 113.25599317992328 0 0 0 0 -393.86036588208026 464.47587499565634 0 464.47587499565634 -133.95362691653008 0 0 0 0 -213.17111977750005 325.85773832574523 0 325.85773832574523 -119.37462888799564 0 0 0 0 -799.70737949616546 654.50113685677934 0 654.50113685677934 15.364354365832696 0 0 0 0 29.200283804196033 562.12209130399219 0 562.12209130399219 -344.9007247111731 0 0 0 0 -10.633808445753518 24.010288026583346 0 24.010288026583346 91.771752407994782 0 0 0 0 -36.926775009003904 31.572686966505898 0 31.572686966505898 105.07462156256412 0 0 0 0 -763.47538058911118 15.953737627385635 0 15.953737627385635 118.65593790548883 0 0 0 0 -358.25157886984925 769.61752776019057 0 769.61752776019057 -1265.878592382287 0 0 0 0 -5.4774556015445341 8.1910184554371952 0 8.1910184554371952 33.1860229725267 0 0 0 0 -1810.037445899045 441.68819922494367 0 441.68819922494367 296.43803189447499 0 0 0 0 -282.88370409697097 -35.549663020075968 0 -35.549663020075968 200.77693478930451 0 0 0 0 4.2096941026090917 145.70122368653028 0 145.70122368653028 -155.24493924031412 0 0 0 0 -234.77811657454686 395.10441674576396 0 395.10441674576396 242.95293458956075 0 0 0 0 -193.41365674891563 617.21110962347666 0 617.21110962347666 -888.56196276321862 0 0 0 0 -50.951266296486182 9.6069854517328359 0 9.6069854517328359 26.475168169403705 0 0 0 0 -19.356684365687897 3.4774088116239454 0 3.4774088116239454 144.58283503803159 0 0 0 0 -475.94020051604161 541.47114707678793 0 541.47114707678793 -135.55668770032207 0 0 0 0 9.9710108263592705 45.347687029613652 0 45.347687029613652 84.361673127343977 0 0 0 0 -826.19835832367426 60.123942271450687 0 60.123942271450687 225.46115789138639 0 0 0 0 -297.56077505418943 -317.46340861383487 0 -317.46340861383487 -170.67300794066659 0 0 0 0 -571.10462238771288 -199.8475444134674 0 -199.8475444134674 175.87542959459097 0 0 0 0 871.85854520258681 -295.42469151384739 0 -295.42469151384739 176.9550945571284 0 0 0 0 10.001677329920359 16.84387368602021 0 16.84387368602021 34.275352752492296 0 0 0 0 1211.0559853193204 2303.6877320716062 0 2303.6877320716062 1107.3986235026168 0 0 0 0 -593.03733693626032 -412.00122200935289 0 -412.00122200935289 947.98586217353295 0 0 0 0 -351.89035986847648 -1177.0006095934173 0 -1177.0006095934173 2904.3294644672569 0 0 0 0 -388.75218068968059 -978.14290047882923 0 -978.14290047882923 5586.2046868754333 0 0 0 0 -857.88720148306129 991.0750842312118 0 991.0750842312118 4802.4379781376265 0 0 0 0 -528.47569632343084 1066.463505305057 0 1066.463505305057 4143.2979867533213 0 0 0 0 191.32250664519597 2546.2393383569652 0 2546.2393383569652 7145.1464360007085 0 0 0 0 -429.75107015420781 2096.2439553768218 0 2096.2439553768218 6300.3784742066846 0 0 0 0 4627.6097832250816 1799.2068846283291 0 1799.2068846283291 2700.2394821230228 0 0 0 0 155.73735250287928 2314.9254612082732 0 2314.9254612082732 5963.3352455262848 0 0 0 0 -631.87287173767538 448.20119208067717 0 448.20119208067717 1541.7765376215903 0 0 0 0 -518.42271646209542 -28.124598690643325 0 -28.124598690643325 1576.4785834011554 0 0 0 0 -718.92038493196389 859.92605372555772 0 859.92605372555772 271.49919243262775 0 0 0 0 -80.356344620479376 -169.56203918824031 0 -169.56203918824031 462.76031105910351 0 0 0 0 -1086.1012877991711 338.83391875578309 0 338.83391875578309 3283.9482971183643 0 0 0 0 -800.5642122664608 297.86606717191444 0 297.86606717191444 3236.1538080636165 0 0 0 0 -200.26739737951891 705.67046681692591 0 705.67046681692591 2894.7713136255552 0 0 0 0 -577.97914426255511 413.49608237468783 0 413.49608237468783 2828.5212784949181 0 0 0 0 -762.74329078194978 529.7832936054856 0 529.7832936054856 3638.5454950690328 0 0 0 0 -429.98804984192589 1083.128553817488 0 1083.128553817488 3790.5033235513401 0 0 0 0 4.2535079525410424 -5.7063295565333689 0 -5.7063295565333689 17.74958557613401 0 0 0 0 293.36217537336523 328.1064806479651 0 328.1064806479651 1803.7450212553376 0 0 0 0 434.09430055315335 -296.87132631438726 0 -296.87132631438726 3523.7552215974742 0 0 0 0 -676.01181799685742 -116.76375769035621 0 -116.76375769035621 5490.7389355818013 0 0 0 0 6.9299959429098408 -18.204945233683233 0 -18.204945233683233 31.460797775336744 0 0 0 0 158.49788389478397 1364.5037677131695 0 1364.5037677131695 3764.7212056923904 0 0 0 0 1360.0853070165317 522.65560813951743 0 522.65560813951743 2657.4972408052199 0 0 0 0 -257.82645427634634 1615.3416101849452 0 1615.3416101849452 2717.3173050156438 0 0 0 0 -24.034719212888831 2254.9334613224564 0 2254.9334613224564 4316.9825489970281 0 0 0 0 1335.1496933272376 2918.6182354565572 0 2918.6182354565572 5497.7098117846253 0 0 0 0 858.68429494756504 1987.0109216213109 0 1987.0109216213109 3909.6770838371922 0 0 0 0 -431.00470290284909 1809.993898042102 0 1809.993898042102 5499.3604410423668 0 0 0 0 -709.31904722762408 1114.2975583757343 0 1114.2975583757343 4537.5622185335178 0 0 0 0 -794.41433644594917 853.26685847978297 0 853.26685847978297 3909.7333348313914 0 0 0 0 -1108.0843375134466 755.13361588528755 0 755.13361588528755 5499.1182585191891 0 0 0 0 -585.45744109138616 15.343724304686134 0 15.343724304686134 4336.678494183152 0 0 0 0 -48.253390418971435 1785.3953295755218 0 1785.3953295755218 3998.4653164261781 0 0 0 0 -235.97269520333805 1469.8487521057677 0 1469.8487521057677 3469.1572826162501 0 0 0 0 -564.03212650598459 -533.47655586484734 0 -533.47655586484734 1927.1901097834707 0 0 0 0 -13.450913565080782 2819.2373516494117 0 2819.2373516494117 6535.267443873583 0 0 0 0 2.0815346631835001 -10.346065988146844 0 -10.346065988146844 21.582002119609427 0 0 0 0 352.59561103191351 1313.4941338545168 0 1313.4941338545168 3247.8962681130288 0 0 0 0 509.63473277252774 -129.19668981143548 0 -129.19668981143548 2913.7280037617347 0 0 0 0 -382.27240835232487 2521.4531631071177 0 2521.4531631071177 6560.5152548629794 0 0 0 0 -57.198467088867119 483.49127644910868 0 483.49127644910868 3492.9952874810515 0 0 0 0 -509.91755280023665 206.10584006298063 0 206.10584006298063 4562.1464921493071 0 0 0 0 -397.62524404786825 -114.13267660371531 0 -114.13267660371531 4362.4909886579244 0 0 0 0 -444.58415230008006 192.91231324040723 0 192.91231324040723 3412.5269772306656 0 0 0 0 -861.72297819841265 358.4410964104618 0 358.4410964104618 4165.9729970434146 0 0 0 0 -780.76232682509351 28.535573095893767 0 28.535573095893767 5499.2968256626064 0 0 0 0 241.21582372945673 -773.80171641757806 0 -773.80171641757806 3938.377712469437 0 0 0 0 -288.94050068677581 -599.46537773129194 0 -599.46537773129194 5498.8873113191139 0 0 0 0 839.8645667819884 -539.38027100098452 0 -539.38027100098452 4004.18438651937 0 0 0 0 -453.99802695387859 -164.98754782400704 0 -164.98754782400704 4356.1454141899767 0 0 0 0 1622.5704872173646 -1953.596974675746 0 -1953.596974675746 3072.3725043994218 0 0 0 0 683.98391623466284 -1609.4085956185763 0 -1609.4085956185763 5500.2609092004941 0 0 0 0 1684.5553411686956 -1796.1766253740225 0 -1796.1766253740225 3152.2774319909295 0 0 0 0 1711.9374001572853 -522.1297677542766 0 -522.1297677542766 2108.5861480288368 0 0 0 0 1791.1915149327449 93.157491687616357 0 93.157491687616357 2067.4179132694717 0 0 0 0 2238.3755253809336 -219.99750167180537 0 -219.99750167180537 2279.769165382374 0 0 0 0 1350.9358873776275 -194.65992558486118 0 -194.65992558486118 2685.3305980639761 0 0 0 0 1890.3400492906817 414.46797563174277 0 414.46797563174277 2970.3983079620912 0 0 0 0 219.91427481236724 431.53693226736084 0 431.53693226736084 4095.8087792720485 0 0 0 0 4321.0432329119249 1717.623380327841 0 1717.623380327841 3039.9702844633903 0 0 0 0 919.75554209272104 1079.3280357142055 0 1079.3280357142055 4477.3758963205464 0 0 0 0 88.849559024783133 -167.53573673427999 0 -167.53573673427999 3242.7304091400388 0 0 0 0 42.954141813990901 -5.0632677767322889 0 -5.0632677767322889 3663.2648508494285 0 0 0 0 530.59857750857168 -325.43754185557952 0 -325.43754185557952 2866.6276022012485 0 0 0 0 35.575868881867564 135.88657757309522 0 135.88657757309522 3074.0409775090202 0 0 0 0 349.01794557854657 -165.42365266218204 0 -165.42365266218204 1796.4604906564341 0 0 0 0 571.59118678694267 -15.787684443177341 0 -15.787684443177341 882.48103510479814 0 0 0 0 437.15624179279496 -308.41362941051494 0 -308.41362941051494 1790.0244698296049 0 0 0 0 529.18374021506156 -433.86652377588871 0 -433.86652377588871 930.5279367252549 0 0 0 0 545.22295908764431 -272.13205790464508 0 -272.13205790464508 981.12166534940047 0 0 0 0 409.60242449140037 -652.69269730323435 0 -652.69269730323435 2072.1309542776612 0 0 0 0 301.18474362402054 22.69272379233108 0 22.69272379233108 2573.9992561263311 0 0 0 0 -149.23089049158898 -1269.3952674459701 0 -1269.3952674459701 3198.5376899823709 0 0 0 0 439.14014786451571 -3.6822708200070338 0 -3.6822708200070338 1439.9187782874692 0 0 0 0 384.1111782507769 -455.84050951116353 0 -455.84050951116353 713.38540379041342 0 0 0 0 805.42829591661621 -510.42663269191956 0 -510.42663269191956 1024.4378248365731 0 0 0 0 259.68101622694849 -151.72784037545853 0 -151.72784037545853 938.80837167729362 0 0 0 0 -17.586963747600976 -326.78732070196713 0 -326.78732070196713 451.85583368874813 0 0 0 0 18.637861640113897 233.18810419874308 0 233.18810419874308 86.769256318691532 0 0 0 0 430.93899975663226 -298.1807632332002 0 -298.1807632332002 411.52462353720693 0 0 0 0 -16.291171431731527 -6.3491821480820363 0 -6.3491821480820363 51.448038047671162 0 0 0 0 310.85833522627127 158.52050621221861 0 158.52050621221861 131.99824791324318 0 0 0 0 -489.92426263707807 164.47738343270817 0 164.47738343270817 843.32259889473244 0 0 0 0 302.60230633409628 178.18284446928874 0 178.18284446928874 -370.1055875420966 0 0 0 0 -34.748127979944648 -1.5109029909170744 0 -1.5109029909170744 -3.7134757518866843 0 0 0 0 -729.34107357658286 68.227903899120975 0 68.227903899120975 1158.8009137263889 0 0 0 0 -371.51026475207982 167.01047519993926 0 167.01047519993926 801.23109460022215 0 0 0 0 -164.72837075857387 -360.48728875809479 0 -360.48728875809479 909.13438362002307 0 0 0 0 122.22215176655686 -526.11715198555612 0 -526.11715198555612 310.44903045113142 0 0 0 0 759.64731005833687 -548.23143443274967 0 -548.23143443274967 119.07829170237176 0 0 0 0 -10.271728059230343 -1.5218245875397685 0 -1.5218245875397685 0.83288655999702321 0 0 0 0 598.59634187415418 -1057.8723674664288 0 -1057.8723674664288 762.5217631200976 0 0 0 0 2105.7323476528381 202.35790735121373 0 202.35790735121373 -505.92440186582616 0 0 0 0 2533.7254466916097 -440.89627254966672 0 -440.89627254966672 -780.83261783402065 0 0 0 0 1274.107668231919 66.004979598039426 0 66.004979598039426 -496.98837463168331 0 0 0 0 1483.0049323605308 -649.91389831064407 0 -649.91389831064407 -806.17290549361155 0 0 0 0 760.39359686646674 -584.99152746863456 0 -584.99152746863456 -137.97228211065521 0 0 0 0 753.27338965568492 -393.80447489769483 0 -393.80447489769483 487.39606064856616 0 0 0 0 862.14717976256452 -218.19466759425404 0 -218.19466759425404 61.68892711885519 0 0 0 0 759.85005569473901 -334.84389138338372 0 -334.84389138338372 338.2308365976296 0 0 0 0 497.98556407163824 -555.72181640382223 0 -555.72181640382223 171.3027681226522 0 0 0 0 653.92984070961438 -363.39471800098318 0 -363.39471800098318 429.75821622952935 0 0 0 0 321.60750550537409 -98.857640358539356 0 -98.857640358539356 1535.2592630243234 0 0 0 0 1003.6977323227475 1738.6685724758972 0 1738.6685724758972 2642.0681420355977 0 0 0 0 -431.94279525710567 1256.4626995209837 0 1256.4626995209837 1284.464849641241 0 0 0 0 163.80529401147851 583.59673534395552 0 583.59673534395552 2044.2771995442454 0 0 0 0 516.69219205006721 1808.0365893733469 0 1808.0365893733469 2716.123712401888 0 0 0 0 769.4357522775349 1151.2854979406256 0 1151.2854979406256 3998.6189644840342 0 0 0 0 1789.2873629851401 1851.8405986926446 0 1851.8405986926446 2541.9347924638605 0 0 0 0 1728.7727655671442 311.90037341042625 0 311.90037341042625 6918.7492473312595 0 0 0 0 3626.3437803643956 1337.2726507617772 0 1337.2726507617772 2291.3870858315204 0 0 0 0 1504.1967408448663 2590.4888909127476 0 2590.4888909127476 4261.4803409590386 0 0 0 0 1502.9570302554662 2047.6805604018164 0 2047.6805604018164 2248.1711868833663 0 0 0 0 1332.9344589360098 1087.5953025876443 0 1087.5953025876443 2271.9677339182799 0 0 0 0 1504.4206645171964 1412.0010963502436 0 1412.0010963502436 1313.9470718302473 0 0 0 0 1180.8377175870892 711.72891768482077 0 711.72891768482077 391.85753276485775 0 0 0 0 722.14404426102828 724.20300485616463 0 724.20300485616463 522.57301814387756 0 0 0 0 1324.8698156399998 423.47733064859449 0 423.47733064859449 142.07096615027694 0 0 0 0 675.12354586671063 -271.09921987934649 0 -271.09921987934649 -85.90015500557638 0 0 0 0 2.5982035654798068 -6.9542840519667379 0 -6.9542840519667379 11.025070162945212 0 0 0 0 -138.20670236675187 -1067.318048049041 0 -1067.318048049041 -479.04045179748209 0 0 0 0 -403.45685870746092 240.30675743132815 0 240.30675743132815 -207.67296963909121 0 0 0 0 -148.12427026970727 659.68972685970357 0 659.68972685970357 476.53591514680011 0 0 0 0 -816.71048877884459 -96.379122300744712 0 -96.379122300744712 726.97883087212904 0 0 0 0 -26.595103835376264 1.0793092195492839 0 1.0793092195492839 197.00268400340531 0 0 0 0 -161.80739212700723 -14.755658936793679 0 -14.755658936793679 219.67660333088133 0 0 0 0 -928.92925786912019 -366.79291266735163 0 -366.79291266735163 215.42574525074951 0 0 0 0 -70.317491875647804 -6.8041448629487267 0 -6.8041448629487267 37.094759520619796 0 0 0 0 628.20398963753905 94.609429233574701 0 94.609429233574701 77.468641867231327 0 0 0 0 1905.4875888364222 -592.08813847567581 0 -592.08813847567581 364.8994867761412 0 0 0 0 779.49014433834964 1083.2030793097069 0 1083.2030793097069 608.23151490360624 0 0 0 0 -215.91602964011327 593.66912183095155 0 593.66912183095155 1419.7976063371943 0 0 0 0 -733.20422682640583 -39.187875265519708 0 -39.187875265519708 1294.2986580413835 0 0 0 0 -576.95970545567798 27.204494652232256 0 27.204494652232256 217.92170332621964 0 0 0 0 -65.094323264160266 249.44705539912229 0 249.44705539912229 111.84077866370717 0 0 0 0 -337.60744725786026 82.430528494399823 0 82.430528494399823 96.332475060530669 0 0 0 0 522.41407626168143 783.60712560157071 0 783.60712560157071 2242.4454691535939 0 0 0 0 0.36862556163547033 -48.542005095010481 0 -48.542005095010481 136.53840236396996 0 0 0 0 425.61077853076358 261.53285159601364 0 261.53285159601364 -221.48394417401869 0 0 0 0 -1104.1577361039822 -255.75495629140642 0 -255.75495629140642 486.43053097501979 0 0 0 0 145.17197675645866 -825.4730488683781 0 -825.4730488683781 -2650.9388136985071 0 0 0 0 -5.0204533924475774 -1.9892019495244142 0 -1.9892019495244142 50.612013533644294 0 0 0 0 85.529865835883356 741.12012652862177 0 741.12012652862177 2706.0504828519697 0 0 0 0 -472.13871513413642 1205.4837703557641 0 1205.4837703557641 2346.8386845407076 0 0 0 0 664.71040903969777 1963.5159903476513 0 1963.5159903476513 4161.2643274895381 0 0 0 0 751.19969818291122 855.38059776887314 0 855.38059776887314 1942.7752084626263 0 0 0 0 -495.75293517129467 238.00584493223016 0 238.00584493223016 237.10060297678305 0 0 0 0 223.25909395903818 162.24674437331595 0 162.24674437331595 -241.3723699084693 0 0 0 0 19.843030494634604 -1145.7897165972934 0 -1145.7897165972934 811.48457441888377 0 0 0 0 5.1410213462341741 -11.180137870150684 0 -11.180137870150684 53.305023361942716 0 0 0 0 3378.4341044236089 4747.7219770658012 0 4747.7219770658012 3735.5367887070497 0 0 0 0 1507.8443069179339 1886.1847454337258 0 1886.1847454337258 2438.9265666125793 0 0 0 0 1522.5041552979847 1893.5479381832993 0 1893.5479381832993 2310.2122261627424 0 0 0 0 -353.77237504675213 293.84494727242782 0 293.84494727242782 63.761799578689534 0 0 0 0 2577.543485526433 3710.0698609955389 0 3710.0698609955389 4204.0570102499041 0 0 0 0 1956.3784478738453 4524.021918851071 0 4524.021918851071 5736.9544089030824 0 0 0 0 2074.5212171442936 2010.8888919026685 0 2010.8888919026685 2211.3884872825074 0 0 0 0 4.4518292344567136 -15.103072971701565 0 -15.103072971701565 41.230707917353769 0 0 0 0 -988.81677131068227 -1356.1496333557807 0 -1356.1496333557807 906.55634179773915 0 0 0 0 -608.06320178683109 -102.95567380318971 0 -102.95567380318971 4661.6083462184179 0 0 0 0 74.578969757104915 -495.87490278760379 0 -495.87490278760379 758.96938467661676 0 0 0 0 1.8999373451024439 -224.92109270359651 0 -224.92109270359651 -208.58041500586114 0 0 0 0 20.0997864338201 79.912312983597076 0 79.912312983597076 319.67448660461378 0 0 0 0 -115.69392917416008 42.572585802416143 0 42.572585802416143 328.78994590898219 0 0 0 0 -668.09290602901183 -185.55174536540562 0 -185.55174536540562 373.77116683451459 0 0 0 0 -3.3008724670862222 2.2500455336067944 0 2.2500455336067944 2.1259437354204991 0 0 0 0 -375.83103136267437 -177.11140079840698 0 -177.11140079840698 711.19384004767926 0 0 0 0 -175.3703083313776 402.22312694978609 0 402.22312694978609 -272.28179489187823 0 0 0 0 -908.1302296063468 2470.6451497029366 0 2470.6451497029366 4988.113070710986 0 0 0 0 3328.8010065313047 -907.84140003682751 0 -907.84140003682751 832.36889722402611 0 0 0 0 9.6845730800917575 -46.648692732152917 0 -46.648692732152917 114.67139273680631 0 0 0 0 -172.98511378695548 100.67914840977755 0 100.67914840977755 272.5479586412257 0 0 0 0 387.9654766317808 972.18569500160993 0 972.18569500160993 3241.0833228396905 0 0 0 0 7.1021088754167128 -15.187866501570767 0 -15.187866501570767 -1.7124891800557407 0 0 0 0 -172.13561897653562 -18.093065596061933 0 -18.093065596061933 67.781118611921556 0 0 0 0 -0.93704062449470116 -31.498457301651602 0 -31.498457301651602 154.46566055822188 0 0 0 0 -497.06699544423282 316.69023324416412 0 316.69023324416412 90.916388829893549 0 0 0 0 1991.8631732276235 -1768.7258911454519 0 -1768.7258911454519 1314.0120822698141 0 0 0 0 -6.914854829728859 6.240595037576611 0 6.240595037576611 14.514991520542299 0 0 0 0 -28.121845081370907 272.50994457563672 0 272.50994457563672 663.11046273850116 0 0 0 0 2082.0050830373998 -2271.091451210883 0 -2271.091451210883 1445.8512443845361 0 0 0 0 1771.467306505469 -1892.7303396066977 0 -1892.7303396066977 2886.3866535637317 0 0 0 0 124.39927781772531 41.630531793167393 0 41.630531793167393 173.6603267320279 0 0 0 0 -31.491079836096787 45.343498722365439 0 45.343498722365439 99.374122212975635 0 0 0 0 -10.895692343601883 -13.656538025131059 0 -13.656538025131059 145.19500305403113 0 0 0 0 4839.0481294764277 -3408.0102674251011 0 -3408.0102674251011 2468.6754159212342 0 0 0 0 1.389264106669702 2.8903647387511366 0 2.8903647387511366 18.785619989621139 0 0 0 0 3.4568619109767145 -5.5473129960722893 0 -5.5473129960722893 28.350327680947593 0 0 0 0 1650.8589518470942 -2072.9227088101616 0 -2072.9227088101616 2890.9882478441323 0 0 0 0 2636.7326190486942 -3911.048650134072 0 -3911.048650134072 5491.8755709877623 0 0 0 0 -81.540754177032795 114.57003175184218 0 114.57003175184218 44.604626247964916 0 0 0 0 -50.960385856204994 65.741813985801855 0 65.741813985801855 -43.489129924579174 0 0 0 0 -192.00313226498383 45.858402729911177 0 45.858402729911177 194.24197614940931 0 0 0 0 -117.17171177720229 242.14207759903366 0 242.14207759903366 -250.57751866336639 0 0 0 0 -225.83179788962298 53.717240893718554 0 53.717240893718554 157.91365094271896 0 0 0 0 -27.891136898855962 36.457312826249904 0 36.457312826249904 37.772517244716781 0 0 0 0 794.78944364832182 1632.5941718592719 0 1632.5941718592719 3272.4112369819268 0 0 0 0 -601.96076571254935 -271.02616007061806 0 -271.02616007061806 5489.2890502749979 0 0 0 0 -584.0677110523834 -190.38066195911665 0 -190.38066195911665 5188.0891027159778 0 0 0 0 -18.373012229671787 36.826193982320845 0 36.826193982320845 14.76795496422368 0 0 0 0 -14.453010296704647 -768.56363966721983 0 -768.56363966721983 5502.0825609904177 0 0 0 0 -30.141555541980324 233.51964194129687 0 233.51964194129687 -118.26411635148543 0 0 0 0 -12.780312753354357 -760.82046624493819 0 -760.82046624493819 5478.7851061629044 0 0 0 0 -81.516942538517924 263.69325464470967 0 263.69325464470967 119.67381320649292 0 0 0 0 -136.05923828679647 125.12756207108032 0 125.12756207108032 240.95827876709518 0 0 0 0 -6.3043925150486508 3.2896632187284496 0 3.2896632187284496 3.2852712257934868 0 0 0 0 -473.29506668884085 99.810425149438743 0 99.810425149438743 831.70073932311061 0 0 0 0 -422.58812287830915 471.33257355494425 0 471.33257355494425 -312.73270916168622 0 0 0 0 -3.7098205734404015 1.9521340080603693 0 1.9521340080603693 1.8297369629000428 0 0 0 0 100.02645406618336 173.7086061564205 0 173.7086061564205 -398.70255747927149 0 0 0 0 114.03686253202426 -835.92735518678091 0 -835.92735518678091 5499.3330510550622 0 0 0 0 -8.9963446298661598 23.604557694766413 0 23.604557694766413 12.804833603467955 0 0 0 0 114.10766791555218 -835.70219057535132 0 -835.70219057535132 5496.2598054774207 0 0 0 0 -2.6079702711525403 9.1792289407241867 0 9.1792289407241867 6.7501949295978818 0 0 0 0 -443.61252180367262 1062.9889732567535 0 1062.9889732567535 -1730.2829634298741 0 0 0 0 -1032.1948188800404 1656.5971933337278 0 1656.5971933337278 1333.1397782684362 0 0 0 0 -438.59160144871657 -585.87829762590263 0 -585.87829762590263 1110.1486271816811 0 0 0 0 -1041.0619156790349 109.25016997589591 0 109.25016997589591 400.7250575405269 0 0 0 0 -393.96300450047056 -215.48344178720799 0 -215.48344178720799 445.14175780138521 0 0 0 0 -358.27505023860203 -172.83638808017713 0 -172.83638808017713 489.92700007194799 0 0 0 0 -296.6466330105419 -446.10585466645352 0 -446.10585466645352 99.349640939704841 0 0 0 0 -452.14862349477721 -324.90652169180976 0 -324.90652169180976 472.79563839087496 0 0 0 0 -266.43116415018358 -201.74715821451537 0 -201.74715821451537 502.27621380411256 0 0 0 0 -333.67813762099468 -237.72896450612461 0 -237.72896450612461 583.64917410445923 0 0 0 0 -237.63977094070151 -214.19909244741575 0 -214.19909244741575 504.09207176142809 0 0 0 0 -311.86162113944806 -160.13236157701976 0 -160.13236157701976 722.32729991067026 0 0 0 0 -30.14654077427349 -59.544042031528079 0 -59.544042031528079 433.2879389822956 0 0 0 0 -296.89412710518718 -73.388290291590238 0 -73.388290291590238 701.46515709615051 0 0 0 0 -127.56401926577882 142.22743544739933 0 142.22743544739933 406.68734760215739 0 0 0 0 28.925399554344722 88.371189164865427 0 88.371189164865427 258.6063417526675 0 0 0 0 -88.308944650791545 108.97342095191561 0 108.97342095191561 260.03733772927808 0 0 0 0 -80.361327051828994 53.154054932259896 0 53.154054932259896 -1.3566481925590779 0 0 0 0 -488.60758695047809 142.4112481068596 0 142.4112481068596 360.25773891015706 0 0 0 0 16.853630725903258 -42.583032876034849 0 -42.583032876034849 106.75229677921379 0 0 0 0 1.8157591016471528 -38.028542821797146 0 -38.028542821797146 130.43737831826729 0 0 0 0 6.3143425091422145 -16.072601314881467 0 -16.072601314881467 159.80981365173648 0 0 0 0 5.1176956292121645 -44.192551339354395 0 -44.192551339354395 108.46163490011531 0 0 0 0 -2.3247546650880557 -25.058666590228924 0 -25.058666590228924 -4.3037497543424053 0 0 0 0 341.39870259937328 -2032.8446897455974 0 -2032.8446897455974 5493.6530163263378 0 0 0 0 1637.8661513965121 -2647.6637797191215 0 -2647.6637797191215 4226.3235202341457 0 0 0 0 294.83045325595106 -1749.6721540061535 0 -1749.6721540061535 4538.2321741033957 0 0 0 0 13.988953644798471 -54.327022607338222 0 -54.327022607338222 168.84741378440231 0 0 0 0 -2.4868450490105567 -11.544064179399442 0 -11.544064179399442 -5.8404969244993623 0 0 0 0 0.46905464881376702 -64.752950816888188 0 -64.752950816888188 220.0709715463272 0 0 0 0 206.80600664406887 -806.44461340162889 0 -806.44461340162889 3739.6891201950893 0 0 0 0 -392.87254066006466 -1288.2855929113721 0 -1288.2855929113721 5503.6222689977003 0 0 0 0 -233.14453749657005 -773.46340677910848 0 -773.46340677910848 4716.278973133918 0 0 0 0 -247.6906669376321 -322.22911875404679 0 -322.22911875404679 2585.2619766926146 0 0 0 0 -1010.7152817393851 766.97663184765952 0 766.97663184765952 5480.3301955187417 0 0 0 0 -1.7526575644471376 -3.0608981050175146 0 -3.0608981050175146 0.05130588775197964 0 0 0 0 -177.31376240932636 -23.276483825618925 0 -23.276483825618925 2298.3493473775015 0 0 0 0 43.299470425405389 -115.38597023522379 0 -115.38597023522379 126.35292482537625 0 0 0 0 -25.86316836692481 -233.24690296739573 0 -233.24690296739573 -71.19792260943359 0 0 0 0 -141.54384022428133 -249.78959591442617 0 -249.78959591442617 133.05039458311512 0 0 0 0 -177.78779850217211 -257.87231615544806 0 -257.87231615544806 371.96884082982433 0 0 0 0 -236.76250535299403 -254.82910818531309 0 -254.82910818531309 371.81277736667835 0 0 0 0 -198.92107673825717 -174.95480149622745 0 -174.95480149622745 496.65843794227112 0 0 0 0 -74.841211421527305 -127.30317498965451 0 -127.30317498965451 348.42570572110708 0 0 0 0 -198.87595744956752 -158.71161093727278 0 -158.71161093727278 370.76406862964359 0 0 0 0 7.3751268217251322 -63.78734206806439 0 -63.78734206806439 217.48483677015611 0 0 0 0 -65.136641018971375 -86.37238695207634 0 -86.37238695207634 214.85050198976387 0 0 0 0 -56.981169376856791 -34.785982244750812 0 -34.785982244750812 256.87949943882995 0 0 0 0 -11.649207581834219 -10.555560018779943 0 -10.555560018779943 209.88975062260943 0 0 0 0 -54.789618630995932 10.172585126834747 0 10.172585126834747 347.0854317902922 0 0 0 0 -116.79168297569328 18.699318263345049 0 18.699318263345049 349.99587041635823 0 0 0 0 -50.364357397199313 22.699122752095718 0 22.699122752095718 229.80594923157332 0 0 0 0 -30.654669730511642 103.02322403124708 0 103.02322403124708 307.07264078356093 0 0 0 0 -7.7608201766246907 25.303069844092533 0 25.303069844092533 226.38618955310085 0 0 0 0 -11.622999539018274 -9.3728058475974763 0 -9.3728058475974763 157.32024333831214 0 0 0 0 -97.026140871570789 -20.10730409036114 0 -20.10730409036114 411.56409698378775 0 0 0 0 -144.30702785277771 45.779240749685414 0 45.779240749685414 331.14991328989709 0 0 0 0 -162.76337159175466 37.616922432258434 0 37.616922432258434 489.1226702743661 0 0 0 0 -113.68395362481974 45.988485816880711 0 45.988485816880711 423.34258633253921 0 0 0 0 -108.78902187877365 56.386366347847797 0 56.386366347847797 429.38254397950368 0 0 0 0 -177.32718532519459 -41.666260100948421 0 -41.666260100948421 467.48703471415502 0 0 0 0 -169.24773439796746 6.3222548990579526 0 6.3222548990579526 442.00973714760039 0 0 0 0 -189.17223136499217 -17.114159241878951 0 -17.114159241878951 421.89364622128051 0 0 0 0 -241.80852388843664 -10.577945702370926 0 -10.577945702370926 455.19154618315224 0 0 0 0 -216.65600552864942 57.17772941534713 0 57.17772941534713 416.98368092801684 0 0 0 0 -207.45226332292782 20.330015828549222 0 20.330015828549222 451.75778793003701 0 0 0 0 -179.34501185654676 19.046373037184821 0 19.046373037184821 451.81034230115392 0 0 0 0 -240.88112855635495 -35.118347525967692 0 -35.118347525967692 544.79316978036695 0 0 0 0 -291.40016158648905 40.267923572399013 0 40.267923572399013 520.55659824342911 0 0 0 0 -292.47036525086048 31.249087479585796 0 31.249087479585796 550.18456075713038 0 0 0 0 -199.64619624907994 -73.632924042965897 0 -73.632924042965897 467.17782386922045 0 0 0 0 -279.77400174846957 -80.167169020682195 0 -80.167169020682195 493.16597425326472 0 0 0 0 -278.6011860803373 -92.350931406253949 0 -92.350931406253949 618.01575758177205 0 0 0 0 -278.62155024220328 -183.28359986948635 0 -183.28359986948635 512.51191662585552 0 0 0 0 -320.34814740782258 -1.352269626375346 0 -1.352269626375346 763.83126412708953 0 0 0 0 -306.87000915274928 -67.361112911221426 0 -67.361112911221426 756.67071426828625 0 0 0 0 -292.88186510602145 -82.589612350238895 0 -82.589612350238895 611.48730214733223 0 0 0 0 -318.935405400543 26.917814797161554 0 26.917814797161554 662.2091955812175 0 0 0 0 -255.01071440669466 131.33033275879643 0 131.33033275879643 690.40915935798694 0 0 0 0 -311.88112147568751 102.58527115124843 0 102.58527115124843 678.57279271534935 0 0 0 0 -321.69342359445534 177.62420382956225 0 177.62420382956225 458.59542196782422 0 0 0 0 -317.06877281938341 296.80021717205818 0 296.80021717205818 556.04802845696395 0 0 0 0 -449.52564431084193 621.71035379698151 0 621.71035379698151 189.0158979674743 0 0 0 0 -235.57006727168209 341.29262718699465 0 341.29262718699465 163.84354584127141 0 0 0 0 -278.46196756251356 447.39127071476832 0 447.39127071476832 -150.29390047164634 0 0 0 0 -194.43327515118472 368.3492293654781 0 368.3492293654781 -570.38773649782524 0 0 0 0 -293.04826472475588 237.25741896906402 0 237.25741896906402 379.76872245970299 0 0 0 0 -417.09585226079707 414.90693664683931 0 414.90693664683931 331.36092110598111 0 0 0 0 -213.4028160813682 252.75389300334064 0 252.75389300334064 152.92750771173451 0 0 0 0 -220.42387243687449 334.45282889054761 0 334.45282889054761 116.22043403175485 0 0 0 0 -207.17091214355833 349.94645238042722 0 349.94645238042722 -88.660977386607556 0 0 0 0 -77.853489144738887 204.92846819327679 0 204.92846819327679 -162.39262857285212 0 0 0 0 -80.709608641993782 206.79757852604962 0 206.79757852604962 -15.236233134157374 0 0 0 0 -184.44197382068842 180.62415133343166 0 180.62415133343166 320.34948335822264 0 0 0 0 -267.10917118415466 176.06723211394456 0 176.06723211394456 320.17604889158974 0 0 0 0 -353.42871781189319 268.79669195176029 0 268.79669195176029 452.15862299843866 0 0 0 0 -302.41844362231609 124.69698561492987 0 124.69698561492987 544.29234774691577 0 0 0 0 -97.896122598525494 94.036139057803666 0 94.036139057803666 255.36052139056846 0 0 0 0 -237.37552639705518 130.39469652217667 0 130.39469652217667 390.3315798733347 0 0 0 0 -15.032646865179402 102.39406654972117 0 102.39406654972117 14.194311651306634 0 0 0 0 -150.95888243916789 197.17288917002952 0 197.17288917002952 129.29376196849626 0 0 0 0 -42.65713118145095 117.39422365176142 0 117.39422365176142 104.48747742935666 0 0 0 0 13.920750023840071 72.520871186014119 0 72.520871186014119 89.044834936736152 0 0 0 0 36.299143086255114 56.445264987074786 0 56.445264987074786 66.287996742219377 0 0 0 0 9.2491380504081917 53.661850798762316 0 53.661850798762316 111.76929719358668 0 0 0 0 -41.398141005741806 -10.608287915787514 0 -10.608287915787514 320.47568222568225 0 0 0 0 -97.537815200499892 95.83731848273419 0 95.83731848273419 175.16912319387484 0 0 0 0 12.060957361101998 20.869801290638861 0 20.869801290638861 113.83907322819869 0 0 0 0 -176.63806150979235 -131.72702350273903 0 -131.72702350273903 1568.1301206916578 0 0 0 0 -105.95671400827723 316.6671189980334 0 316.6671189980334 1513.0482203408128 0 0 0 0 -129.45185950306131 90.542670810573327 0 90.542670810573327 1084.8229450709041 0 0 0 0 -227.54450352796175 228.70381254118911 0 228.70381254118911 1495.7149078185903 0 0 0 0 -296.79770004561487 207.42880185232207 0 207.42880185232207 1995.8430865890259 0 0 0 0 12.206835050788868 -394.17421652093981 0 -394.17421652093981 1775.1309110040384 0 0 0 0 -82.274245605270153 -49.067433802629239 0 -49.067433802629239 1563.5688705949287 0 0 0 0 -248.6080044866867 468.55646931657247 0 468.55646931657247 3112.5429216482516 0 0 0 0 90.080676443385528 -177.66855856215625 0 -177.66855856215625 1014.4156451943563 0 0 0 0 3.1645736775203659 124.67042832555671 0 124.67042832555671 343.3213541348814 0 0 0 0 160.22373753281659 -118.79908795354822 0 -118.79908795354822 563.87311160720856 0 0 0 0 -108.66202721998525 -56.313431471913646 0 -56.313431471913646 696.34657440581941 0 0 0 0 -60.16417939965504 31.581822875981743 0 31.581822875981743 872.59601233821741 0 0 0 0 -102.88566181415683 -182.68472133915293 0 -182.68472133915293 1041.735016035178 0 0 0 0 -199.93712363100667 -98.564203203291981 0 -98.564203203291981 699.82798895617634 0 0 0 0 -261.11750803857831 -97.835689180999907 0 -97.835689180999907 1009.0967602551827 0 0 0 0 -282.77712559103793 -130.4458855724065 0 -130.4458855724065 648.74653240850603 0 0 0 0 -283.87001595656488 -141.91723927362364 0 -141.91723927362364 848.67972106309026 0 0 0 0 -253.968496817919 -149.83455962349399 0 -149.83455962349399 660.40511244482332 0 0 0 0 -243.39008292572635 -28.875506308642798 0 -28.875506308642798 714.23541405350988 0 0 0 0 -269.41874772771837 23.842071894969195 0 23.842071894969195 884.64513368529151 0 0 0 0 -213.78111331149648 -4.6295085326419212 0 -4.6295085326419212 896.35919304423442 0 0 0 0 -125.33762387991555 211.57619670533313 0 211.57619670533313 925.41400315247392 0 0 0 0 -142.94031040595988 -56.955575659575288 0 -56.955575659575288 972.91401377452712 0 0 0 0 -65.783115423694653 239.81852773048013 0 239.81852773048013 1085.6286711331195 0 0 0 0 -214.09221788935338 130.972286201104 0 130.972286201104 1164.2705547871374 0 0 0 0 -197.57886663788349 202.81853778361256 0 202.81853778361256 1117.5020932957195 0 0 0 0 63.389306071726878 450.06966192295658 0 450.06966192295658 991.44821870126179 0 0 0 0 -77.972580413495507 530.09767811632628 0 530.09767811632628 1260.6533615668741 0 0 0 0 -249.11276443847714 90.424792101526691 0 90.424792101526691 827.03605377640633 0 0 0 0 -96.439497820078032 347.16700159695392 0 347.16700159695392 940.45213756925659 0 0 0 0 -52.868699939687303 341.04768867179519 0 341.04768867179519 749.75181278137279 0 0 0 0 -211.7581941154931 182.95409851214208 0 182.95409851214208 604.51849556046363 0 0 0 0 -227.1532410004429 471.36302463231914 0 471.36302463231914 585.90504207645427 0 0 0 0 211.73022092918609 754.25777749526605 0 754.25777749526605 906.46784973565809 0 0 0 0 168.29278987941143 448.12848566373577 0 448.12848566373577 247.21039241801191 0 0 0 0 198.8482266935689 862.31490361525357 0 862.31490361525357 1202.0637346996882 0 0 0 0 239.18122104662234 613.41638207125652 0 613.41638207125652 727.42695585927868 0 0 0 0 192.53302897930007 855.32134894053888 0 855.32134894053888 1194.7348572250266 0 0 0 0 257.41720548530338 968.38746712795546 0 968.38746712795546 1066.1246353992829 0 0 0 0 323.89300290370647 1131.5728077797103 0 1131.5728077797103 1343.7592615303074 0 0 0 0 309.47368660729944 1156.7397757341023 0 1156.7397757341023 1306.164275810137 0 0 0 0 208.69792751308796 1139.5304294084963 0 1139.5304294084963 1650.9866238121685 0 0 0 0 81.160227556213613 926.650348775569 0 926.650348775569 1306.450263127459 0 0 0 0 -107.66425540661749 733.5922499063854 0 733.5922499063854 1669.1725333904033 0 0 0 0 33.236042790709689 989.52080263260723 0 989.52080263260723 2081.2542728912404 0 0 0 0 24.023020102933515 674.92481862333807 0 674.92481862333807 1458.3870525921739 0 0 0 0 162.49479812647951 1179.7900285629876 0 1179.7900285629876 2505.1450318258794 0 0 0 0 113.24735184227029 1254.9713625907316 0 1254.9713625907316 3028.1199865156814 0 0 0 0 480.6783781915874 1502.9763322424769 0 1502.9763322424769 1936.5892619811784 0 0 0 0 5.2472954750010103 995.933518029271 0 995.933518029271 2318.9785584370256 0 0 0 0 695.06656117018065 1250.76185985146 0 1250.76185985146 1484.8180016442566 0 0 0 0 650.65797766464311 991.93702279255012 0 991.93702279255012 691.49542358116742 0 0 0 0 906.04749739437125 1453.3985461756138 0 1453.3985461756138 1292.8440756094788 0 0 0 0 292.6346480344946 1168.2302078745197 0 1168.2302078745197 1400.6302546012157 0 0 0 0 318.40387547116734 1191.0775278850633 0 1191.0775278850633 1395.092917283032 0 0 0 0 363.46518993016525 778.60770240483362 0 778.60770240483362 776.59046504623257 0 0 0 0 140.32650593799463 685.74861837630669 0 685.74861837630669 936.51281051525075 0 0 0 0 77.504026799782622 42.831934076755815 0 42.831934076755815 -7.4958391661176371 0 0 0 0 114.93532450207931 48.714557772138505 0 48.714557772138505 -70.458000909762632 0 0 0 0 70.646289991364029 85.339399610591499 0 85.339399610591499 66.437897097144742 0 0 0 0 190.71521698113338 733.35545006927714 0 733.35545006927714 1190.0182473481473 0 0 0 0 501.1812726289736 1280.6161164832156 0 1280.6161164832156 1320.0904829001956 0 0 0 0 -40.487744573576492 1074.7243180058649 0 1074.7243180058649 2616.3583018489444 0 0 0 0 193.40684265457207 794.23238491061147 0 794.23238491061147 1850.6153774743143 0 0 0 0 447.41252524882356 879.56234072941743 0 879.56234072941743 706.20971826843743 0 0 0 0 -249.28656639245855 697.70417289927718 0 697.70417289927718 599.13076906224887 0 0 0 0 457.17581476761984 980.0242091248856 0 980.0242091248856 172.67471417457273 0 0 0 0 754.41538876482446 1705.1601398512139 0 1705.1601398512139 1411.4626794217256 0 0 0 0 1849.6119012970294 3728.1102171303937 0 3728.1102171303937 2500.2523688914298 0 0 0 0 -391.25570509022964 628.59433282091049 0 628.59433282091049 4824.2581783455425 0 0 0 0 28.990242550211406 131.10295212353958 0 131.10295212353958 -112.29394075273922 0 0 0 0 63.896207767764167 38.695458811731555 0 38.695458811731555 -6.4709809109451299 0 0 0 0 -396.73759692944941 743.17852976625727 0 743.17852976625727 2430.4030283462453 0 0 0 0 -198.5405798220163 143.32636455170359 0 143.32636455170359 264.6290236578061 0 0 0 0 45.039629607432289 -38.114587275595113 0 -38.114587275595113 216.20530083723133 0 0 0 0 -259.66734675662519 255.3994233586418 0 255.3994233586418 510.54209079430439 0 0 0 0 -116.96418962152893 566.69597655222606 0 566.69597655222606 149.65187631455774 0 0 0 0 -32.825357081095717 65.581794401816296 0 65.581794401816296 -86.735058124046191 0 0 0 0 -328.71199410603731 361.5834469546171 0 361.5834469546171 608.69999362566887 0 0 0 0 -321.09179482089166 335.32673968766176 0 335.32673968766176 699.0827779780775 0 0 0 0 -245.42015985959006 209.08309432923124 0 209.08309432923124 660.8173137010599 0 0 0 0 -30.65792576392414 -159.97767278264655 0 -159.97767278264655 773.81271938882128 0 0 0 0 -507.75760061534311 -9.0191685686877463 0 -9.0191685686877463 788.44805494662251 0 0 0 0 -0.096387064314015447 -2.3232978440904404 0 -2.3232978440904404 13.30790551727415 0 0 0 0 683.76611344404228 -458.29983654355237 0 -458.29983654355237 225.93921961530577 0 0 0 0 117.26497018644477 111.21092842003054 0 111.21092842003054 113.57991682701686 0 0 0 0 54.395983140026146 107.05323126782605 0 107.05323126782605 85.217045871788287 0 0 0 0 295.36313104013061 -114.91302821476347 0 -114.91302821476347 181.01425825149636 0 0 0 0 405.82841568877666 270.63984065292607 0 270.63984065292607 -23.706372195360018 0 0 0 0 -8.1960892888673698 331.65833263847162 0 331.65833263847162 1019.8156312104011 0 0 0 0 720.70782739151855 1073.393915058492 0 1073.393915058492 972.58628246329044 0 0 0 0 36.545302394963755 81.735950454327394 0 81.735950454327394 467.64661840056942 0 0 0 0 348.64864352951918 -14.971048513518326 0 -14.971048513518326 -131.6587181430732 0 0 0 0 -42.553406975291068 -8.5013816657939003 0 -8.5013816657939003 21.577209528263218 0 0 0 0 -34.690072004652166 -5.1994946806000542 0 -5.1994946806000542 19.616446921716289 0 0 0 0 -19.862493757070752 6.1233486292985617 0 6.1233486292985617 65.046742990307393 0 0 0 0 -17.162186879367773 19.470612554685971 0 19.470612554685971 28.879497790997135 0 0 0 0 -692.45397420853442 237.4284205937729 0 237.4284205937729 463.60758775027352 0 0 0 0 3.1572721407933813 28.34891029099218 0 28.34891029099218 23.455934066047043 0 0 0 0 35.469445163938872 45.94677462769323 0 45.94677462769323 80.145727014547447 0 0 0 0 9.0565787501465564 12.121186062072013 0 12.121186062072013 18.921621950696036 0 0 0 0 -6.7992199665350199 80.68607351470564 0 80.68607351470564 32.853635650404613 0 0 0 0 -8.661437557150748 5.7121231936180266 0 5.7121231936180266 62.291581613055314 0 0 0 0 -0.040863759498314778 -0.59628690510723459 0 -0.59628690510723459 -0.87673735222097093 0 0 0 0 0.58138621215903186 63.481084581973846 0 63.481084581973846 -90.901597581614624 0 0 0 0 901.99427248098982 -414.77830932334473 0 -414.77830932334473 311.29855318806949 0 0 0 0 -518.1012135979754 554.43016288699437 0 554.43016288699437 3630.6276439336361 0 0 0 0 1315.9130743691805 3487.378598639245 0 3487.378598639245 3872.4269382421917 0 0 0 0 -492.38926222530245 1141.039083278416 0 1141.039083278416 1871.7314732260129 0 0 0 0 354.86091243395185 1914.3256526613623 0 1914.3256526613623 1846.0741923797432 0 0 0 0 1783.1401036669413 862.41774122748757 0 862.41774122748757 1293.9543951047381 0 0 0 0 15.991143149791743 10.71603014534557 0 10.71603014534557 1.6622229889981384 0 0 0 0 922.28716942860228 645.8370263150282 0 645.8370263150282 -3208.7469407661411 0 0 0 0 -1022.9284579998205 2257.2755745435352 0 2257.2755745435352 7978.6370380964217 0 0 0 0 -376.59515682288088 -426.96727934911178 0 -426.96727934911178 5271.9746600743892 0 0 0 0 655.82650189084006 1335.3115232556083 0 1335.3115232556083 3036.1998463385971 0 0 0 0 -25.600737744671854 9.63872313180417 0 9.63872313180417 11.574265911958026 0 0 0 0 41.799538135921068 22.097378333291431 0 22.097378333291431 5.1720287776005449 0 0 0 0 72.026945136694849 287.11763960964163 0 287.11763960964163 -19.317447137684212 0 0 0 0 -32.778665897041265 132.62173570235609 0 132.62173570235609 -224.28402826683305 0 0 0 0 -112.32785042784531 100.46011184695453 0 100.46011184695453 -530.65630344950478 0 0 0 0 -99.500760610279031 177.02931251965492 0 177.02931251965492 -137.20359553519665 0 0 0 0 -72.013352329149711 476.76081277114281 0 476.76081277114281 -263.58201977573481 0 0 0 0 -272.4981080761363 -132.20538635951198 0 -132.20538635951198 429.33279716227116 0 0 0 0 16.134419212077862 8.0854004886066662 0 8.0854004886066662 6.2139388777970126 0 0 0 0 -9.7495712863167654 -0.028745732659146483 0 -0.028745732659146483 0.2659916663957631 0 0 0 0 133.32678261000137 248.80811258062022 0 248.80811258062022 -1441.2751121784822 0 0 0 0 -50.025959044150113 901.93079024824692 0 901.93079024824692 -948.06852165707096 0 0 0 0 -294.65766481859828 978.98252283913462 0 978.98252283913462 -360.99004856401007 0 0 0 0 44.895873177461226 30.622616186958268 0 30.622616186958268 -2.2623407692637336 0 0 0 0 135.3008422437224 314.83798360934088 0 314.83798360934088 -878.87353695157071 0 0 0 0 -22.149116004059579 677.50932728523912 0 677.50932728523912 7544.9838541306744 0 0 0 0 2014.7894581147839 1740.5133853705192 0 1740.5133853705192 5153.277544781944 0 0 0 0 -230.71759247704358 662.00303746781719 0 662.00303746781719 -298.18578804402205 0 0 0 0 -127.5787918425176 338.48085508183067 0 338.48085508183067 -11.484541956160683 0 0 0 0 -90.286389447607405 245.77003264601171 0 245.77003264601171 601.82146659337741 0 0 0 0 -455.9499655337313 406.54985663214757 0 406.54985663214757 1317.5540836725559 0 0 0 0 -130.63237805394419 841.4627912866199 0 841.4627912866199 493.62953434947121 0 0 0 0 -671.52355133455967 941.40346991088154 0 941.40346991088154 2463.027043926144 0 0 0 0 -253.96806508455688 409.17541001849531 0 409.17541001849531 263.9956397417991 0 0 0 0 -25.873223825028617 1151.42079760661 0 1151.42079760661 -177.2916791390162 0 0 0 0 -394.65797789627118 -72.972641901204042 0 -72.972641901204042 -966.20536107073713 0 0 0 0 264.60684828147623 2399.835379464952 0 2399.835379464952 -765.49068460660055 0 0 0 0 340.55596575124287 1521.1056149011638 0 1521.1056149011638 595.00432127641398 0 0 0 0 5.9881645748951087 1106.3452461703127 0 1106.3452461703127 763.13871757214292 0 0 0 0 27.418199183019624 1239.0627070057017 0 1239.0627070057017 1573.6651038843338 0 0 0 0 2730.1707376641357 958.85246119884687 0 958.85246119884687 579.29380161812878 0 0 0 0 809.8507730389814 2363.4876842629437 0 2363.4876842629437 2934.5786565278031 0 0 0 0 1308.4414285132366 911.64021198059072 0 911.64021198059072 163.75434507441241 0 0 0 0 1190.6324938978521 1766.723338919357 0 1766.723338919357 665.58665223073331 0 0 0 0 326.08235392791448 565.26352554868208 0 565.26352554868208 339.47498456668109 0 0 0 0 -468.87231114641651 -708.01113988247289 0 -708.01113988247289 703.03379814466462 0 0 0 0 1.7910669528612089 13.113496958929538 0 13.113496958929538 36.285221076095013 0 0 0 0 -1007.7752385519407 406.7423562156182 0 406.7423562156182 3014.3203040133772 0 0 0 0 -705.49483689874137 288.25291860775178 0 288.25291860775178 184.62113645037607 0 0 0 0 -264.64224093588655 32.487235826869437 0 32.487235826869437 111.84417999926518 0 0 0 0 0.68466261134685169 1.8243162640719959 0 1.8243162640719959 3.8008529077928301 0 0 0 0 -992.3238172914771 617.27125707088908 0 617.27125707088908 -304.49302351662482 0 0 0 0 -93.228865247696376 -931.81381343846442 0 -931.81381343846442 3355.201623939276 0 0 0 0 -228.45399656752363 238.26930518225527 0 238.26930518225527 1173.9082188430621 0 0 0 0 -291.62729954822407 28.558602466579032 0 28.558602466579032 379.35577885597013 0 0 0 0 1.3370819894384667 10.23633561064878 0 10.23633561064878 10.633595552727257 0 0 0 0 -35.644958168784797 222.142601125277 0 222.142601125277 -126.67825842770981 0 0 0 0 -193.79324062041724 260.29845804667639 0 260.29845804667639 347.25620848253311 0 0 0 0 -184.27975757893 75.676584861725132 0 75.676584861725132 980.39648967812536 0 0 0 0 -220.67259312725764 610.02863369117404 0 610.02863369117404 1027.8370431924577 0 0 0 0 -310.88498489013818 379.71716989292327 0 379.71716989292327 761.75063324153598 0 0 0 0 -467.22153816513207 -60.959000053378986 0 -60.959000053378986 246.08058683700801 0 0 0 0 -248.28531318411115 335.29218242839852 0 335.29218242839852 215.66621839806612 0 0 0 0 -616.30413873950556 -80.662469199323823 0 -80.662469199323823 9.9002707463369006 0 0 0 0 -1306.7909449305339 227.11365897271025 0 227.11365897271025 456.68432939719787 0 0 0 0 -3126.822281699584 -860.71953983543244 0 -860.71953983543244 2161.8298933205369 0 0 0 0 -1.8799698558774285 10.51637611590462 0 10.51637611590462 69.19883306055317 0 0 0 0 335.21404790377255 330.01261297592646 0 330.01261297592646 -1222.3313798673189 0 0 0 0 -792.01145489898045 166.98512976104394 0 166.98512976104394 977.16441227747418 0 0 0 0 389.56400299381494 936.33497315047862 0 936.33497315047862 1057.3099151304341 0 0 0 0 1266.5084892567747 239.02016607538917 0 239.02016607538917 -270.64501054256107 0 0 0 0 1384.5036351316012 1124.0674969563115 0 1124.0674969563115 -770.05728359194472 0 0 0 0 1003.6537291136083 629.3410345340817 0 629.3410345340817 815.11861652817606 0 0 0 0 835.0233424463313 417.82440230793691 0 417.82440230793691 3278.9995775455172 0 0 0 0 -340.87068182626535 897.47663841932808 0 897.47663841932808 1847.0703181146964 0 0 0 0 -90.036206647578183 -718.45555814846739 0 -718.45555814846739 1946.350002807274 0 0 0 0 -430.21891806777967 138.82205063130823 0 138.82205063130823 1004.3912310799642 0 0 0 0 -424.01783808587061 71.587156486704771 0 71.587156486704771 958.94321135144855 0 0 0 0 -425.54233125922292 1.5280327653890708 0 1.5280327653890708 1404.6200479690815 0 0 0 0 7.3537024694042898 14.4668318806483 0 14.4668318806483 11.775207652833728 0 0 0 0 -752.949155499482 820.39075544213119 0 820.39075544213119 197.18107933751162 0 0 0 0 84.685751423904549 259.43867220666652 0 259.43867220666652 539.13836352211365 0 0 0 0 -135.53849674768753 39.95565796671508 0 39.95565796671508 655.66785035326029 0 0 0 0 273.05788759871211 531.21105756779434 0 531.21105756779434 954.86785213126859 0 0 0 0 -169.07312331110006 -8.9594420914072543 0 -8.9594420914072543 1154.4638588232847 0 0 0 0 -221.74610218970702 -70.401133835985092 0 -70.401133835985092 1880.9235612358825 0 0 0 0 -125.09974120319748 85.972243027070363 0 85.972243027070363 1228.4841751741187 0 0 0 0 -251.91093553053088 101.04905725792378 0 101.04905725792378 2648.3433224278706 0 0 0 0 689.91236511289389 1865.6164118891465 0 1865.6164118891465 -1808.5662442043758 0 0 0 0 7.2076193162329218 5.9170320068188573 0 5.9170320068188573 3.3168267553424471 0 0 0 0 -204.45982684343107 302.67367692833795 0 302.67367692833795 1308.4219721330301 0 0 0 0 216.0238146663296 729.2545673194727 0 729.2545673194727 -220.72926714934874 0 0 0 0 84.606575878227886 1454.8473842607782 0 1454.8473842607782 -419.79703281037655 0 0 0 0 554.53706146302284 1190.6489865461626 0 1190.6489865461626 827.13070892974793 0 0 0 0 1041.9207113492466 476.96636936740833 0 476.96636936740833 -379.08343837840948 0 0 0 0 -96.295795145888405 259.05493640067289 0 259.05493640067289 745.00296300773152 0 0 0 0 -13.440123924021783 -2.5276699136305396 0 -2.5276699136305396 77.370251113203835 0 0 0 0 -225.89862558666209 -551.98278540773026 0 -551.98278540773026 -65.989115951684653 0 0 0 0 -881.84054010879481 -112.91344823085819 0 -112.91344823085819 -110.14806243696512 0 0 0 0 -1235.8548305975382 -896.25013863361528 0 -896.25013863361528 89.382416474605634 0 0 0 0 -313.87597441036996 -517.91678023948043 0 -517.91678023948043 142.80756813549669 0 0 0 0 -359.24749558275562 -594.11340230568567 0 -594.11340230568567 1714.2301622573941 0 0 0 0 -867.52246889227172 -264.41139400737302 0 -264.41139400737302 885.32374295941554 0 0 0 0 -471.0920202549446 -409.18675355056985 0 -409.18675355056985 224.36829656238842 0 0 0 0 -644.04830733668859 -930.42068785739684 0 -930.42068785739684 319.43484634773631 0 0 0 0 -956.64215601191972 -314.86182573991391 0 -314.86182573991391 496.36336213097093 0 0 0 0 -177.81039286335363 56.791652442858322 0 56.791652442858322 369.5763081493933 0 0 0 0 -4.3484601410822776 -10.618587470594026 0 -10.618587470594026 91.941061608218689 0 0 0 0 -7.4482017817287485 10.967574372407086 0 10.967574372407086 12.342310282488853 0 0 0 0 -541.70253941263218 -300.60406791071 0 -300.60406791071 26.441751492413459 0 0 0 0 -330.30681032333814 -861.24904574207903 0 -861.24904574207903 36.141632298771583 0 0 0 0 2202.1034979155302 1196.6851360474466 0 1196.6851360474466 705.41510589698737 0 0 0 0 2.1722401287766608 -0.020072045300906893 0 -0.020072045300906893 32.374677737647914 0 0 0 0 707.14889682821013 -1333.9849012929444 0 -1333.9849012929444 332.90591088319343 0 0 0 0 1301.6664724504335 -497.7746012615753 0 -497.7746012615753 -0.58925361760339001 0 0 0 0 -1868.7289928252458 -247.60317819049305 0 -247.60317819049305 896.69501347001642 0 0 0 0 -1012.9562863521423 -1718.9651211043802 0 -1718.9651211043802 1372.3505892955727 0 0 0 0 -4.4123453468645089 6.4050591100875351 0 6.4050591100875351 42.829236661457571 0 0 0 0 641.39809144993342 2814.1905941610821 0 2814.1905941610821 952.25190894246043 0 0 0 0 2449.919119993363 -595.59665156787378 0 -595.59665156787378 2813.1371738432208 0 0 0 0 606.87389228698066 -555.55216116288466 0 -555.55216116288466 523.86963808050496 0 0 0 0 340.80765784377763 -996.08865284610874 0 -996.08865284610874 611.14477948153944 0 0 0 0 236.13614350043281 -692.03234198295104 0 -692.03234198295104 495.74510351129902 0 0 0 0 -201.63277468917295 -784.85532232780679 0 -784.85532232780679 663.05416455892191 0 0 0 0 62.184806598470459 -808.39143188638991 0 -808.39143188638991 456.26121407542814 0 0 0 0 -48.211997293812601 -490.28898448652762 0 -490.28898448652762 133.66782032747869 0 0 0 0 -877.86373509021905 -435.56566760723945 0 -435.56566760723945 1424.1287183074564 0 0 0 0 -1381.3694187690198 472.70710496806714 0 472.70710496806714 533.38955580741276 0 0 0 0 270.3780414429234 393.26963852629706 0 393.26963852629706 1316.1197041511768 0 0 0 0 246.64898892724477 586.07531129448171 0 586.07531129448171 -226.34292516497953 0 0 0 0 918.58358040684834 -1052.4993299983798 0 -1052.4993299983798 397.219963622043 0 0 0 0 -1.8102230145105622 1.7662837674681384 0 1.7662837674681384 18.868819604523139 0 0 0 0 -583.91311885608957 1297.5879781150034 0 1297.5879781150034 545.80271360131155 0 0 0 0 32.214109643939082 553.72210306932175 0 553.72210306932175 1397.4566211868223 0 0 0 0 61.078081531251883 654.92663213254127 0 654.92663213254127 144.46586727592876 0 0 0 0 -446.49345078016813 310.77895811718554 0 310.77895811718554 279.28155595067074 0 0 0 0 -12.661269905226618 -59.836919049106655 0 -59.836919049106655 -63.885451926136739 0 0 0 0 205.34244330188449 461.70336023966593 0 461.70336023966593 401.32595115997538 0 0 0 0 6.8396338802117249 31.141118547995646 0 31.141118547995646 109.46621256592076 0 0 0 0 -1002.2681743787907 3955.7874471507002 0 3955.7874471507002 5238.5212556371753 0 0 0 0 1391.8920956158477 -2070.4616370121712 0 -2070.4616370121712 -473.45215784651373 0 0 0 0 931.63108265659639 -3263.708513436417 0 -3263.708513436417 -624.40575145790717 0 0 0 0 1625.9690762166717 1569.8746405335805 0 1569.8746405335805 1484.6761518510466 0 0 0 0 0.69419841214776723 -4.1834384594129936 0 -4.1834384594129936 56.90269642675139 0 0 0 0 710.55877502173939 -3596.3244105280373 0 -3596.3244105280373 1445.4111321056989 0 0 0 0 0.19145427783872293 6.3720861022674171 0 6.3720861022674171 51.257124695120268 0 0 0 0 1189.7275887061951 846.27946613514359 0 846.27946613514359 517.93686517571041 0 0 0 0 1004.6373896654586 1030.0234801462793 0 1030.0234801462793 287.3967130176934 0 0 0 0 833.85843774564955 150.1772028938567 0 150.1772028938567 -273.06718585216731 0 0 0 0 -19.388652537673806 -434.80577453036858 0 -434.80577453036858 384.92871604150423 0 0 0 0 180.20970045801369 -688.89915488909537 0 -688.89915488909537 393.29602478558081 0 0 0 0 -1.7792789941390765 -553.09473123289536 0 -553.09473123289536 1101.3913834981649 0 0 0 0 72.632533889878687 -43.549249039071583 0 -43.549249039071583 1700.8663181371858 0 0 0 0 236.22068009523173 -1065.8159063466846 0 -1065.8159063466846 1247.6127823884599 0 0 0 0 434.05140663445491 -1109.0042273889703 0 -1109.0042273889703 153.67357597431464 0 0 0 0 263.77249702222434 -1833.450626028005 0 -1833.450626028005 2950.3196450429459 0 0 0 0 131.3066515874425 836.4113062833203 0 836.4113062833203 4114.6672581255789 0 0 0 0 659.75270786203328 1227.5968782487289 0 1227.5968782487289 1709.416893383222 0 0 0 0 -56.326835822427256 112.59714984218226 0 112.59714984218226 1513.9303373804432 0 0 0 0 -51.317326660569051 43.007694937916312 0 43.007694937916312 1063.5889592089552 0 0 0 0 50.823563171018577 -198.70697208374622 0 -198.70697208374622 618.1004790089828 0 0 0 0 575.6707619462577 416.68673738331563 0 416.68673738331563 353.37141075249747 0 0 0 0 973.69778055935421 696.54063771747678 0 696.54063771747678 522.40969511141157 0 0 0 0 658.41280839340288 907.13767411190747 0 907.13767411190747 830.43341928142399 0 0 0 0 546.553500247388 790.9565144364351 0 790.9565144364351 713.07617211978868 0 0 0 0 491.61202865111466 732.50987589374654 0 732.50987589374654 752.76348008420609 0 0 0 0 1133.1428698743146 720.57102634535659 0 720.57102634535659 154.67616474977694 0 0 0 0 601.28740039150625 124.56333962501617 0 124.56333962501617 -11.683381383772939 0 0 0 0 149.05035672824988 -95.136107190501207 0 -95.136107190501207 62.552852204626106 0 0 0 0 109.38432717144633 136.43046673121171 0 136.43046673121171 1088.8338774685953 0 0 0 0 13.086820443931382 6.7216006970469451 0 6.7216006970469451 0.25340896469287344 0 0 0 0 361.1189317811486 1124.5001466145768 0 1124.5001466145768 357.39554278959258 0 0 0 0 852.00359044184779 244.03609171895937 0 244.03609171895937 -461.73326649715455 0 0 0 0 3640.8778545665991 1137.0272142620961 0 1137.0272142620961 -18.375435788067989 0 0 0 0 3519.304326568843 -2300.3031172288538 0 -2300.3031172288538 1892.7536988359025 0 0 0 0 345.02898689115682 1192.1008494481393 0 1192.1008494481393 3688.7443783895724 0 0 0 0 -287.74299728389155 74.113969029582222 0 74.113969029582222 575.49675240038596 0 0 0 0 -785.68897613534182 2849.4611766067064 0 2849.4611766067064 3110.9233067477908 0 0 0 0 -3390.3222132431329 1317.2820736562353 0 1317.2820736562353 2769.0286937497731 0 0 0 0 -4848.107649851876 -748.98092418658052 0 -748.98092418658052 2191.7516219890967 0 0 0 0 -4.0492825004267718 1.454506812284734 0 1.454506812284734 139.7527118101502 0 0 0 0 1142.0412437376456 1057.9686133860778 0 1057.9686133860778 -90.525507047219435 0 0 0 0 1053.8274315070994 -2178.7915278572764 0 -2178.7915278572764 -3132.6568603805208 0 0 0 0 1002.6624502758896 1095.244738309586 0 1095.244738309586 -75.195882294668991 0 0 0 0 857.60080722183193 413.92408199271449 0 413.92408199271449 -727.0245483207982 0 0 0 0 1204.2287484505741 1103.4421070433527 0 1103.4421070433527 158.87517845569528 0 0 0 0 709.99091827548546 -805.39873486619763 0 -805.39873486619763 1107.434546481265 0 0 0 0 2545.4624063618357 -56.175663139005337 0 -56.175663139005337 -113.62427523128281 0 0 0 0 272.20842366501165 108.51908667640237 0 108.51908667640237 3.7613768738228828 0 0 0 0 -165.49608376895776 -30.291454276033619 0 -30.291454276033619 50.990441715883208 0 0 0 0 -869.11346730849073 786.29132104305972 0 786.29132104305972 176.32784885834553 0 0 0 0 -0.44388636734313103 3.8216722111081296 0 3.8216722111081296 22.143855915824531 0 0 0 0 784.82617175099222 -249.50628324296122 0 -249.50628324296122 -40.769234214691096 0 0 0 0 -265.35409712262481 -164.08411915296892 0 -164.08411915296892 -123.48533496507298 0 0 0 0 6.9195111018608788 34.001842755412191 0 34.001842755412191 157.8253252036304 0 0 0 0 -64.51519068157053 -83.486075674396318 0 -83.486075674396318 91.674498258584208 0 0 0 0 328.03513110994754 -282.15042129669382 0 -282.15042129669382 -159.44891650049249 0 0 0 0 -1296.2956229467773 2639.8067069837016 0 2639.8067069837016 976.03699352819604 0 0 0 0 122.3276733682676 285.6443218780305 0 285.6443218780305 -53.323233305829604 0 0 0 0 -1078.5705531540771 582.90353386164259 0 582.90353386164259 73.500163295213639 0 0 0 0 9.8731275451516147 30.435998300575758 0 30.435998300575758 -7.9723202849138639 0 0 0 0 -486.84978077236337 420.88505955014989 0 420.88505955014989 -68.167721593330498 0 0 0 0 90.684932234961252 370.63044541835552 0 370.63044541835552 -248.28420098793731 0 0 0 0 22.041215031932879 51.321850081495342 0 51.321850081495342 31.966578467303407 0 0 0 0 25.654171552333935 79.232605048867896 0 79.232605048867896 146.70501453921761 0 0 0 0 -125.33954017450742 121.86658860817261 0 121.86658860817261 -387.11637380388856 0 0 0 0 -43.610481112387561 324.45020227099394 0 324.45020227099394 -420.75018502447256 0 0 0 0 16.785695487096916 15.192711426215158 0 15.192711426215158 29.230570536791987 0 0 0 0 -88.98816777215427 531.7979761779352 0 531.7979761779352 -218.18601300311093 0 0 0 0 -431.28654323484693 369.2297948317464 0 369.2297948317464 -217.75118159681278 0 0 0 0 -133.55613677151473 753.9020838434576 0 753.9020838434576 5.9235371310846858 0 0 0 0 514.14909736491245 463.50247852988332 0 463.50247852988332 -399.82613892183394 0 0 0 0 454.46934180239759 53.431973534000917 0 53.431973534000917 792.33025709346157 0 0 0 0 246.59727891934926 849.34970736560467 0 849.34970736560467 774.50460025213943 0 0 0 0 693.37113505661546 493.79820665603165 0 493.79820665603165 1197.5706331626134 0 0 0 0 -262.08866393843209 599.33273913150128 0 599.33273913150128 -266.47186148085791 0 0 0 0 -151.40999130429987 288.50033322516856 0 288.50033322516856 -7.2063383159174563 0 0 0 0 -553.27182677867927 253.85904037620548 0 253.85904037620548 585.81526285021027 0 0 0 0 -610.71692817292319 -57.221940768853926 0 -57.221940768853926 2159.7491164204512 0 0 0 0 418.5976410742303 -221.00498234778479 0 -221.00498234778479 897.11649876866454 0 0 0 0 1080.5027966342032 662.41447093611396 0 662.41447093611396 1983.3412653596188 0 0 0 0 889.90949374456068 -1943.4055787349898 0 -1943.4055787349898 3410.34387214245 0 0 0 0 1872.3422617983852 -822.22407515293457 0 -822.22407515293457 1948.9866795097478 0 0 0 0 112.72341930618131 44.061520349554485 0 44.061520349554485 24.251553248187292 0 0 0 0 25.180853915888068 49.586328317646213 0 49.586328317646213 7.0146718824796359 0 0 0 0 -388.29517965081277 514.76026442482407 0 514.76026442482407 286.5558171765565 0 0 0 0 -1.266092137387945 2.3202547317952646 0 2.3202547317952646 -0.9375933118135471 0 0 0 0 935.51178289371467 451.627104207927 0 451.627104207927 27.590720173770933 0 0 0 0 -1997.8291205638729 65.326766926167238 0 65.326766926167238 1049.4742832042334 0 0 0 0 -81.254595403180247 317.67079045580613 0 317.67079045580613 872.27438548342229 0 0 0 0 -189.03965508294505 -23.229640355770528 0 -23.229640355770528 51.336160455355639 0 0 0 0 -411.75263367334355 -220.3544761989333 0 -220.3544761989333 770.43295771923817 0 0 0 0 1.3560336755904601 3.1749805921658076 0 3.1749805921658076 13.494704010581327 0 0 0 0 -365.2848554268794 -403.53706447619379 0 -403.53706447619379 1138.2656935236027 0 0 0 0 1361.8617559108725 -132.44302897411251 0 -132.44302897411251 -215.46259175421801 0 0 0 0 -613.57611577870193 620.16829863427756 0 620.16829863427756 523.76925595253942 0 0 0 0 351.35887226405725 -570.98810273660888 0 -570.98810273660888 -258.20479788169177 0 0 0 0 -505.42638087880368 -1253.5478157940233 0 -1253.5478157940233 284.7639662984293 0 0 0 0 49.323572114830938 109.45867014407879 0 109.45867014407879 167.12184569453902 0 0 0 0 -160.74829024946666 462.68164310744032 0 462.68164310744032 -25.419986372813582 0 0 0 0 160.60568696533301 472.63077796455946 0 472.63077796455946 -354.47755952024727 0 0 0 0 -1057.6168458285101 582.86309272618382 0 582.86309272618382 285.69308200944215 0 0 0 0 631.62522400965281 567.99590988575801 0 567.99590988575801 263.45953632727469 0 0 0 0 433.02852734139015 424.72994036092132 0 424.72994036092132 227.27714599760657 0 0 0 0 373.14816921734746 235.37480562950077 0 235.37480562950077 87.856238280597609 0 0 0 0 1228.0984376839187 88.489590522964136 0 88.489590522964136 -13.475439861242194 0 0 0 0 -335.46254721739024 26.782163891695745 0 26.782163891695745 85.487058681523195 0 0 0 0 -303.11847168914755 911.21100786759553 0 911.21100786759553 269.44566399993118 0 0 0 0 13.902036737054331 -5.1884728994012903 0 -5.1884728994012903 -4.27596875108582 0 0 0 0 1281.8142987502288 883.44542814955639 0 883.44542814955639 -642.02711376818479 0 0 0 0 -91.216262444888343 88.874644425959559 0 88.874644425959559 -161.61334950267337 0 0 0 0 79.371416748084002 128.66678259778928 0 128.66678259778928 180.3229704533247 0 0 0 0 -305.02892187679072 -286.47343966821791 0 -286.47343966821791 142.66315370587108 0 0 0 0 48.2375543334973 21.882054067767854 0 21.882054067767854 -49.607838667684291 0 0 0 0 522.32212020370412 107.2333472124792 0 107.2333472124792 -45.189116189969354 0 0 0 0 573.34985047617192 250.19379213438515 0 250.19379213438515 -327.88825970671678 0 0 0 0 65.18826575550338 54.058919627255818 0 54.058919627255818 3.3767939133049367 0 0 0 0 84.845444093111979 36.317675845394476 0 36.317675845394476 -23.866704391817787 0 0 0 0 294.2610450457214 -75.158580668059585 0 -75.158580668059585 -369.51788582833251 0 0 0 0 497.42072370971073 433.90648825441895 0 433.90648825441895 190.11489596575848 0 0 0 0 15.34580831283105 0.040140188945279931 0 0.040140188945279931 15.01457355433223 0 0 0 0 505.2944673616912 445.30060163266171 0 445.30060163266171 204.78732523339568 0 0 0 0 198.33755788728013 1025.5677230587753 0 1025.5677230587753 1878.3354435949732 0 0 0 0 1219.2661577003091 1300.1011208348282 0 1300.1011208348282 389.34126490469862 0 0 0 0 -201.22594023564307 -1120.8431426874449 0 -1120.8431426874449 1252.138877528123 0 0 0 0 1.464654675165562 -8.5601304087026264 0 -8.5601304087026264 21.574367599510595 0 0 0 0 -5.3892772907565814 12.431698497763136 0 12.431698497763136 84.36862791979911 0 0 0 0 134.07731922409948 1226.3629090660761 0 1226.3629090660761 1625.3968433469272 0 0 0 0 904.76385633675454 1150.5933189909847 0 1150.5933189909847 148.75189859321108 0 0 0 0 -3.886543776938197 -953.24136107281447 0 -953.24136107281447 1474.0774401997623 0 0 0 0 -264.52746866777306 -142.46963587401842 0 -142.46963587401842 2297.8893388326178 0 0 0 0 -1.3323714919547989 4.857419456559299 0 4.857419456559299 23.58181061808034 0 0 0 0 -621.68821365852637 2606.0528007299654 0 2606.0528007299654 1222.7903603684244 0 0 0 0 -212.22789080401708 -677.82482533334405 0 -677.82482533334405 1119.1690547824837 0 0 0 0 -224.66738120313676 -227.06249210747774 0 -227.06249210747774 832.87826974774362 0 0 0 0 -63.656895821506623 -726.13682966091437 0 -726.13682966091437 675.67943719013419 0 0 0 0 163.16351363366994 -583.70401862879226 0 -583.70401862879226 339.06249962215952 0 0 0 0 -171.88753243148312 35.915988543969434 0 35.915988543969434 73.017769261670765 0 0 0 0 134.03738904053534 -129.79719161724643 0 -129.79719161724643 -115.34302880695031 0 0 0 0 48.400097769885178 -385.42640179296723 0 -385.42640179296723 481.32022909157968 0 0 0 0 -105.74327225774323 233.13388268492417 0 233.13388268492417 -54.920392999985779 0 0 0 0 -76.470961130151409 -40.726581164039089 0 -40.726581164039089 231.89256299421686 0 0 0 0 47.569007383641292 -10.260013690807682 0 -10.260013690807682 -35.408307930425508 0 0 0 0 -358.30850637555614 163.55300840525524 0 163.55300840525524 142.0006459387223 0 0 0 0 -165.27357499769278 134.81670842377935 0 134.81670842377935 256.98851010193175 0 0 0 0 181.89471100506853 261.91089549784374 0 261.91089549784374 271.45017786091194 0 0 0 0 478.56998747284888 462.04422812918347 0 462.04422812918347 253.72988855563017 0 0 0 0 172.22207163675193 291.13227112792083 0 291.13227112792083 508.58135721489089 0 0 0 0 38.522996475447144 324.30612342679524 0 324.30612342679524 524.58959395844431 0 0 0 0 -34.293344883039026 -139.78314059002878 0 -139.78314059002878 457.14095799448842 0 0 0 0 -13.452382690411469 -0.44707906366966199 0 -0.44707906366966199 1023.7552739465609 0 0 0 0 -85.763863325149899 263.86908668219621 0 263.86908668219621 1086.3231939079415 0 0 0 0 162.47664741411535 553.40531385892973 0 553.40531385892973 1172.3820671071426 0 0 0 0 838.23517739161275 1257.3066038358884 0 1257.3066038358884 1398.8651575093936 0 0 0 0 189.77868170243664 26.929275793678244 0 26.929275793678244 603.82638540105836 0 0 0 0 75.616558217034481 365.23021403281746 0 365.23021403281746 -24.953493059612811 0 0 0 0 528.36023804390049 696.48864560046059 0 696.48864560046059 1055.6932633283141 0 0 0 0 602.96635109042131 -59.907243297187961 0 -59.907243297187961 258.11548625289288 0 0 0 0 -1.0894693653964962 0.7937297798245595 0 0.7937297798245595 -0.75161570668933564 0 0 0 0 -82.095985898906974 -589.52590524160769 0 -589.52590524160769 1210.1059617847204 0 0 0 0 -195.77960123239433 -339.41725659336953 0 -339.41725659336953 508.18685583051411 0 0 0 0 -218.88256235636049 -19.077595945767825 0 -19.077595945767825 569.3826044985326 0 0 0 0 -1.5267919203720597 -7.2441177213423771 0 -7.2441177213423771 43.788362643702044 0 0 0 0 -447.21470347075547 552.88057817863591 0 552.88057817863591 -2359.2876809262088 0 0 0 0 -432.7870034855606 -158.26992072860719 0 -158.26992072860719 365.56771376734832 0 0 0 0 -132.89157947469403 -140.87398658692837 0 -140.87398658692837 -109.68179438094376 0 0 0 0 677.26290719541942 966.56330048233212 0 966.56330048233212 529.54783941504502 0 0 0 0 369.00506496204235 -395.18285827024374 0 -395.18285827024374 123.59685551849543 0 0 0 0 944.20932530742891 382.94189892242866 0 382.94189892242866 1277.0413552038081 0 0 0 0 289.86741084018661 826.74815494200084 0 826.74815494200084 3751.1034364320658 0 0 0 0 -87.27503446997855 1353.9959993821494 0 1353.9959993821494 3921.7606146809994 0 0 0 0 -98.334480315215046 1487.4078858276466 0 1487.4078858276466 3783.167714133102 0 0 0 0 978.57809268341794 1891.4543555085875 0 1891.4543555085875 3240.6148475625523 0 0 0 0 61.249413629345554 2472.5116701988809 0 2472.5116701988809 1604.1581497285079 0 0 0 0 0.54874626448244812 6.9174045568626639 0 6.9174045568626639 24.239912064056739 0 0 0 0 -599.468758348042 151.80269316556951 0 151.80269316556951 3737.2863730106692 0 0 0 0 0.15528361150714115 127.54974983689499 0 127.54974983689499 642.82491291737824 0 0 0 0 -1.1980173283207063 7.5924863771940991 0 7.5924863771940991 51.508041296987244 0 0 0 0 -2217.4363796150069 165.19653939950149 0 165.19653939950149 1348.1601632696111 0 0 0 0 388.02247706989385 -2441.6472710072776 0 -2441.6472710072776 2063.4046950458433 0 0 0 0 -635.78005567714774 -2302.3231043587512 0 -2302.3231043587512 5489.6320907176851 0 0 0 0 462.58894042641737 -2940.8230786720778 0 -2940.8230786720778 3682.9038144043734 0 0 0 0 -169.87915890790362 1530.6268761468964 0 1530.6268761468964 5447.8451708742068 0 0 0 0 -0.4398263123155286 -0.30055430438802944 0 -0.30055430438802944 27.707000778554459 0 0 0 0 -780.33733996726164 -568.50432922241453 0 -568.50432922241453 3292.2188028183882 0 0 0 0 -1143.3340345340916 -1065.8895585521241 0 -1065.8895585521241 5499.7950111929968 0 0 0 0 -948.85563698613555 -1318.9609009809064 0 -1318.9609009809064 3418.6162583024561 0 0 0 0 -244.40198838880679 311.79057695939264 0 311.79057695939264 650.59959423473265 0 0 0 0 177.44397203907715 -0.91745567847101483 0 -0.91745567847101483 2984.7025749682507 0 0 0 0 265.29293090740066 -786.78896995925788 0 -786.78896995925788 1737.6025807969854 0 0 0 0 58.766131313078176 -175.47937181757879 0 -175.47937181757879 28.82056947813544 0 0 0 0 871.63409760290608 933.37582761493104 0 933.37582761493104 1383.0210530629702 0 0 0 0 662.4611701326404 850.16446030905354 0 850.16446030905354 2019.6499154181802 0 0 0 0 694.19262262790164 1346.2181597000381 0 1346.2181597000381 2189.679510692833 0 0 0 0 683.26450549007654 1021.5121480486341 0 1021.5121480486341 2784.0969521464867 0 0 0 0 319.70980547726225 296.99458108161343 0 296.99458108161343 2627.9651920865545 0 0 0 0 341.00809015367247 648.70227515193756 0 648.70227515193756 2481.0028263799759 0 0 0 0 238.35672076111553 174.86834634292427 0 174.86834634292427 3230.562988922873 0 0 0 0 558.71123140498662 603.06127650181588 0 603.06127650181588 3019.3028977368376 0 0 0 0 -74.655293994582152 1099.2244482727292 0 1099.2244482727292 2805.6352610050526 0 0 0 0 -23.792453916618523 847.58976232210262 0 847.58976232210262 3623.2825148952761 0 0 0 0 -614.62826876742895 41.497869652454028 0 41.497869652454028 5500.93997734609 0 0 0 0 1.6541559726456798 7.3169307337782215 0 7.3169307337782215 19.514825677179033 0 0 0 0 -1478.6344609157861 -1106.3467325272486 0 -1106.3467325272486 5489.7393748259055 0 0 0 0 996.99281838814306 2780.752674541749 0 2780.752674541749 1132.8641942505492 0 0 0 0 15.563121657966354 2241.2766574027846 0 2241.2766574027846 5487.8341722644291 0 0 0 0 385.50351439974497 -868.89793584808649 0 -868.89793584808649 -64.714127046085196 0 0 0 0 774.48874438927533 270.07797909178771 0 270.07797909178771 2695.6897152512684 0 0 0 0 -1491.9287038301709 -778.17105212796378 0 -778.17105212796378 3845.4490140553098 0 0 0 0 1.5095522697792978 7.2029596792335298 0 7.2029596792335298 19.54247445741737 0 0 0 0 631.17190085640141 3027.3981346867895 0 3027.3981346867895 2678.6616587786557 0 0 0 0 -428.15133692875156 1249.5386094233545 0 1249.5386094233545 5783.964180222014 0 0 0 0 334.92198660882474 905.45832481177013 0 905.45832481177013 3824.9042415703007 0 0 0 0 -470.18940667176662 18.661511993908789 0 18.661511993908789 2907.2234276171366 0 0 0 0 804.24269732573703 1728.9697964477382 0 1728.9697964477382 3122.8722839573165 0 0 0 0 3.9712904220935483 3.9159822540606228 0 3.9159822540606228 0.50506327478407798 0 0 0 0 649.59744978700962 1920.3050792204667 0 1920.3050792204667 3808.1099439307436 0 0 0 0 1437.9256531609069 2381.4035130420598 0 2381.4035130420598 4066.8877425178071 0 0 0 0 155.59180084880154 276.04955898367916 0 276.04955898367916 342.49337297083548 0 0 0 0 140.68645662304061 378.0983538872606 0 378.0983538872606 370.9055202689633 0 0 0 0 36.336122446921422 65.92678060761682 0 65.92678060761682 429.07199570379453 0 0 0 0 31.428361682203104 26.871743130453979 0 26.871743130453979 1055.7534022193586 0 0 0 0 532.14644542672477 916.5482210681148 0 916.5482210681148 1062.39598160077 0 0 0 0 52.127024703042025 887.07370921237452 0 887.07370921237452 2119.7808135306896 0 0 0 0 666.52502149825921 1516.7710365261737 0 1516.7710365261737 2595.9191821852583 0 0 0 0 1290.4952865807982 1229.1509861072846 0 1229.1509861072846 1999.9014547990964 0 0 0 0 -544.30220670586721 -544.29142559992761 0 -544.29142559992761 984.77504819724709 0 0 0 0 472.40450669132315 294.10178668455774 0 294.10178668455774 865.35421773431881 0 0 0 0 -475.36829232229456 -58.767693917034194 0 -58.767693917034194 2459.9790236029312 0 0 0 0 20.882728393852858 -40.568904597457731 0 -40.568904597457731 800.14856079709716 0 0 0 0 292.64229683893677 -28.966613107855665 0 -28.966613107855665 371.64526993045001 0 0 0 0 -1.1014050287482342 -1.0685788546684876 0 -1.0685788546684876 21.432745798539543 0 0 0 0 176.308068026407 7.8340287908504251 0 7.8340287908504251 411.4036994449998 0 0 0 0 -447.53296925509267 -978.9153338962933 0 -978.9153338962933 2682.4247181843966 0 0 0 0 116.87401137444431 87.016479746176628 0 87.016479746176628 381.89049182925373 0 0 0 0 -163.74824536814049 175.89680277419393 0 175.89680277419393 417.33064446101343 0 0 0 0 140.4344932461654 -94.129690250847489 0 -94.129690250847489 538.86531694082078 0 0 0 0 192.16904471812904 191.84542213169334 0 191.84542213169334 175.41142960573779 0 0 0 0 -122.57640652204918 9.5917292512604035 0 9.5917292512604035 272.03510408219881 0 0 0 0 -133.92369856182313 146.57787764113164 0 146.57787764113164 671.68096743540082 0 0 0 0 -435.59572675530933 31.206581420113935 0 31.206581420113935 666.07512948435033 0 0 0 0 -111.29235100430151 57.561284128605621 0 57.561284128605621 308.05331381470023 0 0 0 0 115.48680654601458 17.483751898369519 0 17.483751898369519 -97.606906518456526 0 0 0 0 8.0901267960857695 182.79518998700951 0 182.79518998700951 348.24004167047678 0 0 0 0 2.2988074845683233 1.8888345967677651 0 1.8888345967677651 1.1638436703449315 0 0 0 0 -3.9668117618773522 -113.13263536370505 0 -113.13263536370505 246.44576073337521 0 0 0 0 77.969896993452039 -29.405156124841596 0 -29.405156124841596 234.86499029229162 0 0 0 0 -3.1702323746321781 -42.662007725535659 0 -42.662007725535659 236.3835840400061 0 0 0 0 52.825937292273238 -115.99753817406599 0 -115.99753817406599 501.33402975679201 0 0 0 0 64.746568893115267 198.36493285032338 0 198.36493285032338 679.22056382501614 0 0 0 0 205.37046652867843 131.79535951418802 0 131.79535951418802 441.22699331413605 0 0 0 0 -93.554624223217616 27.990136016029282 0 27.990136016029282 252.83212599752005 0 0 0 0 -88.670036736624866 -8.6562499264955477 0 -8.6562499264955477 140.67042968326132 0 0 0 0 -84.923322141978133 36.420035345843644 0 36.420035345843644 207.55191166268196 0 0 0 0 -80.226448772969889 111.13793687029101 0 111.13793687029101 356.62841725964972 0 0 0 0 -17.244853617510671 67.1591761141608 0 67.1591761141608 443.94872824160848 0 0 0 0 -28.75305776283858 -7.8750053007242968 0 -7.8750053007242968 272.50084399458137 0 0 0 0 4.1215145766745991 -42.752935948781669 0 -42.752935948781669 230.95895353340893 0 0 0 0 2.0917899200057946 -88.004254301617038 0 -88.004254301617038 331.22959687627736 0 0 0 0 -31.636921857151719 -87.651074007197167 0 -87.651074007197167 203.11351007345365 0 0 0 0 -42.131004915298035 -74.529196489078458 0 -74.529196489078458 232.91113799358754 0 0 0 0 -67.77069104446673 -88.694586752011674 0 -88.694586752011674 225.19563252830994 0 0 0 0 -27.365391872666805 -91.157360214529035 0 -91.157360214529035 210.82645159595995 0 0 0 0 -227.87588019981558 -73.716919195838273 0 -73.716919195838273 184.99186025839299 0 0 0 0 -82.108209236222592 -41.244389088165917 0 -41.244389088165917 98.524319436983205 0 0 0 0 -258.90568340953723 -167.29438528021274 0 -167.29438528021274 291.0786299060419 0 0 0 0 -580.35773575626808 -313.73395002781763 0 -313.73395002781763 -305.0995213551505 0 0 0 0 -348.18731736778136 -366.58828577896929 0 -366.58828577896929 -135.52012341886439 0 0 0 0 -10.381663381833913 -23.026004373764479 0 -23.026004373764479 53.223491146451636 0 0 0 0 -357.81846945447251 -86.199728715873789 0 -86.199728715873789 147.8456983451033 0 0 0 0 -346.98028422871357 -217.32879216189031 0 -217.32879216189031 38.695608636742691 0 0 0 0 -237.10646424789775 -32.826019761516363 0 -32.826019761516363 11.472993897245033 0 0 0 0 251.63810399216527 252.32505434937775 0 252.32505434937775 168.74522730621538 0 0 0 0 -644.54364376331796 -377.83384821927757 0 -377.83384821927757 -73.64705702662468 0 0 0 0 -62.54925544874402 -1.5247813560348789 0 -1.5247813560348789 119.03934706805092 0 0 0 0 267.28611257250395 280.17097705795641 0 280.17097705795641 167.57829627678439 0 0 0 0 -644.82370563529548 -387.34118749402114 0 -387.34118749402114 -161.84371794341132 0 0 0 0 -39.46966945218913 -24.882205966204069 0 -24.882205966204069 75.733495011606607 0 0 0 0 -233.33280900314412 304.72302029931234 0 304.72302029931234 283.51231609082606 0 0 0 0 0.69900981463071776 -77.42461880207567 0 -77.42461880207567 -50.347685283405553 0 0 0 0 -192.06414419380962 -84.542222302756272 0 -84.542222302756272 -20.536994943504396 0 0 0 0 -201.32177162500921 9.9801008942886256 0 9.9801008942886256 97.665832561033312 0 0 0 0 -48.279262799304419 15.046057274098018 0 15.046057274098018 93.7839749651788 0 0 0 0 -176.06533720829793 -41.247041589449509 0 -41.247041589449509 73.841478621223359 0 0 0 0 -195.56418552054492 -0.15286705482867546 0 -0.15286705482867546 234.19721051945817 0 0 0 0 -132.24070426330218 45.018930263788207 0 45.018930263788207 148.73236774446559 0 0 0 0 -228.03079884226599 -26.168667390098562 0 -26.168667390098562 172.50911860080669 0 0 0 0 -173.44401412727711 60.146585672431684 0 60.146585672431684 285.29904289453407 0 0 0 0 -79.513066536095721 140.50603161332401 0 140.50603161332401 276.6347876242362 0 0 0 0 -209.24252242920375 -10.323781704777502 0 -10.323781704777502 195.65158111898927 0 0 0 0 -159.55214626859106 81.660732852396904 0 81.660732852396904 302.80341035552556 0 0 0 0 -94.676266872798806 72.669288652963587 0 72.669288652963587 187.11071905086283 0 0 0 0 -223.44205811389895 -179.70413865154069 0 -179.70413865154069 1.3808971445250791 0 0 0 0 -13.341338831214536 -27.772510170334044 0 -27.772510170334044 24.372781516611553 0 0 0 0 -232.98066030001155 -18.431608094120747 0 -18.431608094120747 163.40849939559121 0 0 0 0 -619.53999945854594 -322.58512766315835 0 -322.58512766315835 -164.082558550057 0 0 0 0 -42.483386077925388 166.37838676333195 0 166.37838676333195 177.40463471492694 0 0 0 0 -165.24447337399943 -22.454694277628732 0 -22.454694277628732 109.78156180429505 0 0 0 0 72.304580074518526 96.556862404722779 0 96.556862404722779 -107.80952965229517 0 0 0 0 105.13468616622777 269.94555253139697 0 269.94555253139697 213.07172720693052 0 0 0 0 -56.448529789991881 165.02367878825316 0 165.02367878825316 276.04904346552212 0 0 0 0 -36.195769218815258 232.80787857796531 0 232.80787857796531 309.5160768062342 0 0 0 0 -103.35151067721745 153.74266842778889 0 153.74266842778889 551.24504930924741 0 0 0 0 -89.655455651203738 184.43570884164365 0 184.43570884164365 405.4694217894139 0 0 0 0 -94.398111682279705 185.68674750140053 0 185.68674750140053 602.69193210988306 0 0 0 0 -38.302189367970641 123.1658458414604 0 123.1658458414604 584.12460744683631 0 0 0 0 -52.149772013118309 246.63946985195071 0 246.63946985195071 582.89764633815503 0 0 0 0 -79.158877667640809 134.43616029939585 0 134.43616029939585 411.06248158369272 0 0 0 0 -130.23420312372218 178.4993344652321 0 178.4993344652321 496.82562941779906 0 0 0 0 -92.702118236818933 184.47923051573162 0 184.47923051573162 308.95633824992819 0 0 0 0 -131.08440218650321 142.12952833819145 0 142.12952833819145 393.78857941116439 0 0 0 0 -42.183603493090686 208.30651160863636 0 208.30651160863636 386.58096016891068 0 0 0 0 15.13631396981873 196.07552894188848 0 196.07552894188848 452.93809884801158 0 0 0 0 22.450021055977231 228.5002004912385 0 228.5002004912385 415.45990251502371 0 0 0 0 -56.407696827116524 205.96920181583846 0 205.96920181583846 461.99052215299162 0 0 0 0 -78.787253028092891 98.176511619603843 0 98.176511619603843 349.5548732239622 0 0 0 0 -73.034088429519727 173.05146940568602 0 173.05146940568602 446.00733958391356 0 0 0 0 -28.040078830278617 146.85489940291154 0 146.85489940291154 594.07367261065519 0 0 0 0 -14.064843664194086 113.89157776477805 0 113.89157776477805 342.52497987243987 0 0 0 0 84.12870199345889 337.05008325070958 0 337.05008325070958 565.55291141771158 0 0 0 0 -2.5989417687519563 242.14191381946875 0 242.14191381946875 462.41178824499366 0 0 0 0 59.815898931874472 285.76736727093521 0 285.76736727093521 464.52790602870027 0 0 0 0 141.67322396091026 238.41451725518891 0 238.41451725518891 488.27310148708057 0 0 0 0 9.6058880559621933 12.134290628968245 0 12.134290628968245 -6.6310369768543751 0 0 0 0 46.798671156096134 278.92505416904896 0 278.92505416904896 529.49840585130733 0 0 0 0 84.592444408928714 261.66020991445112 0 261.66020991445112 471.28748229912526 0 0 0 0 334.56138023615244 2070.608620576364 0 2070.608620576364 4861.8918470640056 0 0 0 0 907.62721559418242 1460.2107732097884 0 1460.2107732097884 4642.1340781344479 0 0 0 0 996.15044651184303 2291.1530800061155 0 2291.1530800061155 3673.8176473421918 0 0 0 0 516.68825466802116 1611.9607488996189 0 1611.9607488996189 5500.1963761971565 0 0 0 0 416.67966829312138 995.42112914979953 0 995.42112914979953 4387.3935515895719 0 0 0 0 414.56607845820918 183.21865740850626 0 183.21865740850626 1573.6906315038286 0 0 0 0 647.99564291257263 2177.3375567920448 0 2177.3375567920448 5500.1953088495356 0 0 0 0 553.39187740540797 1733.8009147735138 0 1733.8009147735138 4763.3516356867949 0 0 0 0 1047.5235826617443 2162.1889525776714 0 2162.1889525776714 4487.374196475841 0 0 0 0 25.351663866640294 30.540347508903324 0 30.540347508903324 -29.973034522930192 0 0 0 0 1002.9636588198454 2216.6585177410216 0 2216.6585177410216 4564.5667070151685 0 0 0 0 151.51194517623208 53.038510670776304 0 53.038510670776304 170.47233514215623 0 0 0 0 138.4473168867662 69.027649999487039 0 69.027649999487039 182.81232031263062 0 0 0 0 11.275432255774376 75.823770478848019 0 75.823770478848019 483.39688875988941 0 0 0 0 1000.2894822895855 2156.6021029351068 0 2156.6021029351068 4515.4791450121847 0 0 0 0 -4.9752164432084101 109.39561017580854 0 109.39561017580854 436.07984163249785 0 0 0 0 16.008471984494804 21.655409269658264 0 21.655409269658264 -16.778536315673279 0 0 0 0 -24.798414570592286 137.94520414336148 0 137.94520414336148 504.53648420187528 0 0 0 0 -6.9405350557158272 145.40903450551559 0 145.40903450551559 457.76058995714993 0 0 0 0 -84.717971151727397 90.817919395849458 0 90.817919395849458 485.52626210808921 0 0 0 0 -41.338669982507326 -39.64310996446693 0 -39.64310996446693 845.16360311611788 0 0 0 0 -47.329723125829332 20.978469722569571 0 20.978469722569571 589.22078031729325 0 0 0 0 355.23886125448917 -432.60992740455549 0 -432.60992740455549 1072.9811439509467 0 0 0 0 -22.822713167519396 162.43384968981263 0 162.43384968981263 658.54098997701658 0 0 0 0 9.690115252364194 39.462886635737959 0 39.462886635737959 1081.6191649498728 0 0 0 0 587.11830052754522 776.69966898168786 0 776.69966898168786 420.87829999637324 0 0 0 0 210.71688592206556 190.6061391117255 0 190.6061391117255 190.31158218318888 0 0 0 0 1160.010617853236 -270.60813585770666 0 -270.60813585770666 313.52654074196471 0 0 0 0 118.20297167015815 -67.017328581438051 0 -67.017328581438051 509.22810057550669 0 0 0 0 285.04347588020391 -185.31828338382184 0 -185.31828338382184 479.76971995447821 0 0 0 0 5.0467336714434445 -22.655921188858208 0 -22.655921188858208 102.38284691485009 0 0 0 0 -1229.1565892740182 486.07322049222421 0 486.07322049222421 764.78183299257944 0 0 0 0 1047.0121498950248 1627.8041894619819 0 1627.8041894619819 509.09038064681226 0 0 0 0 -14.396442806479763 -9.523680159869599 0 -9.523680159869599 140.40442155343641 0 0 0 0 46.3981671780233 -47.641871238887688 0 -47.641871238887688 75.636650982312858 0 0 0 0 -78.031234699465131 -47.883115048534819 0 -47.883115048534819 107.2072373025876 0 0 0 0 143.90662654964945 120.84485658554331 0 120.84485658554331 -40.080232814900228 0 0 0 0 33.23461753275889 44.404366538851434 0 44.404366538851434 -24.219389616307438 0 0 0 0 4.427951338881428 88.900896123610437 0 88.900896123610437 73.871589753573062 0 0 0 0 -9.106012702954283 22.555454827323388 0 22.555454827323388 149.41543626292997 0 0 0 0 -85.905137403131448 195.06188501800352 0 195.06188501800352 165.84690633079299 0 0 0 0 3079.4049421804248 3836.619364668717 0 3836.619364668717 3851.0291336068112 0 0 0 0 1556.7720313767729 2210.0386464311377 0 2210.0386464311377 3626.3360595763515 0 0 0 0 1100.2262149481364 3016.8503479534047 0 3016.8503479534047 5494.5375602875501 0 0 0 0 834.47096350912909 2389.9573503971696 0 2389.9573503971696 4596.1746889228671 0 0 0 0 842.02492156391122 2437.0336365766634 0 2437.0336365766634 4857.1334857369584 0 0 0 0 -1.734426419095096 -26.784103017104663 0 -26.784103017104663 72.04533291367045 0 0 0 0 161.05284216580574 -160.79092402099195 0 -160.79092402099195 930.14953636721475 0 0 0 0 -24.07984426642696 -78.81884293118128 0 -78.81884293118128 87.590814416216745 0 0 0 0 4.4420589607574668 -3.0843570740425434 0 -3.0843570740425434 27.390797855530479 0 0 0 0 6.4065783246715142 -9.9363901626711595 0 -9.9363901626711595 5489.1623309305287 0 0 0 0 6.3428664275010869 -10.99490597835721 0 -10.99490597835721 -14.475583487113482 0 0 0 0 1449.7260631486163 825.312528299517 0 825.312528299517 -495.48455470622866 0 0 0 0 181.75804153243843 1211.7527454856536 0 1211.7527454856536 3684.7279413530778 0 0 0 0 -1628.9366750438285 -317.16941185189353 0 -317.16941185189353 5481.2801706888131 0 0 0 0 23.927471853937959 176.64057003233756 0 176.64057003233756 1224.3992708204314 0 0 0 0 -1562.1292433625208 -1604.1435086740239 0 -1604.1435086740239 4359.4500700714707 0 0 0 0 1464.2129707925001 -1250.6511671818735 0 -1250.6511671818735 1277.7400861407805 0 0 0 0 17.028219656688123 19.407242896661835 0 19.407242896661835 23.025174389548681 0 0 0 0 0.22394121004177503 13.247828922072017 0 13.247828922072017 27.598540704354662 0 0 0 0 -279.41039265153222 -138.20727443786745 0 -138.20727443786745 133.40214376131189 0 0 0 0 -233.75807207290654 101.18307212305081 0 101.18307212305081 1205.3086760837614 0 0 0 0 2.3996551358674005 -30.91851551051645 0 -30.91851551051645 81.911974937478448 0 0 0 0 103.87423554432479 180.5854917780307 0 180.5854917780307 -151.76958109406405 0 0 0 0 197.63425129596817 546.86271999071323 0 546.86271999071323 410.03638308793597 0 0 0 0 6.2223649205272977 -24.777525319434062 0 -24.777525319434062 -49.062197850453231 0 0 0 0 17.799253434742468 155.92978038598812 0 155.92978038598812 348.77092276437907 0 0 0 0 12.007074056573174 -16.223194563848665 0 -16.223194563848665 67.614791883534053 0 0 0 0 34.391242431644116 39.824899862484017 0 39.824899862484017 119.1954957642356 0 0 0 0 15.837426589682252 -23.090246946452226 0 -23.090246946452226 75.628871510773024 0 0 0 0 -50.533191357535372 -46.493448738821826 0 -46.493448738821826 101.66481317318539 0 0 0 0 1.0994930078934431 33.406503637270362 0 33.406503637270362 201.35456341262034 0 0 0 0 68.029944665178277 94.244649088323058 0 94.244649088323058 136.98538732767702 0 0 0 0 -96.276288439265841 -202.87079549216651 0 -202.87079549216651 -44.5715717215935 0 0 0 0 364.15433703640019 100.14903938562202 0 100.14903938562202 -237.32517423253739 0 0 0 0 68.672108725711269 253.4571982293528 0 253.4571982293528 476.15488996534259 0 0 0 0 84.25330437091543 100.43407840318832 0 100.43407840318832 129.16692439525286 0 0 0 0 -28.539164616298109 119.0482601814183 0 119.0482601814183 395.51872309870669 0 0 0 0 -17.315913485489205 113.90984704153379 0 113.90984704153379 394.8253975666421 0 0 0 0 -0.28992874315474637 214.03658946293581 0 214.03658946293581 688.4370436767349 0 0 0 0 -103.04863168537938 85.606995359859866 0 85.606995359859866 568.12776823445165 0 0 0 0 -94.441364904878583 -20.684014550046413 0 -20.684014550046413 486.40881820337381 0 0 0 0 89.808397366726126 -75.686749784144922 0 -75.686749784144922 231.49570033759665 0 0 0 0 -95.245013907037105 -39.778084345535717 0 -39.778084345535717 507.21987540149712 0 0 0 0 -94.997510074086591 -37.579217294097361 0 -37.579217294097361 867.28286856978957 0 0 0 0 200.88191839117951 -490.96137911664846 0 -490.96137911664846 1314.3350467633336 0 0 0 0 12.180594948731942 13.101555644498745 0 13.101555644498745 14.260601510827712 0 0 0 0 224.13605159076201 -343.78114697872661 0 -343.78114697872661 531.62654107520211 0 0 0 0 185.44013172513542 642.24248234562401 0 642.24248234562401 1860.4100454893196 0 0 0 0 133.8645038735051 343.54017843525799 0 343.54017843525799 1393.691256877617 0 0 0 0 123.05419050748594 138.61907910999435 0 138.61907910999435 500.14537108925288 0 0 0 0 -2.762301802712205 -36.565087745031207 0 -36.565087745031207 4.6698747406512666 0 0 0 0 -25.817426254056485 -35.858324330689911 0 -35.858324330689911 195.8375676633168 0 0 0 0 457.399597532798 -1768.2946648277793 0 -1768.2946648277793 -778.54992926979321 0 0 0 0 -90.230097711562394 244.90514912089566 0 244.90514912089566 41.239225090816035 0 0 0 0 -1275.4406329252311 -1000.0532422637152 0 -1000.0532422637152 750.33157209219644 0 0 0 0 737.70096686877605 127.83617760821653 0 127.83617760821653 36.326963674080616 0 0 0 0 -126.1144930241237 -540.7001353357864 0 -540.7001353357864 -53.997779894649284 0 0 0 0 1618.941397914944 -2092.1878597695613 0 -2092.1878597695613 -236.55631429122877 0 0 0 0 1249.7433405001138 882.50751739590123 0 882.50751739590123 862.26546300257905 0 0 0 0 -1085.3723208346346 263.41885380598251 0 263.41885380598251 -24.932126016006805 0 0 0 0 -544.99643416278559 -106.24892348934372 0 -106.24892348934372 -442.70598387997597 0 0 0 0 2.8998516390951323 -3.4108787407776475 0 -3.4108787407776475 5.4408581764852784 0 0 0 0 -107.71698681555972 -1030.9931442566158 0 -1030.9931442566158 909.72703030117918 0 0 0 0 105.5377886711849 290.0699466226506 0 290.0699466226506 639.89453546548611 0 0 0 0 2.1510955319257121 -2.0445767863076441 0 -2.0445767863076441 13.906123717156163 0 0 0 0 -43.843409295185737 -14.271930197281449 0 -14.271930197281449 161.39403626802292 0 0 0 0 -324.01254365330533 -960.07220425043488 0 -960.07220425043488 -525.02042861073278 0 0 0 0 -431.36880552673756 -812.25646097986464 0 -812.25646097986464 856.15928609651746 0 0 0 0 713.18374087223219 -482.45325564788072 0 -482.45325564788072 460.67084715349483 0 0 0 0 -6.1221128214802913 -34.267438706574893 0 -34.267438706574893 0.5248858871293578 0 0 0 0 -577.71484314567351 -445.36085168417776 0 -445.36085168417776 196.01822310581338 0 0 0 0 -330.88601131101132 561.52285099485744 0 561.52285099485744 -512.71444127848008 0 0 0 0 -417.23553459907271 -109.0667973550444 0 -109.0667973550444 1514.0556111277256 0 0 0 0 -145.5256845712247 -339.57116174664407 0 -339.57116174664407 100.76232748784241 0 0 0 0 127.91201520078675 1005.3827481173557 0 1005.3827481173557 354.92057812502753 0 0 0 0 -748.63237495906515 1595.5100393010653 0 1595.5100393010653 866.97992301362865 0 0 0 0 -4.0490612544431306 8.8331438070702468 0 8.8331438070702468 12.953478405273614 0 0 0 0 827.68356067925924 329.84853059720626 0 329.84853059720626 161.02130370220402 0 0 0 0 371.50198701712907 -161.30675776162752 0 -161.30675776162752 -1.6143645740303327 0 0 0 0 174.98760999485057 352.5131693156145 0 352.5131693156145 79.592416120685812 0 0 0 0 253.99754810884951 693.55810698457935 0 693.55810698457935 683.49820693518996 0 0 0 0 208.55555537720829 284.09730947999924 0 284.09730947999924 168.62798011152699 0 0 0 0 194.55362082091415 304.71779361062363 0 304.71779361062363 231.45917523875687 0 0 0 0 1.9591016251497315 -5.6510308642696998 0 -5.6510308642696998 -2.0732683613122447 0 0 0 0 63.589927426684881 228.0851013140782 0 228.0851013140782 -284.25348101193958 0 0 0 0 108.9476430487598 34.999614612774167 0 34.999614612774167 508.87367170991638 0 0 0 0 127.78578806676751 22.627822479396855 0 22.627822479396855 222.55671930713288 0 0 0 0 -264.03639736219338 -143.39470581385831 0 -143.39470581385831 403.05226499660057 0 0 0 0 -48.400162550289679 -143.30350227779854 0 -143.30350227779854 249.15587644092739 0 0 0 0 -48.400162550289679 -143.30350227779127 0 -143.30350227779127 249.15587644092011 0 0 0 0 -48.400162550286041 -143.30350227779127 0 -143.30350227779127 249.15587644089828 0 0 0 0 -132.54850167689801 203.74967609745363 0 203.74967609745363 204.7242233279394 0 0 0 0 28.48992917740625 35.115290103879431 0 35.115290103879431 44.228439668320675 0 0 0 0 -283.58791672182451 290.73301989185711 0 290.73301989185711 -91.066950736807485 0 0 0 0 33.070022864680197 -32.458787176985425 0 -32.458787176985425 241.43706627908978 0 0 0 0 -358.69360842656533 -56.204006006770214 0 -56.204006006770214 310.64635524518962 0 0 0 0 -0.99594014646901741 1.8046256700743584 0 1.8046256700743584 13.781041070408861 0 0 0 0 -80.114571592077937 119.99985702017148 0 119.99985702017148 -20.690613287632004 0 0 0 0 -7.7169082271266234 59.089830676581187 0 59.089830676581187 30.552687322371639 0 0 0 0 -100.70141171964724 -221.49390645400308 0 -221.49390645400308 -109.2490021812846 0 0 0 0 -31.486163182421151 32.629501791995466 0 32.629501791995466 64.762399702324217 0 0 0 0 385.80153624873765 506.61953924308909 0 506.61953924308909 345.84586559773015 0 0 0 0 -27.407389447729656 10.055360241829476 0 10.055360241829476 63.060936148562178 0 0 0 0 -26.080695274440906 1.5032566793460873 0 1.5032566793460873 33.386574119421766 0 0 0 0 26.264065310844671 -11.175938027461598 0 -11.175938027461598 21.388857250494766 0 0 0 0 1.0282824591581772 -3.435535820549859 0 -3.435535820549859 0.087291850050220887 0 0 0 0 -119.37370343411362 37.880260293866741 0 37.880260293866741 61.486978572182124 0 0 0 0 -59.059859754983336 47.616563328789198 0 47.616563328789198 -12.235666098069487 0 0 0 0 -102.33556155585802 22.44372312429914 0 22.44372312429914 75.270554020979034 0 0 0 0 -129.15945627504425 86.952837452205131 0 86.952837452205131 -65.481039600352233 0 0 0 0 -65.714955378790705 174.001234096193 0 174.001234096193 42.533449404727435 0 0 0 0 76.557025031544981 348.15687950626307 0 348.15687950626307 -8.506095382195781 0 0 0 0 -32.014376726892806 101.86022432890604 0 101.86022432890604 99.32048165674496 0 0 0 0 -63.526992067373158 83.98008057167317 0 83.98008057167317 213.21796020636248 0 0 0 0 93.811720321808025 136.36408787952678 0 136.36408787952678 88.136424198572058 0 0 0 0 -192.65924097674338 60.276755094284454 0 60.276755094284454 123.17451338277897 0 0 0 0 -83.21559135757343 25.059737144205428 0 25.059737144205428 38.342173203902576 0 0 0 0 -79.857319515696418 20.229104035366618 0 20.229104035366618 89.300809857217246 0 0 0 0 -112.88889843728657 15.006460514770879 0 15.006460514770879 131.15090395048901 0 0 0 0 -65.801214700132277 -19.308994933187932 0 -19.308994933187932 199.09780374649563 0 0 0 0 24.576142745298057 10.806605723286339 0 10.806605723286339 149.05371221936366 0 0 0 0 46.044324245438474 -53.383615856670076 0 -53.383615856670076 -39.74463857380033 0 0 0 0 42.479205019413712 -73.388518967411073 0 -73.388518967411073 95.580358808656456 0 0 0 0 -38.484957748601119 -1.5167222549789585 0 -1.5167222549789585 41.182552277095965 0 0 0 0 -45.170229288055452 -33.429713639503461 0 -33.429713639503461 103.15827793258359 0 0 0 0 -68.937015493302169 10.492237831305829 0 10.492237831305829 38.752600970256026 0 0 0 0 -329.50928401153124 -130.18329899607852 0 -130.18329899607852 1460.9830003055686 0 0 0 0 -101.42351618135308 30.739863806094945 0 30.739863806094945 97.667192871216685 0 0 0 0 -70.115265798955534 22.977490030600165 0 22.977490030600165 17.146671221882571 0 0 0 0 1871.3581728511617 1162.0979399983116 0 1162.0979399983116 -400.86692103729001 0 0 0 0 -26.791955955743052 41.310054573635796 0 41.310054573635796 53.690428887712642 0 0 0 0 -132.06204273757339 51.969850441346352 0 51.969850441346352 84.006518301874166 0 0 0 0 892.18412283545877 1042.2392148479266 0 1042.2392148479266 692.66639046966156 0 0 0 0 1239.1874258115749 788.71914297162584 0 788.71914297162584 -87.82840620446882 0 0 0 0 1075.7052197557514 1554.0167684935877 0 1554.0167684935877 3930.1623808339355 0 0 0 0 1090.209581387031 3398.7629685630382 0 3398.7629685630382 2075.3082861352013 0 0 0 0 1326.8632009833673 1470.2119153846834 0 1470.2119153846834 1488.6692872867425 0 0 0 0 -23.644044168089291 50.919632471342048 0 50.919632471342048 23.218496703902645 0 0 0 0 -76.680296344885619 14.456474400107254 0 14.456474400107254 34.566453454463044 0 0 0 0 3619.0702836591149 3259.5075936090034 0 3259.5075936090034 5587.2086410437478 0 0 0 0 -817.33293673781191 -1080.9860238951951 0 -1080.9860238951951 9851.1046740850943 0 0 0 0 12.528118561699223 22.259755327458066 0 22.259755327458066 -0.62902530866347206 0 0 0 0 6735.7743130914714 1204.4043407165882 0 1204.4043407165882 -1475.073301334749 0 0 0 0 372.62328998793146 3910.7380260833561 0 3910.7380260833561 3048.9047147552774 0 0 0 0 2036.1652482377331 623.61438648392505 0 623.61438648392505 -1979.4130264542619 0 0 0 0 2061.9490707030391 -27.053795610452653 0 -27.053795610452653 5578.6768262508667 0 0 0 0 2461.4202300179941 4945.3269775180524 0 4945.3269775180524 3379.8020691398706 0 0 0 0 5338.5550539146043 1331.3265815884879 0 1331.3265815884879 1422.0138329373149 0 0 0 0 2357.1350871981731 -1004.6673198130666 0 -1004.6673198130666 927.167076237336 0 0 0 0 3273.3189526286938 561.61455509253938 0 561.61455509253938 1985.4797056469251 0 0 0 0 1157.2553519387434 214.49021024281683 0 214.49021024281683 754.47378618744551 0 0 0 0 626.79806337934951 820.19641042041621 0 820.19641042041621 2222.5858501924049 0 0 0 0 1146.2824072542298 -347.93174261323293 0 -347.93174261323293 1607.295806651091 0 0 0 0 944.00602360421544 232.92090016385191 0 232.92090016385191 2940.3380280715501 0 0 0 0 -362.83936367329534 -112.43231782405201 0 -112.43231782405201 2864.1714817217944 0 0 0 0 682.61708607454966 869.18616092241427 0 869.18616092241427 3782.9091428324318 0 0 0 0 -79.613469257566976 -98.546189505243092 0 -98.546189505243092 2909.1905825138529 0 0 0 0 85.73870784286828 -569.07201453775633 0 -569.07201453775633 3775.9045581207411 0 0 0 0 -30.945653662486023 20.609759375218317 0 20.609759375218317 29.128158326777736 0 0 0 0 398.85117470930254 222.99064051235473 0 222.99064051235473 5738.1606049277325 0 0 0 0 -2.9461614411573578 2.2295857154313126 0 2.2295857154313126 12.755690409423551 0 0 0 0 -60.3408217596334 31.576828586563352 0 31.576828586563352 0.28735735599912005 0 0 0 0 8.6730927786904886 28.701262458698693 0 28.701262458698693 -90.276487763840123 0 0 0 0 9.7546744076480234 38.831230304645118 0 38.831230304645118 28.013370860434804 0 0 0 0 341.50921859270977 -237.14873096969677 0 -237.14873096969677 1545.9038428944332 0 0 0 0 96.929751013955837 -34.645216908349539 0 -34.645216908349539 1432.1993338041138 0 0 0 0 51.822118014540685 58.705865869592685 0 58.705865869592685 34.756874913540173 0 0 0 0 -74.540362071228657 363.39371099193522 0 363.39371099193522 2181.9433863396116 0 0 0 0 -30.47588492083446 -117.29992300348385 0 -117.29992300348385 2616.8337477393507 0 0 0 0 -546.08301693321903 700.80487451607405 0 700.80487451607405 3516.7849695654586 0 0 0 0 211.63270684240149 771.27209006153134 0 771.27209006153134 3245.5184598276828 0 0 0 0 508.280866793207 237.16199440893251 0 237.16199440893251 2174.8776496290739 0 0 0 0 408.48531140032691 1723.5011131324172 0 1723.5011131324172 663.65826880921668 0 0 0 0 0.018638078158110361 5.5295635550247297 0 5.5295635550247297 20.418974963310234 0 0 0 0 -1572.8979320234751 -349.36410597046779 0 -349.36410597046779 2798.4232619735994 0 0 0 0 42.433550819175537 1527.8687831372517 0 1527.8687831372517 2413.110127221742 0 0 0 0 -263.47292099921435 641.2825276304502 0 641.2825276304502 2976.7869583358406 0 0 0 0 56.907886660872009 -90.122144116437994 0 -90.122144116437994 2404.1427749283466 0 0 0 0 -97.382673440208805 570.72880831181465 0 570.72880831181465 1759.5171349664743 0 0 0 0 -104.05610770963651 368.13162302769342 0 368.13162302769342 1884.0020454978294 0 0 0 0 -2.7879204821032002 0.37719529024084864 0 0.37719529024084864 2.7380166598925939 0 0 0 0 44.569472606856067 -24.851793481455388 0 -24.851793481455388 1249.938173192073 0 0 0 0 -375.21801043459135 -53.078791172578349 0 -53.078791172578349 2425.8697934719312 0 0 0 0 97.969626616327531 -292.87913179551833 0 -292.87913179551833 913.94118066605006 0 0 0 0 98.973491801066757 364.3662362730829 0 364.3662362730829 1092.3537525934807 0 0 0 0 -139.90191583244291 216.87688293959945 0 216.87688293959945 2025.4184858056251 0 0 0 0 -140.28046718828955 282.41185497597326 0 282.41185497597326 1167.3602127789782 0 0 0 0 -231.13503744104696 -27.884218041086569 0 -27.884218041086569 1105.4174958893564 0 0 0 0 -95.126189745249576 313.39955796740833 0 313.39955796740833 787.06339685386047 0 0 0 0 267.1471636549195 136.18331355050032 0 136.18331355050032 691.92821606210782 0 0 0 0 -57.462144865731716 1.53880159126129 0 1.53880159126129 856.18431592089473 0 0 0 0 -89.027668645789163 -98.422620957455365 0 -98.422620957455365 549.33569916311535 0 0 0 0 -111.98923677775474 254.60385809483705 0 254.60385809483705 212.19895573833492 0 0 0 0 -122.28328585634517 180.8453598547494 0 180.8453598547494 883.97334605437936 0 0 0 0 -77.721894242252802 -118.89016731354059 0 -118.89016731354059 405.83312008774374 0 0 0 0 -362.0847725266558 14.1427439651452 0 14.1427439651452 136.30095382162835 0 0 0 0 9.7863862432655946 24.986943080127247 0 24.986943080127247 26.160767500207726 0 0 0 0 -150.93342076521913 19.997496045427397 0 19.997496045427397 73.807943304913351 0 0 0 0 -12.26332153623064 14.606491971360981 0 14.606491971360981 21.482631900033823 0 0 0 0 -115.90982398971482 -83.982762452447787 0 -83.982762452447787 111.22495215490926 0 0 0 0 -161.79763196893873 -25.938470131863141 0 -25.938470131863141 61.208258381695487 0 0 0 0 -56.568248867481259 7.6243182048141023 0 7.6243182048141023 122.21040119916688 0 0 0 0 -129.62331048036822 -37.567342259811994 0 -37.567342259811994 65.160780638630968 0 0 0 0 -130.22559012667421 -39.043205186957493 0 -39.043205186957493 57.551202647970058 0 0 0 0 -509.10043138621768 103.72003865114675 0 103.72003865114675 101.9271756959788 0 0 0 0 -135.33449343346547 -56.974933598568896 0 -56.974933598568896 72.160766649845755 0 0 0 0 -128.87075219966414 -37.844374146847258 0 -37.844374146847258 53.928517655556789 0 0 0 0 -125.93241927773465 -64.664741086868162 0 -64.664741086868162 14.465362030197866 0 0 0 0 387.94600983067176 144.0421568269303 0 144.0421568269303 71.933052779932041 0 0 0 0 1272.711782683491 -240.1404662161367 0 -240.1404662161367 547.40079384524142 0 0 0 0 246.02883168785047 813.74128486009431 0 813.74128486009431 383.7669870597565 0 0 0 0 -369.02371003141525 612.75040495455323 0 612.75040495455323 548.03947138349758 0 0 0 0 448.61252562474692 336.68150825644261 0 336.68150825644261 271.73277849848091 0 0 0 0 -74.660536872788725 319.72157135121233 0 319.72157135121233 33.126411186211044 0 0 0 0 8.6153572601688211 341.87083141648327 0 341.87083141648327 -31.920225265348563 0 0 0 0 84.029346474930307 77.805228177343594 0 77.805228177343594 43.734624832780966 0 0 0 0 325.5596175558203 -117.25310209245072 0 -117.25310209245072 -70.620805488346377 0 0 0 0 175.49253549875721 164.55741596066218 0 164.55741596066218 -300.70003382931463 0 0 0 0 -1.4832943243527552 -46.326217307156185 0 -46.326217307156185 49.90618263608485 0 0 0 0 62.634231487805664 12.779530197753047 0 12.779530197753047 70.472841242404684 0 0 0 0 127.29920754196064 133.06501064189069 0 133.06501064189069 360.10949144078768 0 0 0 0 126.22014610554106 -109.47680422905978 0 -109.47680422905978 231.10211113429978 0 0 0 0 204.73832042147478 112.44024623034056 0 112.44024623034056 120.27341361028084 0 0 0 0 312.19631306135125 -166.68804981475114 0 -166.68804981475114 576.51671546808211 0 0 0 0 418.68471826746099 216.6975006605353 0 216.6975006605353 474.41007505890957 0 0 0 0 272.55754804603203 210.30507300210593 0 210.30507300210593 1219.2268535539624 0 0 0 0 652.12695645615531 356.94589404827275 0 356.94589404827275 276.32675497235323 0 0 0 0 748.7671298185669 679.80586831644177 0 679.80586831644177 733.43411215345986 0 0 0 0 266.99770195627934 304.0091909126495 0 304.0091909126495 671.33676781301619 0 0 0 0 449.69867264253844 279.49442298023496 0 279.49442298023496 242.37298602884402 0 0 0 0 448.95080166555636 283.47489745241182 0 283.47489745241182 262.49988879427838 0 0 0 0 203.38920495195634 156.40499708303832 0 156.40499708303832 217.22503036094713 0 0 0 0 15.319012508225569 31.621859323993704 0 31.621859323993704 305.67886308865855 0 0 0 0 213.69552287693659 227.20554182183696 0 227.20554182183696 399.89408837872907 0 0 0 0 222.41605608394138 117.04242031883405 0 117.04242031883405 304.59028825128917 0 0 0 0 95.649194247658443 175.19608359319386 0 175.19608359319386 280.40572798941866 0 0 0 0 113.80808398966747 255.40403184551178 0 255.40403184551178 198.99140749531216 0 0 0 0 287.75840991841687 180.96662675528205 0 180.96662675528205 142.51313810187276 0 0 0 0 342.99405873126489 282.11492561456544 0 282.11492561456544 258.79513505008072 0 0 0 0 362.27521592617995 212.13609869953507 0 212.13609869953507 194.65956801077118 0 0 0 0 237.88374591217143 311.21841659669008 0 311.21841659669008 163.99465825944208 0 0 0 0 -628.04849925599365 -493.26408746314519 0 -493.26408746314519 -20.328062619184493 0 0 0 0 -600.21518295959322 -352.37766548970831 0 -352.37766548970831 83.459559404291213 0 0 0 0 -54.378789183390566 -3.6220303313778999 0 -3.6220303313778999 122.51958705497788 0 0 0 0 113.75354197488559 -266.7899088760314 0 -266.7899088760314 -691.02428195669199 0 0 0 0 -432.88033320772956 -490.74201854000421 0 -490.74201854000421 -162.97858555748826 0 0 0 0 0.47057489442170564 -6.7499057037292118 0 -6.7499057037292118 28.376794333664009 0 0 0 0 485.54214445608523 216.62536379644735 0 216.62536379644735 167.76387374495971 0 0 0 0 567.45850457121196 328.01913189345214 0 328.01913189345214 215.67873087868065 0 0 0 0 546.54298100426968 289.41732489009155 0 289.41732489009155 192.06434791156062 0 0 0 0 3.3463120774470561 -11.540575892310954 0 -11.540575892310954 38.538958968185057 0 0 0 0 -109.72017341136871 11.129920732739265 0 11.129920732739265 385.52315258338785 0 0 0 0 -385.42460254022262 -471.70189741843933 0 -471.70189741843933 -329.46013223208138 0 0 0 0 -2.1655183855711364 -1.3908890682121751 0 -1.3908890682121751 1.6925768989034964 0 0 0 0 -39.051405622565198 -36.478778329823399 0 -36.478778329823399 172.10197723278543 0 0 0 0 23.676486766967628 -95.872288704253151 0 -95.872288704253151 2.3948392092133872 0 0 0 0 8.9348720144521394 -95.965130836208118 0 -95.965130836208118 140.47770440159366 0 0 0 0 -0.41472652707534507 -17.712915113486815 0 -17.712915113486815 54.697408720909152 0 0 0 0 -4.1582166580691684 -1.850328681812357 0 -1.850328681812357 2.535791632168042 0 0 0 0 -87.727936112385123 -112.60302215257252 0 -112.60302215257252 -89.830317630374338 0 0 0 0 -127.62580371901117 -112.26107876266542 0 -112.26107876266542 -89.831786693714093 0 0 0 0 -185.64091073308805 -126.36898991188355 0 -126.36898991188355 41.029855459957616 0 0 0 0 -127.82639528614436 -92.337668432941427 0 -92.337668432941427 -243.99551515593703 0 0 0 0 -57.931608335978673 -2.8276006815743528 0 -2.8276006815743528 125.04677057973646 0 0 0 0 -316.29230877162991 -945.55827462707384 0 -945.55827462707384 125.70413115630163 0 0 0 0 -203.49285710431286 -181.55903896709788 0 -181.55903896709788 -128.60237741438323 0 0 0 0 -565.87659008392438 101.70396493043518 0 101.70396493043518 154.25822288607014 0 0 0 0 -1.8932584436777304 -0.50765532668921765 0 -0.50765532668921765 11.844048018062836 0 0 0 0 -19.440308210477724 59.508735028037336 0 59.508735028037336 -26.676512522706616 0 0 0 0 3.0510980179202041 4.6695403315546002 0 4.6695403315546002 3.6445823211205948 0 0 0 0 -4.7724084714770445 0.42599060426437063 0 0.42599060426437063 4.0358317935221635 0 0 0 0 29.383029269910367 -23.000364044695743 0 -23.000364044695743 -68.279574034677353 0 0 0 0 -57.791112139674624 -7.2572467150021112 0 -7.2572467150021112 6.1362292044359492 0 0 0 0 -41.445402303789706 -51.124481258055312 0 -51.124481258055312 -18.929005191428587 0 0 0 0 -31.020218184645842 14.145780568629561 0 14.145780568629561 6.726953624660382 0 0 0 0 92.780827023637812 -107.1085118798801 0 -107.1085118798801 74.186618581137736 0 0 0 0 96.128828846428092 33.001205234167628 0 33.001205234167628 -42.484549739703652 0 0 0 0 58.863568041659931 106.94875946393586 0 106.94875946393586 -87.175198602431919 0 0 0 0 281.80558390476654 -18.885248861683067 0 -18.885248861683067 -41.014549045503372 0 0 0 0 83.957596676527828 13.115506055852165 0 13.115506055852165 -0.22603185425396077 0 0 0 0 10.174228935901738 71.227740671107313 0 71.227740671107313 -23.809964441607008 0 0 0 0 5.354671584972948 52.821460904553533 0 52.821460904553533 10.141579588758759 0 0 0 0 32.011378600057014 32.353730132803321 0 32.353730132803321 -3.8686138543271227 0 0 0 0 37.498535315052663 16.602547525475529 0 16.602547525475529 8.8989974022115348 0 0 0 0 10.720679662503073 27.445733278076659 0 27.445733278076659 37.131206015212229 0 0 0 0 -4.6926148185623813 1.966676809418658 0 1.966676809418658 2.2314931025222791 0 0 0 0 15.889760500076022 18.226326232745123 0 18.226326232745123 11.217836569383508 0 0 0 0 -15.195313864224715 15.692622758331709 0 15.692622758331709 34.647755312951631 0 0 0 0 8.9688919397950428 66.367195997023373 0 66.367195997023373 60.897910408966709 0 0 0 0 -2.1951045070683266 -0.34782512489965711 0 -0.34782512489965711 1.0095100026844364 0 0 0 0 -68.108270493572121 83.560091064875451 0 83.560091064875451 420.95911506915581 0 0 0 0 -81.869332023800666 82.932557417319913 0 82.932557417319913 701.22717784084671 0 0 0 0 67.972889043128816 -14.215125512695522 0 -14.215125512695522 167.88071367082011 0 0 0 0 19.450134077743542 37.069353038270492 0 37.069353038270492 640.51156126329442 0 0 0 0 81.370297098351784 -152.69436184283404 0 -152.69436184283404 112.29050290567102 0 0 0 0 39.248409582803561 -79.141334377782186 0 -79.141334377782186 134.06431448210787 0 0 0 0 -13.087402153586709 87.553319420425396 0 87.553319420425396 9.8133098355901893 0 0 0 0 1.0959269811518837 4.9942945801993801 0 4.9942945801993801 6.4776297013632416 0 0 0 0 -56.38422364069811 -14.490855727839516 0 -14.490855727839516 3.3480279145660461 0 0 0 0 -83.134853092344542 2.3886133518935821 0 2.3886133518935821 12.251639342372073 0 0 0 0 -99.402072527617747 -37.173603080882458 0 -37.173603080882458 29.271448613813845 0 0 0 0 -131.58472255921515 -27.58896244483185 0 -27.58896244483185 31.556245391315315 0 0 0 0 -84.683686854337793 87.876141854299931 0 87.876141854299931 29.582752148096915 0 0 0 0 -148.20895545464623 -1.3657091237982968 0 -1.3657091237982968 98.199176989786793 0 0 0 0 -126.10327434917087 41.264113891345914 0 41.264113891345914 -9.5993414446129464 0 0 0 0 -112.40916662653217 2.3228239512245636 0 2.3228239512245636 64.330923709465424 0 0 0 0 -281.81911650112124 80.742136158398353 0 80.742136158398353 93.549499981894769 0 0 0 0 1.3399098740841389 1.7666020165081022 0 1.7666020165081022 2.3409237438532955 0 0 0 0 -34.838865383423467 -79.7644342522035 0 -79.7644342522035 663.26760012176237 0 0 0 0 -59.671725895739655 160.96023128618253 0 160.96023128618253 69.981745184049942 0 0 0 0 -301.50210343242929 538.55901647275459 0 538.55901647275459 292.30842455453239 0 0 0 0 -1049.538170653399 474.79197385237785 0 474.79197385237785 1131.3621461254661 0 0 0 0 218.72657258616437 36.186592436686624 0 36.186592436686624 1034.3312194833125 0 0 0 0 -45.943060037948726 31.240100253955461 0 31.240100253955461 1055.1626799941878 0 0 0 0 132.81891221893466 83.452500567596871 0 83.452500567596871 714.29270835011994 0 0 0 0 52.454987354064542 251.51646479072224 0 251.51646479072224 1062.7573769551236 0 0 0 0 -19.290418703604018 -106.49066818624124 0 -106.49066818624124 812.47113408340374 0 0 0 0 -6.5325371906656766 -0.4061981433655717 0 -0.4061981433655717 4.0201325449159526 0 0 0 0 32.897691524295908 288.82332430190581 0 288.82332430190581 1665.0712492833809 0 0 0 0 -108.66132823544808 124.81592627240752 0 124.81592627240752 1562.1990098156821 0 0 0 0 76.413910823002453 310.82409315014229 0 310.82409315014229 1672.7312238495942 0 0 0 0 126.36659223836608 273.22453265875811 0 273.22453265875811 1728.6319422595261 0 0 0 0 -64.949765296765264 433.791588652879 0 433.791588652879 1634.2610827566023 0 0 0 0 201.45528660042743 561.53932596739469 0 561.53932596739469 1701.5133008156408 0 0 0 0 -336.80332986942926 457.5604025076027 0 457.5604025076027 1671.0106306339876 0 0 0 0 -67.989177265622743 421.82229771367565 0 421.82229771367565 1587.2842079932889 0 0 0 0 -77.335327072538661 500.65408242862031 0 500.65408242862031 1627.0270768407354 0 0 0 0 -303.92615322600835 243.48710343768653 0 243.48710343768653 829.55304115923354 0 0 0 0 -3.6061639693494603 -0.30094348843718421 0 -0.30094348843718421 2.8097715775510324 0 0 0 0 -241.66914011915878 98.815224287296587 0 98.815224287296587 1121.0995201053011 0 0 0 0 65.105554682334173 2.4249931995416318 0 2.4249931995416318 737.11503153442754 0 0 0 0 64.786101907903202 192.02163719497366 0 192.02163719497366 269.76757821830688 0 0 0 0 -141.11961074631063 243.19362669425027 0 243.19362669425027 824.89600014401731 0 0 0 0 -0.24634973814231045 615.44589297124548 0 615.44589297124548 2049.4013110624801 0 0 0 0 60.324038371508053 192.32950299857475 0 192.32950299857475 474.42478388383461 0 0 0 0 171.67245173082426 376.16848655877402 0 376.16848655877402 701.19887017816654 0 0 0 0 159.66490490433495 396.67749597000693 0 396.67749597000693 693.06877793515741 0 0 0 0 -39.511878357775487 614.59232050323772 0 614.59232050323772 1315.5232668344688 0 0 0 0 -364.06471680985197 215.18106600660667 0 215.18106600660667 1526.8979488233017 0 0 0 0 -172.1182075157536 316.19819489827933 0 316.19819489827933 1575.3522603053789 0 0 0 0 -173.42808868491485 343.11239422583458 0 343.11239422583458 2100.7430258429704 0 0 0 0 928.29043804565572 1314.8504107194021 0 1314.8504107194021 1737.8554383197843 0 0 0 0 -0.64589866079331837 0.38122866460118132 0 0.38122866460118132 10.942686202767845 0 0 0 0 -278.82387224098306 -160.06955255726643 0 -160.06955255726643 65.474412745912559 0 0 0 0 497.11889116469933 387.60256881242094 0 387.60256881242094 405.89080941502471 0 0 0 0 -1.8282252439799458 -1.8233523138892309 0 -1.8233523138892309 26.324667177347123 0 0 0 0 -158.97252883252395 96.55196560985496 0 96.55196560985496 139.12659444262317 0 0 0 0 52.583179984483706 -33.859138434232591 0 -33.859138434232591 -3.6939616033632774 0 0 0 0 0.23521805711598326 138.77900090473426 0 138.77900090473426 263.9279726518289 0 0 0 0 82.022485398316419 77.014739089790964 0 77.014739089790964 12.65912369164289 0 0 0 0 67.515675352669859 2.7846239494683687 0 2.7846239494683687 106.60738393926295 0 0 0 0 214.70786448934766 303.30090709329306 0 303.30090709329306 144.91683806054061 0 0 0 0 -34.657196761314367 85.033921885042218 0 85.033921885042218 49.790253170613141 0 0 0 0 112.68606563926994 103.74886736167537 0 103.74886736167537 51.552877253721817 0 0 0 0 103.64090880847432 89.927596805791836 0 89.927596805791836 63.872806077240966 0 0 0 0 75.952244097909571 189.79559165022511 0 189.79559165022511 270.20194841824559 0 0 0 0 -29.881127681094874 75.389774368713915 0 75.389774368713915 149.16522319489741 0 0 0 0 -38.631327588744568 26.808872446374153 0 26.808872446374153 68.062785464833723 0 0 0 0 83.987244690764257 91.266598477508524 0 91.266598477508524 57.78305333229946 0 0 0 0 3.9546725946229344 74.3543973089254 0 74.3543973089254 55.195674954316928 0 0 0 0 -1.2263530796009166 1.9403830264368622 0 1.9403830264368622 -0.052203861563100418 0 0 0 0 130.8927548816593 77.963215808122186 0 77.963215808122186 69.060952869571338 0 0 0 0 115.81834030037771 43.636999641581497 0 43.636999641581497 20.932733747991733 0 0 0 0 129.98351262932954 90.905052567468374 0 90.905052567468374 60.409355995157966 0 0 0 0 -46.633191133728339 133.79859594070876 0 133.79859594070876 -148.44675745361019 0 0 0 0 -1.7309310213444375 -4.9562565902125613 0 -4.9562565902125613 36.460597397468291 0 0 0 0 -59.93387538486806 26.631532144769153 0 26.631532144769153 179.82459443085827 0 0 0 0 -111.09304221924636 -155.03227855902696 0 -155.03227855902696 45.06568293547025 0 0 0 0 60.373071938269845 -191.53381344521767 0 -191.53381344521767 292.12958500755485 0 0 0 0 -0.99820594168920873 -7.9633791642287548 0 -7.9633791642287548 44.2051107715547 0 0 0 0 -1.6355825298721933 2.3263843202745846 0 2.3263843202745846 -1.1899896074402818 0 0 0 0 -77.811699227432086 63.741011222475208 0 63.741011222475208 -2.1244096074951813 0 0 0 0 -25.877130084639703 97.218503170035547 0 97.218503170035547 16.039028700455674 0 0 0 0 11.257353343400951 76.333509882722865 0 76.333509882722865 26.84308436664287 0 0 0 0 2.9546891544121081 22.056576497649075 0 22.056576497649075 20.064874320614763 0 0 0 0 64.726619103759731 22.457548981998116 0 22.457548981998116 19.832259691989748 0 0 0 0 -65.040838054296955 46.016587321471889 0 46.016587321471889 22.471223252883647 0 0 0 0 -7.0815345399403213 71.288945139531279 0 71.288945139531279 1.2199163826808217 0 0 0 0 -176.00914030752415 414.03538803648553 0 414.03538803648553 -955.98412586865015 0 0 0 0 -6.6660706888662844 80.233607174130157 0 80.233607174130157 -37.298073394194944 0 0 0 0 -76.08503670579347 131.30318538847496 0 131.30318538847496 -74.865721093228785 0 0 0 0 13.627469153331958 91.119157810142497 0 91.119157810142497 -234.28127247520024 0 0 0 0 229.73789421241582 213.57948060527224 0 213.57948060527224 88.673510465509025 0 0 0 0 211.49082035622706 -45.457299235640676 0 -45.457299235640676 -235.01742690772517 0 0 0 0 232.69284093589403 -43.896911389485467 0 -43.896911389485467 -341.14425496413605 0 0 0 0 84.74573789671679 353.89663629821735 0 353.89663629821735 -125.9271848751232 0 0 0 0 150.05248655858682 103.61245699510619 0 103.61245699510619 112.34463811927708 0 0 0 0 139.88353260729554 220.13906949330703 0 220.13906949330703 -405.82980636348657 0 0 0 0 377.916444618843 155.3581947835919 0 155.3581947835919 -1.8914525632571895 0 0 0 0 0.054580371702325388 22.769815964926238 0 22.769815964926238 439.51174150960287 0 0 0 0 6.6961903780337444 -9.4082228340412257 0 -9.4082228340412257 21.598969086364377 0 0 0 0 -8.1499714472516018 -17.152947229042184 0 -17.152947229042184 728.81235907116206 0 0 0 0 26.739701940364142 132.57270096614957 0 132.57270096614957 637.07651277168043 0 0 0 0 -0.081231931191451556 1.3134284063803534 0 1.3134284063803534 0.71775013342085003 0 0 0 0 51.405449465593961 -39.502899039795011 0 -39.502899039795011 158.21729994571069 0 0 0 0 -16.690929517884172 -1.1287686695832235 0 -1.1287686695832235 458.30053403803322 0 0 0 0 66.582718693462596 114.0829012253962 0 114.0829012253962 141.36807428211614 0 0 0 0 1.0720649067865793 121.08307467964914 0 121.08307467964914 693.68367893503455 0 0 0 0 90.35025991996531 166.00238211690157 0 166.00238211690157 466.29098740016116 0 0 0 0 32.251861840969426 224.3542675750723 0 224.3542675750723 678.05921047249285 0 0 0 0 36.059614386669359 225.5132652803386 0 225.5132652803386 719.15422886841407 0 0 0 0 0.51399590255363636 135.39698897689232 0 135.39698897689232 880.33792377874488 0 0 0 0 -50.279421582833862 170.22381331166252 0 170.22381331166252 1135.1461916771805 0 0 0 0 -6.3241051812641444 355.29804800424608 0 355.29804800424608 1281.0712337579607 0 0 0 0 200.025283726488 90.183256656546291 0 90.183256656546291 1512.8075745254027 0 0 0 0 -217.20609361872937 363.25020048842998 0 363.25020048842998 1550.9465061869232 0 0 0 0 -17.761334311468318 197.46571090950988 0 197.46571090950988 1246.5690063368675 0 0 0 0 29.257467535856136 364.1449318931991 0 364.1449318931991 1054.1117378797426 0 0 0 0 56.778537492481604 253.95508340272499 0 253.95508340272499 807.19486295618844 0 0 0 0 32.32148159164386 153.25781200727215 0 153.25781200727215 779.14243820028787 0 0 0 0 54.908416212433195 340.09057753672823 0 340.09057753672823 702.72980455541983 0 0 0 0 -24.674414584084587 565.78641384100047 0 565.78641384100047 1268.6554996825143 0 0 0 0 -17.310082896928293 479.60492028764565 0 479.60492028764565 1268.9097617211519 0 0 0 0 -207.12484770688152 411.21820194857082 0 411.21820194857082 1598.2723584331543 0 0 0 0 -2.3224095086875423 608.06316631693335 0 608.06316631693335 1639.1463266264691 0 0 0 0 180.48530348825199 328.50282069321838 0 328.50282069321838 1953.0554147738003 0 0 0 0 550.77898570123807 1121.3096068514351 0 1121.3096068514351 1318.2814331736008 0 0 0 0 376.33873565507969 489.88463454143493 0 489.88463454143493 344.1374035810295 0 0 0 0 -133.85368702717221 174.42498730322404 0 174.42498730322404 449.50870902869792 0 0 0 0 -0.29491433311948567 -6.3425527109271655 0 -6.3425527109271655 43.693702268241736 0 0 0 0 -554.51737472676825 498.59535914289154 0 498.59535914289154 222.17845660489547 0 0 0 0 295.32833826272224 16.112410505011212 0 16.112410505011212 -644.85112595844839 0 0 0 0 -1019.8644220096328 -846.79924769471108 0 -846.79924769471108 1222.1285042010422 0 0 0 0 -545.86164208497416 -70.379315474367104 0 -70.379315474367104 143.97681853466202 0 0 0 0 0.051530161328940727 -9.6508881616438202 0 -9.6508881616438202 49.020321313730392 0 0 0 0 7.8561554311538098 -5.9594900768426555 0 -5.9594900768426555 5.2101556682721935 0 0 0 0 254.46382393072491 -194.02602459269747 0 -194.02602459269747 564.39168753106787 0 0 0 0 248.52104109070893 232.75973779285414 0 232.75973779285414 133.87358349451097 0 0 0 0 55.475668505784995 100.25895266332191 0 100.25895266332191 555.33573134128528 0 0 0 0 183.38873367618754 272.63472361061577 0 272.63472361061577 734.34004627753166 0 0 0 0 85.928801731721194 213.37098988075741 0 213.37098988075741 354.34756168699823 0 0 0 0 97.567398898029467 113.93925464783388 0 113.93925464783388 742.07340822188053 0 0 0 0 71.463974220958434 -20.515281551204453 0 -20.515281551204453 257.37859799963189 0 0 0 0 24.32170301902676 -18.76358223312829 0 -18.76358223312829 14.965416293964154 0 0 0 0 55.360650158322642 -54.692526321654441 0 -54.692526321654441 -40.818770711281104 0 0 0 0 55.563749686340998 -183.76507843672152 0 -183.76507843672152 -230.77149407670368 0 0 0 0 -308.74242895812404 -70.193294902077469 0 -70.193294902077469 -60.877764512712019 0 0 0 0 -547.54356827280367 -283.56226267971215 0 -283.56226267971215 -36.120905850155395 0 0 0 0 -281.78173179600992 -0.27430847092182375 0 -0.27430847092182375 115.61402735595766 0 0 0 0 -143.80894230501565 136.13081813008466 0 136.13081813008466 95.518950310630316 0 0 0 0 1.144317916357015 -8.6098922225586065 0 -8.6098922225586065 35.068267280072121 0 0 0 0 -261.50694985701375 -297.30840584369435 0 -297.30840584369435 -188.26761872103089 0 0 0 0 -284.41491670580047 223.12696928703372 0 223.12696928703372 -172.94562346757448 0 0 0 0 -163.91260335434151 4.450280193836079 0 4.450280193836079 -3.3443775886771618 0 0 0 0 -197.57437615191759 125.96238720692054 0 125.96238720692054 233.26422991166328 0 0 0 0 -143.78684243340365 122.95287631772953 0 122.95287631772953 152.06808302916761 0 0 0 0 51.401609245137251 159.22948204130807 0 159.22948204130807 159.41994974360568 0 0 0 0 7.9990654031689417 213.28107311193889 0 213.28107311193889 141.51799433527049 0 0 0 0 457.29263012132412 205.17888496043452 0 205.17888496043452 47.246771660167724 0 0 0 0 0.38450353844131691 0.41960734638710662 0 0.41960734638710662 3.1996091643140403 0 0 0 0 71.739135732717159 -87.545332159366808 0 -87.545332159366808 131.98666114754451 0 0 0 0 475.38500850700746 128.51763091366047 0 128.51763091366047 65.102509461721638 0 0 0 0 57.876477256598264 21.803074159513926 0 21.803074159513926 300.32864070899086 0 0 0 0 476.24148715918204 111.55284567121271 0 111.55284567121271 179.18085769027675 0 0 0 0 148.65443536547434 283.83146944655164 0 283.83146944655164 251.52199268229015 0 0 0 0 53.313763958512368 234.17054423470108 0 234.17054423470108 262.13535591565596 0 0 0 0 374.92829641978881 636.04030225536553 0 636.04030225536553 839.12617447412049 0 0 0 0 1053.6907086752442 128.12131510019753 0 128.12131510019753 -64.389192009315593 0 0 0 0 29.557483720615409 113.92905490331032 0 113.92905490331032 221.74158433743287 0 0 0 0 -294.68048348302386 -89.799609903202509 0 -89.799609903202509 170.21883806982078 0 0 0 0 -118.43353852394773 114.11676211631857 0 114.11676211631857 399.78506522986572 0 0 0 0 24.436924812143232 71.311869643580394 0 71.311869643580394 102.62100102499244 0 0 0 0 -271.26250955271058 48.596085452198167 0 48.596085452198167 23.545284701656783 0 0 0 0 -280.37009889490139 100.92042749974644 0 100.92042749974644 237.45602525389404 0 0 0 0 -272.95998277136971 -128.45914265254396 0 -128.45914265254396 -55.319728457383462 0 0 0 0 -552.47273970084007 -268.65975287016772 0 -268.65975287016772 181.84000542349531 0 0 0 0 -329.64004220192476 -128.81250487145735 0 -128.81250487145735 102.81792082695756 0 0 0 0 -200.4365207863284 -340.33181839865574 0 -340.33181839865574 397.39469523246277 0 0 0 0 -74.148319837630311 -287.57862196903443 0 -287.57862196903443 71.001977714749955 0 0 0 0 0.53080429454881939 -1.9526374480485131 0 -1.9526374480485131 17.282589605460316 0 0 0 0 72.516058552754984 -727.43382778610612 0 -727.43382778610612 627.71014339488465 0 0 0 0 1.7973696087572648 803.4470242665775 0 803.4470242665775 1824.543094819659 0 0 0 0 631.29754795986082 1113.2246458550617 0 1113.2246458550617 978.10047867841786 0 0 0 0 771.33310964016641 408.39926269491843 0 408.39926269491843 1597.353518104137 0 0 0 0 209.59444471073994 -255.29851768406661 0 -255.29851768406661 165.66953615058446 0 0 0 0 -187.67334983654578 -190.06847381151783 0 -190.06847381151783 60.668702589871828 0 0 0 0 -1356.8882037548417 154.4119871189323 0 154.4119871189323 638.64212200519978 0 0 0 0 0.53392130500453838 9.997936369814532 0 9.997936369814532 35.311165398986191 0 0 0 0 -627.32686488928368 895.24069166743902 0 895.24069166743902 214.09268840894219 0 0 0 0 -70.484174844202101 -401.15875912510921 0 -401.15875912510921 59.003423550195294 0 0 0 0 -201.760334475837 -438.37184724986582 0 -438.37184724986582 139.30272143654292 0 0 0 0 0.69329915601413461 3.9103932519068394 0 3.9103932519068394 15.1261455200314 0 0 0 0 -491.22343888286832 -293.05108284510789 0 -293.05108284510789 921.3375609882487 0 0 0 0 653.44827058168539 886.16143236634525 0 886.16143236634525 75.658062316753785 0 0 0 0 544.6180532667413 493.78374505013926 0 493.78374505013926 -247.64506093139062 0 0 0 0 254.40636108285025 581.76550316323119 0 581.76550316323119 784.35667645312787 0 0 0 0 -20.293017711784614 134.44884841430758 0 134.44884841430758 81.403200661699884 0 0 0 0 601.18183982851428 353.83589856066101 0 353.83589856066101 91.97307774075307 0 0 0 0 808.89064336626734 276.89449397371209 0 276.89449397371209 -163.74696091832084 0 0 0 0 591.98278772966034 115.79319833932095 0 115.79319833932095 170.21758125748602 0 0 0 0 28.432447266754025 535.13724705040659 0 535.13724705040659 1585.8468828484383 0 0 0 0 1176.8778213607241 -1976.8942259858959 0 -1976.8942259858959 690.64816925962327 0 0 0 0 1032.239926856912 683.4803575323167 0 683.4803575323167 584.67246968973632 0 0 0 0 1.5141353719474961 0.06238013912634699 0 0.06238013912634699 15.745806997871966 0 0 0 0 -825.97401539108114 -308.83858260152692 0 -308.83858260152692 752.27452620763506 0 0 0 0 0.17393282049419589 3.2457027255595268 0 3.2457027255595268 35.067863591596733 0 0 0 0 298.11369656003376 233.60032343235798 0 233.60032343235798 124.22698983483861 0 0 0 0 -0.3819682312239101 6.9911677434456232 0 6.9911677434456232 34.202114812015225 0 0 0 0 465.60485649601878 480.25962402318692 0 480.25962402318692 -150.36228884635784 0 0 0 0 -485.69684116036143 294.7336704448453 0 294.7336704448453 76.978375586259062 0 0 0 0 152.10926999903154 138.90102286514593 0 138.90102286514593 -101.65357201783627 0 0 0 0 4.9572637281409122 2.8954531894833337 0 2.8954531894833337 24.221817378603419 0 0 0 0 -51.149697270317517 83.298935021855868 0 83.298935021855868 -63.374219804652967 0 0 0 0 -34.279255815402394 -38.860834849474486 0 -38.860834849474486 48.999312206520699 0 0 0 0 -53.280038021357711 94.612801346587275 0 94.612801346587275 182.26865877975069 0 0 0 0 39.216343659296854 -64.041022774079465 0 -64.041022774079465 28.247613520790765 0 0 0 0 -174.37590194521454 -143.18954462769034 0 -143.18954462769034 672.97079601508631 0 0 0 0 172.38659477940928 -27.573442410808639 0 -27.573442410808639 2.9448298214047099 0 0 0 0 23.397522936092628 52.430179655257234 0 52.430179655257234 141.11548098205822 0 0 0 0 69.716936701531722 22.766005990859412 0 22.766005990859412 51.036318833590485 0 0 0 0 26.03973742036942 37.072840370368795 0 37.072840370368795 -22.053161444273428 0 0 0 0 -3.5705090290787407 -1.1704378529988446 0 -1.1704378529988446 -1.1950853478140289 0 0 0 0 -22.956021904725276 -49.461529706168221 0 -49.461529706168221 85.179563413359574 0 0 0 0 6.8821770265412852 -30.170350347514614 0 -30.170350347514614 95.051954733920866 0 0 0 0 79.088947604494933 -26.377901491621742 0 -26.377901491621742 107.72758402011823 0 0 0 0 25.026180731073509 -65.24374108343909 0 -65.24374108343909 114.37919654859797 0 0 0 0 15.812585600535385 -67.71973939507734 0 -67.71973939507734 130.45501737170707 0 0 0 0 16.104455169816902 -66.225809779840347 0 -66.225809779840347 93.11776199961605 0 0 0 0 -15.689216018618026 -62.802883868236677 0 -62.802883868236677 115.61623875384976 0 0 0 0 -11.236071838776297 -37.566143360541901 0 -37.566143360541901 114.1602614645526 0 0 0 0 -17.581940846362386 -59.535015438894334 0 -59.535015438894334 122.13380153937032 0 0 0 0 13.17594942777032 -76.804169317882042 0 -76.804169317882042 75.540873507998185 0 0 0 0 33.958882813634773 55.228407750444603 0 55.228407750444603 118.91811708128444 0 0 0 0 40.433280985497106 -76.547858057694157 0 -76.547858057694157 88.429339654001524 0 0 0 0 55.191847094934019 -154.35401834305958 0 -154.35401834305958 94.443358037844519 0 0 0 0 20.095998896787023 -50.828432479989715 0 -50.828432479989715 70.785779756035481 0 0 0 0 -1.1385849365023162 -32.555137140544197 0 -32.555137140544197 59.943728780734091 0 0 0 0 30.336590222346295 -17.640788071967989 0 -17.640788071967989 -18.512573875309101 0 0 0 0 64.439689941077859 2.0382437407097314 0 2.0382437407097314 -23.033159016486024 0 0 0 0 4.2900554297375493 7.1507921217707917 0 7.1507921217707917 4.7418266689492157 0 0 0 0 -5.9393089557608345 -10.812888497364582 0 -10.812888497364582 5.5035049361274844 0 0 0 0 -83.295019971020224 -24.426868744538297 0 -24.426868744538297 83.469223514519399 0 0 0 0 -34.975794009345236 -13.062893847152736 0 -13.062893847152736 68.085070992790861 0 0 0 0 0.81967320687635947 -37.992234069468395 0 -37.992234069468395 67.668407153571025 0 0 0 0 -1.3121834112889701 -3.2398184540797956 0 -3.2398184540797956 76.373160119739623 0 0 0 0 4.8995048299811952 -14.628660576909851 0 -14.628660576909851 15.63678857869985 0 0 0 0 -14.21343562469383 -13.469843549493817 0 -13.469843549493817 77.662941475560729 0 0 0 0 1.1276371751007106 -7.6298006205006583 0 -7.6298006205006583 60.023503665882515 0 0 0 0 -8.2216911502535375 -35.553416104124153 0 -35.553416104124153 48.264807343214898 0 0 0 0 -7.5780229521685136 -17.722447471782004 0 -17.722447471782004 95.312197786930057 0 0 0 0 -1.9125818364536826 -33.144267260315246 0 -33.144267260315246 58.710963113549951 0 0 0 0 -10.857911060924772 -21.878661165313332 0 -21.878661165313332 60.17642504618442 0 0 0 0 -7.5565564047588207 -24.059189662726261 0 -24.059189662726261 68.353946520073237 0 0 0 0 -24.628053129270711 -46.318883226196704 0 -46.318883226196704 98.511439673573477 0 0 0 0 -8.6104864529952465 -34.191616509109735 0 -34.191616509109735 72.264161606148264 0 0 0 0 -45.57764131883232 -30.464407595696684 0 -30.464407595696684 74.100188554933993 0 0 0 0 -17.512550634307445 -20.40905081263918 0 -20.40905081263918 68.256292174657574 0 0 0 0 7.6291315071147778 -37.680305534468062 0 -37.680305534468062 64.659996391681489 0 0 0 0 7.3418570409196793 -10.089833682355447 0 -10.089833682355447 10.759378686383627 0 0 0 0 4.8890468819154194 -41.706967895457637 0 -41.706967895457637 63.139301822797279 0 0 0 0 -6.53672711571744 -31.85256143015431 0 -31.85256143015431 65.89238125448901 0 0 0 0 -1.2500943577984742 -12.099299228310713 0 -12.099299228310713 5.9921188860314629 0 0 0 0 28.182311018998917 -19.557520454112819 0 -19.557520454112819 11.519174884495442 0 0 0 0 7.5288555462489057 -4.4021815678788698 0 -4.4021815678788698 66.57178670297435 0 0 0 0 -3.6188836376545623 1.5729064672123059 0 1.5729064672123059 66.163722734156181 0 0 0 0 -4.3373480407440184 1.9147464756606496 0 1.9147464756606496 65.913035293706344 0 0 0 0 -0.81249859754871068 -0.41718599274463486 0 -0.41718599274463486 60.780479882989312 0 0 0 0 -10.341122963789758 19.426611378570669 0 19.426611378570669 86.419823139265645 0 0 0 0 -6.132228367868807 3.7670424097910313 0 3.7670424097910313 4.8718190018043952 0 0 0 0 -6.9592446391479825 -2.6871937509422423 0 -2.6871937509422423 95.931314708315767 0 0 0 0 0.70438204178526576 -5.496442642659531 0 -5.496442642659531 77.366636627935804 0 0 0 0 -12.416551378047188 10.394272093035397 0 10.394272093035397 114.19466785013446 0 0 0 0 0.19036343597037764 2.8948834554487632 0 2.8948834554487632 12.072222361498934 0 0 0 0 -8.0869783967093554 -23.947888482183771 0 -23.947888482183771 78.76747868116945 0 0 0 0 -0.94029733262323134 -11.385610461671604 0 -11.385610461671604 69.164319980863183 0 0 0 0 -2.9217094818177429 1.9255599285243079 0 1.9255599285243079 67.633048767049331 0 0 0 0 -1.3390055516926422 -0.88199858321492464 0 -0.88199858321492464 65.697524127715951 0 0 0 0 7.7789102084552724 15.661090688518016 0 15.661090688518016 75.844742311106529 0 0 0 0 -20.004643133696618 12.359835120994831 0 12.359835120994831 87.399212481483119 0 0 0 0 0.80044874659544973 -1.4456860867171599 0 -1.4456860867171599 110.06205497728661 0 0 0 0 12.461354243436688 15.950121002934793 0 15.950121002934793 83.168622046330711 0 0 0 0 0.71027715479096143 -5.0900478560761204 0 -5.0900478560761204 72.004625238173162 0 0 0 0 1.7478824918489408 3.3963307314988924 0 3.3963307314988924 64.340457583544776 0 0 0 0 -0.55651167970087112 7.5772832512493276 0 7.5772832512493276 67.437139050079452 0 0 0 0 -3.1506423096831782 11.60850636739724 0 11.60850636739724 90.10468373936601 0 0 0 0 7.8539706228638124 35.363993762694918 0 35.363993762694918 124.21931939845672 0 0 0 0 -100.62061995703061 -61.300944348418852 0 -61.300944348418852 119.47592066159996 0 0 0 0 4.3018439297899098 -14.865213317084557 0 -14.865213317084557 48.055966954799942 0 0 0 0 -1.605520137715077 -18.972399117244606 0 -18.972399117244606 59.814900789087972 0 0 0 0 -3.6488452111101806 6.9496103522933765 0 6.9496103522933765 48.184085804740789 0 0 0 0 -3.5127349171307287 2.0242461353773251 0 2.0242461353773251 50.494314447278157 0 0 0 0 -9.3809879605116908 2.8462851686414012 0 2.8462851686414012 31.323928123014753 0 0 0 0 -5.0902486746140312 5.387659922860621 0 5.387659922860621 82.464742618612945 0 0 0 0 -15.091321780980252 15.938325615999929 0 15.938325615999929 86.305130288208602 0 0 0 0 -32.272907943148994 148.23916100060342 0 148.23916100060342 100.86749451619107 0 0 0 0 -12.675215905473124 40.932399720710237 0 40.932399720710237 61.825470883930393 0 0 0 0 -14.992304027079875 27.549510441097596 0 27.549510441097596 -3.5151070251831129 0 0 0 0 -10.890509967979597 38.784792634018231 0 38.784792634018231 129.14342235241202 0 0 0 0 5.9448657720193339 32.315887694610353 0 32.315887694610353 6.1089179139198109 0 0 0 0 -63.125495511045301 33.030796638617176 0 33.030796638617176 129.98617282621854 0 0 0 0 -13.222208650895244 17.853833122779875 0 17.853833122779875 99.06845605584175 0 0 0 0 -21.542591995225621 61.706602667894913 0 61.706602667894913 119.00786764203804 0 0 0 0 -68.708028548487505 23.701836850172185 0 23.701836850172185 225.29030679783318 0 0 0 0 -20.510334559619132 37.0015747361997 0 37.0015747361997 58.859866689191989 0 0 0 0 -18.790735895039379 8.2778071690392494 0 8.2778071690392494 56.892956241829097 0 0 0 0 -15.902456301906568 17.303264282338205 0 17.303264282338205 74.989605853712419 0 0 0 0 -13.297150175456302 14.332672095795829 0 14.332672095795829 82.95181615379353 0 0 0 0 -8.8170898853432007 1.1125969832332263 0 1.1125969832332263 125.1625377058345 0 0 0 0 -57.769182582425628 -7.347975693663102 0 -7.347975693663102 100.04721717553912 0 0 0 0 -195.30200959667673 113.71321149743744 0 113.71321149743744 158.12884741241578 0 0 0 0 -113.67770817952078 103.74611476499922 0 103.74611476499922 47.515623599814717 0 0 0 0 -125.85685207008646 126.98703117239347 0 126.98703117239347 161.27166823302105 0 0 0 0 21.214565601057984 137.38844285086088 0 137.38844285086088 94.262368972267723 0 0 0 0 -8.3937395959710557 211.68619603759726 0 211.68619603759726 208.07879759435309 0 0 0 0 -29.526606339517457 78.019028614682611 0 78.019028614682611 187.39530446315985 0 0 0 0 0.64019801404375887 -27.628048070084152 0 -27.628048070084152 108.02051201959671 0 0 0 0 -159.75498577144754 -58.504767889047798 0 -58.504767889047798 91.518813500020769 0 0 0 0 -431.75109505044929 29.054912033047003 0 29.054912033047003 247.70107202054351 0 0 0 0 -5.7643637706773259 -4.2054803466621564 0 -4.2054803466621564 109.68040249522357 0 0 0 0 300.69332114699512 73.467582790728557 0 73.467582790728557 523.17358385794796 0 0 0 0 231.30295462126787 -75.752912399468187 0 -75.752912399468187 212.17047305416781 0 0 0 0 287.60523484430723 209.91642273114121 0 209.91642273114121 203.47430269737379 0 0 0 0 317.59634490916324 143.12650672311429 0 143.12650672311429 -25.140412909328006 0 0 0 0 2.2114872629499907 0.077811930339720448 0 0.077811930339720448 -1.8224446924045878 0 0 0 0 213.14486109674908 227.12397058122588 0 227.12397058122588 615.10943285515532 0 0 0 0 90.635056663915748 86.226953637356928 0 86.226953637356928 494.29069806210464 0 0 0 0 255.45988982217023 222.43058518526959 0 222.43058518526959 215.15569994447651 0 0 0 0 102.27511458015852 152.36083186592441 0 152.36083186592441 93.260186879400862 0 0 0 0 93.755810527742142 177.49764453925309 0 177.49764453925309 208.8998598047765 0 0 0 0 131.93413001976478 20.761583198822336 0 20.761583198822336 -55.038034439668991 0 0 0 0 38.270231089245499 152.1334286948113 0 152.1334286948113 93.31645952618419 0 0 0 0 3.2146760164548134 12.947725244172375 0 12.947725244172375 -15.746746013990105 0 0 0 0 2.8700343775343917 9.6512925174650626 0 9.6512925174650626 24.881168203064533 0 0 0 0 -39.117837094377137 62.618080899868801 0 62.618080899868801 51.939007419074187 0 0 0 0 86.609758578934816 -12.422997790188674 0 -12.422997790188674 5.4529643899877556 0 0 0 0 317.75196848522319 -74.69625021138927 0 -74.69625021138927 -456.15796293667518 0 0 0 0 1.404126884992003 1.903838870940433 0 1.903838870940433 1.0889317197950277 0 0 0 0 3.7003084909410973 46.062891498586396 0 46.062891498586396 6.4598342652316205 0 0 0 0 23.788815830537715 -4.9779579633614048 0 -4.9779579633614048 15.807402664038818 0 0 0 0 40.267454844064559 35.232566772217979 0 35.232566772217979 0.12173221017292235 0 0 0 0 -1.9640420426734195 0.00082099261663870493 0 0.00082099261663870493 11.990669467126537 0 0 0 0 -11.160620505977931 1.9660575621383032 0 1.9660575621383032 79.193241356158978 0 0 0 0 -8.1264673260830307 24.142366310804107 0 24.142366310804107 9.8437350082318744 0 0 0 0 -2.007197713332971 21.828926937989308 0 21.828926937989308 58.229590809169167 0 0 0 0 1.6634864785241916 6.7112883434674586 0 6.7112883434674586 73.421181700716261 0 0 0 0 -6.1844789503329594 16.57154492814152 0 16.57154492814152 76.855125206820958 0 0 0 0 -13.861112935068277 21.066187206080684 0 21.066187206080684 23.85235704711836 0 0 0 0 -39.290985491898027 36.50015969578817 0 36.50015969578817 54.933788841153728 0 0 0 0 1.1183878877000097 27.988858469441766 0 27.988858469441766 5.7478537580755074 0 0 0 0 -3.64103000559974 13.695705678524519 0 13.695705678524519 3.9934203390075425 0 0 0 0 -5.9940707012292478 22.013470664373017 0 22.013470664373017 6.1783419594648876 0 0 0 0 -4.8319098886568099 156.36440608883277 0 156.36440608883277 56.267990847234614 0 0 0 0 -8.8708616930281572 26.876468115070224 0 26.876468115070224 45.836157892345796 0 0 0 0 1.1136349945107114 0.13520033182581415 0 0.13520033182581415 -8.7275155993282283 0 0 0 0 25.221244473927072 -7.0481451880586974 0 -7.0481451880586974 89.177524241065839 0 0 0 0 38.799736616580049 11.617728260403965 0 11.617728260403965 29.879689400353527 0 0 0 0 20.822664698316657 6.1300787963555194 0 6.1300787963555194 124.29078947355447 0 0 0 0 -3.3917175578466043 11.811209298158758 0 11.811209298158758 12.865803398086939 0 0 0 0 5.6486004434204915 -24.567500142598874 0 -24.567500142598874 128.50269841172849 0 0 0 0 -1.7550475804018788 4.5838193001691252 0 4.5838193001691252 27.889416663674638 0 0 0 0 6.2753749751827854 -54.584683153439983 0 -54.584683153439983 128.80526252093841 0 0 0 0 12.590590755959965 -70.879124976563617 0 -70.879124976563617 69.777704340027412 0 0 0 0 30.823057139809862 -0.91461433988661156 0 -0.91461433988661156 77.434162161778659 0 0 0 0 -0.11097385150042349 18.121467149605383 0 18.121467149605383 33.586469343680335 0 0 0 0 42.980750115515548 -13.938441054531722 0 -13.938441054531722 33.781121472769883 0 0 0 0 50.81931854341201 -36.094642380470759 0 -36.094642380470759 96.375511472931976 0 0 0 0 102.50599791685636 -38.804292507978971 0 -38.804292507978971 42.11178452592867 0 0 0 0 167.91107442275097 17.55417412816314 0 17.55417412816314 12.09925078926608 0 0 0 0 168.29123931983304 -31.741246622230392 0 -31.741246622230392 -162.09982160921209 0 0 0 0 195.42495520131479 -121.73286332992575 0 -121.73286332992575 30.669604816823266 0 0 0 0 130.5676721409036 -173.46498164940567 0 -173.46498164940567 -10.276717562432168 0 0 0 0 86.269239361321524 -63.738295921270037 0 -63.738295921270037 4.530629510700237 0 0 0 0 93.433304764655645 -104.94463224024366 0 -104.94463224024366 83.852088528015884 0 0 0 0 -12.897855158624907 -99.250163632816111 0 -99.250163632816111 136.28302216524025 0 0 0 0 -0.34579537723675458 -136.43382356336224 0 -136.43382356336224 90.086397460807348 0 0 0 0 113.53064447365432 -225.50909938834957 0 -225.50909938834957 153.70941974948801 0 0 0 0 -49.266038200576077 -169.70564480312169 0 -169.70564480312169 220.25464715249836 0 0 0 0 -76.123225163729785 -181.50463860471791 0 -181.50463860471791 288.54131724324543 0 0 0 0 73.770286113302063 -281.59235122898826 0 -281.59235122898826 321.86333936618757 0 0 0 0 71.313880527028232 -292.13824681908591 0 -292.13824681908591 443.76413857331499 0 0 0 0 306.71142976636293 -529.511982322736 0 -529.511982322736 681.2821674591396 0 0 0 0 522.22961039182883 -334.97923095099395 0 -334.97923095099395 551.23545446270145 0 0 0 0 498.53370797664684 -249.07803702732781 0 -249.07803702732781 339.96022769068077 0 0 0 0 278.69396605417569 -247.91975940691191 0 -247.91975940691191 340.17129529335944 0 0 0 0 296.99445299091576 -334.32424843356421 0 -334.32424843356421 149.73310807254165 0 0 0 0 348.78374668877109 -328.10614132830779 0 -328.10614132830779 88.788205907854717 0 0 0 0 248.71359530991685 -158.11902108968934 0 -158.11902108968934 40.64678500930313 0 0 0 0 254.28916104101518 -242.96802404106711 0 -242.96802404106711 -96.355101849650964 0 0 0 0 216.73828420138807 -289.1306443645808 0 -289.1306443645808 142.62033387343399 0 0 0 0 -171.28174966022561 87.587769500736613 0 87.587769500736613 10.123240724028165 0 0 0 0 -72.922334737510027 17.262660638480156 0 17.262660638480156 13.32158279439318 0 0 0 0 -110.09282583450749 -103.61124446360918 0 -103.61124446360918 178.69344954162079 0 0 0 0 -143.74920085991175 -53.250687206225848 0 -53.250687206225848 141.18692886209465 0 0 0 0 -269.43275779038595 12.38873271032935 0 12.38873271032935 199.24280506611103 0 0 0 0 -56.753974929630203 -52.975115007953718 0 -52.975115007953718 155.00803916548648 0 0 0 0 -165.35634995258442 -32.236415644627414 0 -32.236415644627414 156.22367929382017 0 0 0 0 -104.54065551220219 -31.526757878687931 0 -31.526757878687931 185.1680014294252 0 0 0 0 -66.484164759011037 -79.531272953012376 0 -79.531272953012376 129.02724824818142 0 0 0 0 -40.561610101881797 1.7760099083316163 0 1.7760099083316163 136.07263410769519 0 0 0 0 -10.457020628992723 -37.795278222096385 0 -37.795278222096385 123.27056984332376 0 0 0 0 -48.129910740014566 10.774278339624288 0 10.774278339624288 198.0071633484331 0 0 0 0 -55.942890859969339 52.532354374707211 0 52.532354374707211 135.26059677495505 0 0 0 0 -13.875669064966132 15.596465248992899 0 15.596465248992899 119.27492283043102 0 0 0 0 -3.1625113003925325 4.6259332836009435 0 4.6259332836009435 18.259291878814189 0 0 0 0 -20.423754481143078 13.810046132035495 0 13.810046132035495 124.12475524494948 0 0 0 0 -12.100495774747287 9.8262544496974442 0 9.8262544496974442 28.952908683379064 0 0 0 0 -6.629751537555741 14.713761953247712 0 14.713761953247712 8.5279269981403729 0 0 0 0 3.0009272433280785 7.704213294229703 0 7.704213294229703 21.777623914706055 0 0 0 0 -4.5063542669495007 1.5484050871535544 0 1.5484050871535544 -1.0478650759967394 0 0 0 0 -9.305645495520821 10.271787479287013 0 10.271787479287013 45.282254785568512 0 0 0 0 -4.0790933613406413 13.836858270932481 0 13.836858270932481 6.9030064124652881 0 0 0 0 -6.5002675315372471 9.3534948835149407 0 9.3534948835149407 36.602813939010957 0 0 0 0 1.9673007638557465 5.3779569805192295 0 5.3779569805192295 27.864563688228372 0 0 0 0 -4.0172070863247882 6.6069724211301946 0 6.6069724211301946 38.258479963071295 0 0 0 0 -6.7120180599307178 7.5662378081362363 0 7.5662378081362363 6.6252095572045357 0 0 0 0 -4.8856379325848884 13.38088772210989 0 13.38088772210989 4.8542008711986568 0 0 0 0 -8.364900370776013 17.802154284348944 0 17.802154284348944 39.434530945451115 0 0 0 0 1.4391518740410447 -7.560785027952079 0 -7.560785027952079 16.476223502511857 0 0 0 0 -7.1315508310351667 8.8527798992841156 0 8.8527798992841156 12.42217355122521 0 0 0 0 -6.2749104701348655 17.306451141763791 0 17.306451141763791 38.306557909757203 0 0 0 0 -16.315016607873076 17.481905340275262 0 17.481905340275262 49.474667167334701 0 0 0 0 -10.398477360250581 32.149467110953992 0 32.149467110953992 30.564953005610732 0 0 0 0 -8.6319063369078322 4.8843398948592949 0 4.8843398948592949 42.85991169297472 0 0 0 0 -7.4555983452464716 0.91415491591760656 0 0.91415491591760656 65.862441555247642 0 0 0 0 -3.2382150488986543 2.9837405919607178 0 2.9837405919607178 38.684363227050028 0 0 0 0 -5.0079034745421644 2.0851585697435837 0 2.0851585697435837 5.5939446465677136 0 0 0 0 -7.1584447154206146 3.9814138523506699 0 3.9814138523506699 42.340787193039432 0 0 0 0 45.818326817161562 46.297485423185208 0 46.297485423185208 67.458991792998859 0 0 0 0 46.411038987968823 40.248265580099542 0 40.248265580099542 57.785334818368938 0 0 0 0 -0.25691565953657625 -0.7534704805948671 0 -0.7534704805948671 9.1103682185500361 0 0 0 0 1.5871672209239023 -5.4266376353480155 0 -5.4266376353480155 20.375953195951297 0 0 0 0 86.515078418406119 -56.835205301489623 0 -56.835205301489623 13.497646180563606 0 0 0 0 175.54767844524156 88.081812451091537 0 88.081812451091537 16.750839545551571 0 0 0 0 9.7100900599577074 178.66044555062399 0 178.66044555062399 142.11914845564752 0 0 0 0 122.74573286408395 234.8429779169237 0 234.8429779169237 132.70969698086628 0 0 0 0 -58.007567652746332 199.15828032377613 0 199.15828032377613 265.12507323981845 0 0 0 0 3.2675041087700833 191.53154209161585 0 191.53154209161585 127.16699559102562 0 0 0 0 -27.354394730372533 91.736701957663172 0 91.736701957663172 207.81300274751993 0 0 0 0 -16.451018692906018 50.460403221397428 0 50.460403221397428 330.18808291506139 0 0 0 0 22.451912836958869 99.590725399644725 0 99.590725399644725 176.82391289515363 0 0 0 0 -35.631395232679097 -308.62755821031169 0 -308.62755821031169 1113.1462912936695 0 0 0 0 132.71822240266425 274.54856087187 0 274.54856087187 304.4801078865421 0 0 0 0 1.2668381232400696 -4.290604518836787 0 -4.290604518836787 11.964778732271213 0 0 0 0 -145.09266389681829 -311.9232701248402 0 -311.9232701248402 269.39189483485825 0 0 0 0 -290.83956238921201 -85.06141834769096 0 -85.06141834769096 997.53756774021895 0 0 0 0 40.39593404654687 118.88330722541286 0 118.88330722541286 45.372311016020831 0 0 0 0 -55.381566830921201 -191.91155386205355 0 -191.91155386205355 -72.266786045202934 0 0 0 0 -94.646873979952488 -188.67033629734942 0 -188.67033629734942 219.51945019178675 0 0 0 0 -97.10534445671874 -168.45847338177555 0 -168.45847338177555 96.700394761632197 0 0 0 0 -10.488309137572287 -101.6998697930976 0 -101.6998697930976 -65.802106705865299 0 0 0 0 -84.69870556881915 -70.149929249597335 0 -70.149929249597335 168.08038986456813 0 0 0 0 -81.779181372423409 -68.545938900006149 0 -68.545938900006149 127.50041492970195 0 0 0 0 -23.412956661912176 -24.118886342272162 0 -24.118886342272162 158.00825891565182 0 0 0 0 -183.13989743662023 -94.603208760279813 0 -94.603208760279813 230.92553750147636 0 0 0 0 -142.41737349815867 -53.328983568877447 0 -53.328983568877447 213.46090523034218 0 0 0 0 -286.08240619231765 -30.172780159962713 0 -30.172780159962713 290.6779512608191 0 0 0 0 -15.337659707780638 17.838267652443847 0 17.838267652443847 8.8970190613269153 0 0 0 0 -12.749160959576169 18.990728187070061 0 18.990728187070061 4.9134254670172481 0 0 0 0 -17.462904417589016 17.010495080030523 0 17.010495080030523 -28.217136665218277 0 0 0 0 16.285484886233007 311.67623070563423 0 311.67623070563423 -134.48090469517047 0 0 0 0 -96.196229345596294 3.5361982324538985 0 3.5361982324538985 217.13148187899787 0 0 0 0 -171.73896203826462 29.824972912436351 0 29.824972912436351 319.99705764847022 0 0 0 0 -87.323656197479067 0.75879968995286617 0 0.75879968995286617 157.74440779635916 0 0 0 0 -82.011763627537221 68.671992268384201 0 68.671992268384201 -25.981816528888885 0 0 0 0 -41.085931074128041 27.571929809275218 0 27.571929809275218 26.148776593064966 0 0 0 0 -2.3609080647968224 -8.8062324331783657 0 -8.8062324331783657 14.559752339807559 0 0 0 0 -1.2265669998621691 8.5641872857376029 0 8.5641872857376029 1.4238582587993847 0 0 0 0 -63.043867464316463 59.880745355258114 0 59.880745355258114 -37.86144944827538 0 0 0 0 -28.703456236859893 155.69120520398428 0 155.69120520398428 -14.267238151558558 0 0 0 0 98.023867093597801 37.862120212841546 0 37.862120212841546 -24.606297709959108 0 0 0 0 -30.06180685509662 76.40610091558483 0 76.40610091558483 -68.91978163888416 0 0 0 0 103.72650057772978 181.9864287235614 0 181.9864287235614 -15.964507492724806 0 0 0 0 -56.616525707359528 33.772185247780726 0 33.772185247780726 -38.479940990597242 0 0 0 0 -5.5266915576935389 21.113302776182536 0 21.113302776182536 -39.837677204413922 0 0 0 0 -9.7607904981427964 17.44183357511065 0 17.44183357511065 28.315912610050873 0 0 0 0 -10.36620412440169 13.472617156382512 0 13.472617156382512 17.089915798744187 0 0 0 0 -94.477051649885652 879.48978671696386 0 879.48978671696386 745.18494953941263 0 0 0 0 226.95651406730804 508.86406705817353 0 508.86406705817353 -1684.4382439553738 0 0 0 0 -0.79328687824544097 0.46170413752395234 0 0.46170413752395234 -1.6351523687808367 0 0 0 0 -4.1091655172289041 1.1602183078292967 0 1.1602183078292967 2.8014519810917946 0 0 0 0 -6.4229139473934538 13.221918934897985 0 13.221918934897985 38.421786461665761 0 0 0 0 -8.7531170380153753 30.908657052215858 0 30.908657052215858 267.78305885651207 0 0 0 0 -6.1746199824750141 16.012967099696084 0 16.012967099696084 7.3753571752234848 0 0 0 0 -2.0967935029757427 14.112446721614106 0 14.112446721614106 16.93911091038899 0 0 0 0 -9.3981928734317677 17.460577479613761 0 17.460577479613761 9.17425417019885 0 0 0 0 -24.910715319638257 45.433202706859447 0 45.433202706859447 -21.546425518288743 0 0 0 0 30.712984547581073 71.912407286508824 0 71.912407286508824 -9.296277498055133 0 0 0 0 -65.813982631941144 55.695991472493915 0 55.695991472493915 115.965861122153 0 0 0 0 -0.20499264375487414 -1.6266874390076964 0 -1.6266874390076964 9.8788733550606587 0 0 0 0 -37.558177547305604 64.539391373778926 0 64.539391373778926 20.251407584568369 0 0 0 0 -48.991171467519507 153.49495670647593 0 153.49495670647593 306.18170911510242 0 0 0 0 -55.817469613822141 53.430390371446265 0 53.430390371446265 115.93759925237191 0 0 0 0 18.162591284895825 116.21122124849353 0 116.21122124849353 -3.7476641009998275 0 0 0 0 120.96738102712993 -46.319601672486897 0 -46.319601672486897 53.330978767873603 0 0 0 0 -47.838798827434402 -102.82189405486861 0 -102.82189405486861 342.00180794069456 0 0 0 0 -74.276792245848128 -12.041600109230785 0 -12.041600109230785 129.60367777670035 0 0 0 0 -30.610401533735057 -60.45525024177914 0 -60.45525024177914 110.08012749438058 0 0 0 0 -51.398799047918885 88.824136808550065 0 88.824136808550065 -13.470779963303357 0 0 0 0 -42.890285316309246 153.80734676007705 0 153.80734676007705 -125.07585778433713 0 0 0 0 4.4769530993172086 8.9379356621851116 0 8.9379356621851116 10.477089505120603 0 0 0 0 2.7043299969243435 -8.8614237372821663 0 -8.8614237372821663 -37.294351536351314 0 0 0 0 -14.234868927313642 -15.095081950596068 0 -15.095081950596068 2.7471318136667833 0 0 0 0 31.197759054188282 -30.245560976138222 0 -30.245560976138222 -1.6949478265305515 0 0 0 0 -39.0248408320615 20.266361302768928 0 20.266361302768928 -15.815175566065591 0 0 0 0 32.522712198843692 2.1749348904995713 0 2.1749348904995713 -15.08476986203641 0 0 0 0 -57.551718777126553 41.396597816958092 0 41.396597816958092 -23.973533629323356 0 0 0 0 -9.3481977636913598 32.762990912509849 0 32.762990912509849 -105.90227656546631 0 0 0 0 -21.134451637574102 80.216470440092962 0 80.216470440092962 -146.56311712085153 0 0 0 0 2.9376547006321205 7.0816531681599884 0 7.0816531681599884 8.8155411467477052 0 0 0 0 -142.76730674147643 149.06683175820217 0 149.06683175820217 -127.69213306340316 0 0 0 0 -84.558751303759664 38.618760267330799 0 38.618760267330799 -47.829263886589615 0 0 0 0 -15.257494401000713 -22.779003163945163 0 -22.779003163945163 -69.771451021137182 0 0 0 0 -135.05281769022008 -45.653964386919142 0 -45.653964386919142 -113.13722570345271 0 0 0 0 35.200821382025651 28.688608125434257 0 28.688608125434257 -97.01511647721054 0 0 0 0 77.57840421534047 -157.02673668517673 0 -157.02673668517673 428.81789680599468 0 0 0 0 83.058676821053723 -239.60208053787937 0 -239.60208053787937 530.5388302175561 0 0 0 0 -68.915107104625235 18.187508944458386 0 18.187508944458386 428.4109995670733 0 0 0 0 -37.8920240268626 15.979645830957452 0 15.979645830957452 179.12389976464328 0 0 0 0 1.0570981867398945 1.1335607184245475 0 1.1335607184245475 4.1388004594974745 0 0 0 0 -83.706240070507192 -95.39121305741719 0 -95.39121305741719 375.09345411986578 0 0 0 0 -74.396762169684848 -130.91974852069325 0 -130.91974852069325 264.42676207493059 0 0 0 0 -56.806119669195596 -79.768232279544463 0 -79.768232279544463 639.88392633963667 0 0 0 0 -8.0974015237839012 -1.2421095747849904 0 -1.2421095747849904 399.66102423994744 0 0 0 0 29.299171313957231 32.741807397833327 0 32.741807397833327 311.82002574956277 0 0 0 0 30.401559982769527 40.163366574633983 0 40.163366574633983 315.94919842464151 0 0 0 0 -363.17944076822823 660.03836853877874 0 660.03836853877874 515.01786460605217 0 0 0 0 0.10448813397717949 1.310037651587578 0 1.310037651587578 2.1426033899502954 0 0 0 0 275.70576686600066 364.23591034629499 0 364.23591034629499 193.5232616951107 0 0 0 0 -25.600267156712221 203.23340969726269 0 203.23340969726269 934.91428291442571 0 0 0 0 -22.637580523088161 -45.33392079690384 0 -45.33392079690384 225.07154843839817 0 0 0 0 -59.118251197816221 -100.50896531940816 0 -100.50896531940816 611.78781830862863 0 0 0 0 -0.46199592373716314 -33.406641648776713 0 -33.406641648776713 87.21985792653868 0 0 0 0 219.94995857139452 146.575975402724 0 146.575975402724 -451.49547861897736 0 0 0 0 -52.01152672242398 19.938817317583016 0 19.938817317583016 217.10611177902319 0 0 0 0 -86.370447518973492 59.771486304598511 0 59.771486304598511 361.58791533968179 0 0 0 0 -73.578244313685218 -7.2844927499245387 0 -7.2844927499245387 362.63744841856533 0 0 0 0 -5.9424286793856709 90.093014308309648 0 90.093014308309648 193.94119544629939 0 0 0 0 -4.9816052608580321 104.98237589138444 0 104.98237589138444 182.85938484259532 0 0 0 0 152.54346560652311 150.16849965880101 0 150.16849965880101 -106.36800165526802 0 0 0 0 -352.70692580837294 509.00355925777694 0 509.00355925777694 80.145722617744468 0 0 0 0 0.87961762129031973 2.752009178753525 0 2.752009178753525 3.8535302610375766 0 0 0 0 -28.571566906910334 -273.05960941628291 0 -273.05960941628291 810.70126123612863 0 0 0 0 -36.608910849935455 275.0939903499966 0 275.0939903499966 481.75159700885706 0 0 0 0 57.57793737070665 183.02493480763223 0 183.02493480763223 -388.16721549717477 0 0 0 0 85.656420429101217 307.21753906215599 0 307.21753906215599 107.74107716686558 0 0 0 0 30.337663320074057 -44.134098397364141 0 -44.134098397364141 -65.299498096617754 0 0 0 0 38.651959170125849 47.123153152568193 0 47.123153152568193 -57.013385535217822 0 0 0 0 0.66281564746841304 0.34119859847260159 0 0.34119859847260159 0.082674170084942489 0 0 0 0 32.150782633731637 36.44369885737251 0 36.44369885737251 -0.074498415982816368 0 0 0 0 5.03905401319048 12.095063531363849 0 12.095063531363849 -22.541750179429073 0 0 0 0 17.993407624482415 -0.87052075361134484 0 -0.87052075361134484 -16.029718635807512 0 0 0 0 -30.261621860375271 38.204360754985828 0 38.204360754985828 48.493968745257007 0 0 0 0 12.145837048425392 17.800627419081138 0 17.800627419081138 2.3615136619773693 0 0 0 0 -5.9114730252540539 -13.21558813151205 0 -13.21558813151205 104.85558522089559 0 0 0 0 -13.254261667645011 66.443157076319039 0 66.443157076319039 9.6782941450946964 0 0 0 0 0.88947129779043554 1.3549624828390847 0 1.3549624828390847 1.8544668817075944 0 0 0 0 2.162561743126048 0.26446367891912814 0 0.26446367891912814 2.7069914501771564 0 0 0 0 0.99079841085835274 0.74786491033779612 0 0.74786491033779612 1.3626769149393567 0 0 0 0 17.129542202894356 33.312357649672776 0 33.312357649672776 -89.842143169837072 0 0 0 0 0.45126014852741769 0.56283382374783741 0 0.56283382374783741 1.3880722989793526 0 0 0 0 26.222206919006567 1.7633281375165097 0 1.7633281375165097 25.296628096722998 0 0 0 0 31.708522454814556 -11.001564230275108 0 -11.001564230275108 22.294455578608904 0 0 0 0 0.25710034918114388 0.17187215792364441 0 0.17187215792364441 1.3858514189778361 0 0 0 0 1.9492018266243683 1.9283861720576283 0 1.9283861720576283 2.7531155987697389 0 0 0 0 9.9668088543653539 -43.68581212258141 0 -43.68581212258141 26.847440620390444 0 0 0 0 8.7660083845534018 -29.470849315490341 0 -29.470849315490341 -15.83279776701238 0 0 0 0 30.75796378715313 -7.1504070569644682 0 -7.1504070569644682 6.9912742700544186 0 0 0 0 22.958622810350789 10.066433597938158 0 10.066433597938158 7.9214317196165211 0 0 0 0 11.28441948614568 -12.818324308260344 0 -12.818324308260344 27.719967873038513 0 0 0 0 0.67312990331089295 -0.56067655334481969 0 -0.56067655334481969 2.387347160722129 0 0 0 0 0.67312990331090994 -0.2484126580748125 0 -0.2484126580748125 3.0492979705886682 0 0 0 0 1.0505786230720373 -0.92602406467284482 0 -0.92602406467284482 1.4788365053523762 0 0 0 0 14.009519855170367 -65.790478977651219 0 -65.790478977651219 -12.317173246265156 0 0 0 0 -3.9399435764641453 -2.2679406940878835 0 -2.2679406940878835 7.015500060893828 0 0 0 0 0.21482161939457828 0.36627796389504397 0 0.36627796389504397 0.98251460070133589 0 0 0 0 3.9820667561650325 7.754086469343747 0 7.754086469343747 -0.25271111716574524 0 0 0 0 0.068154427895405309 0.19636771636692174 0 0.19636771636692174 0.37509226283532371 0 0 0 0 0.00093332391435398923 -0.34852167338249274 0 -0.34852167338249274 2.5118729598907521 0 0 0 0 10.561068139710784 60.311936862854054 0 60.311936862854054 287.99169118239661 0 0 0 0 -0.13267685501512388 31.556535559524491 0 31.556535559524491 302.68984646136232 0 0 0 0 14.348319174520071 91.564865698484937 0 91.564865698484937 285.11670438852161 0 0 0 0 -26.836274932514584 -58.210399884454091 0 -58.210399884454091 195.05031331061036 0 0 0 0 -80.467801972761663 57.989502411306603 0 57.989502411306603 298.43239334964892 0 0 0 0 0.11351818033151317 0.50668189375062411 0 0.50668189375062411 1.0967951944074912 0 0 0 0 -31.270012479158822 -71.434285357187036 0 -71.434285357187036 372.11933046398917 0 0 0 0 -55.122866307118215 64.437432192993583 0 64.437432192993583 393.28580387277907 0 0 0 0 -55.74964874818312 48.47407872317126 0 48.47407872317126 290.55512662458932 0 0 0 0 -41.321918486650844 38.254705284794909 0 38.254705284794909 116.17972993323201 0 0 0 0 -47.678001731784207 39.44729928104789 0 39.44729928104789 283.16881433899107 0 0 0 0 1.311528994671761 37.895281118187995 0 37.895281118187995 115.59242589160567 0 0 0 0 56.330056040288092 13.562069499490462 0 13.562069499490462 138.41596770402975 0 0 0 0 -24.785662794030458 13.477198957873043 0 13.477198957873043 139.6227403640296 0 0 0 0 0.083693786090554487 50.31024150999292 0 50.31024150999292 -1.3794237009715289 0 0 0 0 5.8022274961405031 51.962563871966267 0 51.962563871966267 -39.042549226607662 0 0 0 0 -1.9249708893856052 6.7760783324047225 0 6.7760783324047225 -83.927631634607678 0 0 0 0 -0.066056395444962238 0.35722767718414161 0 0.35722767718414161 0.61143136003408927 0 0 0 0 0.7218909966506929 -0.14443582090609652 0 -0.14443582090609652 4.0259680771881108 0 0 0 0 -9.40201403964275e-05 -0.00040328408067580312 0 -0.00040328408067580312 1.7722726250358392 0 0 0 0 -0.014734119523441853 -0.28883560586186263 0 -0.28883560586186263 0.61732233622029753 0 0 0 0 0.91708777558167753 4.6506272055557929 0 4.6506272055557929 2.2285694515376235 0 0 0 0 -3.7324626072909632 0.86931824062776286 0 0.86931824062776286 0.10662384647002909 0 0 0 0 -0.85336381456057875 1.1482749130026377 0 1.1482749130026377 3.4063664349711757 0 0 0 0 6.8582720929100844 -4.7789935117179994 0 -4.7789935117179994 0.73821809021865192 0 0 0 0 -4.9967697132849764 13.7442035703898 0 13.7442035703898 1.092072376399301 0 0 0 0 -14.376671970305466 80.582590809615795 0 80.582590809615795 36.74440805332415 0 0 0 0 1.2639919914173987 -0.22986844545812346 0 -0.22986844545812346 -20.452067781618098 0 0 0 0 -120.0987686803519 -12.406374976999359 0 -12.406374976999359 5.8022752235992812 0 0 0 0 -0.37419312160881169 2.2479675341887173 0 2.2479675341887173 4.210268909904471 0 0 0 0 -122.1109967501707 -169.9345136503523 0 -169.9345136503523 -84.231312733318191 0 0 0 0 206.71771021580776 140.34070543193957 0 140.34070543193957 69.609424998838222 0 0 0 0 12.231161347756029 1.045025006897049 0 1.045025006897049 -13.207773802452721 0 0 0 0 91.780807568856972 -65.365344708552584 0 -65.365344708552584 -99.844528277491918 0 0 0 0 20.422924537472682 -46.120221848614165 0 -46.120221848614165 -14.484216719545657 0 0 0 0 5.3257276046813331 -68.633283086994197 0 -68.633283086994197 -27.325150052740355 0 0 0 0 40.778086695098864 16.604498466942459 0 16.604498466942459 -27.101480979355983 0 0 0 0 -24.825552970434728 0.72118634535581805 0 0.72118634535581805 44.720497144298861 0 0 0 0 -11.974305790675711 4.6145030337969501 0 4.6145030337969501 9.9215827152606266 0 0 0 0 11.760900253037789 -25.165962425191537 0 -25.165962425191537 -92.577674570275121 0 0 0 0 -62.785534717606879 -33.575171911696089 0 -33.575171911696089 -50.574934333766578 0 0 0 0 -31.144812413809479 15.364962544540731 0 15.364962544540731 29.267064234684142 0 0 0 0 -30.79925865941641 -30.829720936628291 0 -30.829720936628291 -53.808315186804975 0 0 0 0 -34.652851886743179 0.89749264089914504 0 0.89749264089914504 5.7538394046423491 0 0 0 0 -4.6531957569488895 7.8896947109315079 0 7.8896947109315079 20.441844192930148 0 0 0 0 -10.270503739057261 -7.8107108186086407 0 -7.8107108186086407 34.852055358293001 0 0 0 0 -24.73543598944299 -8.6216685386994243 0 -8.6216685386994243 37.294196282642645 0 0 0 0 30.717689782642083 -67.910353382809262 0 -67.910353382809262 41.272524991742102 0 0 0 0 -22.874304876357314 -59.900007349622342 0 -59.900007349622342 107.20737869720324 0 0 0 0 -18.353173275980225 -79.029733772084001 0 -79.029733772084001 57.844932410749607 0 0 0 0 -2.5056529873545514 -51.055531401201733 0 -51.055531401201733 104.91352239258049 0 0 0 0 -6.1290979008581417 -72.297024445717398 0 -72.297024445717398 60.314736572647234 0 0 0 0 2.941524496664897 -86.643006965361565 0 -86.643006965361565 43.020026820304338 0 0 0 0 35.572027737602397 -33.064791669230175 0 -33.064791669230175 28.286039198922083 0 0 0 0 53.418851047624628 -75.96199432436697 0 -75.96199432436697 91.29206027472901 0 0 0 0 23.346955137766258 20.536179700691719 0 20.536179700691719 138.5949263794646 0 0 0 0 12.567666084943987 -21.034146184523706 0 -21.034146184523706 34.417460679309443 0 0 0 0 5.2212523333762837 -3.777445969360258 0 -3.777445969360258 9.3305829189204132 0 0 0 0 4.4589679696849673 -6.9304452885435239 0 -6.9304452885435239 20.956428996520117 0 0 0 0 4.3766470797145338 -10.810145935589389 0 -10.810145935589389 28.208511050150264 0 0 0 0 5.4043131810713376 -8.0025107407418545 0 -8.0025107407418545 20.980265697406139 0 0 0 0 0.0047924491317221651 0.58021946558437776 0 0.58021946558437776 11.920513023098465 0 0 0 0 -0.22183492388409604 -0.056298096724901825 0 -0.056298096724901825 3.0769289896763325 0 0 0 0 -3.2956414026371679 -1.124902866082266 0 -1.124902866082266 23.063375757890753 0 0 0 0 0.057560053659924226 -9.8734894209026152 0 -9.8734894209026152 19.262160354596858 0 0 0 0 -6.303570859559839 6.4478117995514594 0 6.4478117995514594 6.5127990986454734 0 0 0 0 2.0729556658275854 -13.433847249383689 0 -13.433847249383689 37.590980193926953 0 0 0 0 -48.630306878108968 61.191779819913791 0 61.191779819913791 108.06991563762858 0 0 0 0 -67.067279587070516 80.817300037477253 0 80.817300037477253 101.2115002458595 0 0 0 0 -321.7939938161835 -142.82361699953981 0 -142.82361699953981 151.27008014032617 0 0 0 0 -159.83587274947058 33.509362059183331 0 33.509362059183331 137.2092791734176 0 0 0 0 -188.24411057224461 -141.59580644520975 0 -141.59580644520975 186.94744377915777 0 0 0 0 -233.04874447947805 -290.49252169281681 0 -290.49252169281681 -144.29119942951547 0 0 0 0 -51.26760169435147 -0.098235397483222187 0 -0.098235397483222187 93.814408712321892 0 0 0 0 -4.2904614908046277 6.0801194990334366 0 6.0801194990334366 116.72910016866702 0 0 0 0 -322.47617185223953 -133.86363102281439 0 -133.86363102281439 35.687674922526639 0 0 0 0 14.325023616838735 33.543196899721806 0 33.543196899721806 82.310111457949461 0 0 0 0 38.261679549133987 89.795791801421728 0 89.795791801421728 107.88953418498113 0 0 0 0 -10.792831949482206 53.230657077852811 0 53.230657077852811 101.36659933791088 0 0 0 0 -66.736332485697858 71.570009292201576 0 71.570009292201576 117.50812388246413 0 0 0 0 -8.0882036040420644 81.025395131320693 0 81.025395131320693 99.637484818791563 0 0 0 0 13.026383859694761 69.400934028184565 0 69.400934028184565 98.516914413732593 0 0 0 0 7.3582551670460816 89.607363353828987 0 89.607363353828987 106.81310456976644 0 0 0 0 70.854067574108512 99.316726843006563 0 99.316726843006563 42.771765607831185 0 0 0 0 22.425427478839993 66.617204895170289 0 66.617204895170289 138.57634096671791 0 0 0 0 74.632118507401628 72.636685129630678 0 72.636685129630678 91.177829935681075 0 0 0 0 30.144074473522778 98.408965163587709 0 98.408965163587709 76.26496473957377 0 0 0 0 -106.20248990834807 -227.00808482457069 0 -227.00808482457069 505.65802755831828 0 0 0 0 -4.0665826035280332 1.0145365512973115 0 1.0145365512973115 0.97682430487463989 0 0 0 0 -235.27677935685188 104.91453092631855 0 104.91453092631855 200.46243007083831 0 0 0 0 -10.21467573622067 177.3887771402442 0 177.3887771402442 105.30901724266732 0 0 0 0 -120.27369639627886 90.67485495848814 0 90.67485495848814 303.56369886935863 0 0 0 0 55.613141970919969 129.70016929534177 0 129.70016929534177 39.612448921098803 0 0 0 0 56.825522302613535 120.11234976740525 0 120.11234976740525 89.083556880992546 0 0 0 0 -12.87914085763623 105.48675761199775 0 105.48675761199775 125.70931237380137 0 0 0 0 8.4617525249241226 88.383742764870476 0 88.383742764870476 242.69595550022495 0 0 0 0 32.997046286694967 116.21876705252362 0 116.21876705252362 127.68037458171602 0 0 0 0 67.681962633459079 147.34028095971007 0 147.34028095971007 238.97419060311222 0 0 0 0 149.07509328435845 26.436536819892353 0 26.436536819892353 194.58517814844527 0 0 0 0 9.4850606288018753 -94.132494890927774 0 -94.132494890927774 448.53621990968531 0 0 0 0 57.751429647043551 285.33585403150573 0 285.33585403150573 854.97988215343867 0 0 0 0 -79.492797892071394 -275.4635212499561 0 -275.4635212499561 -251.42421881744667 0 0 0 0 -0.046411461562598788 -2.8537964194919709 0 -2.8537964194919709 3.7481265534739663 0 0 0 0 -156.43412979704226 -54.427076837997447 0 -54.427076837997447 494.31360134503484 0 0 0 0 -98.094380718997854 -226.097947423601 0 -226.097947423601 127.79736292748566 0 0 0 0 -144.66947252784894 -67.648342695951214 0 -67.648342695951214 92.388721263923799 0 0 0 0 -106.52863426497424 5.1928719890202046 0 5.1928719890202046 111.02319740170151 0 0 0 0 -301.66098482063535 5.1305462478740083 0 5.1305462478740083 280.18610135228664 0 0 0 0 -114.25515904948043 72.52987328904419 0 72.52987328904419 222.94697647511202 0 0 0 0 -5.0091787597431363 2.5287256091945718 0 2.5287256091945718 141.51426283430237 0 0 0 0 -840.42607856062477 -302.65999642745101 0 -302.65999642745101 350.87731821188936 0 0 0 0 -163.13508365103371 39.040957337827422 0 39.040957337827422 -45.104236262482118 0 0 0 0 -500.87968085901412 529.93561189866887 0 529.93561189866887 792.72015051730159 0 0 0 0 -19.204175612968356 -660.59808213882025 0 -660.59808213882025 186.62530536904887 0 0 0 0 -236.32319702942914 -90.746960154399858 0 -90.746960154399858 877.78572344644454 0 0 0 0 10.524374720343985 277.37440688103743 0 277.37440688103743 660.27616499710984 0 0 0 0 -146.52824886863164 -119.94166916964878 0 -119.94166916964878 731.80145233421354 0 0 0 0 15.091471649141567 61.544306285268249 0 61.544306285268249 117.03041130919519 0 0 0 0 528.66304305498534 -3.0502133946265531 0 -3.0502133946265531 -49.484823814560514 0 0 0 0 2.4719174647170661 -4.1496285125696533 0 -4.1496285125696533 9.1094099499829042 0 0 0 0 -126.83189632739345 -104.53607045032641 0 -104.53607045032641 30.218691714748275 0 0 0 0 121.16808067820602 160.463672705102 0 160.463672705102 326.25545924473772 0 0 0 0 -63.524232069106802 175.39949233482184 0 175.39949233482184 384.52436245091667 0 0 0 0 138.97259649950649 -140.13436263967185 0 -140.13436263967185 427.29488618556206 0 0 0 0 -65.331490488330019 -49.173507451325349 0 -49.173507451325349 461.83311816821544 0 0 0 0 -6.8237775033212529 123.14619527623427 0 123.14619527623427 432.32108506180157 0 0 0 0 -96.551149446162526 5.6712960717140959 0 5.6712960717140959 462.85747998511306 0 0 0 0 24.519652420236525 -168.01052295230511 0 -168.01052295230511 234.84519030608044 0 0 0 0 140.31991022491093 -145.75445777760342 0 -145.75445777760342 -343.67232174763012 0 0 0 0 27.6860085385415 -104.50018738853259 0 -104.50018738853259 -64.781618071185221 0 0 0 0 -94.781370692166092 45.872020875625822 0 45.872020875625822 54.032742306106229 0 0 0 0 -0.20575991345322109 -104.53143929351427 0 -104.53143929351427 61.819678636506978 0 0 0 0 -30.746378898422336 -90.249134409676117 0 -90.249134409676117 164.84261974496258 0 0 0 0 -13.152594436850336 -3.2383840205745571 0 -3.2383840205745571 9.2237667179960123 0 0 0 0 -94.032878311303648 -112.90137420715109 0 -112.90137420715109 83.392827530305567 0 0 0 0 -60.811659817434702 36.638396560887486 0 36.638396560887486 76.795653844390472 0 0 0 0 52.512396350008203 -101.82388608881229 0 -101.82388608881229 82.666505940734169 0 0 0 0 86.259480042803716 43.430914718406711 0 43.430914718406711 74.597764233614726 0 0 0 0 -4.0639158164667748 0.87201546768476845 0 0.87201546768476845 -1.1454231850990251 0 0 0 0 -203.81269767025515 1.1922270640643546 0 1.1922270640643546 232.5413867108 0 0 0 0 -148.31704089854975 97.777046132265241 0 97.777046132265241 295.46981807141765 0 0 0 0 -53.972112332088727 -40.294290995831034 0 -40.294290995831034 -47.29813751743859 0 0 0 0 0.29620700899233654 0.29008304686838216 0 0.29008304686838216 7.8861599455644615 0 0 0 0 -75.074262677648221 -80.444809910255572 0 -80.444809910255572 216.91629747446495 0 0 0 0 76.070323155239748 -72.867301753693027 0 -72.867301753693027 -104.25996870989547 0 0 0 0 134.31208433760685 -13.355511722535084 0 -13.355511722535084 80.329403201820242 0 0 0 0 2.9442395681850835 -12.630840232797205 0 -12.630840232797205 26.624129417350019 0 0 0 0 56.657702617130781 -123.13805530200261 0 -123.13805530200261 -52.085958857802325 0 0 0 0 -85.129408092921949 -53.559228631233054 0 -53.559228631233054 141.62682607665079 0 0 0 0 -7.644510176246456 -1.1079344896640464 0 -1.1079344896640464 10.826889446761982 0 0 0 0 16.961510809219867 -18.438637711285846 0 -18.438637711285846 19.661480396021986 0 0 0 0 92.557801774195468 -1.274230088944023 0 -1.274230088944023 -1.1658159638391226 0 0 0 0 0.89132808294380084 13.24387918582579 0 13.24387918582579 20.68402090058953 0 0 0 0 -114.01765069892281 78.509645061887568 0 78.509645061887568 11.593099463614635 0 0 0 0 11.819307523263847 -26.998365514883517 0 -26.998365514883517 34.379604399654866 0 0 0 0 -122.9887865362216 -149.1759723998548 0 -149.1759723998548 -69.190826964813823 0 0 0 0 14.162038919035695 -53.484192970630829 0 -53.484192970630829 -4.099095517844944 0 0 0 0 -36.599618795857168 -128.46469340499607 0 -128.46469340499607 -29.532857562398931 0 0 0 0 44.010146219491617 -87.22734735073027 0 -87.22734735073027 -47.23312953311688 0 0 0 0 -144.95221869053785 -60.608334098531486 0 -60.608334098531486 56.247571359093854 0 0 0 0 -55.307876178264451 -47.215174324541294 0 -47.215174324541294 44.833423708972987 0 0 0 0 -61.801130934107277 -36.090434454417846 0 -36.090434454417846 65.695694543257559 0 0 0 0 -41.852678123981605 -35.313927579954907 0 -35.313927579954907 53.095603754089097 0 0 0 0 -30.741578249316262 -22.730756001998088 0 -22.730756001998088 41.873450896746363 0 0 0 0 4.4062467289090819 -15.708423025866978 0 -15.708423025866978 17.442814707821526 0 0 0 0 -1.4866666810557945 -47.424944518086704 0 -47.424944518086704 11.102768473207107 0 0 0 0 -34.233795997308334 -50.379769610652147 0 -50.379769610652147 20.373329972542706 0 0 0 0 12.189782513987961 -15.975638752521114 0 -15.975638752521114 14.021919858396203 0 0 0 0 -30.264155303829284 -25.614348816092388 0 -25.614348816092388 44.447921572020277 0 0 0 0 6.290624263753763 -11.881733015398844 0 -11.881733015398844 25.908720879286591 0 0 0 0 -33.551235038512004 -26.619514323561816 0 -26.619514323561816 41.275150224297249 0 0 0 0 -30.344374140782037 -22.477118518806492 0 -22.477118518806492 36.085932211397449 0 0 0 0 -31.235921518216742 -19.654529727316458 0 -19.654529727316458 57.483289270661771 0 0 0 0 -16.047881263097224 -67.583462291964679 0 -67.583462291964679 -78.053990070126019 0 0 0 0 -33.127000758740451 4.0349325537752065 0 4.0349325537752065 91.605604701806442 0 0 0 0 -21.035970146818006 -15.364160575725933 0 -15.364160575725933 45.262348050579277 0 0 0 0 16.859206169398448 -18.661640037719998 0 -18.661640037719998 18.030505487742133 0 0 0 0 -167.72756352579381 -139.96351402132859 0 -139.96351402132859 -48.081107023774166 0 0 0 0 12.706204908547988 -16.273097561808754 0 -16.273097561808754 16.947384849882837 0 0 0 0 -116.26207400339626 -96.677430487434322 0 -96.677430487434322 -33.169019250444762 0 0 0 0 4.1636282122199191 -64.854261275610043 0 -64.854261275610043 -133.13056354566652 0 0 0 0 1.8598884052072435 -8.0013346092336022 0 -8.0013346092336022 4.8843001584710919 0 0 0 0 30.232816148051825 -24.689844436724343 0 -24.689844436724343 31.562931555286923 0 0 0 0 9.1110367371091741 -6.1904835274232823 0 -6.1904835274232823 7.0186948732122261 0 0 0 0 52.906015326994748 -37.667418342865858 0 -37.667418342865858 136.33182747235696 0 0 0 0 -4.8111677460305113 6.658388383154783 0 6.658388383154783 5.462273376906893 0 0 0 0 65.60004879767439 -84.242226538881368 0 -84.242226538881368 117.81466708049993 0 0 0 0 35.628273321833149 -10.864565783220314 0 -10.864565783220314 105.13001802674989 0 0 0 0 68.01581143841031 -24.040586310475192 0 -24.040586310475192 31.317328441396967 0 0 0 0 -12.119170026974189 -39.512165113383162 0 -39.512165113383162 152.17320472940628 0 0 0 0 47.792458210899895 -48.738470716892152 0 -48.738470716892152 -2.8850253880664241 0 0 0 0 46.33874213328636 -8.7998139149713097 0 -8.7998139149713097 34.940660454256431 0 0 0 0 -49.844698545695792 -298.28011579904341 0 -298.28011579904341 208.92385511617249 0 0 0 0 71.599801865235861 -82.999990058999401 0 -82.999990058999401 46.746797874031472 0 0 0 0 68.625502956841956 -182.58305837403532 0 -182.58305837403532 285.14315402705324 0 0 0 0 51.62043219296379 -47.313154883926472 0 -47.313154883926472 90.439571591894492 0 0 0 0 249.0893631951476 -188.07711857264803 0 -188.07711857264803 27.352946844855978 0 0 0 0 97.551767736003967 -72.646347536290705 0 -72.646347536290705 -4.8635684819091693 0 0 0 0 87.603741747665481 -49.28714713021327 0 -49.28714713021327 31.292250602455169 0 0 0 0 98.063222516698715 -20.020252729915228 0 -20.020252729915228 47.947230968260556 0 0 0 0 42.530139897062327 -32.59368110322248 0 -32.59368110322248 119.98787761019776 0 0 0 0 63.955388516234962 -68.941323533195828 0 -68.941323533195828 96.894303402819787 0 0 0 0 38.915842147991498 -15.412734898467534 0 -15.412734898467534 82.410536666313419 0 0 0 0 53.054901730050915 -1.8202113736915635 0 -1.8202113736915635 64.709746747124882 0 0 0 0 40.593187198388478 -23.594151717454224 0 -23.594151717454224 80.754502735217102 0 0 0 0 50.816773137488781 -0.4478766928659752 0 -0.4478766928659752 101.01373187241734 0 0 0 0 74.523330547737714 -20.168572296865023 0 -20.168572296865023 75.553509818622842 0 0 0 0 37.08573069956401 -48.728131374482473 0 -48.728131374482473 72.525654415658209 0 0 0 0 32.414697416676063 -24.743792759254575 0 -24.743792759254575 83.254772047832375 0 0 0 0 -64.572449725110346 -9.9195833910634974 0 -9.9195833910634974 61.272391068290744 0 0 0 0 -4.3283105144964793 -34.560463468864327 0 -34.560463468864327 84.217817239288706 0 0 0 0 24.871794384285749 -46.848662279517157 0 -46.848662279517157 75.676021094128373 0 0 0 0 51.02240052597881 28.33534879203944 0 28.33534879203944 10.426495517778676 0 0 0 0 236.59572254551858 1.8393335346117965 0 1.8393335346117965 -250.26132382141077 0 0 0 0 -11.999553456211288 53.747843493547407 0 53.747843493547407 0.27418362975004129 0 0 0 0 -114.1650205151891 148.9248125630329 0 148.9248125630329 -112.02001184034452 0 0 0 0 7.6136635870989267 31.485040675834171 0 31.485040675834171 -18.609303280216409 0 0 0 0 -86.206529727136285 17.648964726829945 0 17.648964726829945 26.794131922084489 0 0 0 0 289.18925685073373 156.15614599370747 0 156.15614599370747 -863.96661149914144 0 0 0 0 143.92312559124548 143.30324285018651 0 143.30324285018651 -450.84936194328475 0 0 0 0 525.8684411631184 -190.80023868159697 0 -190.80023868159697 -360.65172700368566 0 0 0 0 993.30317960948196 -529.2074371075978 0 -529.2074371075978 -422.43184990037116 0 0 0 0 505.03997553785848 -686.91006923937312 0 -686.91006923937312 115.56930764028129 0 0 0 0 467.6753049070112 -607.52133726577995 0 -607.52133726577995 -50.985006236813206 0 0 0 0 230.28010987158996 -297.82379473565379 0 -297.82379473565379 -85.957373342960636 0 0 0 0 391.30398692289918 -414.57719209102925 0 -414.57719209102925 -1.6436478596297093 0 0 0 0 177.9800127633448 -434.18305688977989 0 -434.18305688977989 289.87981270442106 0 0 0 0 138.67283406711795 -562.13164018233329 0 -562.13164018233329 228.69781464377593 0 0 0 0 256.86328504383346 -704.93567854045978 0 -704.93567854045978 391.80244050293095 0 0 0 0 -49.668227318084973 -654.56122175285054 0 -654.56122175285054 504.03503146257935 0 0 0 0 151.17000628350797 -162.87824383852421 0 -162.87824383852421 120.77148141933867 0 0 0 0 112.01816173194675 -106.12348650860804 0 -106.12348650860804 -69.160744807086303 0 0 0 0 -101.73530409251543 -63.576287069535283 0 -63.576287069535283 82.793406869532191 0 0 0 0 -6.4480018069612193 -8.8688178070996564 0 -8.8688178070996564 54.329662113657037 0 0 0 0 -93.36035072421555 -90.391620567039354 0 -90.391620567039354 84.030046773477807 0 0 0 0 -31.224144530488481 -6.6769688409206509 0 -6.6769688409206509 48.402901315772084 0 0 0 0 -29.882880554459462 -9.0452375361164741 0 -9.0452375361164741 48.489972728682915 0 0 0 0 -32.477913845904368 -7.1006295067927567 0 -7.1006295067927567 59.77620346162621 0 0 0 0 14.515143624190387 -74.730168735615734 0 -74.730168735615734 76.928784656542121 0 0 0 0 -12.822150391157265 -63.397459181949671 0 -63.397459181949671 91.775657560880063 0 0 0 0 3.7486356702267312 41.647837715041945 0 41.647837715041945 118.12287491458028 0 0 0 0 -315.35327947059341 31.245203508511622 0 31.245203508511622 153.72108564594237 0 0 0 0 -199.80569666134033 -111.64392435198897 0 -111.64392435198897 188.06815293969703 0 0 0 0 -417.90386579304504 652.16880709836914 0 652.16880709836914 -455.75245391353383 0 0 0 0 -263.51902886881544 181.81685915872004 0 181.81685915872004 -95.653273731018999 0 0 0 0 658.08825635381095 400.23007491263252 0 400.23007491263252 -1869.9693057464247 0 0 0 0 -64.121231153840199 -31.481445320925559 0 -31.481445320925559 54.784007138317975 0 0 0 0 -165.34861676721448 -36.516808196178317 0 -36.516808196178317 305.78306066586811 0 0 0 0 -17.350805244619551 51.66065675963182 0 51.66065675963182 178.74975620784971 0 0 0 0 41.515028342211735 -128.81757710182865 0 -128.81757710182865 719.50502849018085 0 0 0 0 446.7172496206058 -88.891520959663467 0 -88.891520959663467 133.39583336197393 0 0 0 0 316.92203518626047 100.59767291646131 0 100.59767291646131 366.52003874685033 0 0 0 0 382.71921873510291 809.23957527526363 0 809.23957527526363 1252.6428215270407 0 0 0 0 1452.2962214893159 -292.76453677047539 0 -292.76453677047539 480.97059229445586 0 0 0 0 300.86378178218729 116.16844816443336 0 116.16844816443336 -52.739453265996417 0 0 0 0 557.88458972751414 -11.231766241618971 0 -11.231766241618971 6.5056181871623266 0 0 0 0 125.71337182573666 7.8842170997136236 0 7.8842170997136236 130.1906131720898 0 0 0 0 379.91849131768322 46.192749325060504 0 46.192749325060504 -115.52819800649013 0 0 0 0 266.20074961719365 -99.05030158617592 0 -99.05030158617592 52.585041825193912 0 0 0 0 19.712634476185485 29.564874740099185 0 29.564874740099185 -9.5871612318587722 0 0 0 0 1.2506784740617594 -12.920074914653473 0 -12.920074914653473 -4.1639809580375982 0 0 0 0 315.32005190720884 27.523250615173311 0 27.523250615173311 -99.351165262385621 0 0 0 0 69.634500054778982 -5.6319096486804483 0 -5.6319096486804483 16.157885154447285 0 0 0 0 250.55447962752078 197.82521680760328 0 197.82521680760328 163.59666921837561 0 0 0 0 299.77085770576377 57.771070398379379 0 57.771070398379379 -109.54768819469609 0 0 0 0 345.26802298071561 182.83155437334426 0 182.83155437334426 -4.5748714327601192 0 0 0 0 378.85441879328482 37.73093012107438 0 37.73093012107438 -136.12970346181828 0 0 0 0 -5.7714290175463248 39.136743560058676 0 39.136743560058676 -19.701879786596692 0 0 0 0 -3.897140269047874 2.5459490561813425 0 2.5459490561813425 -1.381164802553954 0 0 0 0 16.260661062151485 106.69697536440071 0 106.69697536440071 145.44780503586207 0 0 0 0 -503.53230620646355 26.792974460193363 0 26.792974460193363 554.5295174376879 0 0 0 0 4.1585012871941132 3.846894430924209 0 3.846894430924209 8.6036884117512784 0 0 0 0 -69.083245982792505 -45.070174459389818 0 -45.070174459389818 60.504487810481805 0 0 0 0 -17.955285833199468 33.23713793485058 0 33.23713793485058 105.16656019563379 0 0 0 0 -7.9750015014526729 4.6006810051999789 0 4.6006810051999789 86.780439332992074 0 0 0 0 64.515835903970583 -177.32408423377638 0 -177.32408423377638 299.4703015294217 0 0 0 0 40.205188641230052 -192.63898439492914 0 -192.63898439492914 304.79176999037736 0 0 0 0 82.235498851474404 -356.90344916813046 0 -356.90344916813046 399.68925149804636 0 0 0 0 -451.75821840885328 1047.5567646570125 0 1047.5567646570125 9.1320338419900509 0 0 0 0 271.28302347996214 -330.85284444548597 0 -330.85284444548597 383.17223186057527 0 0 0 0 -742.08639708811916 842.9475282511612 0 842.9475282511612 -418.68808770858595 0 0 0 0 457.64045680222989 -235.47531057865854 0 -235.47531057865854 345.74463200583705 0 0 0 0 195.40817097506806 -252.82961245546176 0 -252.82961245546176 358.10876739404375 0 0 0 0 -5.4061307877479123 -2.2076367267122663 0 -2.2076367267122663 -1.3828192466209828 0 0 0 0 -299.1099354748585 194.32308981853566 0 194.32308981853566 -200.55626293343084 0 0 0 0 -96.062590765213827 336.7328858897672 0 336.7328858897672 -111.83475103364617 0 0 0 0 -518.04873360107376 211.8547999904622 0 211.8547999904622 -7.5221490788244409 0 0 0 0 2.3595285278424853 -93.343905721791089 0 -93.343905721791089 366.62731574262943 0 0 0 0 58.747635364543385 -215.57839432849141 0 -215.57839432849141 323.68634404318436 0 0 0 0 -548.75518667941424 337.74992304167608 0 337.74992304167608 -102.58955420239363 0 0 0 0 -13.07124938052057 -12.295860097798965 0 -12.295860097798965 1.2420379176596157 0 0 0 0 -726.79820012945856 161.25556322848206 0 161.25556322848206 59.750218718305405 0 0 0 0 -605.26258158012297 222.24523081415828 0 222.24523081415828 65.982183806801913 0 0 0 0 -239.37603192927054 192.52172840970161 0 192.52172840970161 82.529105890181654 0 0 0 0 -347.09048344967232 343.09915565071424 0 343.09915565071424 73.993873566112597 0 0 0 0 116.54364186057319 509.69473956450383 0 509.69473956450383 304.91089682598249 0 0 0 0 -549.16907958258162 389.78725195745938 0 389.78725195745938 306.51233483360556 0 0 0 0 -248.48422903028404 123.80735259726134 0 123.80735259726134 553.39055955118238 0 0 0 0 -334.03180684143263 324.18448476576305 0 324.18448476576305 426.81572844918992 0 0 0 0 -0.82283156142332814 -19.984783690241979 0 -19.984783690241979 55.395292188936111 0 0 0 0 -1324.0193341616759 -141.03111894645917 0 -141.03111894645917 419.84110171735665 0 0 0 0 -745.18115539886469 -84.96444994936985 0 -84.96444994936985 -4.4419919459614903 0 0 0 0 -738.94045440518676 74.652225577628997 0 74.652225577628997 332.54236786240381 0 0 0 0 17.983378126558819 -8.7360062940897478 0 -8.7360062940897478 20.316407253587386 0 0 0 0 -116.42591121459191 -11.616364231151238 0 -11.616364231151238 98.555068214394851 0 0 0 0 -1.2253007311376507 -27.322044595435663 0 -27.322044595435663 76.427917418800405 0 0 0 0 -55.138685375990462 -49.505608405554085 0 -49.505608405554085 91.91126585634629 0 0 0 0 -6.7309203281960235 -18.124602050932317 0 -18.124602050932317 51.738917250625946 0 0 0 0 -20.54558745583676 -44.720290540623836 0 -44.720290540623836 3.2031904175682371 0 0 0 0 -861.32451142985883 -344.6770835564821 0 -344.6770835564821 383.52092705671384 0 0 0 0 -324.8610678541263 548.07290478172217 0 548.07290478172217 -12.42584198412078 0 0 0 0 -5.0296988967784273 -80.259453287642827 0 -80.259453287642827 172.89989754857379 0 0 0 0 4.9371311256654948 -0.074584123458237173 0 -0.074584123458237173 33.931431176716785 0 0 0 0 323.15480495606243 184.41781083136084 0 184.41781083136084 158.81156232953799 0 0 0 0 7.5227083732179736 3.9025917932104335 0 3.9025917932104335 -2.2268839382251713 0 0 0 0 -82.440546169626941 828.83210999327275 0 828.83210999327275 -126.35435299495293 0 0 0 0 -164.58902007115739 -8.2394064491818426 0 -8.2394064491818426 71.173420754304971 0 0 0 0 -224.54500864271722 154.39465587344603 0 154.39465587344603 277.90324790636805 0 0 0 0 -188.53356946224812 -215.43466961312515 0 -215.43466961312515 613.10881743594655 0 0 0 0 -370.25722128819143 7.613121871567273 0 7.613121871567273 267.96417338072206 0 0 0 0 -215.04700864995903 -33.73988255779841 0 -33.73988255779841 209.78391525079496 0 0 0 0 -447.93665345145382 751.2604321420331 0 751.2604321420331 2353.7821392759215 0 0 0 0 541.35295472986309 -256.08028156755609 0 -256.08028156755609 -1021.7956495243925 0 0 0 0 145.28337910592609 -601.66720003306909 0 -601.66720003306909 674.69508019689238 0 0 0 0 -282.14651633568792 125.68428219946509 0 125.68428219946509 821.21299808844196 0 0 0 0 -380.05905526392235 -125.55414459691383 0 -125.55414459691383 768.86506106035085 0 0 0 0 -410.14702636919628 -105.83564636595111 0 -105.83564636595111 755.98346436957945 0 0 0 0 -425.42675331172359 -133.39278530178126 0 -133.39278530178126 1065.0948548608867 0 0 0 0 -367.65177991269047 -152.77174872350588 0 -152.77174872350588 679.93601647872129 0 0 0 0 -281.88057129226149 128.762734917535 0 128.762734917535 326.46468311728677 0 0 0 0 -190.99661976225462 -131.40237960715081 0 -131.40237960715081 130.09051961566729 0 0 0 0 -13.625509227664686 -39.851258946775062 0 -39.851258946775062 161.23550514667716 0 0 0 0 3.182387697225316 -7.1418892065019435 0 -7.1418892065019435 13.006079667553138 0 0 0 0 -732.65986048774357 -568.53250561840832 0 -568.53250561840832 -119.39665208733641 0 0 0 0 -122.16587410583088 -69.204767959836317 0 -69.204767959836317 122.10849312490609 0 0 0 0 -186.51592489049631 -43.735056956767039 0 -43.735056956767039 179.85951726208441 0 0 0 0 -147.27740510942022 -50.76907591894269 0 -50.76907591894269 88.05595465330407 0 0 0 0 -123.81389122742257 -104.01460919271631 0 -104.01460919271631 208.38114532240434 0 0 0 0 -68.581436860109534 -11.928135494599701 0 -11.928135494599701 169.79905668986248 0 0 0 0 -66.30365854476986 -34.111672030172485 0 -34.111672030172485 225.5494738865309 0 0 0 0 178.48582079895277 -186.0507417905319 0 -186.0507417905319 251.13457427732374 0 0 0 0 -29.966380938083603 -112.41544229511783 0 -112.41544229511783 256.25386141431227 0 0 0 0 58.616683152453334 -3.5461595647502691 0 -3.5461595647502691 214.64583216809842 0 0 0 0 -63.866676021818421 -157.32050726447778 0 -157.32050726447778 229.89866807510998 0 0 0 0 -22.84464846753508 -77.535534401937184 0 -77.535534401937184 383.61030220006069 0 0 0 0 -1.8015731594993607 -7.0722606190451138 0 -7.0722606190451138 -0.69907019895848066 0 0 0 0 204.03654459937479 -264.86318871212279 0 -264.86318871212279 143.35049490642268 0 0 0 0 -87.756606266953895 -123.78188488178421 0 -123.78188488178421 92.710688975123048 0 0 0 0 -18.015968148987817 -44.930709630729908 0 -44.930709630729908 162.63123434556428 0 0 0 0 -106.18891846859515 -223.73836648842916 0 -223.73836648842916 164.52906154829543 0 0 0 0 -74.572616140889295 -122.51735005069349 0 -122.51735005069349 57.516006061778171 0 0 0 0 -65.280615450557434 -143.03096841094884 0 -143.03096841094884 97.209522844204912 0 0 0 0 639.69126022522937 -2001.3188101141204 0 -2001.3188101141204 1232.8989072376498 0 0 0 0 0.22138301006678018 3.2524566973055968 0 3.2524566973055968 31.206261421592615 0 0 0 0 -405.57366029150666 971.12512883103318 0 971.12512883103318 705.87111153325532 0 0 0 0 -556.40954084499435 454.96336156969483 0 454.96336156969483 1890.0967416192325 0 0 0 0 -292.98172588481066 -441.69492290315975 0 -441.69492290315975 2088.0727384507245 0 0 0 0 -373.05429176721691 -18.984819562276243 0 -18.984819562276243 933.29132876090443 0 0 0 0 -340.36596422583671 622.52709783778482 0 622.52709783778482 743.37208007501613 0 0 0 0 -267.55862190286825 475.84730018292612 0 475.84730018292612 643.90709249221254 0 0 0 0 -247.29777324602856 185.14448513304887 0 185.14448513304887 785.19211287825601 0 0 0 0 -351.5240739242472 183.25603554974077 0 183.25603554974077 1132.4473199089407 0 0 0 0 -346.51252045811452 -105.91216432486544 0 -105.91216432486544 775.02061559104823 0 0 0 0 -314.69235339649549 -23.862358854459671 0 -23.862358854459671 904.60474887720193 0 0 0 0 -373.09354709494414 -89.349460129107683 0 -89.349460129107683 774.91401576905628 0 0 0 0 -379.34667966037341 -159.56446644189418 0 -159.56446644189418 768.85652910976569 0 0 0 0 -241.64159332288 -198.60219923447585 0 -198.60219923447585 380.34716754284091 0 0 0 0 -19.74273686036895 -317.67557330465934 0 -317.67557330465934 25.512819306895835 0 0 0 0 -228.99343562939293 -126.28176432741748 0 -126.28176432741748 357.24967987120908 0 0 0 0 -134.341620590194 -204.74892831266334 0 -204.74892831266334 -213.14155427263177 0 0 0 0 155.57553608683702 -321.47969220977393 0 -321.47969220977393 288.37991640492328 0 0 0 0 139.723291899733 -233.78152614471765 0 -233.78152614471765 313.78138424923236 0 0 0 0 -107.36157448919994 -388.11158236466144 0 -388.11158236466144 849.23181770961673 0 0 0 0 832.98942451292817 -960.39879429955909 0 -960.39879429955909 1027.3083771827223 0 0 0 0 529.9868049861584 -224.97667606891446 0 -224.97667606891446 -88.174424084223574 0 0 0 0 439.15239631903626 121.97117962322955 0 121.97117962322955 -116.29931299729651 0 0 0 0 424.99337553113241 -127.56313513693021 0 -127.56313513693021 170.11110466494574 0 0 0 0 1512.7111133990279 17.005810607537569 0 17.005810607537569 60.854286079047597 0 0 0 0 193.77235100412133 29.587964967897278 0 29.587964967897278 -118.93620143519365 0 0 0 0 161.01154477803095 36.026573900229323 0 36.026573900229323 -107.18358872912358 0 0 0 0 185.58371113537578 -80.646139655218576 0 -80.646139655218576 -147.48514154726581 0 0 0 0 196.09214433366753 -123.70037004182029 0 -123.70037004182029 -199.36510265021934 0 0 0 0 -36.402306834642332 -119.70911344610067 0 -119.70911344610067 -118.56270704578492 0 0 0 0 -105.3013570499561 -335.88077909554704 0 -335.88077909554704 -217.74529423990498 0 0 0 0 -0.20162883318675995 -133.65580045052411 0 -133.65580045052411 63.843849529861473 0 0 0 0 100.74693466631334 -291.48920760446345 0 -291.48920760446345 -127.37221809625044 0 0 0 0 -10.854214195976056 -168.21316341335478 0 -168.21316341335478 -259.09965653219842 0 0 0 0 -362.00643082264651 -155.70765059922269 0 -155.70765059922269 -10.07740666209429 0 0 0 0 -375.96715085624419 -488.13109439922846 0 -488.13109439922846 -54.868234701600159 0 0 0 0 -257.16615642254555 -223.71327261571969 0 -223.71327261571969 -7.7272377848858014 0 0 0 0 25.60581073537081 -34.930951227465528 0 -34.930951227465528 48.707635746407732 0 0 0 0 -276.06500334765678 -148.28445611471761 0 -148.28445611471761 47.626926765689859 0 0 0 0 -20.977770703253142 -24.075689818075553 0 -24.075689818075553 131.57827416083683 0 0 0 0 -149.31991934907091 -101.99301501803711 0 -101.99301501803711 152.84804624893877 0 0 0 0 -173.94427769909714 -123.60584286432004 0 -123.60584286432004 -4.6939340896205977 0 0 0 0 -168.16231577997189 -195.29107189174283 0 -195.29107189174283 -51.571276268543443 0 0 0 0 -85.042538050089206 -66.165257146974909 0 -66.165257146974909 104.54882855816686 0 0 0 0 -79.355454929917869 4.6056609957158798 0 4.6056609957158798 137.01446258465876 0 0 0 0 -89.335449009600779 -6.45543929428095 0 -6.45543929428095 153.97093898487947 0 0 0 0 -113.94301655119125 -111.0737214539331 0 -111.0737214539331 46.627127671039489 0 0 0 0 -31.62950855686211 -16.602450204587534 0 -16.602450204587534 117.85920579983235 0 0 0 0 -144.53214935043849 -119.72657447693484 0 -119.72657447693484 57.655488515898469 0 0 0 0 -113.27238003418461 -84.836840126052266 0 -84.836840126052266 58.01489446611231 0 0 0 0 -145.33735702812919 -91.888371896471654 0 -91.888371896471654 71.911686566832941 0 0 0 0 49.060104485640295 -87.500184342949069 0 -87.500184342949069 -106.42387451934337 0 0 0 0 26.916620170101751 -50.987432960015838 0 -50.987432960015838 58.580832247868159 0 0 0 0 -5.2179156435390723 -138.14719619738753 0 -138.14719619738753 -66.238711232574133 0 0 0 0 4.694117340044599 -93.583805354630385 0 -93.583805354630385 -0.63364652937161736 0 0 0 0 9.721529205527677 -33.079731278139349 0 -33.079731278139349 -24.831290814197217 0 0 0 0 54.393244494834107 -102.58537305895879 0 -102.58537305895879 76.911227717719157 0 0 0 0 44.116870772611492 -103.44461791663707 0 -103.44461791663707 116.24718494896661 0 0 0 0 68.788969108296953 -38.723204129117221 0 -38.723204129117221 -37.785877394897398 0 0 0 0 65.20976248523516 -5.3955457559786737 0 -5.3955457559786737 -127.15809153999726 0 0 0 0 -27.721498156750386 -83.907291913954396 0 -83.907291913954396 132.3980411061857 0 0 0 0 6.9976784325299377 -25.808694138999272 0 -25.808694138999272 105.07965481602514 0 0 0 0 25.177469071402811 -92.405938568761485 0 -92.405938568761485 52.69136493325459 0 0 0 0 -15.896485291005774 -71.236740023472521 0 -71.236740023472521 256.72013693765621 0 0 0 0 10.585952628269297 57.499640853166056 0 57.499640853166056 5.0524444238944852 0 0 0 0 16.157996015837853 19.25049905709966 0 19.25049905709966 98.5264911385093 0 0 0 0 -75.32586050467944 -60.500116883027658 0 -60.500116883027658 346.97560858879297 0 0 0 0 -43.397254190700551 48.533400466139028 0 48.533400466139028 136.56304003112018 0 0 0 0 -20.421330075771039 -33.260416348599392 0 -33.260416348599392 103.31394244449621 0 0 0 0 -81.040931271374575 -23.75632430116093 0 -23.75632430116093 146.7451613393132 0 0 0 0 -98.43317687490071 -87.734054258411561 0 -87.734054258411561 98.302955293911509 0 0 0 0 -91.632139034458305 -65.145523221690382 0 -65.145523221690382 96.565756084346503 0 0 0 0 -87.874350993762164 -92.437078089675197 0 -92.437078089675197 72.690894944957108 0 0 0 0 -98.046401995989072 -58.608165771533095 0 -58.608165771533095 135.57188082962966 0 0 0 0 -16.802244081758811 -33.081375361333393 0 -33.081375361333393 146.05912610721586 0 0 0 0 14.259663382849816 -22.739976073240541 0 -22.739976073240541 32.060907733679471 0 0 0 0 -272.99054132747915 -354.07366132506286 0 -354.07366132506286 -145.85050908860285 0 0 0 0 -185.49737924230431 -258.12040462887671 0 -258.12040462887671 -149.36834957727115 0 0 0 0 -143.75780101486453 -358.3408860901327 0 -358.3408860901327 -194.53495152371761 0 0 0 0 -65.246870686058173 -70.680395802119165 0 -70.680395802119165 76.88580169560737 0 0 0 0 -136.4727097496625 -129.09364988536254 0 -129.09364988536254 113.85046822577715 0 0 0 0 -293.99918053588772 -268.03267014160519 0 -268.03267014160519 -117.48037503102387 0 0 0 0 -57.142274094967433 -39.357219502656335 0 -39.357219502656335 211.44780830935633 0 0 0 0 -72.20972511251739 -89.603618948276562 0 -89.603618948276562 150.46313518585521 0 0 0 0 -26.676873686351428 -50.178500645823078 0 -50.178500645823078 225.07010970602278 0 0 0 0 -67.888946523049526 -12.554986486415146 0 -12.554986486415146 190.74422171623519 0 0 0 0 -137.77427643545343 -40.035761536782957 0 -40.035761536782957 152.03567765351909 0 0 0 0 -74.772157024162539 -68.369134527598362 0 -68.369134527598362 158.2701771146385 0 0 0 0 -103.0768627333473 -29.685527934132551 0 -29.685527934132551 202.38517086712818 0 0 0 0 -39.544626889333813 -15.778644552650803 0 -15.778644552650803 165.79096021956502 0 0 0 0 -94.481013104110389 -16.714847312679922 0 -16.714847312679922 206.82768898001814 0 0 0 0 -57.842680669250967 26.689779893999912 0 26.689779893999912 297.91539528023714 0 0 0 0 56.572969439486769 74.498874875862384 0 74.498874875862384 250.82587420278287 0 0 0 0 26.366860256308428 -8.2969079742906615 0 -8.2969079742906615 186.43925556096656 0 0 0 0 -5.5656201927258735 52.75801369283181 0 52.75801369283181 365.2279487743217 0 0 0 0 28.817892000235588 67.803156286980084 0 67.803156286980084 331.11112327376031 0 0 0 0 69.548149865458981 45.74277133355281 0 45.74277133355281 342.59213081220878 0 0 0 0 27.466384065306556 29.466863481669861 0 29.466863481669861 381.5454877638731 0 0 0 0 -60.467891068565223 -158.92266520169687 0 -158.92266520169687 -198.11258707794332 0 0 0 0 1.8630361309384185 -7.3734013761799702 0 -7.3734013761799702 8.2738450642059433 0 0 0 0 -122.13898321511033 -63.670390665405648 0 -63.670390665405648 34.917364639200969 0 0 0 0 -97.291667029773635 -90.723198161707842 0 -90.723198161707842 64.907050948037067 0 0 0 0 -60.405741639344342 -23.518014655150182 0 -23.518014655150182 2.4391378321670345 0 0 0 0 95.264703765147715 224.14662859193049 0 224.14662859193049 517.2029955389371 0 0 0 0 51.313162941545215 56.041308582050988 0 56.041308582050988 316.31189317475946 0 0 0 0 8.5069566611491609 86.640400593656523 0 86.640400593656523 396.06491168835782 0 0 0 0 2.4705532727020909 131.56932912165939 0 131.56932912165939 302.9136126608937 0 0 0 0 -39.640320779351896 68.049913682451006 0 68.049913682451006 174.55767530358571 0 0 0 0 56.549338926539349 247.44544087292161 0 247.44544087292161 180.69039480552419 0 0 0 0 -38.652800476335415 58.968998779579124 0 58.968998779579124 203.16117371931614 0 0 0 0 227.08121779877365 28.676568808237789 0 28.676568808237789 309.48767303162094 0 0 0 0 14.193692359698616 280.73351216879382 0 280.73351216879382 265.35507493419573 0 0 0 0 9.2424492738782646 226.32951554973806 0 226.32951554973806 -44.878122947673546 0 0 0 0 14.042845626690905 217.21263492776052 0 217.21263492776052 281.06206658667361 0 0 0 0 -9.7489164767903276 237.56306972866878 0 237.56306972866878 434.01864872410079 0 0 0 0 1.2875513380658958 235.89213316479436 0 235.89213316479436 411.21551630502563 0 0 0 0 4.3643103243894146 -11.360764179618968 0 -11.360764179618968 12.026008384232313 0 0 0 0 -38.477317108568968 -122.25057613539684 0 -122.25057613539684 -161.60061527893413 0 0 0 0 -88.837907856935999 -58.623428629034606 0 -58.623428629034606 181.26602348147208 0 0 0 0 -86.409105490625734 80.388804933834763 0 80.388804933834763 88.971374063403346 0 0 0 0 5.8800198153355225 -14.143695107661443 0 -14.143695107661443 13.789656611176298 0 0 0 0 29.497565639453569 -192.46567726584544 0 -192.46567726584544 -13.784712791675702 0 0 0 0 -29.379212309839204 -212.24126678075299 0 -212.24126678075299 176.63598274782998 0 0 0 0 20.997535358756068 73.322721531047137 0 73.322721531047137 216.72818577313683 0 0 0 0 -5.3946191894735485 -0.60847879095672397 0 -0.60847879095672397 4.5651153830568774 0 0 0 0 36.420244171781405 47.002742530694377 0 47.002742530694377 -13.802282527147327 0 0 0 0 -0.38596613602306107 5.08802546289823 0 5.08802546289823 11.757484176512538 0 0 0 0 11.935029140759525 16.098194697253348 0 16.098194697253348 203.42498076441552 0 0 0 0 -38.027595792434113 -40.192191030386311 0 -40.192191030386311 -22.664428988500731 0 0 0 0 -28.17614679814977 -7.4242499221427778 0 -7.4242499221427778 36.914291809667134 0 0 0 0 4.261687526978676 2.6293516682853806 0 2.6293516682853806 11.775323245274194 0 0 0 0 -161.19102210789424 -31.454185013542883 0 -31.454185013542883 199.86712559150328 0 0 0 0 -31.912481627611999 -4.7622268425236314 0 -4.7622268425236314 4.8996922123418969 0 0 0 0 6.7187207187762397 -70.081728845332691 0 -70.081728845332691 110.14102583646309 0 0 0 0 -186.22573951012123 19.937475027571054 0 19.937475027571054 109.70682937311358 0 0 0 0 -142.03608928379163 -47.895691989731858 0 -47.895691989731858 57.563654021825641 0 0 0 0 -65.580968873596248 -11.762091602111468 0 -11.762091602111468 54.701932383401072 0 0 0 0 -97.054082507864223 60.477173926294199 0 60.477173926294199 111.57851801572542 0 0 0 0 58.625455986760244 15.710536199865601 0 15.710536199865601 67.209044514747802 0 0 0 0 -39.58332065639479 153.27190394859645 0 153.27190394859645 136.86740314704366 0 0 0 0 -72.431144821774069 10.451976770855254 0 10.451976770855254 193.9561941170009 0 0 0 0 -10.915820980443755 -37.066251121308596 0 -37.066251121308596 93.027235553716309 0 0 0 0 -48.024946013397098 -8.582708683462215 0 -8.582708683462215 3.6472381856713101 0 0 0 0 -49.283716250100497 20.728475835174322 0 20.728475835174322 67.740431489992261 0 0 0 0 -57.072510239459007 -36.044349271149258 0 -36.044349271149258 108.77190083123423 0 0 0 0 -66.975351082127418 -34.521406705083791 0 -34.521406705083791 94.072375408068183 0 0 0 0 -58.214050499617542 -44.056592508830363 0 -44.056592508830363 74.032095343616675 0 0 0 0 -50.556076634777355 -25.601438906509429 0 -25.601438906509429 48.956403781296103 0 0 0 0 -66.750459049333244 -24.943926744686905 0 -24.943926744686905 98.971912377914123 0 0 0 0 -29.386263184630852 -14.050464235567652 0 -14.050464235567652 43.169483391915804 0 0 0 0 -13.172697635904719 -4.2149831051073505 0 -4.2149831051073505 8.0416734849672764 0 0 0 0 -49.289592159177118 32.851970920455642 0 32.851970920455642 207.18584320528316 0 0 0 0 -17.781107438073377 89.629103418250452 0 89.629103418250452 273.52419379088678 0 0 0 0 14.542917933391436 -97.376213088798977 0 -97.376213088798977 66.305462569987867 0 0 0 0 5.4509759636684976 -107.92547895789539 0 -107.92547895789539 256.96821658840054 0 0 0 0 -91.54616002854948 18.824085393014116 0 18.824085393014116 191.95552880488685 0 0 0 0 -64.425521940407634 -68.596690893973573 0 -68.596690893973573 58.510041763311165 0 0 0 0 -64.321180924529472 -83.320256301769405 0 -83.320256301769405 249.02515192714054 0 0 0 0 -6.3523832894613861 -28.177352701055497 0 -28.177352701055497 174.72760345262941 0 0 0 0 -13.258513705352101 -53.153458255529927 0 -53.153458255529927 30.402917762035599 0 0 0 0 -44.903690681427634 -0.11207770954933949 0 -0.11207770954933949 212.22722019521098 0 0 0 0 -0.55787135976606805 -46.433331878317404 0 -46.433331878317404 31.898248867830262 0 0 0 0 -13.656988141256505 11.860511791650467 0 11.860511791650467 95.496248109530768 0 0 0 0 -15.263168312430707 -60.341481762854528 0 -60.341481762854528 101.56901317360462 0 0 0 0 6.7566910642097469 -78.101036994654351 0 -78.101036994654351 201.03897896033595 0 0 0 0 4.6298098152601597 -56.538386204381823 0 -56.538386204381823 97.406650145007006 0 0 0 0 5.9073334394961421 -16.367965314289904 0 -16.367965314289904 64.393005861580605 0 0 0 0 -24.427825271957431 -64.918332914159691 0 -64.918332914159691 106.75109835836338 0 0 0 0 89.912028613071925 -58.554606538295047 0 -58.554606538295047 105.06198662853421 0 0 0 0 -26.390430554980185 -60.750268941374088 0 -60.750268941374088 157.63088306781719 0 0 0 0 -61.185678415181485 -29.967198313995453 0 -29.967198313995453 47.669801392571969 0 0 0 0 113.51911240346999 -190.29064455477055 0 -190.29064455477055 118.05727157487127 0 0 0 0 -45.387818663610517 -51.082553539301443 0 -51.082553539301443 288.64855193669791 0 0 0 0 57.16795774832957 -136.83913538475463 0 -136.83913538475463 162.02013904610067 0 0 0 0 -4.317472667782007 -7.5748376376855191 0 -7.5748376376855191 -8.2399883366240942 0 0 0 0 -6.0172292413383275 -66.59991420363076 0 -66.59991420363076 103.07403046068794 0 0 0 0 44.051933997245442 -88.847665027642506 0 -88.847665027642506 63.798023914161604 0 0 0 0 40.414397892560373 -110.58498535875697 0 -110.58498535875697 250.71548375146085 0 0 0 0 7.9540078836653274 -53.25043876814857 0 -53.25043876814857 24.522553770240769 0 0 0 0 16.498315908337897 -11.531655064578885 0 -11.531655064578885 -20.261244937644875 0 0 0 0 -19.587201457450647 -2.258348337301868 0 -2.258348337301868 285.17030107695609 0 0 0 0 92.507044007534205 2.7455584480921971 0 2.7455584480921971 201.03309990050911 0 0 0 0 10.854902419578139 -27.345422328078712 0 -27.345422328078712 248.31703385680157 0 0 0 0 54.923280255818781 -97.125191550632735 0 -97.125191550632735 357.92302530087181 0 0 0 0 -33.582217052901797 -38.91111634587287 0 -38.91111634587287 356.82488040722092 0 0 0 0 -46.259444437182538 -13.10206290979113 0 -13.10206290979113 343.59636667597806 0 0 0 0 -44.030552198722944 -13.628169805284415 0 -13.628169805284415 297.37864921032451 0 0 0 0 -25.28578561480208 27.914051455125446 0 27.914051455125446 271.2882551276125 0 0 0 0 -33.296857641931638 35.705263949072105 0 35.705263949072105 300.96309280396963 0 0 0 0 -26.972543417611405 -8.7397854441715026 0 -8.7397854441715026 252.23612982622581 0 0 0 0 20.714557654500823 89.791251059432398 0 89.791251059432398 452.76975809469877 0 0 0 0 -2.1053633011664399 -7.7115032032438648 0 -7.7115032032438648 14.317075988392823 0 0 0 0 -27.738421741216825 -79.850032220092544 0 -79.850032220092544 160.83880538959056 0 0 0 0 -5.5771487756645755 -52.707775504176126 0 -52.707775504176126 95.617587846723211 0 0 0 0 -22.669747281718628 -47.075028247279988 0 -47.075028247279988 91.656439759135537 0 0 0 0 -20.233181195618272 -68.591162565404375 0 -68.591162565404375 210.07855572356493 0 0 0 0 -1.8715669024284427 -3.173884424821523 0 -3.173884424821523 33.043902841199355 0 0 0 0 -6.9512284450356674 -42.722746262537839 0 -42.722746262537839 260.16788408614229 0 0 0 0 -93.362027231973116 24.194947115582181 0 24.194947115582181 128.03288380543745 0 0 0 0 -70.471315350475379 -1.2432629088652902 0 -1.2432629088652902 37.678991284585209 0 0 0 0 4.7721427170722919 -1.3618065559283536 0 -1.3618065559283536 -3.2445757774333401 0 0 0 0 8.3119346156545362 -184.82624278610456 0 -184.82624278610456 644.56625803982024 0 0 0 0 -2.5907091898861836 -42.885546614852501 0 -42.885546614852501 259.16086116395309 0 0 0 0 44.789923112060933 -135.87428517632361 0 -135.87428517632361 423.82054704567418 0 0 0 0 -29.876230235549883 30.440942520290264 0 30.440942520290264 567.0881387652189 0 0 0 0 -28.65926090832636 118.64803075783857 0 118.64803075783857 232.59766187943023 0 0 0 0 -55.244668507537426 121.09237316248618 0 121.09237316248618 387.96457032261333 0 0 0 0 -85.92870641319314 44.642183228701469 0 44.642183228701469 116.60233643974061 0 0 0 0 -6.1923050224719027 8.8541233188698811 0 8.8541233188698811 4.8405288788608329 0 0 0 0 -9.8269919033427868 2.898024172623991 0 2.898024172623991 71.031059420974998 0 0 0 0 -20.491425279393297 12.203729402332101 0 12.203729402332101 138.73061968290858 0 0 0 0 -2.3401325890099542 6.3646553597973252 0 6.3646553597973252 137.23462092105183 0 0 0 0 -1.7284506233557799 4.4627491634926173 0 4.4627491634926173 10.57627782254006 0 0 0 0 19.685390162352178 -3.7066268792113988 0 -3.7066268792113988 105.50938440972823 0 0 0 0 16.600611695163025 7.6811688709567534 0 7.6811688709567534 126.89132017962402 0 0 0 0 -9.2915813689014612 15.381823009141954 0 15.381823009141954 131.26986057196336 0 0 0 0 -5.9443743836200831 7.7524581888973216 0 7.7524581888973216 7.9947519827671307 0 0 0 0 -4.1256315343161365 3.0275305069859542 0 3.0275305069859542 9.4343191622861546 0 0 0 0 -9.6160724170554204 -34.916095160338955 0 -34.916095160338955 67.567314639760298 0 0 0 0 -9.9340932930299459 2.8320497699169209 0 2.8320497699169209 108.12440405672533 0 0 0 0 -11.713642543651986 32.076084417923994 0 32.076084417923994 112.13795055824448 0 0 0 0 27.745013891871167 -22.191606531559955 0 -22.191606531559955 83.541272842005128 0 0 0 0 4.6073900136177564 -12.65861916044544 0 -12.65861916044544 19.126922165774829 0 0 0 0 31.587106142175799 32.611871318142221 0 32.611871318142221 87.809831664417288 0 0 0 0 7.3092009592764953 6.9439674914901843 0 6.9439674914901843 248.06823563684088 0 0 0 0 8.5035518034319466 15.293143869188498 0 15.293143869188498 204.17667123490537 0 0 0 0 56.637367862047086 -8.8783196434233105 0 -8.8783196434233105 124.74472169997171 0 0 0 0 29.874457531248481 16.501815362036723 0 16.501815362036723 93.881326865055598 0 0 0 0 -30.399100511782763 25.668446114221297 0 25.668446114221297 99.577342174088699 0 0 0 0 24.879027547939359 32.17039583667065 0 32.17039583667065 22.537977381012752 0 0 0 0 -1.8826796651594577 6.1288799080211902 0 6.1288799080211902 84.724035830702633 0 0 0 0 -1.6290512105897665 8.1288677157629934 0 8.1288677157629934 26.23782118501083 0 0 0 0 -6.4635033533772646 -10.563779665928294 0 -10.563779665928294 40.433965658910267 0 0 0 0 -18.999411614776136 19.25399323804595 0 19.25399323804595 129.03340001711331 0 0 0 0 -4.1269069207459097 1.0050437383470125 0 1.0050437383470125 51.392128057428636 0 0 0 0 5.1372540399266882 -2.9208536694932263 0 -2.9208536694932263 78.090447681315709 0 0 0 0 6.5180444772286137 3.5197004280053079 0 3.5197004280053079 83.382558774930658 0 0 0 0 -2.7904302569732806 1.6164244038413074 0 1.6164244038413074 36.763308961755563 0 0 0 0 4.7690206800270012 5.9441215442238615 0 5.9441215442238615 45.479315200169822 0 0 0 0 -5.9935655657049516 -8.158148866498891 0 -8.158148866498891 44.328218709219641 0 0 0 0 3.6463801125919417 1.1457483962585684 0 1.1457483962585684 108.47427723882356 0 0 0 0 3.6438101596029826 0.33981667496396994 0 0.33981667496396994 31.965229696174887 0 0 0 0 7.0112810321097641 0.9596338909905171 0 0.9596338909905171 85.608630587360949 0 0 0 0 3.5216746132433601 -3.348746964182709 0 -3.348746964182709 22.830080059621945 0 0 0 0 6.0427838989569027 15.78213326096926 0 15.78213326096926 39.958047968389906 0 0 0 0 27.398270557061551 -2.0045833617332391 0 -2.0045833617332391 76.244857487166882 0 0 0 0 -7.685496663698701 16.232631066650356 0 16.232631066650356 69.013391475192975 0 0 0 0 -40.353399403533132 61.890061809126564 0 61.890061809126564 98.441244793706574 0 0 0 0 -0.011247016926859033 50.344725851420662 0 50.344725851420662 93.472227952763205 0 0 0 0 36.751453410483265 -106.99698849319611 0 -106.99698849319611 231.99955501777004 0 0 0 0 -3.0885769632280953 11.517598102635084 0 11.517598102635084 4.4272678480126046 0 0 0 0 51.145226172312277 162.42827932664659 0 162.42827932664659 258.23463774425909 0 0 0 0 159.82779436582337 64.580696545584942 0 64.580696545584942 139.02596733780229 0 0 0 0 6.8930286786526267 25.249050179932965 0 25.249050179932965 92.202169798896648 0 0 0 0 10.229953341192981 -24.76065503602149 0 -24.76065503602149 97.177919280591595 0 0 0 0 5.8105685164682654 7.5789130101038609 0 7.5789130101038609 81.807379355188459 0 0 0 0 -98.035513408185764 -11.27046183790344 0 -11.27046183790344 280.70372483719257 0 0 0 0 -2.3245913257973294 -3.0106271979575467 0 -3.0106271979575467 26.039766898326732 0 0 0 0 2.7731655575661307 9.0420403711250401 0 9.0420403711250401 81.479319735008175 0 0 0 0 -4.9135250716503061 -8.1607566091525996 0 -8.1607566091525996 30.316264833496291 0 0 0 0 -3.3377794404175063 5.516064065926912 0 5.516064065926912 30.515168272875599 0 0 0 0 -0.078971895753061405 -1.0413465713387779 0 -1.0413465713387779 4.8607492317124095 0 0 0 0 1.4083150682124579 4.3805911048879267 0 4.3805911048879267 51.683244597304054 0 0 0 0 -2.0597071332094714 -1.6932546409101974 0 -1.6932546409101974 14.416624783392933 0 0 0 0 -3.2913356825602147 10.538762232761783 0 10.538762232761783 26.919932184703498 0 0 0 0 -11.682552771445899 2.210821308712184 0 2.210821308712184 55.856819356631604 0 0 0 0 47.087186293314971 -89.381619197069085 0 -89.381619197069085 192.24746865218322 0 0 0 0 -7.9240247150962659 -37.699485856723186 0 -37.699485856723186 138.46612561457005 0 0 0 0 -80.301599062719561 29.179451911244541 0 29.179451911244541 343.7222225265723 0 0 0 0 -9.4864227733120927 -15.849195734618434 0 -15.849195734618434 14.923122744142546 0 0 0 0 -7.0853970332869389 -32.176727095718604 0 -32.176727095718604 87.556619154462993 0 0 0 0 -24.235484952523109 -32.438042804897123 0 -32.438042804897123 145.78036857942061 0 0 0 0 -50.422445630590232 -146.04186825001671 0 -146.04186825001671 287.57911952285212 0 0 0 0 16.518300361665524 40.514509614484268 0 40.514509614484268 4.6016506863816176 0 0 0 0 1.6854211498329488 3.1276109203005404 0 3.1276109203005404 -3.323851352623592 0 0 0 0 -10.405542892838625 12.164897816272003 0 12.164897816272003 30.498200069991501 0 0 0 0 6.2800969447771422 -4.2346805180495721 0 -4.2346805180495721 49.083695508918026 0 0 0 0 3.763269481689349 -4.0569384514092235 0 -4.0569384514092235 50.829739258282643 0 0 0 0 5.8675580320145286 -24.366959152633171 0 -24.366959152633171 86.420946589583764 0 0 0 0 -6.0107543894137052 1.2768683980757487 0 1.2768683980757487 63.566276420919166 0 0 0 0 -7.9743373494306926 -14.69010095521341 0 -14.69010095521341 48.669734907997253 0 0 0 0 -8.6970054896019064 -10.885902618596447 0 -10.885902618596447 97.921264351301943 0 0 0 0 -6.8522583265184949 -3.8067588188569061 0 -3.8067588188569061 77.227470258214453 0 0 0 0 -10.891873217108902 0.48183220145645578 0 0.48183220145645578 17.182476070605745 0 0 0 0 -14.885784823351059 1.1596275845913624 0 1.1596275845913624 132.73184011310514 0 0 0 0 30.015630383459666 -18.805281259214098 0 -18.805281259214098 73.023984588129679 0 0 0 0 -10.785626986906209 37.563414088246645 0 37.563414088246645 207.87999122934343 0 0 0 0 -9.0542184656508198 -32.080741602352646 0 -32.080741602352646 212.66619858769991 0 0 0 0 -13.432485974337638 33.370426135097233 0 33.370426135097233 30.499520912778124 0 0 0 0 -6.8630588752315456 -18.083708089843824 0 -18.083708089843824 101.45580205123468 0 0 0 0 -55.480596839730651 -9.7556731140575721 0 -9.7556731140575721 133.86322416412986 0 0 0 0 -41.512997863209421 25.02637164963744 0 25.02637164963744 173.29597723316692 0 0 0 0 -19.718789501876017 -16.347765246388917 0 -16.347765246388917 104.08063909612247 0 0 0 0 -1.0791411372933908 31.906433837342774 0 31.906433837342774 90.491448750719428 0 0 0 0 -13.034541686140088 31.231419379030584 0 31.231419379030584 32.454826840899202 0 0 0 0 0.12744886980999581 -21.859536048090376 0 -21.859536048090376 30.100773968821159 0 0 0 0 -0.5202080228936925 1.2946715986483355 0 1.2946715986483355 6.8097948279399532 0 0 0 0 18.107077502023799 89.7490638882864 0 89.7490638882864 233.07592190476134 0 0 0 0 87.90672693016495 -33.821399390079023 0 -33.821399390079023 28.134862542850897 0 0 0 0 -21.729482394309343 -15.307253635495726 0 -15.307253635495726 244.12349909846489 0 0 0 0 3.9289514302422504 134.53785175454686 0 134.53785175454686 239.73999029237166 0 0 0 0 -1.3599844512793884 -15.799752632748081 0 -15.799752632748081 96.873810720816778 0 0 0 0 -109.12404542364129 -95.955056817798322 0 -95.955056817798322 99.049821264052298 0 0 0 0 -87.312236856560048 22.975638776275446 0 22.975638776275446 128.24741390661802 0 0 0 0 11.029762486743493 -151.03477509984077 0 -151.03477509984077 107.76185582793914 0 0 0 0 48.65042485093727 -77.685297417134279 0 -77.685297417134279 136.38439855037723 0 0 0 0 -11.1176653292423 53.320933242604951 0 53.320933242604951 66.1431735400256 0 0 0 0 -19.647539114876523 39.790297903753526 0 39.790297903753526 72.311020514083793 0 0 0 0 -265.96437006069209 148.75136362831108 0 148.75136362831108 35.769962852878962 0 0 0 0 93.847330325133726 138.51882395884604 0 138.51882395884604 -204.22739657058264 0 0 0 0 -199.82788976526081 23.046325948482263 0 23.046325948482263 120.5715332676773 0 0 0 0 -277.93254330630748 34.460589028007234 0 34.460589028007234 126.1608423293801 0 0 0 0 -80.154826299951083 21.686843387898989 0 21.686843387898989 120.06564385065576 0 0 0 0 -128.24260707798203 -24.772457075567218 0 -24.772457075567218 145.69687543794862 0 0 0 0 -80.37806973592609 17.635694072872866 0 17.635694072872866 130.46075329631276 0 0 0 0 -8.0473665457129613 16.337088411073637 0 16.337088411073637 111.43774232476426 0 0 0 0 -8.7632512723576781 11.898919669791212 0 11.898919669791212 100.08644058545178 0 0 0 0 -34.123060101331589 42.248404807294719 0 42.248404807294719 92.496149064769725 0 0 0 0 -4.8993467012770111 23.643379073640972 0 23.643379073640972 93.711127312679309 0 0 0 0 -10.24200287175325 13.031147409077676 0 13.031147409077676 146.15977965272032 0 0 0 0 3.6645182685568898 16.985661347833229 0 16.985661347833229 93.50464355204258 0 0 0 0 -28.111602616175219 40.313827087062236 0 40.313827087062236 199.01188186177751 0 0 0 0 -52.173353374944782 -63.118535374320345 0 -63.118535374320345 34.336685123955249 0 0 0 0 -65.897195685651013 -88.664729685464408 0 -88.664729685464408 48.549186908305273 0 0 0 0 -1.3752753863187113 2.6990868784195783 0 2.6990868784195783 19.992827167693065 0 0 0 0 -12.874575890095656 55.072104547551135 0 55.072104547551135 135.74988462511465 0 0 0 0 -74.493648925668595 -57.410597161840997 0 -57.410597161840997 84.108265964430757 0 0 0 0 -75.620328153972423 -51.83362549424055 0 -51.83362549424055 95.248013133124914 0 0 0 0 -152.1849833574438 -71.395859157579252 0 -71.395859157579252 99.211572700471152 0 0 0 0 -60.017116432256898 -107.22342624781595 0 -107.22342624781595 107.05925514333649 0 0 0 0 -251.82516328884981 -165.59791911975481 0 -165.59791911975481 196.09966979973251 0 0 0 0 -104.81023395056923 -13.439504305628361 0 -13.439504305628361 129.19098908660817 0 0 0 0 -218.91949121411318 0.94406908953442326 0 0.94406908953442326 140.63730344487703 0 0 0 0 -74.2945536135976 8.2338073282517144 0 8.2338073282517144 119.42121889290866 0 0 0 0 -109.67315100256565 -25.517753465494025 0 -25.517753465494025 94.8670979901799 0 0 0 0 -36.066049765813204 -20.72872742456093 0 -20.72872742456093 94.289117786916904 0 0 0 0 -71.923048254035166 40.92346815187193 0 40.92346815187193 104.59282527132564 0 0 0 0 -62.679833538338244 32.916113406317891 0 32.916113406317891 96.093808022269513 0 0 0 0 -59.942630391879163 49.538825822708532 0 49.538825822708532 103.27537954613217 0 0 0 0 -54.13637537944669 55.163572563709749 0 55.163572563709749 114.30134241633641 0 0 0 0 -100.7128236956296 41.214998661405843 0 41.214998661405843 131.37074332327029 0 0 0 0 -84.694707448299596 23.393923074312625 0 23.393923074312625 97.332401698295143 0 0 0 0 -15.314953982043335 -39.636620134631812 0 -39.636620134631812 126.3718701518228 0 0 0 0 -60.504472154570522 0.99432500930561218 0 0.99432500930561218 76.982801283869776 0 0 0 0 34.146700743909605 0.076032879172998946 0 0.076032879172998946 76.653275454175855 0 0 0 0 5.0180482079949797 -47.775658718470368 0 -47.775658718470368 114.0470912832825 0 0 0 0 33.908608271807907 10.211575715060462 0 10.211575715060462 142.50442809866945 0 0 0 0 -31.962514585376084 -10.987557805594406 0 -10.987557805594406 136.49771821594913 0 0 0 0 45.48628327101278 -40.828476648137439 0 -40.828476648137439 115.23970815868597 0 0 0 0 -72.224676225865437 -50.124177292847889 0 -50.124177292847889 32.780255114579631 0 0 0 0 -3.7395754431830035 0.54437452255368157 0 0.54437452255368157 -2.2087266176620108 0 0 0 0 -18.925953370420984 -16.170496128630475 0 -16.170496128630475 50.715777609031647 0 0 0 0 -12.516731148541737 27.261186701050974 0 27.261186701050974 132.99814043210063 0 0 0 0 -30.125579727124773 -75.18764361916692 0 -75.18764361916692 134.55222842480384 0 0 0 0 -31.792410152740832 -19.360523432149989 0 -19.360523432149989 142.09900043735979 0 0 0 0 -24.064082324785424 -17.058018042145008 0 -17.058018042145008 8.7937494123312661 0 0 0 0 23.8543200879094 -80.800083316615201 0 -80.800083316615201 187.89527149018249 0 0 0 0 -33.43810540790912 -44.973030078344891 0 -44.973030078344891 242.09609980437381 0 0 0 0 -7.601892573721261 8.1889308501430662 0 8.1889308501430662 8.3495883647144069 0 0 0 0 -66.219695201700233 -69.99301401057528 0 -69.99301401057528 63.356404654239668 0 0 0 0 -80.421508479559634 -111.42668198254978 0 -111.42668198254978 -54.74472883756971 0 0 0 0 -15.575336942501053 -8.2744147526245797 0 -8.2744147526245797 -55.724990802016691 0 0 0 0 -27.137909158129183 -17.396126093112187 0 -17.396126093112187 -2.8959181783733641 0 0 0 0 -4.5338588071057302 -60.206266386918742 0 -60.206266386918742 -17.291533004172379 0 0 0 0 4.0104478687654712 -5.600712057073892 0 -5.600712057073892 -1.3313487304990872 0 0 0 0 2.0271285279141011 8.3976043157745153 0 8.3976043157745153 113.47363232430507 0 0 0 0 0.19660191300340557 16.660336365981038 0 16.660336365981038 94.014172824725392 0 0 0 0 -70.920653559497623 -0.6063088055307162 0 -0.6063088055307162 150.12302129399177 0 0 0 0 -35.014758893289752 -23.681503693376726 0 -23.681503693376726 160.62549008503629 0 0 0 0 -30.862068699674296 2.930683297032374 0 2.930683297032374 133.23134347199812 0 0 0 0 -35.089125261582048 6.1460674845755392 0 6.1460674845755392 114.01880103717849 0 0 0 0 -17.520298635464485 14.155149953257933 0 14.155149953257933 117.12841197380476 0 0 0 0 -39.099687734812932 22.888492665118974 0 22.888492665118974 113.89858958763944 0 0 0 0 -19.764308582289573 -13.262396745064265 0 -13.262396745064265 10.481250504089843 0 0 0 0 -1.8921865149022778 13.815917818981688 0 13.815917818981688 55.296028730779653 0 0 0 0 -10.888405691325715 9.8884596859134035 0 9.8884596859134035 65.01967888539366 0 0 0 0 -6.0633852497321641 8.1251213142240886 0 8.1251213142240886 68.434269129989843 0 0 0 0 -1.9401829872273773 3.1524525860464223 0 3.1524525860464223 5.2311353696090137 0 0 0 0 -3.4313125008829957 14.820868928305572 0 14.820868928305572 66.666055436180613 0 0 0 0 0.43985765259913023 15.726449118061282 0 15.726449118061282 76.519054569624132 0 0 0 0 -12.711122535707545 8.571426134025387 0 8.571426134025387 79.277562046700041 0 0 0 0 -12.662534436760325 7.2115205701484228 0 7.2115205701484228 63.531875264510745 0 0 0 0 -13.31301541123139 13.871901353906651 0 13.871901353906651 64.802417242404772 0 0 0 0 -8.6032698370547678 -30.769383586675758 0 -30.769383586675758 60.554252422043646 0 0 0 0 -33.470426658896031 12.885995422351698 0 12.885995422351698 64.516795845618617 0 0 0 0 -13.061624222387023 0.31689881667133335 0 0.31689881667133335 56.327256552712768 0 0 0 0 14.036144514740045 3.7672137875197222 0 3.7672137875197222 82.822001217715297 0 0 0 0 2.0599833294033267 -1.4700025091684594 0 -1.4700025091684594 18.720460384109714 0 0 0 0 -23.22756666180976 2.9253765254870814 0 2.9253765254870814 53.369199873086473 0 0 0 0 -12.315211203385843 26.494707201699384 0 26.494707201699384 127.18244929521461 0 0 0 0 -20.620012026796502 -8.4044121967665859 0 -8.4044121967665859 37.372428230563713 0 0 0 0 -207.67839601237529 34.195256187171253 0 34.195256187171253 96.783015931941918 0 0 0 0 0.085321778046803298 -1.9586887059248119 0 -1.9586887059248119 27.122270284609726 0 0 0 0 -1.8137064077509422 2.70089498915695 0 2.70089498915695 27.693529797325027 0 0 0 0 203.3244763827006 3.848480620792543 0 3.848480620792543 -30.693452032253845 0 0 0 0 -115.0012564553806 184.40434096601348 0 184.40434096601348 80.753347425328684 0 0 0 0 121.66905961701821 265.36934083361393 0 265.36934083361393 13.70660462421074 0 0 0 0 4.7635471673044094 -22.869265100387565 0 -22.869265100387565 21.392807736541727 0 0 0 0 49.330688801550195 -96.16963705906528 0 -96.16963705906528 95.377573057128757 0 0 0 0 2.9791604096694755 -48.846563578044879 0 -48.846563578044879 53.431583623460028 0 0 0 0 22.795931207840567 -8.6539443288493203 0 -8.6539443288493203 7.1771925540888333 0 0 0 0 -10.030139557126745 -28.037040294184408 0 -28.037040294184408 26.62700077995396 0 0 0 0 -2.9477488173233724 1.2060727417847374 0 1.2060727417847374 8.4207055100105208 0 0 0 0 12.91822311289684 -52.474368403945846 0 -52.474368403945846 38.671399950886553 0 0 0 0 -87.352682399889318 -54.60580795640999 0 -54.60580795640999 0.100548771522881 0 0 0 0 -29.878552487580237 5.8964837595340214 0 5.8964837595340214 -29.78848900048979 0 0 0 0 -75.394269614118372 33.616599309931189 0 33.616599309931189 22.422881648613838 0 0 0 0 1.5852060934166601 -0.8701808423738413 0 -0.8701808423738413 -1.0272574673842811 0 0 0 0 -0.92094544586936311 -3.1642802243166299 0 -3.1642802243166299 35.946920755278427 0 0 0 0 -83.178931538282427 -14.704890299390172 0 -14.704890299390172 108.37716946631554 0 0 0 0 -35.340173448599671 52.390683966870711 0 52.390683966870711 190.80338911090075 0 0 0 0 -60.202488353166245 13.728709815855836 0 13.728709815855836 48.003858725154714 0 0 0 0 24.393891919173029 69.213115157903303 0 69.213115157903303 88.18354341002123 0 0 0 0 49.302740174606988 16.894488583250677 0 16.894488583250677 36.272930784529308 0 0 0 0 -24.905296728295497 -13.406977771912295 0 -13.406977771912295 45.396104274783283 0 0 0 0 154.84686388594218 611.44466012590419 0 611.44466012590419 933.52078765341139 0 0 0 0 67.77948183947592 -273.08370865497272 0 -273.08370865497272 158.00961699378968 0 0 0 0 -415.33906991414466 -644.43544326232404 0 -644.43544326232404 937.27632664219709 0 0 0 0 3.0185460198099463 5.6509507932642009 0 5.6509507932642009 67.653454938066716 0 0 0 0 -23.453459723473635 43.704713773127651 0 43.704713773127651 39.209687072405359 0 0 0 0 21.370879751163557 29.915397030534223 0 29.915397030534223 -1.3138964751560707 0 0 0 0 -2.7154548563135101 -2.6082866071419062 0 -2.6082866071419062 8.4154074796959826 0 0 0 0 -6.1581507287210115 22.73985289686243 0 22.73985289686243 -3.0008507656930306 0 0 0 0 124.88032318786281 -10.169049371419533 0 -10.169049371419533 -13.336187345044891 0 0 0 0 -33.694978842040655 -110.41471513375291 0 -110.41471513375291 132.88031962529203 0 0 0 0 4.5241165638490202 9.8157064103870653 0 9.8157064103870653 53.093159505995573 0 0 0 0 15.446758745894385 20.266552480767132 0 20.266552480767132 18.331539021106437 0 0 0 0 15.229351859669521 -22.541814494669552 0 -22.541814494669552 18.63364024850307 0 0 0 0 -0.17792166472258941 22.682399746063311 0 22.682399746063311 -1.8311606133938767 0 0 0 0 1.0841634817729755 23.680385976163961 0 23.680385976163961 -15.261918195494218 0 0 0 0 17.973794859910413 5.4841439562733285 0 5.4841439562733285 13.968964147483348 0 0 0 0 19.034495611700549 88.893207259883638 0 88.893207259883638 222.18011823325287 0 0 0 0 1.2172541852542054 146.04983846304094 0 146.04983846304094 211.78688709830749 0 0 0 0 -44.58770545266816 35.76242293199175 0 35.76242293199175 -265.9247082893271 0 0 0 0 31.417281195841497 -27.709072882978944 0 -27.709072882978944 22.202820421607612 0 0 0 0 -108.84166312613343 42.516199675679673 0 42.516199675679673 9.8810419487708714 0 0 0 0 -10.324271897815445 -10.842678617023171 0 -10.842678617023171 40.8364653848123 0 0 0 0 -55.268093820617651 16.068497519299854 0 16.068497519299854 1.5053283691340766 0 0 0 0 -7.874721804849834 5.390057355238195 0 5.390057355238195 10.04218722286997 0 0 0 0 -99.629950312513756 21.293872485504835 0 21.293872485504835 34.484485601104097 0 0 0 0 -71.26685547742818 39.211951890029013 0 39.211951890029013 0.14459387126771617 0 0 0 0 -79.347578979512036 36.997901506954804 0 36.997901506954804 3.9391699900734238 0 0 0 0 16.359905786013996 6.0929059620757471 0 6.0929059620757471 -47.468915495846886 0 0 0 0 -70.986162301134755 64.424146922916407 0 64.424146922916407 -38.217274420254398 0 0 0 0 -85.063325837345474 45.455695997890871 0 45.455695997890871 -8.4670445526426192 0 0 0 0 -39.223601647945543 79.886485602284665 0 79.886485602284665 -134.03240535219084 0 0 0 0 62.883286286189104 -194.53145094003412 0 -194.53145094003412 -176.87399706352153 0 0 0 0 -118.67684421118611 73.925372021549265 0 73.925372021549265 -17.024062736047199 0 0 0 0 -0.033597346658313043 21.550014225414046 0 21.550014225414046 90.608539837523267 0 0 0 0 -14.246075797093681 8.2895215131720761 0 8.2895215131720761 119.34723693944761 0 0 0 0 28.280565188561923 47.246733828847937 0 47.246733828847937 46.007439488033924 0 0 0 0 -17.274561516345784 53.506296635905528 0 53.506296635905528 51.256609333613596 0 0 0 0 -9.9707570608929927 35.584980559026008 0 35.584980559026008 95.117657444017823 0 0 0 0 16.377634039795591 -4.3182816949374683 0 -4.3182816949374683 71.973026067706087 0 0 0 0 37.532904904358361 -4.1132588709533593 0 -4.1132588709533593 -37.004151874600211 0 0 0 0 -62.309954495227885 137.62671905078605 0 137.62671905078605 324.5931531586325 0 0 0 0 1.4100858793037183 -0.51334465427639486 0 -0.51334465427639486 -0.74111017486698838 0 0 0 0 20.34622474508194 29.693185130625352 0 29.693185130625352 14.944020340390125 0 0 0 0 -1.7909260437110337 24.567076067846266 0 24.567076067846266 97.258199535979571 0 0 0 0 -76.475501449553462 94.203398453897535 0 94.203398453897535 185.96900591717713 0 0 0 0 -10.336178200370071 51.645406742221894 0 51.645406742221894 114.68543652343214 0 0 0 0 -26.199644455987709 -11.470919203386075 0 -11.470919203386075 57.170722468974418 0 0 0 0 -30.809225854372897 -29.732779470825228 0 -29.732779470825228 46.054055075612993 0 0 0 0 24.523548455379796 -60.661626871933549 0 -60.661626871933549 128.69870101828019 0 0 0 0 -31.614299731659443 -21.65407005937027 0 -21.65407005937027 19.101201027396169 0 0 0 0 -88.44143362759678 -37.851920140885341 0 -37.851920140885341 206.80137757032935 0 0 0 0 -93.575296975326637 -1.5281423598789843 0 -1.5281423598789843 163.36111186107155 0 0 0 0 -42.610748352177325 -42.485358946323686 0 -42.485358946323686 184.87655659190204 0 0 0 0 -73.012943819790962 -21.828048627787211 0 -21.828048627787211 175.69073804020991 0 0 0 0 -46.147752948257448 24.571617289690494 0 24.571617289690494 185.39114290318685 0 0 0 0 -32.76072864481656 -24.984562491083551 0 -24.984562491083551 61.462964137250012 0 0 0 0 -89.657748563288294 83.394146429752254 0 83.394146429752254 385.07127814999694 0 0 0 0 10.407781212463394 -15.480486226480934 0 -15.480486226480934 37.22434512378095 0 0 0 0 -23.078231414874534 -10.565466962157942 0 -10.565466962157942 33.988403137854945 0 0 0 0 -1.8075836986920824 -0.6563139206926536 0 -0.6563139206926536 4.858828992895468 0 0 0 0 17.716877778613146 -187.74605265283753 0 -187.74605265283753 356.50089682203725 0 0 0 0 114.10472008992838 172.65279153375013 0 172.65279153375013 355.63855196296936 0 0 0 0 -8.719320845945731 175.4194843892692 0 175.4194843892692 759.88237106332417 0 0 0 0 230.60883710927126 292.36541970543476 0 292.36541970543476 469.44406613527099 0 0 0 0 0.12262333500319222 -2.2741684910582975 0 -2.2741684910582975 5.3013603450189599 0 0 0 0 -4.8023507065081503 38.190479848428367 0 38.190479848428367 -12.124684018705011 0 0 0 0 17.410466725484184 141.81363824563596 0 141.81363824563596 348.75091266894015 0 0 0 0 18.858522345624806 155.54859109233075 0 155.54859109233075 271.52584489130822 0 0 0 0 14.692490102250304 88.603736653109081 0 88.603736653109081 258.27309739627526 0 0 0 0 -7.6667395789172588 152.11637234977024 0 152.11637234977024 345.0235139161523 0 0 0 0 -24.820530838489503 89.432757315065828 0 89.432757315065828 288.3248582269589 0 0 0 0 -22.847588829310553 84.291192098011379 0 84.291192098011379 290.49481533662765 0 0 0 0 -18.573211133455516 88.187108429570799 0 88.187108429570799 283.82490489183692 0 0 0 0 -26.276557473987395 96.620678413790301 0 96.620678413790301 278.16241267355508 0 0 0 0 -36.204679333702416 8.1613109477812031 0 8.1613109477812031 281.5470923113171 0 0 0 0 -36.623785281513847 104.84978527108615 0 104.84978527108615 394.79035280014068 0 0 0 0 -90.951207624906601 -31.84327192678029 0 -31.84327192678029 81.707125369592632 0 0 0 0 -38.435607644189986 70.182908197588404 0 70.182908197588404 21.803083497412445 0 0 0 0 -41.522930323354103 30.780191934809409 0 30.780191934809409 94.369621878166072 0 0 0 0 -124.63861448179159 1.2988488925693673 0 1.2988488925693673 162.80840957653709 0 0 0 0 -14.495363152896971 5.840497387918731 0 5.840497387918731 66.160496485290992 0 0 0 0 -17.092556783306918 1.6966143243807892 0 1.6966143243807892 34.567914352897787 0 0 0 0 -20.802544595887383 -5.1607343566222159 0 -5.1607343566222159 47.207684425770651 0 0 0 0 -14.063592703678848 -0.050463175970087093 0 -0.050463175970087093 160.85892369103811 0 0 0 0 -26.557218390362323 -28.288524264755324 0 -28.288524264755324 93.350527618094929 0 0 0 0 -186.95896369824732 177.2301566472488 0 177.2301566472488 162.1881673043008 0 0 0 0 -19.049126326396816 19.67885057812558 0 19.67885057812558 19.256987071893732 0 0 0 0 99.590927867106075 154.14858283794092 0 154.14858283794092 -8.4235622335636435 0 0 0 0 -258.21760340717265 73.297518508432404 0 73.297518508432404 32.940882240935025 0 0 0 0 -955.97301171670006 135.80277394176483 0 135.80277394176483 645.57041745915194 0 0 0 0 -4.4611614809174274 3.9969969616333909 0 3.9969969616333909 156.71907997160542 0 0 0 0 -198.58536652422117 -108.532050348138 0 -108.532050348138 173.77436296106316 0 0 0 0 -69.281340925834229 -54.045034966708045 0 -54.045034966708045 129.50013213654893 0 0 0 0 -54.302572893020624 -70.878981365036452 0 -70.878981365036452 -26.804528370263142 0 0 0 0 -67.575711322562711 -41.906255425881682 0 -41.906255425881682 -112.15761145635042 0 0 0 0 -49.01275444435305 -35.603044780866185 0 -35.603044780866185 31.054679677676177 0 0 0 0 -97.7110649219685 -59.983907005047513 0 -59.983907005047513 89.116374345438089 0 0 0 0 -36.593476394975369 -23.48921530867301 0 -23.48921530867301 75.267271082404477 0 0 0 0 -0.84422695409633874 -7.3531020366169599 0 -7.3531020366169599 2.7942712831255818 0 0 0 0 -163.51898253237414 -244.74164417992142 0 -244.74164417992142 -220.35598831500829 0 0 0 0 -1.5504154957465985 -0.28301536110193837 0 -0.28301536110193837 5.6069832108526469 0 0 0 0 32.796007403137992 -103.02227929932269 0 -103.02227929932269 160.53044074339459 0 0 0 0 -279.07566921501393 -401.62149070066425 0 -401.62149070066425 136.78963288002706 0 0 0 0 -30.124036594289464 -47.757650155479496 0 -47.757650155479496 152.25006116294571 0 0 0 0 -15.117586176534516 -26.118512964996171 0 -26.118512964996171 34.256576652882181 0 0 0 0 -153.94025068181327 -17.343226860713912 0 -17.343226860713912 419.58485612077857 0 0 0 0 414.31606663300045 624.05670209409072 0 624.05670209409072 663.56970247366735 0 0 0 0 -359.88580429314425 -232.64943700511503 0 -232.64943700511503 207.74259669110415 0 0 0 0 428.40530111475346 198.52496173403051 0 198.52496173403051 -534.00250221130773 0 0 0 0 -410.2204137364206 -134.55802424863941 0 -134.55802424863941 737.10110679191712 0 0 0 0 -65.656062115379427 337.00564278582169 0 337.00564278582169 -32.169630912510911 0 0 0 0 579.38682461288045 -200.89079453990598 0 -200.89079453990598 403.27056042530603 0 0 0 0 496.15650451044712 518.1720268458248 0 518.1720268458248 237.03745630634876 0 0 0 0 163.27121190341313 59.934449537753608 0 59.934449537753608 -132.95543551073933 0 0 0 0 -6.9422992794600127 2.5523744335013312 0 2.5523744335013312 -4.2533472044123357 0 0 0 0 -32.20723711237315 -160.99539406552867 0 -160.99539406552867 -79.341539130866295 0 0 0 0 -210.19486725059596 38.521565854012806 0 38.521565854012806 618.44552622270203 0 0 0 0 -318.07064130081017 -120.64798318243356 0 -120.64798318243356 8.829127686782158 0 0 0 0 -2.2397148271811158 -3.2131433978563368 0 -3.2131433978563368 16.510921745354352 0 0 0 0 282.57529986728696 450.24418832273477 0 450.24418832273477 271.6209393941117 0 0 0 0 -218.76473517546719 36.726425992599161 0 36.726425992599161 94.422461371788813 0 0 0 0 244.36327630831329 129.934819873979 0 129.934819873979 123.17269004874834 0 0 0 0 -22.534955997046382 151.12987346763748 0 151.12987346763748 246.65868022197537 0 0 0 0 51.513087517929762 95.317340097371925 0 95.317340097371925 232.53683382830059 0 0 0 0 24.154510410501643 163.09569583684788 0 163.09569583684788 159.67817578655234 0 0 0 0 -1.7278656413786742 -9.7627861576011572 0 -9.7627861576011572 28.593651395258334 0 0 0 0 3.0239436752526672 108.47336134249053 0 108.47336134249053 254.98544329267315 0 0 0 0 -60.918514399369542 46.997645523428673 0 46.997645523428673 -0.79851442181097809 0 0 0 0 34.105305633187527 111.46514192938412 0 111.46514192938412 227.36013352334703 0 0 0 0 -69.759779861369225 91.327811378202568 0 91.327811378202568 -193.99927548547566 0 0 0 0 -290.05713385905256 -174.63993493511953 0 -174.63993493511953 67.365266677083127 0 0 0 0 -196.7955916100982 -79.658092820944148 0 -79.658092820944148 124.29162846097825 0 0 0 0 -1.2074983923574258 -1.9781086457276444 0 -1.9781086457276444 0.39554911677636184 0 0 0 0 -161.45550471688148 -118.36866877812827 0 -118.36866877812827 163.75454459743924 0 0 0 0 -179.10575463286659 301.99218481386924 0 301.99218481386924 83.660536142078854 0 0 0 0 38.460098128620302 4.719863941129006 0 4.719863941129006 82.22215112100821 0 0 0 0 -33.320762758142337 37.16875179330782 0 37.16875179330782 152.93502088241075 0 0 0 0 -26.169267930372371 16.735509575377364 0 16.735509575377364 109.75601031792394 0 0 0 0 -3.044893714664004 17.390130496389325 0 17.390130496389325 78.608907207602869 0 0 0 0 -12.683836046757278 43.406653417412599 0 43.406653417412599 63.159678835956583 0 0 0 0 -51.238010487744759 -17.334658363080962 0 -17.334658363080962 76.94916294466384 0 0 0 0 -1.983061365880566 1.1705405878779054 0 1.1705405878779054 11.278851250319743 0 0 0 0 -347.92734936749321 -61.258024420339098 0 -61.258024420339098 -7.3602745018433779 0 0 0 0 -45.813897708274453 47.662083301129314 0 47.662083301129314 67.331957564703771 0 0 0 0 5.3427660602410469 14.544535065717355 0 14.544535065717355 45.684594798734906 0 0 0 0 -3.281297311823562 6.6792052541623477 0 6.6792052541623477 76.607210792990784 0 0 0 0 -11.214506835516659 11.489516829770764 0 11.489516829770764 114.55592791493041 0 0 0 0 -6.2309467060663337 -1.1751602022958423 0 -1.1751602022958423 102.16011486580305 0 0 0 0 -7.2278420563570762 19.972820051385241 0 19.972820051385241 90.35921543954241 0 0 0 0 -8.1650661428584499 12.103274214413375 0 12.103274214413375 86.000916802758184 0 0 0 0 -32.53056197039632 28.36815959116386 0 28.36815959116386 92.720323272230587 0 0 0 0 -45.736902254939196 192.4747319687558 0 192.4747319687558 168.57080072555436 0 0 0 0 687.66630647931356 -101.86287518188783 0 -101.86287518188783 -108.03844120564918 0 0 0 0 -15.959368228181518 12.701125778957838 0 12.701125778957838 22.366860324412187 0 0 0 0 -3.977185907150556 3.1106744131169251 0 3.1106744131169251 21.286580340883738 0 0 0 0 -251.79643356037195 -289.58500229257697 0 -289.58500229257697 307.46801483367835 0 0 0 0 -256.77475364838028 119.00697735585709 0 119.00697735585709 36.454537565354258 0 0 0 0 15.309646421384969 181.38446869881227 0 181.38446869881227 -131.70584658787993 0 0 0 0 -36.0205821144109 16.317126871280834 0 16.317126871280834 81.517032341478625 0 0 0 0 -48.342675031577528 57.369671262902557 0 57.369671262902557 54.646220137994533 0 0 0 0 -68.713139082101407 44.361366435168748 0 44.361366435168748 80.063831883075181 0 0 0 0 -126.99078141703438 42.237199740346 0 42.237199740346 88.469578934600577 0 0 0 0 -57.051242445344542 50.10200343629549 0 50.10200343629549 109.81340548897424 0 0 0 0 5.6089636882098377 26.306110413995153 0 26.306110413995153 51.387560097550349 0 0 0 0 232.93458498032322 -11.585261006215717 0 -11.585261006215717 -42.474776950504747 0 0 0 0 121.47161807961493 49.607844851298978 0 49.607844851298978 -70.319447429465072 0 0 0 0 -17.351092963029259 -0.21207356877130223 0 -0.21207356877130223 69.93139212279857 0 0 0 0 -134.66067245961312 -87.666251064758399 0 -87.666251064758399 195.9600585740227 0 0 0 0 -10.190686460911525 -2.6926356355071732 0 -2.6926356355071732 12.12628900029738 0 0 0 0 6.65166941733969 -10.003333818858664 0 -10.003333818858664 36.135787512444949 0 0 0 0 -3.6435767648245019 5.3639198639102688 0 5.3639198639102688 53.922628909935156 0 0 0 0 -3.8782852332983246 -0.80022403286938726 0 -0.80022403286938726 0.027371277064697885 0 0 0 0 -94.190672454189553 -77.198919287842727 0 -77.198919287842727 11.279623378197357 0 0 0 0 -61.063343149326101 324.11661779745918 0 324.11661779745918 -181.4484880985874 0 0 0 0 -3.5534568539496831 -33.60633079836407 0 -33.60633079836407 6.480089255142957 0 0 0 0 -116.19006614460523 -135.09966853912192 0 -135.09966853912192 -19.927990985674114 0 0 0 0 -163.4152807087039 220.76499199410114 0 220.76499199410114 -46.782607600987831 0 0 0 0 -73.125457297372577 431.25267693444493 0 431.25267693444493 -55.733925980064669 0 0 0 0 -238.867934559079 -43.049735149434582 0 -43.049735149434582 63.582144539679575 0 0 0 0 -87.394112182086246 -17.730359418688749 0 -17.730359418688749 60.849180049845017 0 0 0 0 -64.599541983963718 7.5828939083694422 0 7.5828939083694422 73.684351567976591 0 0 0 0 -124.72961855587135 -6.1982282745428847 0 -6.1982282745428847 71.156535745474685 0 0 0 0 -37.418196800846999 -16.000263824407739 0 -16.000263824407739 51.273795439701644 0 0 0 0 -86.675882621579404 -38.959251660431562 0 -38.959251660431562 43.991427827197185 0 0 0 0 -8.7532212297419392 -1.5303525001363596 0 -1.5303525001363596 30.796785242855549 0 0 0 0 -7.8965000234833269 -5.9459010478230994 0 -5.9459010478230994 44.080579401794239 0 0 0 0 -12.59388504069193 -17.845213329321268 0 -17.845213329321268 23.131018151900207 0 0 0 0 -36.294187264739776 -10.12833499714543 0 -10.12833499714543 38.851750587411516 0 0 0 0 -6.6039463066272219 -0.82887489793210989 0 -0.82887489793210989 35.652970662662483 0 0 0 0 -21.944490642345045 -2.9097378081096394 0 -2.9097378081096394 35.906848412916588 0 0 0 0 -22.58961421601316 -4.7296557333165765 0 -4.7296557333165765 40.969071630432154 0 0 0 0 -27.00635186386171 9.69531336482396 0 9.69531336482396 47.891544510208405 0 0 0 0 -64.564896457442956 -5.6593173276196467 0 -5.6593173276196467 52.518650616388186 0 0 0 0 -38.977729576003185 4.4781607851055014 0 4.4781607851055014 51.409335121177719 0 0 0 0 -81.336159608203161 19.238364765795268 0 19.238364765795268 71.43399887598207 0 0 0 0 -45.377782447317259 26.361415166780716 0 26.361415166780716 67.289970524332603 0 0 0 0 -44.063560860495727 22.596097180590732 0 22.596097180590732 47.01687477008818 0 0 0 0 -34.073099624387396 33.426817358995322 0 33.426817358995322 39.169774939524359 0 0 0 0 -26.091494778672313 38.537242899896228 0 38.537242899896228 32.534080288751284 0 0 0 0 -19.011367725161108 30.111071021634416 0 30.111071021634416 39.742194919031135 0 0 0 0 -9.0273284455288376 22.467174431803869 0 22.467174431803869 33.844975517637067 0 0 0 0 -21.156946318667906 21.001632516665268 0 21.001632516665268 35.130568966327701 0 0 0 0 -24.245662800093669 24.379160999065789 0 24.379160999065789 45.806285505896085 0 0 0 0 -9.3020822369226153 11.619840930119608 0 11.619840930119608 33.54259502626519 0 0 0 0 -22.570429494392101 9.8418309831813531 0 9.8418309831813531 34.659754647800582 0 0 0 0 -1.1917044961865031 11.319066670268512 0 11.319066670268512 26.804564107231272 0 0 0 0 -0.40336722520169133 3.3013207897249686 0 3.3013207897249686 24.574761696007045 0 0 0 0 68.371110486503994 72.961609900975418 0 72.961609900975418 17.641164098788522 0 0 0 0 -18.432139722874126 52.364182704019186 0 52.364182704019186 47.306137506828236 0 0 0 0 -31.860610431498571 65.049329045657942 0 65.049329045657942 79.488770635667606 0 0 0 0 7.0651260236454032 23.716335795535297 0 23.716335795535297 42.296540423317055 0 0 0 0 -62.056283600391907 37.049568914788324 0 37.049568914788324 80.258098921556666 0 0 0 0 -47.467323295564711 52.998342996332212 0 52.998342996332212 79.676031232546165 0 0 0 0 -56.029233161074444 39.371434697641234 0 39.371434697641234 59.892712243949063 0 0 0 0 -38.559284084903993 51.775509374732792 0 51.775509374732792 55.7807718947588 0 0 0 0 -28.567753486666334 49.616585898544145 0 49.616585898544145 40.736852999434632 0 0 0 0 -38.654849012134946 48.16009088996725 0 48.16009088996725 54.140807207253602 0 0 0 0 -32.701194211844268 37.11623167295329 0 37.11623167295329 43.715471082905424 0 0 0 0 -39.134768405479917 43.53045739791196 0 43.53045739791196 52.982196401597321 0 0 0 0 -28.707513548180941 37.873212337352015 0 37.873212337352015 42.900170131964842 0 0 0 0 -30.042749996020575 41.730536623570515 0 41.730536623570515 32.801607868241263 0 0 0 0 -35.279681290752706 38.099325168146606 0 38.099325168146606 34.306466433612513 0 0 0 0 -35.251215914846398 39.035400966597081 0 39.035400966597081 31.621430672254064 0 0 0 0 -45.921163659171725 25.6637713938253 0 25.6637713938253 25.782517720712349 0 0 0 0 -31.373379396179644 36.929814180844005 0 36.929814180844005 28.941957897608518 0 0 0 0 -66.078821035902365 25.753215353601263 0 25.753215353601263 35.778719717251079 0 0 0 0 -70.202124712840487 37.900285972249549 0 37.900285972249549 39.95159816659725 0 0 0 0 -63.155186626347131 45.339214498992078 0 45.339214498992078 30.552953365637222 0 0 0 0 6.9998079281279484 22.389276156411391 0 22.389276156411391 32.571996314438678 0 0 0 0 82.566118015233997 -25.481225688436098 0 -25.481225688436098 8.1794046611757949 0 0 0 0 -63.424365619141099 44.317780196946842 0 44.317780196946842 33.558542673155898 0 0 0 0 -45.02594064718096 40.434733838702414 0 40.434733838702414 30.120110899719293 0 0 0 0 -60.677688496409246 35.763948926563899 0 35.763948926563899 38.078948302951176 0 0 0 0 -56.779848517835489 40.12603394100006 0 40.12603394100006 35.220994494316983 0 0 0 0 -47.063487694780633 39.81517956595053 0 39.81517956595053 34.458006114829914 0 0 0 0 -54.210921028425219 34.05383776047529 0 34.05383776047529 36.110535704807262 0 0 0 0 -50.803298301452742 35.633817960231681 0 35.633817960231681 36.338262605073396 0 0 0 0 -46.406609476129233 31.504151292385359 0 31.504151292385359 29.865715022970107 0 0 0 0 -36.9046531043914 39.684716542375099 0 39.684716542375099 32.961114756471943 0 0 0 0 -35.360157767958299 37.537807857152075 0 37.537807857152075 34.447055427099258 0 0 0 0 -43.792822309645999 35.847536759501963 0 35.847536759501963 33.508512905223142 0 0 0 0 -26.372790818187241 40.193189785306458 0 40.193189785306458 33.117912471920135 0 0 0 0 -26.875270038428425 38.460546220383549 0 38.460546220383549 31.400118672958342 0 0 0 0 -23.354272572736591 36.284901359565993 0 36.284901359565993 32.916936275971239 0 0 0 0 -27.015368943384601 40.959671458407684 0 40.959671458407684 32.304850403321325 0 0 0 0 -31.597472097404534 37.296264040465758 0 37.296264040465758 33.794974102063861 0 0 0 0 -34.880778929742519 37.978323918512615 0 37.978323918512615 34.347129521200259 0 0 0 0 -35.488310900660508 39.916947196878027 0 39.916947196878027 31.621864981992985 0 0 0 0 -43.947453707089153 36.674636944640952 0 36.674636944640952 34.846360000781715 0 0 0 0 -42.846343340651401 37.918736829280533 0 37.918736829280533 32.525372969292221 0 0 0 0 -41.742174573661032 35.318856617632264 0 35.318856617632264 36.503679232802824 0 0 0 0 -34.259990296912292 40.989948117410677 0 40.989948117410677 33.616066562040942 0 0 0 0 -30.013785642983748 38.493531895373962 0 38.493531895373962 36.76390434075438 0 0 0 0 -22.996402709988615 43.165233652965981 0 43.165233652965981 34.730224295839434 0 0 0 0 -32.726194749454407 42.245616375657846 0 42.245616375657846 39.307102806982584 0 0 0 0 -46.40822133574693 33.609343548774632 0 33.609343548774632 43.085812754063227 0 0 0 0 -46.99909628280875 34.73625682038255 0 34.73625682038255 43.760786744220241 0 0 0 0 -51.88804402202004 29.038202037678275 0 29.038202037678275 39.452274276220123 0 0 0 0 -51.460762782837264 27.60472788217885 0 27.60472788217885 31.752937378325441 0 0 0 0 -52.854110860585934 27.480624602998432 0 27.480624602998432 32.560233708441956 0 0 0 0 -58.489933043922065 21.055799235851737 0 21.055799235851737 30.694778265184141 0 0 0 0 -53.216879895308921 30.218262134354518 0 30.218262134354518 13.772525130727445 0 0 0 0 -56.382418152286846 42.973613374182605 0 42.973613374182605 16.31295498338477 0 0 0 0 -54.748673262845841 37.042357759073639 0 37.042357759073639 31.720851061196299 0 0 0 0 -49.291365212498931 34.166159851258271 0 34.166159851258271 33.063976769924921 0 0 0 0 -52.140227977975883 39.277564884578169 0 39.277564884578169 24.042927513848554 0 0 0 0 16.229546305511576 13.715168214621372 0 13.715168214621372 12.046708201196452 0 0 0 0 18.354783452467466 8.6763437781846164 0 8.6763437781846164 20.388719176509767 0 0 0 0 3.8885124455682671 12.423930173412373 0 12.423930173412373 25.321706508239004 0 0 0 0 4.3652188101523279 11.482548901258269 0 11.482548901258269 21.321470896538813 0 0 0 0 -0.72154859968759411 22.90649754331389 0 22.90649754331389 23.7138707603699 0 0 0 0 -3.166076121320657 21.190633132977382 0 21.190633132977382 25.445390350359958 0 0 0 0 16.712656414105368 23.292431699006556 0 23.292431699006556 21.15917901665307 0 0 0 0 9.3664462783943918 28.31597966772415 0 28.31597966772415 17.815582750488829 0 0 0 0 -3.6730520536748372 30.747688674236997 0 30.747688674236997 26.643207917397376 0 0 0 0 10.862639435305027 35.551460590937495 0 35.551460590937495 23.095467012761219 0 0 0 0 -2.2461698454419547 28.859486742320769 0 28.859486742320769 28.444218904827721 0 0 0 0 -18.472145599464056 30.538772285119194 0 30.538772285119194 30.133169310574885 0 0 0 0 -21.4099415016899 35.294857119784865 0 35.294857119784865 34.482093757455004 0 0 0 0 -10.682589348454712 38.440963902798103 0 38.440963902798103 29.279693913573283 0 0 0 0 -11.869815265346915 35.507295115239685 0 35.507295115239685 29.283058321976569 0 0 0 0 -17.957456164260293 40.404259080947668 0 40.404259080947668 31.43179980921559 0 0 0 0 -4.9994163316732738 42.13318536614679 0 42.13318536614679 30.89764904734875 0 0 0 0 -17.791502878946631 37.996088479892933 0 37.996088479892933 31.349215688126378 0 0 0 0 -13.194416594957147 42.384114334447077 0 42.384114334447077 31.205553033782053 0 0 0 0 -6.3715735840451089 35.641227210195211 0 35.641227210195211 29.619532938243538 0 0 0 0 -18.626013475571199 49.305347678015096 0 49.305347678015096 41.937887756866985 0 0 0 0 11.60156852682303 52.264638337459473 0 52.264638337459473 33.30529998585007 0 0 0 0 -5.1673971599666402 41.291862404456879 0 41.291862404456879 28.986249301146017 0 0 0 0 1.7829080754836468 41.999952666305035 0 41.999952666305035 28.704550729860784 0 0 0 0 33.29327186053888 33.23423767946224 0 33.23423767946224 18.006958826910704 0 0 0 0 44.10379812449446 57.352419598810229 0 57.352419598810229 26.196768681023968 0 0 0 0 15.269060677790776 39.34451600799548 0 39.34451600799548 17.528854832300567 0 0 0 0 57.802015598867001 31.530160506059474 0 31.530160506059474 4.2493129015929298 0 0 0 0 35.267634338676544 16.484766564204619 0 16.484766564204619 11.29163192863416 0 0 0 0 28.048591815932014 23.694801791047212 0 23.694801791047212 6.6445422875694931 0 0 0 0 137.68864521064302 30.526526682574968 0 30.526526682574968 29.66919998688536 0 0 0 0 72.464802829853085 21.947599608878363 0 21.947599608878363 29.055580186322914 0 0 0 0 57.880636226716433 36.340990180020526 0 36.340990180020526 15.83541231253912 0 0 0 0 15.782738442213486 58.687210970296292 0 58.687210970296292 31.500014519326214 0 0 0 0 68.681304309409938 84.836458355031141 0 84.836458355031141 37.749593219574308 0 0 0 0 -47.239102818801257 49.529512730267015 0 49.529512730267015 82.094144812035665 0 0 0 0 13.099044828190927 52.591213190000417 0 52.591213190000417 33.207212367749889 0 0 0 0 -7.16180819530382 67.385759956645416 0 67.385759956645416 61.195662016827555 0 0 0 0 -30.223405008988266 43.585490810641204 0 43.585490810641204 43.450035742033833 0 0 0 0 -18.294969828378498 107.76407155174456 0 107.76407155174456 138.5643455788304 0 0 0 0 -71.419653403369466 18.524937921883065 0 18.524937921883065 61.154818041657563 0 0 0 0 124.87091344187502 84.745999967584794 0 84.745999967584794 37.663674562986216 0 0 0 0 -55.861267008484901 16.546320445226229 0 16.546320445226229 35.356950924149714 0 0 0 0 -67.130786162677396 16.293030539571191 0 16.293030539571191 46.520477937832766 0 0 0 0 -61.370766375403946 9.7514464499126916 0 9.7514464499126916 26.97682510028244 0 0 0 0 -58.365064574457392 22.669923653156729 0 22.669923653156729 43.483768110178062 0 0 0 0 -58.634127968456596 20.131706133455737 0 20.131706133455737 40.217850819164596 0 0 0 0 -59.516446562709916 24.053748789020119 0 24.053748789020119 51.9134775527491 0 0 0 0 -33.856278750618003 46.342742254289988 0 46.342742254289988 51.839576883750851 0 0 0 0 -62.199615960202209 28.04616767972766 0 28.04616767972766 64.457426099310396 0 0 0 0 -55.835168080893709 21.66278763849914 0 21.66278763849914 44.744711862800614 0 0 0 0 -57.243867841286374 21.342352864168788 0 21.342352864168788 41.369788386869914 0 0 0 0 -79.616806899188305 8.3502081564329274 0 8.3502081564329274 44.690557657447698 0 0 0 0 -61.5128281984762 22.10117472751881 0 22.10117472751881 46.616355552418099 0 0 0 0 -11.848862884277647 13.687766134541945 0 13.687766134541945 4.5705537407483803 0 0 0 0 -68.317868661426473 -2.9191026950502419 0 -2.9191026950502419 29.200804092528415 0 0 0 0 -28.585412744487257 52.724243312131875 0 52.724243312131875 -15.590024586338927 0 0 0 0 56.41422365105791 63.463799774603103 0 63.463799774603103 -16.035113083079978 0 0 0 0 118.03377029201874 93.005154172013135 0 93.005154172013135 -37.111238419973233 0 0 0 0 -79.801324704302715 152.65980066042175 0 152.65980066042175 240.78064348682892 0 0 0 0 75.218884361655 139.78394083583771 0 139.78394083583771 216.11204611614812 0 0 0 0 -179.27237563033486 -108.03674351931841 0 -108.03674351931841 2.4103215700833971 0 0 0 0 -7.7416076678168562 2.5526328171536861 0 2.5526328171536861 -1.6328789307651732 0 0 0 0 91.232650731340243 -87.251208133931186 0 -87.251208133931186 8.0023749322572257 0 0 0 0 -128.6064692167738 67.093991519537667 0 67.093991519537667 125.94283020351577 0 0 0 0 133.85155692100011 218.46607379786474 0 218.46607379786474 292.93020602872275 0 0 0 0 5.2627205061753557 17.523086483019142 0 17.523086483019142 84.31162866935847 0 0 0 0 4.4329733538140772 -313.44974674306832 0 -313.44974674306832 269.77767400038283 0 0 0 0 -19.618003824566131 -152.85706802229106 0 -152.85706802229106 480.58701173329973 0 0 0 0 -2.493648064644006 0.13908319007876457 0 0.13908319007876457 1.0554195249771112 0 0 0 0 31.099986192755296 -302.82305703292241 0 -302.82305703292241 -229.53714276392566 0 0 0 0 80.608938638645213 114.95182800508792 0 114.95182800508792 657.52235942883271 0 0 0 0 -39.680169665177573 -122.51093860476249 0 -122.51093860476249 499.6635047316995 0 0 0 0 -61.257161300705775 77.180406770479749 0 77.180406770479749 992.14533312167987 0 0 0 0 97.495620394504385 289.35015265625771 0 289.35015265625771 674.08327945211931 0 0 0 0 -66.273253882858626 -63.105739191167231 0 -63.105739191167231 954.28658790612826 0 0 0 0 -24.405141840015858 300.20050118150539 0 300.20050118150539 1288.9886997200883 0 0 0 0 48.106738717397548 219.25497740414721 0 219.25497740414721 1228.4003922895263 0 0 0 0 -16.88543897045065 92.049311906041112 0 92.049311906041112 1397.1631743877042 0 0 0 0 289.30692254344001 28.260874859950491 0 28.260874859950491 111.45370959917636 0 0 0 0 57.673387216906349 -261.94179394791718 0 -261.94179394791718 812.73942530732529 0 0 0 0 142.20652007446802 0.67013402154407231 0 0.67013402154407231 -2.2384292751194153 0 0 0 0 63.260062071892833 535.12489534768406 0 535.12489534768406 386.20808368883445 0 0 0 0 110.33243236712178 -132.48281366037918 0 -132.48281366037918 51.053066529304488 0 0 0 0 0.67875433941273577 -2.9281046400689235 0 -2.9281046400689235 12.242086889131798 0 0 0 0 88.16545521599619 104.44143130168231 0 104.44143130168231 179.27867002214043 0 0 0 0 6.1839653745804419 -11.908078937932643 0 -11.908078937932643 16.396768734711742 0 0 0 0 87.045549241274614 -113.13648827072029 0 -113.13648827072029 167.13576267000462 0 0 0 0 -385.66584815190799 -57.517171416468045 0 -57.517171416468045 358.31310176014813 0 0 0 0 -1366.5679867059334 776.81691654826864 0 776.81691654826864 1304.5615685852536 0 0 0 0 273.31497905272499 267.62930988871085 0 267.62930988871085 70.679240883611783 0 0 0 0 137.10645944311193 263.02258495291971 0 263.02258495291971 647.0184966524539 0 0 0 0 155.85165154505785 173.16505287004111 0 173.16505287004111 321.43017619684178 0 0 0 0 18.555676347320173 171.81905072441805 0 171.81905072441805 677.72540176069015 0 0 0 0 -80.735848203668866 -11.224345187220024 0 -11.224345187220024 382.20794857214787 0 0 0 0 -103.1927494036598 208.84395236335172 0 208.84395236335172 442.7772121639282 0 0 0 0 142.01261589509249 214.12829712907114 0 214.12829712907114 435.08904966002228 0 0 0 0 60.653402687342805 133.5553048529946 0 133.5553048529946 507.48242251381089 0 0 0 0 17.858366616546846 234.90881159037235 0 234.90881159037235 400.54348873300478 0 0 0 0 -26.897085865604822 285.77586365034585 0 285.77586365034585 940.2781586613637 0 0 0 0 112.519604775478 111.63132519547071 0 111.63132519547071 95.561046926348354 0 0 0 0 -13.811991043212856 -178.82801932020448 0 -178.82801932020448 15.671493764586103 0 0 0 0 -100.61787066269835 -64.444675579823524 0 -64.444675579823524 289.11184350113399 0 0 0 0 3.4004284823347528 -7.8976738000923561 0 -7.8976738000923561 11.765187797631199 0 0 0 0 108.09887445258846 123.1404145638553 0 123.1404145638553 -8.0493910774821416 0 0 0 0 37.442637395452948 -16.082761469217076 0 -16.082761469217076 247.1573083611147 0 0 0 0 0.53960412901572141 -2.6989241614245429 0 -2.6989241614245429 5.0436988501687381 0 0 0 0 208.53658259475242 -154.28156481295446 0 -154.28156481295446 8.7328152997715733 0 0 0 0 295.1001719838182 -148.38656000134142 0 -148.38656000134142 284.35048066333002 0 0 0 0 174.71623141147541 297.35661848354175 0 297.35661848354175 462.56504644286906 0 0 0 0 -82.432516332587966 175.44750031766671 0 175.44750031766671 -56.979908986035298 0 0 0 0 41.499378089236188 345.94137297458292 0 345.94137297458292 310.10278935672977 0 0 0 0 -340.24439989268592 -109.06073727771218 0 -109.06073727771218 249.01846110765473 0 0 0 0 3.069570488186308 -10.958717890942509 0 -10.958717890942509 32.490151539106364 0 0 0 0 -92.637878631734566 -50.337602681502176 0 -50.337602681502176 42.578750401160505 0 0 0 0 23.246151416931752 -66.213214824107126 0 -66.213214824107126 28.925568094840855 0 0 0 0 -34.91993569189799 -9.5815864869291545 0 -9.5815864869291545 59.120269804385316 0 0 0 0 -421.94502803174265 -329.5124281140852 0 -329.5124281140852 207.74391463566008 0 0 0 0 -80.33013725945284 -47.680269072936426 0 -47.680269072936426 62.394667503627716 0 0 0 0 7.2026175677202611 -18.767539704421466 0 -18.767539704421466 46.475609696913978 0 0 0 0 -32.316393639342095 -14.039568544510985 0 -14.039568544510985 58.033995865474026 0 0 0 0 -46.402327652730037 -19.57004700847574 0 -19.57004700847574 76.725184772236389 0 0 0 0 -31.206774989986116 -21.581238101610325 0 -21.581238101610325 81.133979619655292 0 0 0 0 458.71376482894857 -71.080150752904956 0 -71.080150752904956 78.318278638558695 0 0 0 0 75.203641109546879 -7.9277423791536421 0 -7.9277423791536421 79.611481482855311 0 0 0 0 -150.16823747737385 41.419986324885031 0 41.419986324885031 299.38899358709023 0 0 0 0 179.17659505912502 -412.5460317323159 0 -412.5460317323159 -43.363280618728822 0 0 0 0 5.3170965682727003 -22.426103590276895 0 -22.426103590276895 57.782369876678814 0 0 0 0 -94.042694784754531 -203.30652870812264 0 -203.30652870812264 -190.10598585665866 0 0 0 0 0.23555130258592316 0.53057605887475123 0 0.53057605887475123 3.7445039732758403 0 0 0 0 467.41495909830644 31.656262614378647 0 31.656262614378647 -614.87100732549152 0 0 0 0 53.680438120317831 18.397627093714618 0 18.397627093714618 48.132631382592081 0 0 0 0 68.325970952813236 16.208743544322715 0 16.208743544322715 -7.9191060189477867 0 0 0 0 31.359355187573556 0.10625157786444106 0 0.10625157786444106 -1.03520429735363 0 0 0 0 17.202183282861824 -195.99135466400185 0 -195.99135466400185 20.471342902170363 0 0 0 0 1.485491746946499 -8.3970832681262451 0 -8.3970832681262451 4.863956680122044 0 0 0 0 -274.31725788701215 283.52818570908676 0 283.52818570908676 305.1573836626776 0 0 0 0 -9.5740330351980383 -3.7082302956325357 0 -3.7082302956325357 53.414494307461041 0 0 0 0 15.284953902470988 -199.18402030167999 0 -199.18402030167999 28.789225696018548 0 0 0 0 -3.4842388831626461 2.6958741374347248 0 2.6958741374347248 6.5071977562732854 0 0 0 0 -22.566470781712269 44.210255876713745 0 44.210255876713745 120.36257054430462 0 0 0 0 0.21431909173037422 -1.6795295347518584 0 -1.6795295347518584 14.634322845173642 0 0 0 0 21.889050731689622 2.9940720350950869 0 2.9940720350950869 12.097186443003011 0 0 0 0 15.392012605692344 -197.6200665376964 0 -197.6200665376964 30.44531139305036 0 0 0 0 14.867997495881752 -202.10414896705242 0 -202.10414896705242 49.856481360373436 0 0 0 0 18.297930289298126 1.6156141646177957 0 1.6156141646177957 20.531640448694816 0 0 0 0 12.186564595858727 2.403605174191398 0 2.403605174191398 24.600270053670101 0 0 0 0 -24.399306725372298 -3.3676388859494182 0 -3.3676388859494182 77.863461327870937 0 0 0 0 -32.494497611910901 -10.43546135001634 0 -10.43546135001634 75.701033895347791 0 0 0 0 -28.789335246157862 -16.0300041417795 0 -16.0300041417795 73.840088138364081 0 0 0 0 -23.535340569281288 -15.343050006547855 0 -15.343050006547855 73.178773274354171 0 0 0 0 -26.779409063593675 -10.043872550169908 0 -10.043872550169908 75.223219331623113 0 0 0 0 -20.621800426963091 0.87069665505623561 0 0.87069665505623561 76.419470395732787 0 0 0 0 -21.808188883722323 6.6117160290232277 0 6.6117160290232277 59.094765134788759 0 0 0 0 -9.3767722066368151 5.0457741156787961 0 5.0457741156787961 76.775581886697182 0 0 0 0 -17.803062260180923 5.6465913058818842 0 5.6465913058818842 84.027137854136527 0 0 0 0 -2.9962047190983867 3.1936122531551518 0 3.1936122531551518 88.92166278584773 0 0 0 0 -10.165688065513223 4.7021164974030398 0 4.7021164974030398 95.445812557591125 0 0 0 0 -11.509855199512231 -6.4207957508297113 0 -6.4207957508297113 100.36933158664033 0 0 0 0 -10.919812973979788 -5.801411954103969 0 -5.801411954103969 79.937456777903208 0 0 0 0 -23.009510554310509 -8.5297280085451348 0 -8.5297280085451348 91.802744376371265 0 0 0 0 -6.1999158983744564 -3.4148175718291895 0 -3.4148175718291895 77.779224018922832 0 0 0 0 3.4820475847209309 -20.053194844418613 0 -20.053194844418613 97.307353897394933 0 0 0 0 3.814459137736776 -10.951202838419704 0 -10.951202838419704 90.006791017611249 0 0 0 0 8.6257336238804783 -20.506889504649735 0 -20.506889504649735 108.73114470887231 0 0 0 0 7.7515004047572802 1.0885102861429914 0 1.0885102861429914 102.08697152324021 0 0 0 0 -0.59389052426331546 -3.4945106716731971 0 -3.4945106716731971 105.30944816174451 0 0 0 0 12.999622888108206 -5.0579958609378082 0 -5.0579958609378082 104.67331086376726 0 0 0 0 11.932217018349547 -2.7916894577410858 0 -2.7916894577410858 116.67454551394621 0 0 0 0 -6.1355954246928377 -60.229121700383985 0 -60.229121700383985 -86.395841412106165 0 0 0 0 -5.5235550341658382 7.9794802067517594 0 7.9794802067517594 307.77490687437967 0 0 0 0 2.6943421348840282 -0.32056005359717687 0 -0.32056005359717687 0.52963015800423818 0 0 0 0 31.036517425013699 -88.310787191978307 0 -88.310787191978307 -97.948257162046502 0 0 0 0 -3.6390091099825668 -116.80061753000246 0 -116.80061753000246 162.21567137546663 0 0 0 0 47.06536130000859 -49.856588833037677 0 -49.856588833037677 62.661946868072846 0 0 0 0 48.828975390467804 -61.411706079186843 0 -61.411706079186843 98.925286612256969 0 0 0 0 5.413814393260509 -20.56187349963875 0 -20.56187349963875 136.73837542122055 0 0 0 0 36.934836600027666 -34.674899808404007 0 -34.674899808404007 63.740478870786319 0 0 0 0 -16.015363645478828 -72.675291643008677 0 -72.675291643008677 79.112663433479611 0 0 0 0 6.73699574215334 -19.959873994299414 0 -19.959873994299414 52.988548669971351 0 0 0 0 33.164170481109522 -65.25309804229255 0 -65.25309804229255 130.3364355560625 0 0 0 0 77.836640791115315 -24.575797648274602 0 -24.575797648274602 66.13319534902439 0 0 0 0 29.140458368135569 -7.3943724277833098 0 -7.3943724277833098 111.26027077708568 0 0 0 0 8.4977652235647838 -33.785059446152445 0 -33.785059446152445 77.521726818449679 0 0 0 0 8.2651532145546298 -31.898829263380321 0 -31.898829263380321 64.333165702311362 0 0 0 0 -18.533812930160366 -1.9922136067889369 0 -1.9922136067889369 65.308903326971631 0 0 0 0 -0.34222289896842994 -24.238390113583591 0 -24.238390113583591 86.997721622421523 0 0 0 0 8.4438108944577834 -9.7109353353225742 0 -9.7109353353225742 83.402294546911435 0 0 0 0 38.90749926676267 -27.28604366881973 0 -27.28604366881973 81.146134330658242 0 0 0 0 -5.871228727701947 3.7966026590002002 0 3.7966026590002002 112.40242687860155 0 0 0 0 24.217686721734708 -15.110891683631053 0 -15.110891683631053 123.55865067904051 0 0 0 0 47.615608258503471 30.680711478438752 0 30.680711478438752 140.61558188701747 0 0 0 0 -125.28394801328113 8.1380552290720516 0 8.1380552290720516 187.29154026135802 0 0 0 0 95.946341584234688 36.827757439194102 0 36.827757439194102 106.72947387337626 0 0 0 0 52.175591043444797 -57.789817978324209 0 -57.789817978324209 136.56656661114539 0 0 0 0 3.4657074936303616 -39.442913421466073 0 -39.442913421466073 79.789952197876119 0 0 0 0 -88.60897023025791 -73.965807195145317 0 -73.965807195145317 119.231824974544 0 0 0 0 -26.617901096937203 -10.672772457000974 0 -10.672772457000974 112.13031533320463 0 0 0 0 -1.2060252362916577 -20.337072067064554 0 -20.337072067064554 105.84296071031338 0 0 0 0 -305.60430692530645 -117.37235180829157 0 -117.37235180829157 351.61368070288154 0 0 0 0 2.8298636276575735 -100.95273102947021 0 -100.95273102947021 19.632284344850632 0 0 0 0 -83.750852031400427 -3.314214349436952 0 -3.314214349436952 57.819092144165552 0 0 0 0 -2.153167197923243 -19.974836138750845 0 -19.974836138750845 109.35488451026254 0 0 0 0 -104.93596285834519 -39.643239060726046 0 -39.643239060726046 63.131177224921885 0 0 0 0 -177.29178557815044 -112.67389926182659 0 -112.67389926182659 80.364984825551801 0 0 0 0 -1.9685527270239911 -20.639237749338811 0 -20.639237749338811 108.58500677581989 0 0 0 0 -82.098158924181234 -47.977146710718444 0 -47.977146710718444 106.80550094682258 0 0 0 0 -83.425445615546778 -67.389974606776377 0 -67.389974606776377 116.30019472691856 0 0 0 0 -13.203598377028811 -39.15383145436499 0 -39.15383145436499 82.428707997045422 0 0 0 0 -18.763840561523864 1.2355670462998205 0 1.2355670462998205 109.781669565622 0 0 0 0 54.742252358338419 -28.24701166651721 0 -28.24701166651721 97.291867041683872 0 0 0 0 -497.04594649974297 -341.66046210159038 0 -341.66046210159038 1227.454491483164 0 0 0 0 -4.4208620373208944 -36.53151367803013 0 -36.53151367803013 127.69917688338666 0 0 0 0 -70.351919523645392 -68.620987516347668 0 -68.620987516347668 132.12054714898477 0 0 0 0 21.965044491026447 -52.894219708898163 0 -52.894219708898163 113.63230285435111 0 0 0 0 -2.5447979850510256 -11.295548344443647 0 -11.295548344443647 121.67778398314908 0 0 0 0 -29.188582820605006 -9.272705339397362 0 -9.272705339397362 93.377112343398039 0 0 0 0 -191.80773980965637 -116.59157755255455 0 -116.59157755255455 168.13558020925848 0 0 0 0 -3.9596412742289875 -21.808097019135943 0 -21.808097019135943 105.94093756846624 0 0 0 0 -21.963465749556235 20.337914304946025 0 20.337914304946025 159.98224278132329 0 0 0 0 -102.04384359155711 -73.714774374333501 0 -73.714774374333501 182.18381138602854 0 0 0 0 -193.43769248508784 -147.3368751835751 0 -147.3368751835751 125.13144587708666 0 0 0 0 -141.03844094346846 -1.3879243527198923 0 -1.3879243527198923 59.173161208105739 0 0 0 0 -54.100497305592853 -108.61575408691169 0 -108.61575408691169 138.27046987295762 0 0 0 0 -24.553211783789266 15.233062719773443 0 15.233062719773443 124.84402824344079 0 0 0 0 -4.3424267080438881 3.1235637876579858 0 3.1235637876579858 176.16063241573283 0 0 0 0 5.0535697221135649 118.6480503046854 0 118.6480503046854 344.58260478031298 0 0 0 0 -88.247281888711768 -2.4941559487979248 0 -2.4941559487979248 635.04662706487579 0 0 0 0 154.89979444126311 7.8594708933615038 0 7.8594708933615038 1427.6168322379235 0 0 0 0 -10.858534140136907 -0.8656170763724873 0 -0.8656170763724873 4.1704847753399577 0 0 0 0 108.27099422050833 -396.50034337954639 0 -396.50034337954639 698.7859630849307 0 0 0 0 -53.45491526168189 60.598484840062156 0 60.598484840062156 308.1903330719033 0 0 0 0 -3.7221311837029134 74.22630204721645 0 74.22630204721645 147.10554218423567 0 0 0 0 -123.10403556673919 12.05529525061138 0 12.05529525061138 222.02427523559891 0 0 0 0 -108.96854123500998 -51.988509833907301 0 -51.988509833907301 98.664680986912572 0 0 0 0 -86.466011559816252 -44.824526674899971 0 -44.824526674899971 21.825416110063088 0 0 0 0 -222.58238852355862 46.59875716175884 0 46.59875716175884 148.9532320528524 0 0 0 0 10.166030075106967 -16.434529635363553 0 -16.434529635363553 -15.196327527168251 0 0 0 0 -318.6531100361135 -46.595550584417651 0 -46.595550584417651 210.94831007975154 0 0 0 0 -105.88223689942606 -41.626267951738555 0 -41.626267951738555 165.04110127175227 0 0 0 0 -110.52020855420915 -143.93807856709464 0 -143.93807856709464 234.48023242229829 0 0 0 0 -130.82652775395763 -13.805245376046514 0 -13.805245376046514 136.91579898639247 0 0 0 0 -64.791456631013716 -38.91735200513358 0 -38.91735200513358 154.96482177797589 0 0 0 0 -70.764971624208556 -19.898035389196593 0 -19.898035389196593 157.72635109745897 0 0 0 0 -60.61430318463681 -31.772859869903186 0 -31.772859869903186 167.13548427443311 0 0 0 0 -38.286521471767628 15.420760975437588 0 15.420760975437588 160.98152204121288 0 0 0 0 -97.835464174894696 18.479931929025952 0 18.479931929025952 166.25324487566832 0 0 0 0 -15.140252566517603 1.1758275693276801 0 1.1758275693276801 -5.5495441012236313 0 0 0 0 -555.44077314582682 275.71178177680122 0 275.71178177680122 1667.5571841876081 0 0 0 0 -27.973833392337838 -30.233301486834534 0 -30.233301486834534 143.4256087978647 0 0 0 0 -7.8467808552277347 -4.2939138154906686 0 -4.2939138154906686 139.7729502463917 0 0 0 0 -28.334293474768856 -20.614352831078577 0 -20.614352831078577 144.5817566550686 0 0 0 0 -979.07843463918471 901.3786750831714 0 901.3786750831714 1067.0806528987014 0 0 0 0 -34.467564707047131 -27.816994537235587 0 -27.816994537235587 142.71922457838082 0 0 0 0 -33.975020410034631 -23.122075445222436 0 -23.122075445222436 143.49191416363101 0 0 0 0 -40.078686176457381 -26.947594618895891 0 -26.947594618895891 150.76895397165208 0 0 0 0 -40.291377008474228 -32.048522501172101 0 -32.048522501172101 147.27071725355927 0 0 0 0 -41.295099609946192 -15.229810076620197 0 -15.229810076620197 158.12449787036167 0 0 0 0 -50.41855336143999 -26.769159501200193 0 -26.769159501200193 150.90806035031346 0 0 0 0 -42.787632661402313 -33.649704878451303 0 -33.649704878451303 148.52803912293166 0 0 0 0 -44.248422503307665 -32.594655467139091 0 -32.594655467139091 153.41279763457715 0 0 0 0 -30.760778270805531 -39.229822270994191 0 -39.229822270994191 141.79010275710607 0 0 0 0 281.85126080177452 -439.42813658276464 0 -439.42813658276464 544.03344823198859 0 0 0 0 -11.505764531802015 -40.989614061378234 0 -40.989614061378234 133.19044636617764 0 0 0 0 -0.028397804618748967 -33.567572881364136 0 -33.567572881364136 20.237647639802077 0 0 0 0 -20.644673192422943 -50.754689575427619 0 -50.754689575427619 129.93292637825652 0 0 0 0 -37.024493262913893 -43.262051728976076 0 -43.262051728976076 142.26374196767938 0 0 0 0 -24.050363051941531 -36.55725412623724 0 -36.55725412623724 141.82872081457754 0 0 0 0 -24.482593063244167 -40.379696001718912 0 -40.379696001718912 137.73141865181969 0 0 0 0 -28.917447624196939 -38.407906066189753 0 -38.407906066189753 141.90152623764516 0 0 0 0 -35.718214064363565 -32.492394550092285 0 -32.492394550092285 145.8285689628101 0 0 0 0 -29.000910424314498 -31.856360849400517 0 -31.856360849400517 145.57149887029664 0 0 0 0 -17.442770426343486 -33.281309098209022 0 -33.281309098209022 142.05192099441774 0 0 0 0 -29.846395874171321 -34.538923982665438 0 -34.538923982665438 142.10747952316888 0 0 0 0 -21.091869836542173 -32.904643666814081 0 -32.904643666814081 142.39875636197394 0 0 0 0 -15.929165361791092 -36.589221149115474 0 -36.589221149115474 139.31916927231941 0 0 0 0 -15.029853839478164 -34.308741000488226 0 -34.308741000488226 140.4774104305834 0 0 0 0 153.30002015432547 -231.70093116075441 0 -231.70093116075441 476.17124873405555 0 0 0 0 283.5488605548162 -226.45239409938222 0 -226.45239409938222 1286.6048904394265 0 0 0 0 234.64311294599975 -414.76403552641932 0 -414.76403552641932 881.72643068584148 0 0 0 0 -14.13424851093805 -45.470920391686377 0 -45.470920391686377 131.60804239772551 0 0 0 0 295.46695306688252 -496.32087432554908 0 -496.32087432554908 395.45105294007226 0 0 0 0 -14.666937159140161 -65.984801992250141 0 -65.984801992250141 63.01055381441256 0 0 0 0 -27.153421295686712 -55.422873908013571 0 -55.422873908013571 126.58777296045446 0 0 0 0 -28.82279457452205 -63.549830772622954 0 -63.549830772622954 123.87490250006886 0 0 0 0 -35.077786038444174 -46.282969651641906 0 -46.282969651641906 142.23458448654128 0 0 0 0 -52.431176458715527 -59.00779698772385 0 -59.00779698772385 139.29328306054231 0 0 0 0 -23.380572153346293 -74.894570364413084 0 -74.894570364413084 147.51053622577456 0 0 0 0 2.0735445660393452 -86.687945878802566 0 -86.687945878802566 136.37125320822815 0 0 0 0 -12.620236329058283 -44.608287237880404 0 -44.608287237880404 85.10442590698446 0 0 0 0 59.115528253160846 -19.885103379270731 0 -19.885103379270731 -12.902940901898546 0 0 0 0 121.71909023788885 -132.82790020618995 0 -132.82790020618995 56.465182388617905 0 0 0 0 24.876169522146483 -63.790884393161832 0 -63.790884393161832 28.310989818359303 0 0 0 0 49.615849312654063 -113.41322204690914 0 -113.41322204690914 118.9097124392938 0 0 0 0 107.4946793105637 -68.478637527834508 0 -68.478637527834508 129.57721470424622 0 0 0 0 49.608810264648127 32.284656701467611 0 32.284656701467611 248.09796177975295 0 0 0 0 -51.951138989512401 -13.066775430983398 0 -13.066775430983398 278.01643433582649 0 0 0 0 24.124919496156963 -98.351844391185296 0 -98.351844391185296 380.28705177122902 0 0 0 0 5.5807989849236037 121.83487270310434 0 121.83487270310434 599.65895318983894 0 0 0 0 6.2306651664953279 -409.18280852545649 0 -409.18280852545649 -372.9046707311154 0 0 0 0 -0.86130321828732548 -0.98842185648014436 0 -0.98842185648014436 0.9510835931317132 0 0 0 0 -4.5344175653069634 -2.3009964332678834 0 -2.3009964332678834 2.6478612906938821 0 0 0 0 -229.76267666225749 -123.61782695838701 0 -123.61782695838701 457.64739632540295 0 0 0 0 -10.055818622143306 -231.31887467459455 0 -231.31887467459455 -148.80238383564938 0 0 0 0 25.129378208109301 -295.37005376439629 0 -295.37005376439629 377.23378938993119 0 0 0 0 -105.6967396134396 8.6446090104218456 0 8.6446090104218456 138.16640949121938 0 0 0 0 -40.695617366689476 -188.21549070646506 0 -188.21549070646506 444.7353117524035 0 0 0 0 323.4239736447762 -199.38976652270503 0 -199.38976652270503 156.96717945031742 0 0 0 0 52.346083303727823 -139.13163502428642 0 -139.13163502428642 76.011837839338114 0 0 0 0 169.39949068468559 -235.04010854418448 0 -235.04010854418448 153.07802665366034 0 0 0 0 1691.4860482177464 422.78088268449937 0 422.78088268449937 -190.83510145050968 0 0 0 0 118.54327220006508 -75.896613972534396 0 -75.896613972534396 232.15126247816079 0 0 0 0 243.04811709230671 -21.103745817643357 0 -21.103745817643357 256.22685385731893 0 0 0 0 488.21981627223067 -252.37039967157398 0 -252.37039967157398 -9.1327372211781039 0 0 0 0 4.3493958976238112 -6.3291688246763584 0 -6.3291688246763584 9.1925266528527914 0 0 0 0 131.76526593182462 385.71185831991897 0 385.71185831991897 1543.8020531490038 0 0 0 0 189.79617273252961 -111.40537749520081 0 -111.40537749520081 1661.9939110730193 0 0 0 0 428.38116200866216 -47.896145476352103 0 -47.896145476352103 968.17781305924291 0 0 0 0 552.17757653850504 -255.68915384404681 0 -255.68915384404681 1283.6628283156606 0 0 0 0 -2.748704667004116 -1.5133785477716373 0 -1.5133785477716373 0.086706997975142031 0 0 0 0 595.70013693376632 663.89180440951895 0 663.89180440951895 20.584654854443215 0 0 0 0 -282.89255819686696 -172.42583431913226 0 -172.42583431913226 1190.1764145791858 0 0 0 0 543.48749875191731 -585.25922436193605 0 -585.25922436193605 673.36074435106275 0 0 0 0 -337.40242153152576 -12.158670688178972 0 -12.158670688178972 742.38542967581907 0 0 0 0 -209.57027146044584 -145.52781258826144 0 -145.52781258826144 780.34504171129811 0 0 0 0 -182.42455895354215 -179.14088742248714 0 -179.14088742248714 475.69814136203422 0 0 0 0 41.316484090646554 -38.16747698578547 0 -38.16747698578547 564.12259251267096 0 0 0 0 -370.16510712630225 -1047.5237737422212 0 -1047.5237737422212 828.94219042542682 0 0 0 0 -13.220229035233203 -2.4856582694557687 0 -2.4856582694557687 2.0018798013304746 0 0 0 0 -235.4090123985261 27.908833784491435 0 27.908833784491435 600.06937237059537 0 0 0 0 531.72465296535484 26.882501585060709 0 26.882501585060709 -159.30729805753799 0 0 0 0 425.90698216590749 146.83470727546592 0 146.83470727546592 998.6769490896404 0 0 0 0 -713.098883622416 -167.74129679290945 0 -167.74129679290945 305.45946116674168 0 0 0 0 -659.41365392724947 91.777944906272751 0 91.777944906272751 590.17230209502304 0 0 0 0 1249.6909899045331 811.26802232770569 0 811.26802232770569 8.7551174890177208 0 0 0 0 -28.247911124841266 -548.70217602063349 0 -548.70217602063349 -891.78730146650923 0 0 0 0 588.51217858340624 1407.9536589653108 0 1407.9536589653108 2090.1010839230294 0 0 0 0 5.5526566544290823 -3.2848832572004483 0 -3.2848832572004483 4.6463245571210479 0 0 0 0 -714.01121096546763 1646.9542396807374 0 1646.9542396807374 2391.2879889778851 0 0 0 0 579.2556316351438 483.79154938676947 0 483.79154938676947 900.54593772629596 0 0 0 0 597.00630729505701 549.79273234636639 0 549.79273234636639 1137.858988931257 0 0 0 0 12.543945719025389 -1.4970180303567702 0 -1.4970180303567702 4.0910324171867245 0 0 0 0 1002.6097056360386 481.00317803029611 0 481.00317803029611 1841.9218419935878 0 0 0 0 288.31807565645772 640.62982593609922 0 640.62982593609922 1410.9471826604131 0 0 0 0 316.22197707733631 363.66642826823227 0 363.66642826823227 822.97939792486432 0 0 0 0 177.91986110141488 457.91488380897499 0 457.91488380897499 1296.4790280804227 0 0 0 0 323.01161914709792 590.35685238523001 0 590.35685238523001 1104.7943871368043 0 0 0 0 394.71713323133554 230.67684442376049 0 230.67684442376049 1413.3762345471005 0 0 0 0 294.55551446738764 440.43279437375395 0 440.43279437375395 1121.5327120451984 0 0 0 0 125.63927887707541 71.950036406415165 0 71.950036406415165 107.49897464974492 0 0 0 0 156.10431421666362 15.844024267316854 0 15.844024267316854 -93.830474175490963 0 0 0 0 37.315022973541915 75.04385359342929 0 75.04385359342929 80.965207999160128 0 0 0 0 19.591645196983436 -11.201168081570131 0 -11.201168081570131 1.7345080024600179 0 0 0 0 227.54044130619877 -49.693817673774902 0 -49.693817673774902 162.83113851302187 0 0 0 0 241.47768254290713 -45.020594351139152 0 -45.020594351139152 131.6912774387165 0 0 0 0 292.32667699144804 -70.454907100996934 0 -70.454907100996934 134.51884583156061 0 0 0 0 200.24605955416337 -110.19234116761072 0 -110.19234116761072 238.22422089194879 0 0 0 0 303.04577442968002 23.796716255354113 0 23.796716255354113 62.59325251870905 0 0 0 0 249.0260801655968 8.3512115186313167 0 8.3512115186313167 87.959511169581674 0 0 0 0 339.7291799102095 -36.723678811395075 0 -36.723678811395075 102.49034149975341 0 0 0 0 275.3220438758508 -48.551949324086308 0 -48.551949324086308 127.36873224365991 0 0 0 0 369.25736820642487 -44.378778084763326 0 -44.378778084763326 65.280556085839635 0 0 0 0 320.82732852204572 8.5005483503919095 0 8.5005483503919095 43.003829610475805 0 0 0 0 -41.833093429435394 179.40004569286248 0 179.40004569286248 122.83779661450535 0 0 0 0 239.39724259293871 50.135530434083194 0 50.135530434083194 76.335604192339815 0 0 0 0 312.69181892291817 26.356231113953982 0 26.356231113953982 61.051855414116289 0 0 0 0 321.23054319019866 5.7149316441209521 0 5.7149316441209521 61.687990068923682 0 0 0 0 333.22802262673213 -3.8919327799521852 0 -3.8919327799521852 -15.842391018442868 0 0 0 0 212.51617096690461 106.26482160040177 0 106.26482160040177 2.7805517638480524 0 0 0 0 167.85277662454973 62.2465278703894 0 62.2465278703894 77.068383292877115 0 0 0 0 -406.89810624103848 305.0839394575014 0 305.0839394575014 106.01313129250775 0 0 0 0 -0.77382960835529957 236.78806243065628 0 236.78806243065628 -267.37078833748819 0 0 0 0 -9.5250571292635868 188.19787537460797 0 188.19787537460797 14.576999195269309 0 0 0 0 200.69703059665335 16.374153337150346 0 16.374153337150346 -128.7101621394977 0 0 0 0 -190.18410237995704 191.82024177670246 0 191.82024177670246 -26.016163744730875 0 0 0 0 -260.01425378061322 0.92383750586304814 0 0.92383750586304814 -454.57987355242949 0 0 0 0 -13.279130688068108 62.363866996805882 0 62.363866996805882 -157.29015783892828 0 0 0 0 -330.17869236987463 287.03835876085213 0 287.03835876085213 186.39352724252967 0 0 0 0 13.152713240604498 142.76294796736329 0 142.76294796736329 85.550248782674316 0 0 0 0 202.53099544543147 93.536522188631352 0 93.536522188631352 192.62269190308871 0 0 0 0 210.38917544933793 67.015496743784752 0 67.015496743784752 5.295026791136479 0 0 0 0 -100.23800636168744 200.15389029344078 0 200.15389029344078 179.15749156806851 0 0 0 0 393.10695373309136 -22.540471064392477 0 -22.540471064392477 36.951260925387032 0 0 0 0 352.43585282142158 -25.845487578830216 0 -25.845487578830216 -9.4848721995949745 0 0 0 0 217.83328734029783 71.883089118040516 0 71.883089118040516 49.063861951988656 0 0 0 0 356.82518455541867 15.572174853252363 0 15.572174853252363 130.85196028772043 0 0 0 0 427.19455106869282 -107.54390829632757 0 -107.54390829632757 115.02423337858636 0 0 0 0 521.50528954321999 -195.26096346021222 0 -195.26096346021222 248.44901769625721 0 0 0 0 441.9700548335677 -75.606615659795352 0 -75.606615659795352 284.42033105163136 0 0 0 0 491.57984029117506 -85.954870846588165 0 -85.954870846588165 129.44115171452404 0 0 0 0 372.53871930268724 55.114212937871343 0 55.114212937871343 309.25728050054749 0 0 0 0 621.55816681237775 10.356720851006685 0 10.356720851006685 262.92044878195156 0 0 0 0 538.6618869126105 -28.124082469730638 0 -28.124082469730638 465.07759425934637 0 0 0 0 554.83565194577386 -202.09757825832639 0 -202.09757825832639 446.23527418053709 0 0 0 0 665.10372697855928 -111.70140917689423 0 -111.70140917689423 254.37975277569785 0 0 0 0 213.05079747012678 314.85061687666166 0 314.85061687666166 286.72402542363852 0 0 0 0 -71.296714102296392 258.90305106242886 0 258.90305106242886 293.91963118163403 0 0 0 0 395.4588556704839 31.65739045717055 0 31.65739045717055 123.8535102744936 0 0 0 0 370.67047543363151 213.11030304197629 0 213.11030304197629 541.18265025073197 0 0 0 0 379.94835247060473 183.11773974740208 0 183.11773974740208 328.05330484115984 0 0 0 0 40.480244842041429 255.52540930632676 0 255.52540930632676 696.83595851776772 0 0 0 0 384.91919305872761 450.88993351507816 0 450.88993351507816 759.37698646745412 0 0 0 0 602.4958345992236 135.78364784098812 0 135.78364784098812 727.06199164129794 0 0 0 0 657.01983542050584 293.07722348361858 0 293.07722348361858 559.56889657271677 0 0 0 0 925.64102945299237 -162.17633599636611 0 -162.17633599636611 577.27006860997062 0 0 0 0 961.14740563855594 -410.09127768264443 0 -410.09127768264443 624.59759211359778 0 0 0 0 702.16536452276341 -1.9292593435093295 0 -1.9292593435093295 466.46528126166959 0 0 0 0 986.70558699558023 -419.455088510731 0 -419.455088510731 922.35729358717799 0 0 0 0 1106.4025909641059 400.82221906472114 0 400.82221906472114 813.59938763803802 0 0 0 0 1484.5922423746961 -197.79075072839623 0 -197.79075072839623 553.18307396899036 0 0 0 0 1959.1944948165037 247.43005795872887 0 247.43005795872887 833.21068312707939 0 0 0 0 2167.1803048103029 -495.94825968236546 0 -495.94825968236546 833.54408772509487 0 0 0 0 1245.4021925451962 -948.18730831309222 0 -948.18730831309222 1431.536862900015 0 0 0 0 270.72703285787429 177.88541333610192 0 177.88541333610192 1641.9640120507684 0 0 0 0 75.663030499898014 -32.907675203052349 0 -32.907675203052349 1158.3332946473383 0 0 0 0 356.51149724434617 118.44219923130731 0 118.44219923130731 1111.1198606319376 0 0 0 0 492.47152852281943 91.187805905123241 0 91.187805905123241 787.39157812530175 0 0 0 0 840.0873329477181 598.4466390585003 0 598.4466390585003 1358.5342074343353 0 0 0 0 376.60757854382973 -679.15030393685447 0 -679.15030393685447 1806.3880315059941 0 0 0 0 -38.633340122702066 -365.19056447628827 0 -365.19056447628827 1616.8596368264407 0 0 0 0 -215.08011760785303 -139.3346603748796 0 -139.3346603748796 1328.7291649689432 0 0 0 0 580.58967470120115 -523.3987978011719 0 -523.3987978011719 1160.4232165589929 0 0 0 0 568.9851500668301 -730.05292561615352 0 -730.05292561615352 1345.7807697870012 0 0 0 0 186.04032567948161 -448.85125276588951 0 -448.85125276588951 1174.6209168286587 0 0 0 0 598.14393242691585 -341.97804796806304 0 -341.97804796806304 774.81407139910152 0 0 0 0 1071.8253303052043 -634.88490622273821 0 -634.88490622273821 949.16056157887215 0 0 0 0 605.63097560590541 -166.7967882467201 0 -166.7967882467201 462.95070353837218 0 0 0 0 672.55831813295845 -513.22146103278646 0 -513.22146103278646 780.82211369194556 0 0 0 0 393.29237421220023 -408.54098798765335 0 -408.54098798765335 784.68711012703716 0 0 0 0 -36.094770611751301 -205.91929218712903 0 -205.91929218712903 882.61134674758068 0 0 0 0 187.13334285434121 -486.1613718638655 0 -486.1613718638655 1218.2829801707994 0 0 0 0 -17.48173587245401 -181.67591119464487 0 -181.67591119464487 630.84102626422828 0 0 0 0 160.03665212664964 -387.04355695829872 0 -387.04355695829872 844.8201030055352 0 0 0 0 304.94681543531624 -245.30146597040584 0 -245.30146597040584 498.03175872471184 0 0 0 0 260.7984121727095 -270.87099350474455 0 -270.87099350474455 445.66605148155941 0 0 0 0 677.64651236600548 -279.92892699616641 0 -279.92892699616641 407.58698087150697 0 0 0 0 357.49862835775275 -287.97851462222752 0 -287.97851462222752 475.03790309766191 0 0 0 0 412.91196540575766 -177.66787515665055 0 -177.66787515665055 283.96201889379881 0 0 0 0 566.40106642467435 -165.20962903907639 0 -165.20962903907639 266.61890686419792 0 0 0 0 472.99147556256503 -278.6174681490229 0 -278.6174681490229 438.15178559662309 0 0 0 0 462.11772393206047 -199.64877866941242 0 -199.64877866941242 246.58011126489146 0 0 0 0 392.51312378316652 -82.738221852807328 0 -82.738221852807328 183.34246933745453 0 0 0 0 349.90068976460316 -96.088311720639467 0 -96.088311720639467 180.89640491997125 0 0 0 0 371.02650420399732 -113.39523578264925 0 -113.39523578264925 158.0796538417344 0 0 0 0 346.19281941771987 -108.35789757391103 0 -108.35789757391103 167.01337421638891 0 0 0 0 330.08813404800276 -40.601314603565697 0 -40.601314603565697 85.716829087643418 0 0 0 0 412.14540291386948 -120.15037259625387 0 -120.15037259625387 142.42229181420407 0 0 0 0 98.551378892538196 -149.96067230103654 0 -149.96067230103654 356.75240221084096 0 0 0 0 296.53284819076362 -184.69059891600045 0 -184.69059891600045 316.12070741807111 0 0 0 0 278.33312605405808 -190.37475755519699 0 -190.37475755519699 314.48081465817813 0 0 0 0 252.73088676476982 -145.14479550322721 0 -145.14479550322721 238.39948122858186 0 0 0 0 -83.074772098836547 -64.252847783820471 0 -64.252847783820471 320.57868014476844 0 0 0 0 -576.71292364210103 700.90915539280888 0 700.90915539280888 20.483773672669486 0 0 0 0 85.454205732574337 -184.94108760486415 0 -184.94108760486415 406.92506081960164 0 0 0 0 -174.11313247482758 -115.41734148970863 0 -115.41734148970863 472.57903829717543 0 0 0 0 -127.42460460851726 -146.03481280348205 0 -146.03481280348205 491.40630462186527 0 0 0 0 -34.349778711199178 -130.03754139166267 0 -130.03754139166267 480.65080703754211 0 0 0 0 -620.65443177660472 68.158413150881643 0 68.158413150881643 1109.1634695002576 0 0 0 0 -457.57593707131309 -91.392436693626223 0 -91.392436693626223 1340.4330822900592 0 0 0 0 -191.91994974232512 -216.6891835743445 0 -216.6891835743445 1183.8007229476061 0 0 0 0 -241.08320975771494 -101.23664451550576 0 -101.23664451550576 967.74383484892314 0 0 0 0 -425.4595738109565 118.59183364419732 0 118.59183364419732 762.92842233726697 0 0 0 0 -599.54424047041539 6.0776535518234596 0 6.0776535518234596 1275.027254081564 0 0 0 0 -210.13153278492609 -120.04727760027527 0 -120.04727760027527 1151.9783252081834 0 0 0 0 -357.60886912305068 190.64552719102358 0 190.64552719102358 285.02010886900825 0 0 0 0 53.707735051204509 -53.450081952934852 0 -53.450081952934852 300.68010361712368 0 0 0 0 35.345642126070743 34.825088678480824 0 34.825088678480824 236.38561287409539 0 0 0 0 -181.84199500827526 148.88319366876385 0 148.88319366876385 205.81882995451451 0 0 0 0 110.77082919167151 -4.7655015810451005 0 -4.7655015810451005 145.80152376373007 0 0 0 0 56.024598882708233 -111.04068746379926 0 -111.04068746379926 280.28712786121469 0 0 0 0 -80.173212436311587 -57.535898911446566 0 -57.535898911446566 259.28921434850781 0 0 0 0 77.515240518783685 -29.56043418275658 0 -29.56043418275658 194.12240408585058 0 0 0 0 -102.3117198116488 -50.220087198678812 0 -50.220087198678812 407.94929987459909 0 0 0 0 129.75702902185003 -259.24642894488352 0 -259.24642894488352 549.67601127221133 0 0 0 0 13.886283499298699 3.9673947341697158 0 3.9673947341697158 -22.053543535250981 0 0 0 0 -187.02110831522805 170.88655930165987 0 170.88655930165987 91.64389165925968 0 0 0 0 -278.51809468880674 194.36396258350578 0 194.36396258350578 164.50409240820591 0 0 0 0 -36.023979034894921 1.4515938655297589 0 1.4515938655297589 19.951216742203592 0 0 0 0 -235.16647461378852 221.53015449075065 0 221.53015449075065 113.79747196168319 0 0 0 0 -6.3397956009285679 -0.72901787927310124 0 -0.72901787927310124 1.1316423678897962 0 0 0 0 -16.519849538552997 -2.0006087385706621 0 -2.0006087385706621 2.6289256624272781 0 0 0 0 -123.28496837906914 -340.1554932257759 0 -340.1554932257759 983.07319087734504 0 0 0 0 -225.28274686542852 839.88244091361491 0 839.88244091361491 -404.15530845033936 0 0 0 0 -274.34130570015259 -17.214081179205095 0 -17.214081179205095 569.84439880884747 0 0 0 0 -10.524062979293149 -4.3272005083678664 0 -4.3272005083678664 -2.9719160812271639 0 0 0 0 -769.10708540694031 -307.44991504801874 0 -307.44991504801874 624.04430974622119 0 0 0 0 68.456667806076439 -73.588657581207372 0 -73.588657581207372 -83.535531058849301 0 0 0 0 34.631364549380365 58.582868777760311 0 58.582868777760311 86.018711730668713 0 0 0 0 -1097.5158320336095 550.26441024690939 0 550.26441024690939 -69.806797053264745 0 0 0 0 19.897393219634068 -356.46659665129846 0 -356.46659665129846 1514.9188470096251 0 0 0 0 -1387.3372438776005 -97.001912407435157 0 -97.001912407435157 550.32665834132786 0 0 0 0 1.3271174629809224 -667.10826925342508 0 -667.10826925342508 1565.4084329866455 0 0 0 0 -376.64534501160824 -447.03294158633071 0 -447.03294158633071 1866.9887461639228 0 0 0 0 -116.56111194007099 270.05432586048482 0 270.05432586048482 290.53525143560364 0 0 0 0 47.486124541182875 84.688248586048971 0 84.688248586048971 93.381256738089718 0 0 0 0 123.27077751993272 -66.701128963392875 0 -66.701128963392875 -0.69430341632687487 0 0 0 0 99.561314371895264 437.22016429556243 0 437.22016429556243 329.56400678381033 0 0 0 0 245.23958158618962 -200.62067967353505 0 -200.62067967353505 339.26921645650486 0 0 0 0 -3.4130610676074866 294.33564411787665 0 294.33564411787665 1871.7164817673474 0 0 0 0 -391.0099506488599 -535.89024856613833 0 -535.89024856613833 2542.6708935064671 0 0 0 0 1007.6985720034702 706.94346776625025 0 706.94346776625025 1988.3958740146336 0 0 0 0 307.44754982816232 94.528853505875304 0 94.528853505875304 924.48633596033324 0 0 0 0 107.2910499704991 -77.130178041974432 0 -77.130178041974432 1404.4175186188077 0 0 0 0 -32.589971269261355 265.60718235215791 0 265.60718235215791 1159.1139404812711 0 0 0 0 98.099288364304357 474.23700145871408 0 474.23700145871408 780.55428027072412 0 0 0 0 -542.18789992932739 -1632.40678400857 0 -1632.40678400857 1573.6972185194463 0 0 0 0 -605.31809567401422 -427.65704559270489 0 -427.65704559270489 4230.5885527249629 0 0 0 0 -616.01979762714404 -586.62811124306427 0 -586.62811124306427 2557.208156500652 0 0 0 0 -393.36262238193922 -592.6010056938976 0 -592.6010056938976 2219.1764807881309 0 0 0 0 191.40487998242429 302.64862026705669 0 302.64862026705669 2063.4414193947869 0 0 0 0 -436.04958688931242 -511.88925270113032 0 -511.88925270113032 4262.894716142735 0 0 0 0 -309.48602475802636 -372.39442180803235 0 -372.39442180803235 2797.1453772523528 0 0 0 0 -1.2053048697125632 -1011.1907547190494 0 -1011.1907547190494 2614.0402796358248 0 0 0 0 564.67719836101878 -1341.3586858393828 0 -1341.3586858393828 2281.5454781689768 0 0 0 0 873.3882035625802 -2213.9609473190339 0 -2213.9609473190339 4740.393767530928 0 0 0 0 318.0068951058247 -554.30173946058494 0 -554.30173946058494 1451.9586659259439 0 0 0 0 299.05380489686013 1470.4443112889567 0 1470.4443112889567 6620.5040793132503 0 0 0 0 189.0916441099298 763.26318402464676 0 763.26318402464676 2772.8389556521943 0 0 0 0 -496.02489211058764 888.91897906556551 0 888.91897906556551 6457.2682619002735 0 0 0 0 1408.9274372086745 1325.3890171655094 0 1325.3890171655094 1172.8262718076439 0 0 0 0 861.09940662627059 506.9550085027804 0 506.9550085027804 536.2928072665818 0 0 0 0 676.80595841864169 365.82788085530774 0 365.82788085530774 510.82852809061296 0 0 0 0 599.04742900862857 366.51487053405435 0 366.51487053405435 667.56899761766545 0 0 0 0 662.83190788918682 227.59776374464855 0 227.59776374464855 570.44991714103526 0 0 0 0 885.11007905806855 798.89011494140141 0 798.89011494140141 961.37306461398839 0 0 0 0 523.9385467616687 659.97731897697668 0 659.97731897697668 1717.4585606299515 0 0 0 0 616.8036965641636 392.72559440825717 0 392.72559440825717 895.89602597916019 0 0 0 0 172.31579617255011 433.78017746711339 0 433.78017746711339 1605.6807487554906 0 0 0 0 240.4397959217481 705.78956778985594 0 705.78956778985594 2683.033558864081 0 0 0 0 336.24216117376665 81.03455442584891 0 81.03455442584891 1033.5402774438116 0 0 0 0 330.39217429956568 159.23201356993377 0 159.23201356993377 1672.6716905401845 0 0 0 0 236.79180131863552 1080.3517245753828 0 1080.3517245753828 1218.0885227437248 0 0 0 0 497.78934813866846 518.38921691355063 0 518.38921691355063 969.59120066146716 0 0 0 0 586.80658055246749 686.80784683687671 0 686.80784683687671 1177.3616365163907 0 0 0 0 586.90595247756926 657.86137504299131 0 657.86137504299131 594.81047680774645 0 0 0 0 2806.0859513023943 -1560.8023149392102 0 -1560.8023149392102 -558.8338396383333 0 0 0 0 330.13965958377389 345.53077149174169 0 345.53077149174169 -804.96361480461201 0 0 0 0 -531.56217163186943 1513.4729194310348 0 1513.4729194310348 -84.38001359939517 0 0 0 0 -1643.4281371502448 -801.60658678803884 0 -801.60658678803884 1334.2851335353334 0 0 0 0 -1236.3798055194402 372.02685010869754 0 372.02685010869754 3532.4258081378684 0 0 0 0 -771.00809350961572 1107.2107462346903 0 1107.2107462346903 3297.6576456968542 0 0 0 0 -894.79593572533304 1600.4567688728857 0 1600.4567688728857 4505.8972466135674 0 0 0 0 -1319.1256472761015 815.26162458707404 0 815.26162458707404 4126.2571692943384 0 0 0 0 -730.15106885097339 1277.6260060763234 0 1277.6260060763234 4014.5095085464709 0 0 0 0 805.94946043782556 2448.5819206490905 0 2448.5819206490905 6047.8010090987373 0 0 0 0 -5.0898888035515206 -6.284693767150543 0 -6.284693767150543 25.216894716950975 0 0 0 0 -0.33063588079556205 -1.4614098625142589 0 -1.4614098625142589 9.4234529653436567 0 0 0 0 300.17485176542732 1343.7487480433774 0 1343.7487480433774 5032.6854322037543 0 0 0 0 -1149.2090512113698 1086.8019263355964 0 1086.8019263355964 6102.3649568612163 0 0 0 0 -37.623250699234859 34.240786610940631 0 34.240786610940631 4612.7573287445703 0 0 0 0 -125.75695305260615 53.661373967290274 0 53.661373967290274 6743.5283316903515 0 0 0 0 1921.5310333650878 1224.762579516937 0 1224.762579516937 2135.4157757896028 0 0 0 0 -196.90502516342531 409.45039893590729 0 409.45039893590729 3952.8787625735276 0 0 0 0 -5.393986796188428 -2.5333410096175299 0 -2.5333410096175299 10.35602265356313 0 0 0 0 -1163.811388931387 1593.4010332536811 0 1593.4010332536811 4229.6490939384385 0 0 0 0 -668.50558077243386 1134.8729403357429 0 1134.8729403357429 4643.7683477579558 0 0 0 0 -30.578380366734564 1656.8573822526523 0 1656.8573822526523 4143.748047867055 0 0 0 0 1379.3645003910306 -259.72207106099268 0 -259.72207106099268 1091.0973528425384 0 0 0 0 571.42191376541086 2707.1124404101865 0 2707.1124404101865 2263.7893645107179 0 0 0 0 -8.0258038531587275 -1.6707761595957464 0 -1.6707761595957464 8.9610487449924108 0 0 0 0 1046.2426643961444 2518.7485278857057 0 2518.7485278857057 2767.9302741034553 0 0 0 0 -266.79521594062771 2355.2836808893571 0 2355.2836808893571 5047.1940005694632 0 0 0 0 613.70521329718395 2819.3061609702199 0 2819.3061609702199 -118.72581523884219 0 0 0 0 1435.7001730757556 -841.14379091700539 0 -841.14379091700539 7944.3582184734987 0 0 0 0 -437.7593374986609 3000.2928952284856 0 3000.2928952284856 1035.8155534794787 0 0 0 0 15.688073147342203 23.314900139185355 0 23.314900139185355 34.255009667064371 0 0 0 0 2379.9319514751505 2818.6316711528852 0 2818.6316711528852 4270.4344367135636 0 0 0 0 696.0753422907801 862.13055147130945 0 862.13055147130945 5517.3055243938179 0 0 0 0 -827.29560703602328 894.37126091741084 0 894.37126091741084 4677.5858273941558 0 0 0 0 5754.9639673783458 2409.0244102770375 0 2409.0244102770375 5981.619457493558 0 0 0 0 2418.2373542417918 6710.0566861050611 0 6710.0566861050611 5847.6826652743184 0 0 0 0 -825.97365047294443 706.89140363379556 0 706.89140363379556 8181.740992153238 0 0 0 0 129.38303154840469 -1355.8425304367047 0 -1355.8425304367047 2949.5340163465262 0 0 0 0 557.1286120616378 350.7670862919731 0 350.7670862919731 -66.329413703853788 0 0 0 0 984.94155922591244 -1062.773875656083 0 -1062.773875656083 1791.9427243480895 0 0 0 0 1770.7714831923513 1211.7608414511542 0 1211.7608414511542 792.51010086275346 0 0 0 0 2.5487173287369758 3.2657692050112157 0 3.2657692050112157 19.72405570511512 0 0 0 0 1029.3279755285498 291.01722770981178 0 291.01722770981178 -15.083186848583864 0 0 0 0 1.1610490538740412 5.1022099429494752 0 5.1022099429494752 44.621564394115467 0 0 0 0 -157.5484835171444 245.77244586580127 0 245.77244586580127 319.80916025585611 0 0 0 0 59.388724474903483 -91.431066008488415 0 -91.431066008488415 437.25175439713348 0 0 0 0 672.40741837434143 155.0322243640403 0 155.0322243640403 121.75280457435292 0 0 0 0 380.92339648516918 -269.39475850874442 0 -269.39475850874442 -758.11654315944907 0 0 0 0 59.121586007032192 139.41664775922254 0 139.41664775922254 166.82079598878045 0 0 0 0 2.5275813989887759 -9.7864181448448306 0 -9.7864181448448306 17.289459557936112 0 0 0 0 57.013904701207323 198.70122858834145 0 198.70122858834145 40.687229461225797 0 0 0 0 -543.48422882394061 592.17112087451824 0 592.17112087451824 513.0781603396681 0 0 0 0 -143.71664051325831 -1732.8382406898472 0 -1732.8382406898472 -508.0582550222025 0 0 0 0 -178.22286956097963 -114.94968389117639 0 -114.94968389117639 282.11782623545878 0 0 0 0 -143.85809616660629 179.5365736210224 0 179.5365736210224 241.68642360327794 0 0 0 0 -7.5052808373832054 -3.0994037188574026 0 -3.0994037188574026 24.540953312826389 0 0 0 0 -315.25136788010479 437.10759876045267 0 437.10759876045267 -40.991308833201401 0 0 0 0 0.76996007368221953 1.8567892707784637 0 1.8567892707784637 3.7003609068139554 0 0 0 0 55.694426899724348 -73.215552613700993 0 -73.215552613700993 276.40797234588536 0 0 0 0 102.12548730002096 -485.5936790281437 0 -485.5936790281437 570.54698262848251 0 0 0 0 917.43795894944742 -2256.4632630277119 0 -2256.4632630277119 2013.0093736743984 0 0 0 0 247.11765992901212 209.54391891677369 0 209.54391891677369 109.84067080020759 0 0 0 0 657.84764041556355 -181.15103558828559 0 -181.15103558828559 1013.8691122235577 0 0 0 0 -16.027058078100254 14.479409629583444 0 14.479409629583444 20.43093888080567 0 0 0 0 -153.61036200875969 -607.4785435442227 0 -607.4785435442227 1460.5004443502912 0 0 0 0 -350.85287033237228 -518.41007752108271 0 -518.41007752108271 2700.7755198132945 0 0 0 0 -368.14998946212245 11.300248704530532 0 11.300248704530532 2444.0486565291794 0 0 0 0 -21.325449649120856 652.1851992054435 0 652.1851992054435 2634.8998983254078 0 0 0 0 -167.92778728421763 213.58189997074078 0 213.58189997074078 2603.4817997361297 0 0 0 0 860.78850004900323 1774.3840178017708 0 1774.3840178017708 3565.7607287309365 0 0 0 0 -592.44917356491987 -50.725391962147114 0 -50.725391962147114 4996.9541487078677 0 0 0 0 -119.51388372124211 184.38214571116623 0 184.38214571116623 1979.204370488158 0 0 0 0 -64.580654541010517 172.59629670372669 0 172.59629670372669 1515.9484981323458 0 0 0 0 -197.48947897263497 -104.96574764328398 0 -104.96574764328398 1810.0058807614059 0 0 0 0 33.958698162984092 298.04821498675665 0 298.04821498675665 1932.0093441437766 0 0 0 0 -145.56469708665941 393.51460734171451 0 393.51460734171451 2111.290412983697 0 0 0 0 -67.597581783211808 115.14463954177336 0 115.14463954177336 2075.3158796608768 0 0 0 0 -14.543762625199179 53.459750735191847 0 53.459750735191847 1339.646096437431 0 0 0 0 -127.72361417202114 22.252613003503939 0 22.252613003503939 1587.158040538241 0 0 0 0 66.45250155663598 -16.436636061802346 0 -16.436636061802346 633.36585563536937 0 0 0 0 -51.142822125625571 -325.27951832256804 0 -325.27951832256804 1138.8097096804704 0 0 0 0 47.036011816636233 -88.019511263250024 0 -88.019511263250024 251.39653366685161 0 0 0 0 -8.4617499944244017 21.612097543572048 0 21.612097543572048 17.630709607820833 0 0 0 0 78.279080144729505 -143.85437453112536 0 -143.85437453112536 1049.6695395370225 0 0 0 0 24.835973051633061 -60.739506860491019 0 -60.739506860491019 243.37913672461582 0 0 0 0 13.069817653859559 -83.78003397042994 0 -83.78003397042994 205.82503353706852 0 0 0 0 -9.0747863363331049 22.354977383166357 0 22.354977383166357 18.837646079240592 0 0 0 0 -13.103838732963773 21.840588394829894 0 21.840588394829894 17.462109525693997 0 0 0 0 36.333695432704189 121.66026829847033 0 121.66026829847033 311.29451114789845 0 0 0 0 57.372742970413356 -62.193086904571828 0 -62.193086904571828 44.741251166389702 0 0 0 0 -101.53087450400835 -170.14674021626342 0 -170.14674021626342 916.22620402490429 0 0 0 0 24.88569047367946 -129.01528902832433 0 -129.01528902832433 512.05742532287331 0 0 0 0 -101.97076850607891 -111.81606392017966 0 -111.81606392017966 1029.6161945408676 0 0 0 0 33.070672664310223 89.351806639068855 0 89.351806639068855 -126.56015778587607 0 0 0 0 -1.2800878237435427 70.828611459943204 0 70.828611459943204 149.94726212394016 0 0 0 0 -90.569909566267143 74.959267395461211 0 74.959267395461211 691.64859983502538 0 0 0 0 2.124906023800829 2.1132677219153209 0 2.1132677219153209 3.2692981403071144 0 0 0 0 -68.397503455291826 74.525669981341707 0 74.525669981341707 988.22835026383837 0 0 0 0 151.51208609420928 -67.552443244825554 0 -67.552443244825554 955.68058531513088 0 0 0 0 113.7182525040339 -141.42715652666629 0 -141.42715652666629 818.75712032505544 0 0 0 0 3.2417385277390167 25.408013452266459 0 25.408013452266459 1004.2605016414318 0 0 0 0 -73.417514540183674 -11.000811429259556 0 -11.000811429259556 1192.5900682346146 0 0 0 0 62.766058213669567 412.36231995670096 0 412.36231995670096 1261.2587359752979 0 0 0 0 -158.94571552390028 382.88671746992532 0 382.88671746992532 1862.5018416850144 0 0 0 0 -167.39802025757854 352.21231553592952 0 352.21231553592952 1789.9095564927193 0 0 0 0 -119.49593661484568 401.29939736376832 0 401.29939736376832 2007.1452331440742 0 0 0 0 -112.07277503685822 465.89013382412691 0 465.89013382412691 1875.1262129782626 0 0 0 0 -184.84573922264599 468.02860505564604 0 468.02860505564604 1899.8476211513007 0 0 0 0 -180.86664532285556 445.86102907160921 0 445.86102907160921 1878.4077610195163 0 0 0 0 181.85334860350849 206.41931768790892 0 206.41931768790892 -260.89686117514793 0 0 0 0 5.4660534553805533 5.421458554781637 0 5.421458554781637 5.7613932851504046 0 0 0 0 247.63262964035812 511.43016828218606 0 511.43016828218606 772.84476318952761 0 0 0 0 103.73146549324019 595.08274148841701 0 595.08274148841701 1755.0868851101986 0 0 0 0 126.93060551429971 270.17361651953252 0 270.17361651953252 1892.1036098570075 0 0 0 0 -18.056353770783971 -58.039990761189983 0 -58.039990761189983 2949.893839622966 0 0 0 0 276.14293758234498 757.69396283904643 0 757.69396283904643 2312.537091829814 0 0 0 0 513.40379164399815 625.21422854227239 0 625.21422854227239 1753.9104762620773 0 0 0 0 -40.27223515728349 418.57332544642213 0 418.57332544642213 1922.7800206554202 0 0 0 0 -20.300628102754672 430.00300737379257 0 430.00300737379257 1746.5479909129717 0 0 0 0 -129.88225371713997 359.45851956799379 0 359.45851956799379 1773.9709854624316 0 0 0 0 56.515846706130446 202.85471080886828 0 202.85471080886828 1354.3772308346233 0 0 0 0 -53.627108528629378 356.57745328107012 0 356.57745328107012 1344.047703237964 0 0 0 0 -12.317494318942408 383.94782038344056 0 383.94782038344056 1325.4131449770721 0 0 0 0 53.489718604815153 478.93754600969442 0 478.93754600969442 1232.5918134499807 0 0 0 0 -35.488863728039291 218.46798623048016 0 218.46798623048016 1001.7268878275136 0 0 0 0 -56.273721028931504 552.33574434086768 0 552.33574434086768 1702.0814149504113 0 0 0 0 -106.46454036207342 392.77028455221625 0 392.77028455221625 1635.7356442926393 0 0 0 0 -70.947175194562533 540.55899256696193 0 540.55899256696193 1872.7471547027308 0 0 0 0 129.51469717105419 493.75549757973931 0 493.75549757973931 1621.4387998336897 0 0 0 0 168.74974478712465 580.40811242613199 0 580.40811242613199 1468.4193908709458 0 0 0 0 329.33645782674466 459.70310510867785 0 459.70310510867785 1309.667465777311 0 0 0 0 89.936819223170232 368.14057365578992 0 368.14057365578992 1297.4156353333383 0 0 0 0 147.06551900838758 345.31103096912557 0 345.31103096912557 960.83737668200047 0 0 0 0 -9.2303931888936859 423.70832695923673 0 423.70832695923673 1417.8844220292458 0 0 0 0 14.340215210927909 359.44052749030743 0 359.44052749030743 966.15779006540106 0 0 0 0 25.303219769296632 156.31411117122502 0 156.31411117122502 691.76191612087132 0 0 0 0 54.884782984770027 336.02989480032556 0 336.02989480032556 996.01221182165318 0 0 0 0 126.06805198986721 166.79154651158024 0 166.79154651158024 745.22018857805233 0 0 0 0 111.56190912116767 292.42406482594379 0 292.42406482594379 688.94105777538789 0 0 0 0 81.27651109687622 167.82888223612827 0 167.82888223612827 923.25246331797098 0 0 0 0 141.43742883496452 306.27078541938681 0 306.27078541938681 1021.112083304688 0 0 0 0 79.633255944590701 147.64843017190287 0 147.64843017190287 1225.0512154877433 0 0 0 0 202.6131194469549 289.64194398037944 0 289.64194398037944 1010.4812605543229 0 0 0 0 99.986700021827801 242.96434701210819 0 242.96434701210819 1261.3035456613579 0 0 0 0 123.29440883374673 470.93402327756121 0 470.93402327756121 776.56359755605081 0 0 0 0 166.57721897243573 70.675332307750068 0 70.675332307750068 1255.1093644632856 0 0 0 0 2.9929783354795063 208.61945031998857 0 208.61945031998857 1326.9552798498044 0 0 0 0 53.13771766952641 338.35957812176639 0 338.35957812176639 916.30601018541347 0 0 0 0 95.123296397624813 48.905786423569225 0 48.905786423569225 1395.7512528883381 0 0 0 0 263.91328601929729 105.91150255806497 0 105.91150255806497 1319.5800083248396 0 0 0 0 68.619954629662004 192.69224902750648 0 192.69224902750648 1286.2129169436666 0 0 0 0 157.16447878802751 38.527637363498798 0 38.527637363498798 1358.0249750003713 0 0 0 0 284.10356237574706 -56.127293151403137 0 -56.127293151403137 1392.6313409194727 0 0 0 0 325.54883132376199 296.48263286531437 0 296.48263286531437 1267.7496193139832 0 0 0 0 173.824250037409 165.65492172738232 0 165.65492172738232 1397.9097094988101 0 0 0 0 538.46067659959226 223.28858402676997 0 223.28858402676997 1390.768520011492 0 0 0 0 512.81443340879196 424.77884020862257 0 424.77884020862257 1463.1958233441894 0 0 0 0 214.50414940716632 359.91879899741616 0 359.91879899741616 1463.9504094256554 0 0 0 0 341.27506362975464 355.93273550877348 0 355.93273550877348 1551.5303778577218 0 0 0 0 1052.3156791328292 704.23210615449352 0 704.23210615449352 2410.5833967784711 0 0 0 0 1002.8123054186499 676.42960337270415 0 676.42960337270415 1624.4919391816366 0 0 0 0 517.26231314654569 216.74126056366731 0 216.74126056366731 1411.5195796492771 0 0 0 0 304.87458904787081 699.32371130367028 0 699.32371130367028 2455.4486699679692 0 0 0 0 5.0256358828912528 -0.81097251720824204 0 -0.81097251720824204 3.6688648070057113 0 0 0 0 277.35834767238885 231.90274486109774 0 231.90274486109774 1442.2603760779784 0 0 0 0 346.01365784362014 183.09033815874136 0 183.09033815874136 1324.5231825620722 0 0 0 0 254.60547401682811 144.91730973886297 0 144.91730973886297 1327.254756837232 0 0 0 0 233.98564765086917 138.64515953620139 0 138.64515953620139 1477.0030878135876 0 0 0 0 122.28618091501085 399.64886361482786 0 399.64886361482786 1272.1865988803638 0 0 0 0 -75.312800817760035 924.68288238233799 0 924.68288238233799 2963.5638834701749 0 0 0 0 1124.8635554043476 501.55523671601259 0 501.55523671601259 1757.9833188060184 0 0 0 0 4.1055261795980531 -2.6973410673658265 0 -2.6973410673658265 7.3073531226546464 0 0 0 0 -122.37739166975416 944.31544794235379 0 944.31544794235379 2508.6049426642567 0 0 0 0 266.89574675089125 1001.2332105834867 0 1001.2332105834867 2514.6538487054859 0 0 0 0 -77.571143573416407 872.14188546253627 0 872.14188546253627 2284.6483094751165 0 0 0 0 2.4764440995745272 -0.71588189397057533 0 -0.71588189397057533 4.5372895638898498 0 0 0 0 220.03487871641119 831.58295364255173 0 831.58295364255173 2181.2513006691479 0 0 0 0 490.21764967943818 595.51448019724921 0 595.51448019724921 2093.7546157434549 0 0 0 0 126.43830422463589 224.69026317184216 0 224.69026317184216 2238.0411133515736 0 0 0 0 -173.86120548831514 316.75576776905655 0 316.75576776905655 2021.2187447436954 0 0 0 0 0.010826969632034888 420.24510836150876 0 420.24510836150876 1995.1892619338346 0 0 0 0 -135.43807000442121 542.72133742430015 0 542.72133742430015 2021.7227825440798 0 0 0 0 -6.2728751981026107 507.03444795700489 0 507.03444795700489 1870.164148925156 0 0 0 0 328.15562638594656 717.89894751759857 0 717.89894751759857 1831.2286747937615 0 0 0 0 317.41305963340437 573.04881202667457 0 573.04881202667457 1889.8435559129575 0 0 0 0 36.956515919358026 657.64557581435474 0 657.64557581435474 2360.5819278918789 0 0 0 0 55.988420546275165 -75.912200098668109 0 -75.912200098668109 -46.070495360094355 0 0 0 0 -66.69248242069807 251.16602557545411 0 251.16602557545411 105.96537899720715 0 0 0 0 -39.688351167629108 -35.01053643594787 0 -35.01053643594787 -31.221127282115049 0 0 0 0 -0.048224221942067019 -42.440018247405533 0 -42.440018247405533 -35.791677193185023 0 0 0 0 0.017958956586485976 -0.53134143717761617 0 -0.53134143717761617 -19.631424003746361 0 0 0 0 -0.16161955114941856 -1.3673173914031338 0 -1.3673173914031338 9.5571285698110842 0 0 0 0 -266.65828606797356 -3.1509843390740571 0 -3.1509843390740571 185.16570602741558 0 0 0 0 263.01429974591201 245.21170669090134 0 245.21170669090134 19.522695662366459 0 0 0 0 39.205021820936736 -82.004200976007269 0 -82.004200976007269 45.556179929815698 0 0 0 0 -0.98292642355609283 -1.9058631030380582 0 -1.9058631030380582 9.4622569072497527 0 0 0 0 -266.83795836036472 -288.26193909531139 0 -288.26193909531139 -139.15330862739938 0 0 0 0 -265.08973386759948 -88.775412447073904 0 -88.775412447073904 495.14079517111531 0 0 0 0 209.37383120099457 -177.29819858461997 0 -177.29819858461997 437.48573655172368 0 0 0 0 116.48128923958132 37.123229313205229 0 37.123229313205229 -57.417633859498892 0 0 0 0 86.620073205146127 -437.21037726059876 0 -437.21037726059876 -47.975211445791956 0 0 0 0 192.36529515144059 -285.41386577193043 0 -285.41386577193043 533.8608016478247 0 0 0 0 375.87019257521445 257.53967550878588 0 257.53967550878588 136.72783403404173 0 0 0 0 0.46940598001192724 -1.1118100387021457 0 -1.1118100387021457 2.9668912241086218 0 0 0 0 188.7075104930052 -226.03044478021184 0 -226.03044478021184 380.70801421976648 0 0 0 0 212.07921330219486 -138.12843130025612 0 -138.12843130025612 319.4914660663635 0 0 0 0 161.28255939317683 -175.32591149369546 0 -175.32591149369546 348.14922392375593 0 0 0 0 280.1824860937283 -327.57613253253658 0 -327.57613253253658 275.00908523252292 0 0 0 0 21.025616166801001 62.224480557895731 0 62.224480557895731 -148.27561480084842 0 0 0 0 -188.60070400697393 103.76741356879938 0 103.76741356879938 500.84633976974874 0 0 0 0 0.39690167507393692 -1.6808056935368541 0 -1.6808056935368541 5.1980609056041658 0 0 0 0 298.47126212832825 -497.16692298305861 0 -497.16692298305861 284.172015865297 0 0 0 0 -381.31906024342419 -174.69717144386595 0 -174.69717144386595 311.90832276796573 0 0 0 0 0.18997597914625136 -2.8161102221764907 0 -2.8161102221764907 11.064872381159148 0 0 0 0 -115.88916813851782 -119.95723430000908 0 -119.95723430000908 -26.55668472580146 0 0 0 0 30.880501356894172 41.661630994829466 0 41.661630994829466 -69.715304675330117 0 0 0 0 -0.025532412896060466 -112.80597879370907 0 -112.80597879370907 368.96929698729946 0 0 0 0 -231.72385347915974 -84.557251405589341 0 -84.557251405589341 834.06128754597739 0 0 0 0 298.97720146182837 -181.63742544226989 0 -181.63742544226989 464.32322957881843 0 0 0 0 -0.28558165651809564 -198.01129546574521 0 -198.01129546574521 583.26369164366042 0 0 0 0 105.96991273556358 -348.64551213606319 0 -348.64551213606319 756.62510095645121 0 0 0 0 147.26186399147576 -212.44932191626867 0 -212.44932191626867 458.99106674830546 0 0 0 0 -7.6789691135627436 -67.44239432887116 0 -67.44239432887116 444.1032349319139 0 0 0 0 109.54721018128396 28.256970122987696 0 28.256970122987696 -6.83360110927606 0 0 0 0 0.26617337869011359 -0.61531926009848803 0 -0.61531926009848803 1.1165070601099387 0 0 0 0 -67.050686017651856 -16.23720415434218 0 -16.23720415434218 450.32672360336755 0 0 0 0 -0.00012531995781895879 -0.83645293125131803 0 -0.83645293125131803 2.3016705530171748 0 0 0 0 -9.7253453283028648 -3.3622499770717695 0 -3.3622499770717695 11.185582735110074 0 0 0 0 -0.31790083120208434 0.21740026394792267 0 0.21740026394792267 0.73181378877268344 0 0 0 0 -3.4306693487942823 33.692583020601887 0 33.692583020601887 188.7103490124864 0 0 0 0 64.363094279048198 1.6883483709243592 0 1.6883483709243592 -46.60237249310012 0 0 0 0 -43.25862224700245 -100.3538726609986 0 -100.3538726609986 158.209885788674 0 0 0 0 -11.286422517591731 116.46758794924244 0 116.46758794924244 -25.053603201900842 0 0 0 0 1.1060738519681794 1.3923179710745899 0 1.3923179710745899 1.8456632125129318 0 0 0 0 2.7658031346424821 7.5730761562008411 0 7.5730761562008411 246.71208509159624 0 0 0 0 -38.784454993430373 -3.0720867287818692 0 -3.0720867287818692 35.918545291991904 0 0 0 0 76.839818360078596 18.592247307125945 0 18.592247307125945 39.521135570350452 0 0 0 0 140.7343853815766 -56.769685951599968 0 -56.769685951599968 266.52623579706415 0 0 0 0 38.436038282816867 79.414976105232199 0 79.414976105232199 403.4701670313807 0 0 0 0 -73.625274689155788 -17.538198599570023 0 -17.538198599570023 586.73665389795497 0 0 0 0 2.6738681105807416 -50.929797359247459 0 -50.929797359247459 211.91111894740607 0 0 0 0 -31.005544759501689 28.712276625756203 0 28.712276625756203 370.61929751985008 0 0 0 0 -10.68272683399573 -52.009005433385028 0 -52.009005433385028 407.16108830365556 0 0 0 0 90.466672513383784 -120.59034192488616 0 -120.59034192488616 290.85828518693597 0 0 0 0 0.1735420529041124 0.79419920047320147 0 0.79419920047320147 0.87245269675608483 0 0 0 0 -0.1834691664038246 -25.895951247446646 0 -25.895951247446646 305.62143180129351 0 0 0 0 43.306444435263089 -46.411918357374816 0 -46.411918357374816 690.49239370584837 0 0 0 0 210.15447803226232 -476.419179642784 0 -476.419179642784 523.49987338924257 0 0 0 0 62.080028136106648 -125.6423827765102 0 -125.6423827765102 384.0069955427316 0 0 0 0 35.607317778060974 -16.37709800090488 0 -16.37709800090488 319.2930938959762 0 0 0 0 -5.1050237251533872 -75.400541909941239 0 -75.400541909941239 269.18453317403328 0 0 0 0 87.586903873050687 -33.1625945513224 0 -33.1625945513224 174.46972160639416 0 0 0 0 0.37187072437390523 1.6226069368354956 0 1.6226069368354956 1.0531809826082821 0 0 0 0 71.946185592136544 -1.9962215982814087 0 -1.9962215982814087 376.29344791159019 0 0 0 0 4.0277422502569067 28.23926150927764 0 28.23926150927764 382.4726341421192 0 0 0 0 -49.711856348533331 -23.467769069785845 0 -23.467769069785845 371.15947035062709 0 0 0 0 -14.291965008871216 1.7201093739276985 0 1.7201093739276985 283.70044194036745 0 0 0 0 5.758831347100795 -61.761647299186734 0 -61.761647299186734 345.01181047456339 0 0 0 0 36.465861599033587 116.64459120846004 0 116.64459120846004 263.52923988783732 0 0 0 0 3.4437320142415615 -0.012018318881018786 0 -0.012018318881018786 65.095688132481882 0 0 0 0 19.463291870022886 79.814453138722456 0 79.814453138722456 -4.81208006835368 0 0 0 0 16.357665349985382 -13.744251259282464 0 -13.744251259282464 37.348306435422273 0 0 0 0 87.431757532126881 19.53614444838604 0 19.53614444838604 45.097318364772946 0 0 0 0 58.434725615547904 -16.031727379828226 0 -16.031727379828226 9.8972596170497127 0 0 0 0 39.048904163668396 -12.588307762809563 0 -12.588307762809563 7.3091575384023599 0 0 0 0 12.058006572304294 -0.76805509245605208 0 -0.76805509245605208 22.465795153286308 0 0 0 0 -0.0013797600147915645 0.6535291893198405 0 0.6535291893198405 1.4912499096412262 0 0 0 0 -61.795340042124053 138.48568733037882 0 138.48568733037882 -22.331450354351546 0 0 0 0 4.2806020748299325 9.0488856166772393 0 9.0488856166772393 10.75315132731771 0 0 0 0 -34.784829062257813 4.3264307176068542 0 4.3264307176068542 -0.34831708385900129 0 0 0 0 -28.990902571059905 86.725213693211117 0 86.725213693211117 153.91404593948391 0 0 0 0 -17.623057518974065 -66.111868084604794 0 -66.111868084604794 278.64312446159602 0 0 0 0 12.855716598358867 -34.799484508737805 0 -34.799484508737805 168.8676231454574 0 0 0 0 -16.247084059327335 -33.20605143859575 0 -33.20605143859575 98.250065137224738 0 0 0 0 -3.60018337054737 40.532139506680323 0 40.532139506680323 182.62320054808515 0 0 0 0 -1.196620806996652 2.3433259629138661 0 2.3433259629138661 1.382235706793395 0 0 0 0 -63.684757787192666 -6.1720304244227009 0 -6.1720304244227009 319.57682225422468 0 0 0 0 -0.27330210880117356 2.1187736212125401 0 2.1187736212125401 1.1707983175612355 0 0 0 0 28.194951021179747 27.538398103031795 0 27.538398103031795 233.49207436850702 0 0 0 0 -52.107181378349196 -42.342799420657684 0 -42.342799420657684 368.88733725778002 0 0 0 0 15.520851293762007 -32.650368875969434 0 -32.650368875969434 317.98999006928352 0 0 0 0 5.0507865273826269 62.353455810613013 0 62.353455810613013 423.63808036767296 0 0 0 0 -0.31060395064559998 47.646121096222487 0 47.646121096222487 398.04825889517087 0 0 0 0 -0.20981596869114583 21.878083800838795 0 21.878083800838795 428.62934091882198 0 0 0 0 -50.682412501814724 46.833468933145923 0 46.833468933145923 151.84775932869525 0 0 0 0 160.81615039270935 98.320216821630311 0 98.320216821630311 86.817789383232594 0 0 0 0 168.44282150124309 50.52556466855458 0 50.52556466855458 -46.75993204030965 0 0 0 0 -0.053722460740848632 1.7474417647123914 0 1.7474417647123914 0.77831792213898865 0 0 0 0 135.96896089773281 92.97577872191323 0 92.97577872191323 377.3269043603359 0 0 0 0 -18.945790917255636 61.389777989774302 0 61.389777989774302 559.65763266177964 0 0 0 0 27.074357414697261 -32.283000776602421 0 -32.283000776602421 331.23975520714157 0 0 0 0 152.42150123016404 -70.946475299017038 0 -70.946475299017038 280.03632178376574 0 0 0 0 122.41773597574547 -142.09103674114886 0 -142.09103674114886 368.3638888450223 0 0 0 0 183.28279821224754 -196.56079266068264 0 -196.56079266068264 222.61874056403758 0 0 0 0 193.97028099195234 -48.13790633509052 0 -48.13790633509052 226.11549453408225 0 0 0 0 351.23855203409721 -51.471777724314961 0 -51.471777724314961 176.73602611714159 0 0 0 0 317.25933049003214 -194.33029626691132 0 -194.33029626691132 114.18009680208343 0 0 0 0 312.95202123713148 -48.750182816209417 0 -48.750182816209417 275.54190720559563 0 0 0 0 420.05362341564177 -244.04871431030915 0 -244.04871431030915 544.73048416270467 0 0 0 0 334.3619704556412 -100.25164196900732 0 -100.25164196900732 294.70605984360009 0 0 0 0 560.96227345292141 -22.131505492165161 0 -22.131505492165161 317.00025549363636 0 0 0 0 166.99159927321216 62.200717046158388 0 62.200717046158388 476.47946844682156 0 0 0 0 194.96886473630911 99.474630301687284 0 99.474630301687284 188.76074857520871 0 0 0 0 -38.051648074101195 136.52460622988292 0 136.52460622988292 277.47787969605997 0 0 0 0 133.37107179010846 139.37037343248358 0 139.37037343248358 194.98294816966518 0 0 0 0 116.31787206572025 17.000970278188106 0 17.000970278188106 239.19391088100383 0 0 0 0 356.95652005218733 62.519261081906734 0 62.519261081906734 223.50367465155432 0 0 0 0 -52.190375613281049 94.926818847605318 0 94.926818847605318 229.22928751708241 0 0 0 0 -385.53931561170702 -68.005218995647738 0 -68.005218995647738 188.39868168458634 0 0 0 0 -234.08573557705586 135.40696818196739 0 135.40696818196739 275.76890558181913 0 0 0 0 -178.0583544756546 -59.040209198483353 0 -59.040209198483353 72.963282491575228 0 0 0 0 -353.41826367614522 -133.21670621284284 0 -133.21670621284284 74.924898684155323 0 0 0 0 -177.19618820123014 -142.1870912314771 0 -142.1870912314771 -12.556023639634077 0 0 0 0 -334.18237160180252 -200.02464384914492 0 -200.02464384914492 -6.3841939192807331 0 0 0 0 -244.07526200770008 -192.63899747611867 0 -192.63899747611867 109.09900808447856 0 0 0 0 -204.30188269823884 -145.51749320863746 0 -145.51749320863746 -72.135034793569503 0 0 0 0 -174.29156734814933 -182.57517743394419 0 -182.57517743394419 -67.97757710242513 0 0 0 0 -179.33189175472035 -111.92869056120981 0 -111.92869056120981 157.85836316966743 0 0 0 0 -218.77813124199565 -193.34257990323749 0 -193.34257990323749 197.86478911715676 0 0 0 0 -22.819608542664355 31.457519893127028 0 31.457519893127028 216.79508846682984 0 0 0 0 -257.86674176730412 -73.629513692358159 0 -73.629513692358159 203.96602279640501 0 0 0 0 -43.350521102712094 -204.63029616814856 0 -204.63029616814856 219.26247949511162 0 0 0 0 -228.28351593619209 -217.27246176789049 0 -217.27246176789049 403.82492284018372 0 0 0 0 -1.3122508058084712 0.92648388095079781 0 0.92648388095079781 0.63740640917001912 0 0 0 0 -325.05987883078342 -108.90784005574824 0 -108.90784005574824 285.90528227880714 0 0 0 0 -201.21610192538265 75.703915518766735 0 75.703915518766735 90.140193024126347 0 0 0 0 -8.5809939955179289 -53.536243004265998 0 -53.536243004265998 133.97902816333226 0 0 0 0 35.357564446366155 36.55488417835295 0 36.55488417835295 138.15723031746165 0 0 0 0 18.659605605130309 -42.834109608171275 0 -42.834109608171275 261.61920909433684 0 0 0 0 -110.55915281918396 -4.6630861818557605 0 -4.6630861818557605 430.06821848872642 0 0 0 0 -1.7937129366845497 2.0343099824668798 0 2.0343099824668798 1.0532620226615563 0 0 0 0 -40.33665482084723 109.08181698000044 0 109.08181698000044 237.68711363698822 0 0 0 0 -17.37355527369391 105.9703883130278 0 105.9703883130278 223.54188122260894 0 0 0 0 -25.214084064467897 74.153307301785389 0 74.153307301785389 418.96641502797138 0 0 0 0 17.485519419205957 37.440552748623304 0 37.440552748623304 286.80401589775283 0 0 0 0 -0.49960498653837426 2.7058635537645728 0 2.7058635537645728 1.1346337400623341 0 0 0 0 35.859033900994291 3.7433960940834368 0 3.7433960940834368 419.44410418036705 0 0 0 0 -71.740927425582413 62.020114385566558 0 62.020114385566558 738.86973841208965 0 0 0 0 46.936475517622057 189.29508437994809 0 189.29508437994809 370.61472658213461 0 0 0 0 -0.8712438088265273 1.5552666452203425 0 1.5552666452203425 1.1007260488643738 0 0 0 0 -22.786909441511852 35.942865311066271 0 35.942865311066271 184.96394223446259 0 0 0 0 8.5738420959251016 22.532480347796081 0 22.532480347796081 173.77404618260334 0 0 0 0 -85.562377421933434 59.858388147491496 0 59.858388147491496 166.57885266786616 0 0 0 0 3.1278128089530775 7.6411972911350858 0 7.6411972911350858 9.0743541664616032 0 0 0 0 -127.9312716884051 84.992904453836672 0 84.992904453836672 -63.479808901582146 0 0 0 0 -343.55339923996848 140.14185204626574 0 140.14185204626574 150.88682489085477 0 0 0 0 -306.42016153461168 342.55360935603767 0 342.55360935603767 -133.05383664919646 0 0 0 0 -106.60043114482505 318.15172631914902 0 318.15172631914902 462.20358162482444 0 0 0 0 -195.19196344700049 341.15900423963467 0 341.15900423963467 833.9133003220195 0 0 0 0 288.72616077247767 -500.70703910890734 0 -500.70703910890734 1355.4470321682747 0 0 0 0 1514.0867250791307 -145.72057945141569 0 -145.72057945141569 580.57762506118161 0 0 0 0 -53.613852635953435 0.028503740853921045 0 0.028503740853921045 350.92108020046726 0 0 0 0 -80.594509770113291 -43.487399242920219 0 -43.487399242920219 845.00580721901497 0 0 0 0 -164.80315236787737 -8.4342909962579142 0 -8.4342909962579142 125.73193538206397 0 0 0 0 -196.02520123929025 16.25582089011732 0 16.25582089011732 234.4468672076182 0 0 0 0 -162.9272884508664 -100.99338878839626 0 -100.99338878839626 538.82737284238101 0 0 0 0 -39.425497437453487 586.23622357058048 0 586.23622357058048 -341.35248329662863 0 0 0 0 -103.97078837263143 171.82211710351112 0 171.82211710351112 -248.36874277118477 0 0 0 0 -37.692888746561948 465.13511109209503 0 465.13511109209503 -65.368541211384581 0 0 0 0 -9.2033443101154262 337.46795732841565 0 337.46795732841565 -17.496691675682086 0 0 0 0 -19.651379100774875 411.16003232754156 0 411.16003232754156 -188.11168958811322 0 0 0 0 -36.857177385592877 488.82430223999836 0 488.82430223999836 -18.830912357807392 0 0 0 0 -297.37989565225666 77.578543211828219 0 77.578543211828219 -137.0150491114764 0 0 0 0 -237.60527305224787 285.1021859436587 0 285.1021859436587 491.78639741655206 0 0 0 0 191.19845922386412 -16.926601567000034 0 -16.926601567000034 166.27892062650062 0 0 0 0 1.2716557088208837 3.2214060831191489 0 3.2214060831191489 3.7720402310806094 0 0 0 0 -109.33535458840925 -7.2732429272000445 0 -7.2732429272000445 868.66580026134034 0 0 0 0 166.28062939257507 328.69507167235133 0 328.69507167235133 378.09159092084155 0 0 0 0 12.512668835264776 107.14996131193038 0 107.14996131193038 247.2708420001436 0 0 0 0 -260.61773513094795 20.714651887152286 0 20.714651887152286 258.04709698859369 0 0 0 0 64.413352075769581 120.82257606145868 0 120.82257606145868 120.40474621043722 0 0 0 0 -276.52101672576634 98.601410377650609 0 98.601410377650609 -4.4036267284682253 0 0 0 0 138.39150093934586 -142.23999589597224 0 -142.23999589597224 220.17487427627202 0 0 0 0 244.64386608374843 -334.46557902672794 0 -334.46557902672794 181.82891460952669 0 0 0 0 569.4739813842798 -302.59820102337835 0 -302.59820102337835 127.6882771194214 0 0 0 0 453.80397290213386 -111.81553420299679 0 -111.81553420299679 21.180090764595661 0 0 0 0 -1.2949297039840548 4.61020137693599 0 4.61020137693599 39.082279132312635 0 0 0 0 -765.56720237170521 229.39338321656396 0 229.39338321656396 230.50271899796644 0 0 0 0 -230.7873226227448 515.95956692006439 0 515.95956692006439 120.77371039809077 0 0 0 0 -0.31880597658105447 1.1285031462199697 0 1.1285031462199697 14.529767416515881 0 0 0 0 954.47638655400169 -635.19798890641687 0 -635.19798890641687 555.45667666580994 0 0 0 0 542.27367944160505 -131.480853902729 0 -131.480853902729 130.72861281001701 0 0 0 0 266.09523589801393 -298.92241199042473 0 -298.92241199042473 433.84349486915744 0 0 0 0 349.60002298780273 -237.33693087082065 0 -237.33693087082065 681.27628669049591 0 0 0 0 158.25939182528964 11.392696581402561 0 11.392696581402561 413.1424348187229 0 0 0 0 -7.7459635534542031 -55.855696814091061 0 -55.855696814091061 476.18039716806379 0 0 0 0 38.656422805908733 192.31502984639519 0 192.31502984639519 378.6449729166925 0 0 0 0 174.8460293047865 130.88543008602574 0 130.88543008602574 511.24168689797807 0 0 0 0 255.63140857993221 -92.336987833630701 0 -92.336987833630701 969.62263637920842 0 0 0 0 212.06739981600094 -328.14804053582338 0 -328.14804053582338 1154.1765243575792 0 0 0 0 91.472890514291066 147.34498776914552 0 147.34498776914552 1235.1159164767014 0 0 0 0 698.26889975578297 431.47581364642974 0 431.47581364642974 740.54074139345903 0 0 0 0 1309.1111054479065 673.06018229163601 0 673.06018229163601 835.16602724418044 0 0 0 0 -236.30100726979799 67.220504776210873 0 67.220504776210873 139.29977512283949 0 0 0 0 -236.30788670679794 68.54924231498444 0 68.54924231498444 377.78413504140917 0 0 0 0 -51.722348313000111 83.281704097022157 0 83.281704097022157 254.39010239578784 0 0 0 0 -199.02428677328044 10.861542723789171 0 10.861542723789171 127.53751575882779 0 0 0 0 -130.38629204913741 -139.34680252450926 0 -139.34680252450926 336.89485756908107 0 0 0 0 118.76985239475744 -47.422788276729989 0 -47.422788276729989 144.01106162159704 0 0 0 0 -263.06930973713679 -141.72587372691487 0 -141.72587372691487 220.2130589960143 0 0 0 0 -625.264130814483 -44.955689659225754 0 -44.955689659225754 254.15971782605629 0 0 0 0 -421.58040548971985 -160.42286031933327 0 -160.42286031933327 218.74851393394783 0 0 0 0 -183.12838129591455 -22.460903611507092 0 -22.460903611507092 78.42946761182975 0 0 0 0 -337.59193136513568 13.660573177490733 0 13.660573177490733 -61.090557615272701 0 0 0 0 0.29278649003119561 -27.967493539951114 0 -27.967493539951114 105.16953612518358 0 0 0 0 -7.5506377713654125 -1.1289126440696293 0 -1.1289126440696293 97.534016160613078 0 0 0 0 -531.42863649787614 -173.00072261947935 0 -173.00072261947935 168.9148927917704 0 0 0 0 -61.881138021217339 2.1308150488330284 0 2.1308150488330284 83.157100501541208 0 0 0 0 -2.6916550535657273 -12.214067553823595 0 -12.214067553823595 113.01140412147402 0 0 0 0 2.3250209947484066 -13.146466089252556 0 -13.146466089252556 65.89730839113696 0 0 0 0 -267.38731607734735 -229.24238824634813 0 -229.24238824634813 -10.879055022305693 0 0 0 0 28.03846767651703 -216.8241937369603 0 -216.8241937369603 241.41655874216667 0 0 0 0 -19.624314277105441 -96.045978243659192 0 -96.045978243659192 11.226200889621396 0 0 0 0 -20.260147309880267 -235.61363168884418 0 -235.61363168884418 79.605858304377762 0 0 0 0 -245.47467055856669 -107.4997521167661 0 -107.4997521167661 137.63195435801754 0 0 0 0 126.49719387068581 -92.428254711077898 0 -92.428254711077898 11.577949381462531 0 0 0 0 -294.57692384946859 18.28773092917254 0 18.28773092917254 14.852258498838637 0 0 0 0 -5.4077964643274754 -172.122344792886 0 -172.122344792886 -76.372107289265841 0 0 0 0 -2.6216529063240159 -149.19932984833576 0 -149.19932984833576 18.622878481633961 0 0 0 0 173.11551212729682 -197.27933674507949 0 -197.27933674507949 49.774908533378039 0 0 0 0 57.791492356373055 -263.41414711273683 0 -263.41414711273683 114.95879098435398 0 0 0 0 -142.80621557752147 90.802792525281802 0 90.802792525281802 148.22356538960594 0 0 0 0 -50.421624628266727 -221.85463569685817 0 -221.85463569685817 -2.6668924330442678 0 0 0 0 -46.885267837627907 -193.51900581343216 0 -193.51900581343216 56.879244585132255 0 0 0 0 1.5483634546810592 -7.2284443647951733 0 -7.2284443647951733 37.926632771101936 0 0 0 0 -447.7751606331517 160.42100762022164 0 160.42100762022164 162.27928989479551 0 0 0 0 -118.2980350333637 -213.94832334907187 0 -213.94832334907187 111.69395236624405 0 0 0 0 266.52123852112618 187.13593536244298 0 187.13593536244298 -137.80719210166717 0 0 0 0 -127.26836020491828 390.66877319743799 0 390.66877319743799 -26.099152734735981 0 0 0 0 2.0868795668827271 -4.3749625133918215 0 -4.3749625133918215 11.215591566449177 0 0 0 0 268.26384419459282 -200.1779214534472 0 -200.1779214534472 -220.72660956398613 0 0 0 0 614.78106011910495 171.69798687785806 0 171.69798687785806 81.929292989298119 0 0 0 0 -521.50567657411557 -192.96112722744147 0 -192.96112722744147 323.4696467583417 0 0 0 0 1110.3235357297472 -833.25355094484985 0 -833.25355094484985 262.23054383060662 0 0 0 0 -439.30952778937717 -126.0909484695876 0 -126.0909484695876 563.6057083235246 0 0 0 0 275.60529161513841 -43.9354761124996 0 -43.9354761124996 -36.809376247023465 0 0 0 0 259.76672258800681 -122.03064541167987 0 -122.03064541167987 86.130575154122198 0 0 0 0 165.19107187942427 -396.94318934407784 0 -396.94318934407784 407.47160114528378 0 0 0 0 -32.75436641921624 -130.65261252116761 0 -130.65261252116761 92.02198945460259 0 0 0 0 134.33825370001432 -201.22794218930358 0 -201.22794218930358 67.591873179277172 0 0 0 0 -50.284056322429251 -217.70150092352378 0 -217.70150092352378 104.83328335540136 0 0 0 0 153.20268259390195 -275.31076420791942 0 -275.31076420791942 76.403628894127905 0 0 0 0 -540.33196720902151 86.312230558636656 0 86.312230558636656 91.192518529220251 0 0 0 0 -1.9750708380831341 7.2604189841164626 0 7.2604189841164626 60.787870808586831 0 0 0 0 405.99645261862861 -338.0960857916798 0 -338.0960857916798 27.726549991726642 0 0 0 0 -308.39083611401793 60.632743090656732 0 60.632743090656732 -45.216857934632571 0 0 0 0 308.16709742182502 -183.20619809729396 0 -183.20619809729396 19.189007757027866 0 0 0 0 -455.58633567333527 -42.70565917789645 0 -42.70565917789645 131.81153743011237 0 0 0 0 -329.18401936116152 -84.764248888051952 0 -84.764248888051952 78.697011883064988 0 0 0 0 -369.09036608122005 -64.771527919074288 0 -64.771527919074288 114.99006531221676 0 0 0 0 -292.73739101264619 -79.076542626906303 0 -79.076542626906303 117.27837722231561 0 0 0 0 -316.71253648685342 -46.893635815897142 0 -46.893635815897142 190.14183301627054 0 0 0 0 -203.73912091872648 38.104707856342429 0 38.104707856342429 234.19057755739777 0 0 0 0 -438.6093558395296 -6.6769160609110259 0 -6.6769160609110259 508.86780140106566 0 0 0 0 0.025728147630061926 14.956368203729909 0 14.956368203729909 77.112747732808202 0 0 0 0 -1.6033855481528008 -70.522864957201818 0 -70.522864957201818 -11.90081971368636 0 0 0 0 -156.7743177793036 -117.28698375503882 0 -117.28698375503882 51.659947174004628 0 0 0 0 -288.18667770560819 2.8638115424137141 0 2.8638115424137141 266.74717944575241 0 0 0 0 -130.97115053127891 47.769310186457005 0 47.769310186457005 170.52600847758004 0 0 0 0 -121.44499535977957 12.322801113083187 0 12.322801113083187 84.447394427581457 0 0 0 0 -4.5118131439166422 -9.0737951701701149 0 -9.0737951701701149 15.393282110318353 0 0 0 0 -209.25201131519862 -17.364019254833693 0 -17.364019254833693 116.4155692566128 0 0 0 0 -131.58147782757442 -52.375608169706538 0 -52.375608169706538 71.557568853429984 0 0 0 0 -114.52609261865018 -29.190810416974273 0 -29.190810416974273 91.018177775666118 0 0 0 0 2.5734840489421913 -27.51850168564124 0 -27.51850168564124 53.614454466791358 0 0 0 0 -105.32117071164021 -6.6758027441719605 0 -6.6758027441719605 71.469570232031401 0 0 0 0 -215.71960946214676 -57.622033472871408 0 -57.622033472871408 173.35781548162049 0 0 0 0 -204.61515395081551 -110.20439564128174 0 -110.20439564128174 122.42032805732742 0 0 0 0 -132.93632658713614 -92.44115485571092 0 -92.44115485571092 17.862666144559626 0 0 0 0 -216.28000747994702 -136.66766327885853 0 -136.66766327885853 79.540258492605062 0 0 0 0 -154.36465787571797 -194.97581785515649 0 -194.97581785515649 -132.2439240841959 0 0 0 0 -111.51364980965991 -115.43258920291555 0 -115.43258920291555 -107.13176164246397 0 0 0 0 -194.87342562078811 -175.82023551053135 0 -175.82023551053135 54.697467853606213 0 0 0 0 -86.274505888894055 -51.686533377651358 0 -51.686533377651358 13.637957494416696 0 0 0 0 -14.152346479702828 62.643074298612191 0 62.643074298612191 155.72420552144376 0 0 0 0 -86.169762335734049 -24.598445280673332 0 -24.598445280673332 54.63927299407078 0 0 0 0 -13.810126194604607 3.8467540994302283 0 3.8467540994302283 21.925285772443885 0 0 0 0 -32.539291235825658 -44.634000824371469 0 -44.634000824371469 162.36452768617073 0 0 0 0 -90.880103120201966 -18.350739997520577 0 -18.350739997520577 46.352690505475039 0 0 0 0 169.50294374494842 106.23180795653752 0 106.23180795653752 112.88895683374722 0 0 0 0 1.9960138005942767 4.8249071372229722 0 4.8249071372229722 -3.5407171770135051 0 0 0 0 -22.313899792383943 0.46832775853603437 0 0.46832775853603437 84.699000436390577 0 0 0 0 -15.16803607348993 -28.316475523693953 0 -28.316475523693953 71.571841459604912 0 0 0 0 -35.411430351192394 -24.391148021051777 0 -24.391148021051777 104.79029511554108 0 0 0 0 -3.1966123233833059 -159.56309174824128 0 -159.56309174824128 67.005742310080677 0 0 0 0 -1.5517185453609343 -34.947988001584918 0 -34.947988001584918 55.912135861762181 0 0 0 0 -34.781210168676139 47.029990921499042 0 47.029990921499042 242.01854768231325 0 0 0 0 -84.005009195927414 29.21070742495067 0 29.21070742495067 172.9321619560651 0 0 0 0 -37.329686733632116 57.279225856473204 0 57.279225856473204 38.193903462029994 0 0 0 0 -44.105170606287089 47.053996474100785 0 47.053996474100785 143.06982591982552 0 0 0 0 48.946236837713514 -68.26389325724449 0 -68.26389325724449 -225.63779102219269 0 0 0 0 -493.49701331688448 142.64867825522379 0 142.64867825522379 333.81188802453107 0 0 0 0 -251.60760869641672 -7.9696922465227544 0 -7.9696922465227544 135.7736708349039 0 0 0 0 94.256379841976013 -298.8600417363923 0 -298.8600417363923 190.56236172396166 0 0 0 0 18.444572037351922 -92.746331045996854 0 -92.746331045996854 126.25740235904215 0 0 0 0 15.676885837034206 -348.72732830124005 0 -348.72732830124005 758.37928707743413 0 0 0 0 -65.699655804961367 -69.592570532884565 0 -69.592570532884565 296.08031810640387 0 0 0 0 -103.3718137016549 -161.93687156641681 0 -161.93687156641681 481.40393018336181 0 0 0 0 -21.25744555431811 -241.60672265128233 0 -241.60672265128233 371.70338332287065 0 0 0 0 -5.831209261497861 -368.05338825104991 0 -368.05338825104991 602.87950966069184 0 0 0 0 262.44254867145355 -427.12943416495546 0 -427.12943416495546 256.84178752778098 0 0 0 0 148.66732179449173 257.58814273658936 0 257.58814273658936 624.29712175489112 0 0 0 0 -6.1099695040065853 114.882309959954 0 114.882309959954 -8.9354579453938641 0 0 0 0 4.1166531744562747 2.9518084390766717 0 2.9518084390766717 11.919249054298774 0 0 0 0 1114.4960640684003 -613.15190946031362 0 -613.15190946031362 1206.7633088885341 0 0 0 0 48.754973718502697 200.07081751224541 0 200.07081751224541 -275.25697231903905 0 0 0 0 -11.105913555923962 -971.038767813101 0 -971.038767813101 1622.9846592921531 0 0 0 0 -1373.4897640410709 994.7370030994789 0 994.7370030994789 -989.81822295524762 0 0 0 0 -11.567519491471881 4.4328254679380024 0 4.4328254679380024 53.345346316114274 0 0 0 0 0.14832389530405976 -4.2736010503207353 0 -4.2736010503207353 60.405987552521708 0 0 0 0 -20.096350825253467 -8.3464520257257391 0 -8.3464520257257391 29.400536355096847 0 0 0 0 -8.5468606480762617 8.4165828800407212 0 8.4165828800407212 110.94232565889655 0 0 0 0 -942.12616855406759 -470.79327916897819 0 -470.79327916897819 2131.0659084176295 0 0 0 0 -187.91619660539436 -33.778388073435053 0 -33.778388073435053 401.43880314653507 0 0 0 0 -168.12616598157183 -78.475639188080095 0 -78.475639188080095 445.57110943044245 0 0 0 0 -9.3009031891524501 -184.09862805558805 0 -184.09862805558805 208.99029559245173 0 0 0 0 58.163573728841705 -69.220686201361133 0 -69.220686201361133 80.53584471730187 0 0 0 0 133.73336625522012 -247.9954633749403 0 -247.9954633749403 47.272313718669466 0 0 0 0 4.730646381649251 -15.10734056266017 0 -15.10734056266017 62.033589185088871 0 0 0 0 -161.06222699988166 324.82129056489794 0 324.82129056489794 63.735305520272959 0 0 0 0 -441.26125651578332 320.82165256890585 0 320.82165256890585 -778.87726665782975 0 0 0 0 -765.2317875450899 312.73794798525341 0 312.73794798525341 28.402325443690643 0 0 0 0 -609.29959783458617 498.83086417440791 0 498.83086417440791 -34.891288237588014 0 0 0 0 -44.717267513086519 22.31223840220683 0 22.31223840220683 77.623920411781143 0 0 0 0 -36.450313471705158 -35.853900234273169 0 -35.853900234273169 407.34098192292004 0 0 0 0 -12.636977445396127 65.696657103072937 0 65.696657103072937 223.11576095109353 0 0 0 0 -399.72506332621651 599.49120267944454 0 599.49120267944454 177.40490353264613 0 0 0 0 -490.92091282700312 354.99248602450098 0 354.99248602450098 -127.58462960348697 0 0 0 0 -345.10134249941621 208.62558061245363 0 208.62558061245363 -1.904542833508458 0 0 0 0 -530.00408910314218 483.40490611716814 0 483.40490611716814 290.07973545748973 0 0 0 0 -249.92985988174769 401.58117490801669 0 401.58117490801669 454.05394887759758 0 0 0 0 -222.3239744972816 573.20791430782992 0 573.20791430782992 300.0500208894664 0 0 0 0 45.362254921376234 491.25768110928766 0 491.25768110928766 362.63333710143343 0 0 0 0 -153.77907120540198 107.01166481623454 0 107.01166481623454 23.141935301217018 0 0 0 0 -180.94179961891496 615.07752833007726 0 615.07752833007726 54.344177915714681 0 0 0 0 -156.28503591054687 46.886847612142446 0 46.886847612142446 719.09167957706086 0 0 0 0 63.890710580610175 54.658825699914814 0 54.658825699914814 588.69673035043525 0 0 0 0 -469.72676025781038 -47.887480405006499 0 -47.887480405006499 475.03163747688814 0 0 0 0 -75.382321301272896 155.5899745185452 0 155.5899745185452 295.43340155278565 0 0 0 0 -0.37031900058765643 0.85031328828941355 0 0.85031328828941355 -0.17575965757825429 0 0 0 0 -16.088794785115169 -35.562284779909533 0 -35.562284779909533 658.41676807109616 0 0 0 0 21.104705674941215 6.5153808664472308 0 6.5153808664472308 232.16540218691807 0 0 0 0 34.070965659811463 -101.99842669756345 0 -101.99842669756345 518.67027220528689 0 0 0 0 -1.1034503680566559 67.67222370771924 0 67.67222370771924 380.85831826075446 0 0 0 0 -46.244315610067133 127.0674986103113 0 127.0674986103113 411.20583218277898 0 0 0 0 -16.939443800380005 -6.5403815598024551 0 -6.5403815598024551 32.056820166003547 0 0 0 0 15.978170085389138 154.59796152552008 0 154.59796152552008 548.0907482522889 0 0 0 0 -12.198725381716031 45.631179529882502 0 45.631179529882502 604.64080932465731 0 0 0 0 -144.30301782222887 46.8627941483428 0 46.8627941483428 605.5988834227901 0 0 0 0 232.4773723571343 96.161533646431053 0 96.161533646431053 543.27983848688018 0 0 0 0 61.510156817759707 -190.67987874249229 0 -190.67987874249229 168.67145602394885 0 0 0 0 -16.940816807523433 -9.2642313030953858 0 -9.2642313030953858 13.989270949968358 0 0 0 0 -0.15938513043602143 554.88532702916746 0 554.88532702916746 1107.8868124223809 0 0 0 0 -14.619944718332082 0.078022799463383308 0 0.078022799463383308 2.4053168758009065 0 0 0 0 6.0389878585020824 226.025152117777 0 226.025152117777 183.12544438058103 0 0 0 0 -223.23234900934403 145.17144404028295 0 145.17144404028295 1131.7166148033139 0 0 0 0 -81.195747922063674 -183.6878052308748 0 -183.6878052308748 746.16106912083342 0 0 0 0 42.7152985015382 5.2664642827294301 0 5.2664642827294301 312.63642920198618 0 0 0 0 -111.53227987858554 -50.042843371636991 0 -50.042843371636991 361.81145593617111 0 0 0 0 -207.48629012766105 91.020397581101861 0 91.020397581101861 645.7293396936584 0 0 0 0 -159.09051042953433 12.200765805668198 0 12.200765805668198 313.84236719949695 0 0 0 0 56.832350837521517 610.12195944031555 0 610.12195944031555 2081.4015179335183 0 0 0 0 49.107450693478164 -67.906108420816196 0 -67.906108420816196 60.576332877385596 0 0 0 0 -136.68441893322961 -480.367431787643 0 -480.367431787643 -316.29391029319959 0 0 0 0 -481.41991803689962 -391.4397463876594 0 -391.4397463876594 410.90538360348364 0 0 0 0 -478.3860668223133 65.337331816187998 0 65.337331816187998 591.28797536081402 0 0 0 0 -57.355006988565492 -85.982346259057522 0 -85.982346259057522 1397.0917548910402 0 0 0 0 527.4248398678244 -335.91410697704123 0 -335.91410697704123 64.882128857076168 0 0 0 0 -44.521091779565893 219.34763816320492 0 219.34763816320492 941.99337839055806 0 0 0 0 402.98941728555474 -581.00419110935036 0 -581.00419110935036 772.4391283182631 0 0 0 0 550.96640792154926 -40.461593560445181 0 -40.461593560445181 -75.594020044676654 0 0 0 0 692.10509288319031 -1042.4036501268783 0 -1042.4036501268783 2597.980080016343 0 0 0 0 -124.40961845872698 9.436708835833997 0 9.436708835833997 1814.0347400645987 0 0 0 0 -699.82199550894074 590.35017159371637 0 590.35017159371637 3795.1054878328432 0 0 0 0 -483.91754116765827 557.1822780082166 0 557.1822780082166 2070.3905108664912 0 0 0 0 -139.55153988497682 674.86880082629796 0 674.86880082629796 1980.5318379320815 0 0 0 0 -0.890096200019862 -0.94644330441853164 0 -0.94644330441853164 35.355484406360802 0 0 0 0 63.011336337348212 1613.1522268827975 0 1613.1522268827975 2063.9095485505677 0 0 0 0 -486.56960202261189 -378.54773170330009 0 -378.54773170330009 478.41658175076009 0 0 0 0 217.63246802821709 660.11331904825784 0 660.11331904825784 39.520904290337057 0 0 0 0 12.583611621556884 250.97649301790079 0 250.97649301790079 396.87726052853395 0 0 0 0 -3.7691057058090576 -0.21132797049441265 0 -0.21132797049441265 75.099609641875077 0 0 0 0 -1457.2703558414953 285.78596037578245 0 285.78596037578245 374.91584006740595 0 0 0 0 -2412.7550517008767 -298.08818125324251 0 -298.08818125324251 1506.5855316328016 0 0 0 0 590.76337936102959 -439.93329284007086 0 -439.93329284007086 1314.083610355272 0 0 0 0 482.09663111599593 -137.60281588933867 0 -137.60281588933867 473.31034451715095 0 0 0 0 219.27891391311459 -117.86683075557085 0 -117.86683075557085 1047.6517898835009 0 0 0 0 94.436725931718229 356.84561494956142 0 356.84561494956142 968.29667941364823 0 0 0 0 136.47723673515111 148.70145150831922 0 148.70145150831922 1841.3642069183406 0 0 0 0 -340.69602139394829 335.52827957490808 0 335.52827957490808 2391.1429300778982 0 0 0 0 71.494823846034706 172.45132581391954 0 172.45132581391954 1832.695048655245 0 0 0 0 8.2374495451167604 659.54268214400327 0 659.54268214400327 2641.7624530428875 0 0 0 0 630.22055214091597 752.00618532733642 0 752.00618532733642 2523.2305867598334 0 0 0 0 142.41947860287337 1124.850551050793 0 1124.850551050793 6110.5819792974071 0 0 0 0 16.490760474090152 -17.483996210581438 0 -17.483996210581438 18.387672890265037 0 0 0 0 -80.326153147410878 124.01155457313871 0 124.01155457313871 3275.2267445854013 0 0 0 0 967.21812311290068 -754.54054858047311 0 -754.54054858047311 1744.6602155901783 0 0 0 0 -56.165213329826656 -75.417467751991353 0 -75.417467751991353 1342.4139466960551 0 0 0 0 579.30786664950347 -261.13581606037042 0 -261.13581606037042 -566.23750334916986 0 0 0 0 495.94364048936905 -724.18705189102548 0 -724.18705189102548 575.67699258246284 0 0 0 0 285.00611991365895 500.49124672429025 0 500.49124672429025 78.9942849734216 0 0 0 0 -93.761596743293012 393.50824836663378 0 393.50824836663378 1116.6413869358148 0 0 0 0 -35.541232426217903 254.54976268852624 0 254.54976268852624 370.82970517719514 0 0 0 0 -30.213183405146992 127.2190924356546 0 127.2190924356546 916.84258679715003 0 0 0 0 993.33217676257391 -123.96635135017277 0 -123.96635135017277 936.84709871165433 0 0 0 0 308.33206925430795 178.30103046816657 0 178.30103046816657 2305.4255150373356 0 0 0 0 377.53518545406905 759.89928208506171 0 759.89928208506171 1762.5162792619085 0 0 0 0 -169.55323215367753 190.42002435571339 0 190.42002435571339 1210.2777627977484 0 0 0 0 1025.8099052592206 973.44414846096333 0 973.44414846096333 2247.7422783374495 0 0 0 0 -405.3001143663314 425.51192537332827 0 425.51192537332827 2185.3975244582543 0 0 0 0 1733.8220138863608 -1401.4258223391662 0 -1401.4258223391662 3271.2379748809763 0 0 0 0 543.45072692810209 -1735.8217111514605 0 -1735.8217111514605 -1020.4476430318173 0 0 0 0 321.88793675598481 -1508.9879262561371 0 -1508.9879262561371 3476.704045005361 0 0 0 0 -99.822236043573525 -176.63025528989147 0 -176.63025528989147 522.89430845345487 0 0 0 0 815.83703327153853 -1360.8271331718279 0 -1360.8271331718279 397.79774958151393 0 0 0 0 406.74869003514323 -511.56118749667075 0 -511.56118749667075 3379.5270159667998 0 0 0 0 -261.92465104059374 -2145.1950025404512 0 -2145.1950025404512 1691.9263260972803 0 0 0 0 344.6976462089433 -1277.1065291475097 0 -1277.1065291475097 137.96265023981687 0 0 0 0 -95.467717681644444 -2057.6703273316161 0 -2057.6703273316161 3490.2321622540185 0 0 0 0 -211.10630493727695 -1443.2409024955123 0 -1443.2409024955123 2422.424123412231 0 0 0 0 1620.3165293959719 -1523.185055056063 0 -1523.185055056063 1361.7050188680878 0 0 0 0 1476.4291432983407 -729.46019049361166 0 -729.46019049361166 3421.8900035134575 0 0 0 0 -220.77107209532744 -1565.2513990874832 0 -1565.2513990874832 885.99028193723643 0 0 0 0 295.11146093916159 -923.50528649077751 0 -923.50528649077751 566.18698750637122 0 0 0 0 -484.52305400491241 -1026.797965490754 0 -1026.797965490754 -213.25395649980055 0 0 0 0 347.80140194636078 975.38125649195717 0 975.38125649195717 2795.4817566293059 0 0 0 0 -1.7065240076354158 0.04452127476506007 0 0.04452127476506007 2.7099396593811491 0 0 0 0 -47.461207630554782 709.41606678986864 0 709.41606678986864 3722.1823384194868 0 0 0 0 876.95642360389229 -384.48379841147107 0 -384.48379841147107 -867.99301997540169 0 0 0 0 560.49783661478068 -616.35213791264687 0 -616.35213791264687 1125.6119562433742 0 0 0 0 821.23981860678759 -1229.1915299947723 0 -1229.1915299947723 1496.8099427159905 0 0 0 0 -928.26354125335547 -266.29169305814503 0 -266.29169305814503 988.63010830190615 0 0 0 0 -376.69878418687222 409.07503969705431 0 409.07503969705431 1021.9936416730488 0 0 0 0 -505.51618360113025 -1096.5788180891832 0 -1096.5788180891832 -735.49266821499623 0 0 0 0 36.141047821896322 -49.76274548351418 0 -49.76274548351418 48.640372066277592 0 0 0 0 -158.94376596645452 228.10789376217872 0 228.10789376217872 294.03748491191072 0 0 0 0 201.50725977271941 18.299216510895349 0 18.299216510895349 416.1017546862131 0 0 0 0 241.96898451371817 32.225606496213004 0 32.225606496213004 812.60403253266122 0 0 0 0 786.42510076227791 493.67227267089766 0 493.67227267089766 655.38649576171883 0 0 0 0 -11.591598993761544 -5.126869515501312 0 -5.126869515501312 11.305420198602008 0 0 0 0 -71.819249281903467 777.00267601552332 0 777.00267601552332 1571.8213929663398 0 0 0 0 276.94263542155386 -347.60170255999765 0 -347.60170255999765 115.01438136264915 0 0 0 0 -130.13851865801553 452.71959558963135 0 452.71959558963135 244.84553050279646 0 0 0 0 -177.36708192642709 -186.39756923868845 0 -186.39756923868845 -324.89018302224576 0 0 0 0 -298.29079728141005 -426.19191470407532 0 -426.19191470407532 -402.47353901382303 0 0 0 0 -11.878859374463133 1.3621019591707864 0 1.3621019591707864 1.9450719760892241 0 0 0 0 -460.42296007040022 -291.58201608627132 0 -291.58201608627132 -141.88151046002167 0 0 0 0 -249.22146976739623 -158.06526079381001 0 -158.06526079381001 -135.4696377000655 0 0 0 0 -359.23152143835478 -151.25466151649016 0 -151.25466151649016 -110.0632599471719 0 0 0 0 -292.05846651902084 -182.52322042036394 0 -182.52322042036394 -96.275538358720951 0 0 0 0 -53.095099162685074 152.03837358405144 0 152.03837358405144 100.54128165253496 0 0 0 0 83.213279965837955 -45.397521001112182 0 -45.397521001112182 -43.69522080468596 0 0 0 0 -689.55294573159881 -283.1396289210461 0 -283.1396289210461 347.99228500839308 0 0 0 0 -434.05786860553781 686.9594337828421 0 686.9594337828421 343.41541611938737 0 0 0 0 -3.4196846143934607 1.5673033319947649 0 1.5673033319947649 -1.1873129653955914 0 0 0 0 -580.96332400900883 -757.88426562079985 0 -757.88426562079985 -664.85054692035192 0 0 0 0 -144.35487224994199 -502.17573640072078 0 -502.17573640072078 1598.9143836274889 0 0 0 0 443.40205475406214 72.096469684154727 0 72.096469684154727 1016.1821495128825 0 0 0 0 146.43836260836633 -601.30647866489016 0 -601.30647866489016 1057.2968815571949 0 0 0 0 25.421843012466979 -47.10235814880798 0 -47.10235814880798 392.18154052260797 0 0 0 0 250.52296631151466 81.797872095383354 0 81.797872095383354 422.80919353238278 0 0 0 0 370.25978099551617 -117.39535203757987 0 -117.39535203757987 389.61905909667257 0 0 0 0 318.42184258580954 -39.001188548172649 0 -39.001188548172649 945.66194035945227 0 0 0 0 214.38689874960005 1.7121486457617721 0 1.7121486457617721 960.17135850881459 0 0 0 0 934.39662081972085 -317.27431235809127 0 -317.27431235809127 1088.8751806657092 0 0 0 0 501.42021974222973 296.23266691655226 0 296.23266691655226 1710.9669094453566 0 0 0 0 -35.923899527968956 -728.38413909228984 0 -728.38413909228984 2270.7702756061917 0 0 0 0 -34.33310997392266 -165.42340832878835 0 -165.42340832878835 2472.8739576273219 0 0 0 0 -400.06688161758689 -313.5104740037641 0 -313.5104740037641 2443.4676412900735 0 0 0 0 -673.69830166266286 886.07518211782735 0 886.07518211782735 2060.3987784878518 0 0 0 0 1.1010425324132198 -4.3019199912196981 0 -4.3019199912196981 17.728805344440502 0 0 0 0 -438.66631111707244 875.84422897800687 0 875.84422897800687 821.15726447166526 0 0 0 0 134.22780716722315 187.26400915070553 0 187.26400915070553 39.023805941840692 0 0 0 0 619.33889231391936 -767.09518526456668 0 -767.09518526456668 658.02712105287355 0 0 0 0 -162.42318940282507 30.831067381295725 0 30.831067381295725 2288.8608147534906 0 0 0 0 57.692959907610998 -246.79623497754073 0 -246.79623497754073 785.23796319210669 0 0 0 0 187.34971631555936 -453.72485833308019 0 -453.72485833308019 664.10037220237427 0 0 0 0 -36.046771043567787 -700.06967379134221 0 -700.06967379134221 1932.134800045591 0 0 0 0 202.08027596602096 -624.25204559785197 0 -624.25204559785197 1018.2597737752512 0 0 0 0 48.748770798266605 -893.35190033850085 0 -893.35190033850085 2591.9263709244842 0 0 0 0 -523.53110861243954 19.931405605006148 0 19.931405605006148 4302.6813461108941 0 0 0 0 316.748164218895 -1984.250683380109 0 -1984.250683380109 -1363.6891180274542 0 0 0 0 9.6695497964363888 -9.1699157868129362 0 -9.1699157868129362 7.483306101152948 0 0 0 0 -792.11013787086858 490.07714775613567 0 490.07714775613567 -654.1156633410792 0 0 0 0 -141.36516555681592 -741.34175893628617 0 -741.34175893628617 828.31560868854285 0 0 0 0 16.002188046060098 -23.956629371362169 0 -23.956629371362169 17.593374759316902 0 0 0 0 290.80946036330897 973.25931114472769 0 973.25931114472769 -212.91109711826721 0 0 0 0 -109.58916505251671 -1057.946397344529 0 -1057.946397344529 -1163.3619390479435 0 0 0 0 -968.39560174961309 158.34351955611601 0 158.34351955611601 2415.8935637503164 0 0 0 0 -510.41641662498887 184.51792238251073 0 184.51792238251073 2362.215341327792 0 0 0 0 -568.87443883903211 423.93546631134814 0 423.93546631134814 2291.5697688384971 0 0 0 0 -914.5701328847199 719.18152043946611 0 719.18152043946611 2098.9886743699244 0 0 0 0 -410.34887206743679 381.44612915008656 0 381.44612915008656 2005.0772249487054 0 0 0 0 -223.88689257343202 384.60368288118661 0 384.60368288118661 1305.9113801191852 0 0 0 0 -526.90262028233815 144.18711035855813 0 144.18711035855813 1883.9428074075404 0 0 0 0 -531.44181644219225 153.37344315776136 0 153.37344315776136 2125.2726200827165 0 0 0 0 -711.66497234993653 241.49842811650888 0 241.49842811650888 2097.1071366400574 0 0 0 0 454.23310430368542 -1800.3671946287814 0 -1800.3671946287814 3130.8657055385411 0 0 0 0 -715.77771278985733 29.293210413248744 0 29.293210413248744 3076.170131024759 0 0 0 0 -727.47455802446621 308.37191371600784 0 308.37191371600784 5779.4809062004497 0 0 0 0 570.77579367478211 -2076.209354850238 0 -2076.209354850238 -313.02703782822937 0 0 0 0 763.254826829997 -937.22122470520844 0 -937.22122470520844 1672.6935733248247 0 0 0 0 11.28047740331224 28.218172743575693 0 28.218172743575693 56.224453591912777 0 0 0 0 -80.229454391438821 274.27341688342858 0 274.27341688342858 591.50024601292534 0 0 0 0 -504.88866231312568 376.4459714263794 0 376.4459714263794 -109.78184834681451 0 0 0 0 555.16768790383185 1389.9951161959543 0 1389.9951161959543 -214.67787779588048 0 0 0 0 90.346505707096185 -59.54478594934335 0 -59.54478594934335 645.03327115532011 0 0 0 0 -1281.90429379329 516.42634756416373 0 516.42634756416373 152.7846478902502 0 0 0 0 -385.58465100320063 242.08654719695915 0 242.08654719695915 -1423.7248697637697 0 0 0 0 -1621.1775540760864 -286.75674711194006 0 -286.75674711194006 166.84399229416158 0 0 0 0 -1619.591862869391 147.46509547023726 0 147.46509547023726 341.47206057998119 0 0 0 0 -1191.6349584706186 -143.06846430886071 0 -143.06846430886071 189.52878089516889 0 0 0 0 -1069.2920631846955 -40.90647606443963 0 -40.90647606443963 253.01925956469495 0 0 0 0 -1064.5643948748911 272.48458888649475 0 272.48458888649475 158.50020855851471 0 0 0 0 -1470.7135831921869 236.17029058632033 0 236.17029058632033 329.57191577821504 0 0 0 0 -1212.4136175127314 -159.42411589832045 0 -159.42411589832045 369.84860620813561 0 0 0 0 0.74331915115116054 4.0745193741645664 0 4.0745193741645664 7.5153217894204545 0 0 0 0 -323.50194505672391 220.62226931647456 0 220.62226931647456 597.4164223405096 0 0 0 0 -385.05492722085421 -183.4780365411134 0 -183.4780365411134 193.63321973499842 0 0 0 0 -424.71151157960821 -78.700165750109591 0 -78.700165750109591 548.54098269413225 0 0 0 0 -226.80303057642777 129.67940445625572 0 129.67940445625572 345.65904174561365 0 0 0 0 -22.609286936230092 187.05258817761205 0 187.05258817761205 12.183654945081798 0 0 0 0 -356.55196762048718 -52.451272166974377 0 -52.451272166974377 1171.5868417708843 0 0 0 0 -212.85259291821944 136.22544967306021 0 136.22544967306021 671.74575682853174 0 0 0 0 -26.797160215790882 -386.67155639313569 0 -386.67155639313569 1207.6129833669402 0 0 0 0 -332.65989431773926 3.3486197408856242 0 3.3486197408856242 1152.0749627139303 0 0 0 0 -246.54114312758958 904.07710089469037 0 904.07710089469037 1972.0764398781903 0 0 0 0 1053.1030155196631 -429.03241518088907 0 -429.03241518088907 160.54710283086752 0 0 0 0 1967.3147324994645 -1711.8310623464931 0 -1711.8310623464931 1957.3051405231381 0 0 0 0 540.75199991459226 -1065.3167805964913 0 -1065.3167805964913 1886.4913219480522 0 0 0 0 166.01160931135644 -263.48264512677997 0 -263.48264512677997 407.01576016069157 0 0 0 0 -258.7324459070187 -511.5166969356651 0 -511.5166969356651 671.5552037956586 0 0 0 0 -340.48656085310358 -255.97192863181408 0 -255.97192863181408 185.61455254416796 0 0 0 0 -956.807785324409 -486.31911965639301 0 -486.31911965639301 398.66232866671635 0 0 0 0 -204.31150696819259 725.08911930590693 0 725.08911930590693 -353.61037608259358 0 0 0 0 -181.10245166671484 994.89775159780402 0 994.89775159780402 1070.0735797926827 0 0 0 0 4.9868295260001618 12.161720684357405 0 12.161720684357405 26.336278415842685 0 0 0 0 -647.81752229832728 1865.9959328931727 0 1865.9959328931727 506.75816887572 0 0 0 0 -575.7373002905548 2410.8673310888717 0 2410.8673310888717 3168.6632245059591 0 0 0 0 -262.74479687782042 808.12343650037656 0 808.12343650037656 1684.5450722233654 0 0 0 0 -532.3845242411935 1042.4278128863662 0 1042.4278128863662 3828.871306484667 0 0 0 0 -54.054497565099837 1564.6802771642979 0 1564.6802771642979 2465.4101377082989 0 0 0 0 -3.9953908856695324 -10.220107849975591 0 -10.220107849975591 46.602512932594891 0 0 0 0 -176.79847755859544 445.41882093512504 0 445.41882093512504 4819.2342771030671 0 0 0 0 -183.88182064180501 1116.6917331325385 0 1116.6917331325385 924.4439375437214 0 0 0 0 848.66958827732014 532.47895379253896 0 532.47895379253896 -741.69997049556696 0 0 0 0 -3001.2166352138966 -918.4249693560414 0 -918.4249693560414 -350.49607238447061 0 0 0 0 -12.171265101192583 -3.6969136383475529 0 -3.6969136383475529 16.618761555316269 0 0 0 0 -6236.9386291149858 -2203.0990579435602 0 -2203.0990579435602 -702.73129303194582 0 0 0 0 707.26496138423681 -1706.8510222214973 0 -1706.8510222214973 -1158.6927990862314 0 0 0 0 2399.9930855459379 742.48189295305929 0 742.48189295305929 1365.2443274816615 0 0 0 0 292.88324271000147 -1076.0873939300654 0 -1076.0873939300654 1981.3247832342458 0 0 0 0 -1194.6958558087135 -365.74933150545985 0 -365.74933150545985 1099.8784714926878 0 0 0 0 -2307.515875772468 -129.42569866077974 0 -129.42569866077974 510.80408465693472 0 0 0 0 -2.7210092151315308 -20.850099234042517 0 -20.850099234042517 33.961989635209022 0 0 0 0 3.0258260085140813 -19.587418961437329 0 -19.587418961437329 37.724331172871189 0 0 0 0 -77.468560263228255 51.441054911356332 0 51.441054911356332 -47.42060951590247 0 0 0 0 -1873.1343332778633 -441.54776125425997 0 -441.54776125425997 476.95235799028887 0 0 0 0 -151.46291902654448 192.51875353290234 0 192.51875353290234 295.40459507869673 0 0 0 0 -862.13599879948242 -114.87443177637761 0 -114.87443177637761 318.21716263212147 0 0 0 0 -1097.969444783465 693.55253228152287 0 693.55253228152287 482.56271426333115 0 0 0 0 1084.2667153703539 232.90302156274265 0 232.90302156274265 652.39166141289024 0 0 0 0 -133.21883545351179 316.1185143506882 0 316.1185143506882 1124.2084591312887 0 0 0 0 -699.28591026205459 -1482.1374860603246 0 -1482.1374860603246 2649.4294884322735 0 0 0 0 -48.090949826526412 162.54689541789412 0 162.54689541789412 1873.3066273671575 0 0 0 0 -930.77746457217836 -652.45836974059057 0 -652.45836974059057 11.768691105768085 0 0 0 0 -2118.8603516060866 856.30574208858889 0 856.30574208858889 -1790.4568491807149 0 0 0 0 -1795.1387589072619 663.94259285356384 0 663.94259285356384 -462.64309513266198 0 0 0 0 -1859.6388989583465 971.60000059485901 0 971.60000059485901 -855.29253065760713 0 0 0 0 -4589.2201172350606 324.05895548808621 0 324.05895548808621 -498.78019389673136 0 0 0 0 -45.177651142741638 76.367363452940481 0 76.367363452940481 -49.644150138163241 0 0 0 0 -830.61025748556767 -396.78149560074962 0 -396.78149560074962 662.72780319384765 0 0 0 0 -486.54971945280931 -2062.1530982144759 0 -2062.1530982144759 574.81969910836688 0 0 0 0 -528.28227514715081 -1446.7015723259829 0 -1446.7015723259829 -702.09686839545611 0 0 0 0 -2736.6185000396808 457.99253878410673 0 457.99253878410673 -515.7679090508027 0 0 0 0 -513.98583431574843 -1729.1036348846683 0 -1729.1036348846683 1093.2415156377538 0 0 0 0 -709.53579240193221 -2188.565209475506 0 -2188.565209475506 2855.0613901331089 0 0 0 0 -0.44457265308639071 0.89229847881290425 0 0.89229847881290425 27.48281157751336 0 0 0 0 -11.251648506975471 -2185.1421520630247 0 -2185.1421520630247 2148.7192669064498 0 0 0 0 583.19533851561914 1667.580854058906 0 1667.580854058906 965.09173114947043 0 0 0 0 2515.4327563886313 42.923800451793795 0 42.923800451793795 -1.0770740675216075 0 0 0 0 117.34698382957976 214.13298317752196 0 214.13298317752196 231.36792520567451 0 0 0 0 73.874499059815093 -63.69089048661408 0 -63.69089048661408 -66.575953708292218 0 0 0 0 -322.72379087410786 -285.89636405973579 0 -285.89636405973579 52.817420739520458 0 0 0 0 -536.20308043139073 589.97039580669843 0 589.97039580669843 1141.3620665712515 0 0 0 0 0.047066454943967939 -172.52381005294592 0 -172.52381005294592 1180.0318866437592 0 0 0 0 -0.91030652219556629 -324.62690106764057 0 -324.62690106764057 1957.8213771584851 0 0 0 0 -211.84684336351532 47.301118355040671 0 47.301118355040671 1444.1436703426225 0 0 0 0 -260.33171467100493 -532.70079223068751 0 -532.70079223068751 2885.3746977212286 0 0 0 0 280.04439671105115 -143.87021298560285 0 -143.87021298560285 1071.4088048877747 0 0 0 0 1119.0262707030201 -894.42275304273176 0 -894.42275304273176 1716.2206465704949 0 0 0 0 278.66530973920237 -316.34308603989484 0 -316.34308603989484 1835.7736360612762 0 0 0 0 2.6505277640240079 -104.16300935573301 0 -104.16300935573301 1676.2165380762017 0 0 0 0 75.81463350352405 407.77132922047167 0 407.77132922047167 2413.4427318424277 0 0 0 0 -49.057732241330456 432.39375127850508 0 432.39375127850508 1316.2172307843284 0 0 0 0 58.676636374082761 282.12048497857177 0 282.12048497857177 1498.4567916932501 0 0 0 0 -194.46416117279426 608.18261476019688 0 608.18261476019688 1362.897688598634 0 0 0 0 -187.67331607002689 543.40690896904562 0 543.40690896904562 1707.2353722872358 0 0 0 0 240.16640333937886 75.090227342785511 0 75.090227342785511 1482.4304176124715 0 0 0 0 -216.6352556166014 521.67374742611719 0 521.67374742611719 1239.0722737214237 0 0 0 0 76.111543814379843 581.26560469357355 0 581.26560469357355 801.01116967173584 0 0 0 0 -734.05404828742326 112.64714968441695 0 112.64714968441695 91.522711064295436 0 0 0 0 -445.55454282322853 848.55486422505055 0 848.55486422505055 777.49272790197574 0 0 0 0 -686.17243245102759 598.32527879773261 0 598.32527879773261 1918.4327070616418 0 0 0 0 -514.07734988761842 751.5187224732399 0 751.5187224732399 1330.7508121659339 0 0 0 0 -233.01716929725757 553.00054090928461 0 553.00054090928461 1420.5230782734288 0 0 0 0 -248.30855815736487 468.90268477253267 0 468.90268477253267 1498.1127404725121 0 0 0 0 -217.84142703419369 405.96104507002747 0 405.96104507002747 1109.218058124563 0 0 0 0 -273.14128301549408 472.06178449912113 0 472.06178449912113 1401.2383565217351 0 0 0 0 -322.6083853996804 157.97595950275718 0 157.97595950275718 1581.4437499250271 0 0 0 0 -315.93030261000217 355.0735817120003 0 355.0735817120003 1135.3865861614904 0 0 0 0 233.64379150934496 29.669799575844081 0 29.669799575844081 440.42187704344008 0 0 0 0 -46.97083545217356 -12.561163803682575 0 -12.561163803682575 1114.3605804420949 0 0 0 0 -57.439692330784965 230.46829002650338 0 230.46829002650338 242.22424651563051 0 0 0 0 -132.6498098693819 105.13696691942459 0 105.13696691942459 613.44041962127085 0 0 0 0 -2.0948785856780869 -1.7435364168551928 0 -1.7435364168551928 13.29750388552236 0 0 0 0 -190.7293384592133 258.1964051061077 0 258.1964051061077 392.47239473254012 0 0 0 0 -275.26213961855512 -44.697606930429174 0 -44.697606930429174 478.67980854352936 0 0 0 0 -5.0585159069866128 -32.453975830998388 0 -32.453975830998388 89.772713731217664 0 0 0 0 -0.12246916740274558 0.08542262099292941 0 0.08542262099292941 3.8447150333551008 0 0 0 0 24.370438187241149 142.36640536067716 0 142.36640536067716 114.82115280889047 0 0 0 0 77.257983719695773 388.81993120566767 0 388.81993120566767 53.939814694982488 0 0 0 0 -0.79627922684392283 0.14997303750595847 0 0.14997303750595847 8.12909156307893 0 0 0 0 613.44677777843526 1178.0209650138859 0 1178.0209650138859 1645.1460596271936 0 0 0 0 -0.11976791521796802 8.8840268389853225 0 8.8840268389853225 241.0555997050833 0 0 0 0 154.81785282835648 -357.98891963208735 0 -357.98891963208735 104.96878011169611 0 0 0 0 549.27314098761542 884.67148199944495 0 884.67148199944495 867.2182019596803 0 0 0 0 1.2181599635266593 512.52876537945122 0 512.52876537945122 954.77738704861258 0 0 0 0 34.471620223408308 146.8439064919221 0 146.8439064919221 255.26675459143007 0 0 0 0 829.35081843227465 -545.19143375258136 0 -545.19143375258136 859.26754363208602 0 0 0 0 2.0816222100135207 -782.68194452082389 0 -782.68194452082389 2601.2082171177171 0 0 0 0 0.13796963754854552 -57.732996290302253 0 -57.732996290302253 3145.6702382354779 0 0 0 0 630.87355384261673 -2254.3671681163178 0 -2254.3671681163178 3371.5964774687163 0 0 0 0 1.5633774048173352 3.6566192960717459 0 3.6566192960717459 39.702292173237993 0 0 0 0 374.69425359710749 105.86746985885839 0 105.86746985885839 819.23218618654937 0 0 0 0 186.93811711412297 -77.144995216774987 0 -77.144995216774987 167.66535570297856 0 0 0 0 -781.14386006035761 -52.243222731201968 0 -52.243222731201968 403.58845853671664 0 0 0 0 -418.68609060823337 34.453147778905986 0 34.453147778905986 843.475790488239 0 0 0 0 0.61985956113385932 9.8297257470237156 0 9.8297257470237156 92.100008749427786 0 0 0 0 241.78714900951672 56.652884974580957 0 56.652884974580957 18.286605829584005 0 0 0 0 -32.224769901185368 254.47362923222681 0 254.47362923222681 64.338893965323223 0 0 0 0 56.20345894663086 -22.826581365159655 0 -22.826581365159655 326.23377400531899 0 0 0 0 133.89136564206822 108.14564634345879 0 108.14564634345879 25.537083823001012 0 0 0 0 35.583252899438065 -154.24938344012116 0 -154.24938344012116 1031.696451090902 0 0 0 0 297.38942583152522 118.75236413357197 0 118.75236413357197 374.74934926824062 0 0 0 0 0.19551070615669969 -55.879467137754546 0 -55.879467137754546 1114.7748939061858 0 0 0 0 326.60209779884298 -259.81647230646922 0 -259.81647230646922 365.61310745633091 0 0 0 0 -42.54410735203524 -134.89442862897704 0 -134.89442862897704 336.02529970994874 0 0 0 0 -0.069583756668753993 -21.754242554430675 0 -21.754242554430675 -8.7195796850137413 0 0 0 0 0.036636129232932246 -0.0039205470548040466 0 -0.0039205470548040466 -0.86502834704441511 0 0 0 0 -33.967785281624856 19.290689222107176 0 19.290689222107176 15.299204643524718 0 0 0 0 -66.374680771584408 -96.698646152945003 0 -96.698646152945003 -92.400269179575844 0 0 0 0 152.16360831872339 -43.299836753110867 0 -43.299836753110867 -97.343616783022298 0 0 0 0 1.9437440095772685 4.5863169782398927 0 4.5863169782398927 1.169797849407928 0 0 0 0 133.97666848712788 39.513233991892776 0 39.513233991892776 -161.97242214527796 0 0 0 0 -78.89272956160795 -117.16236222819134 0 -117.16236222819134 -144.54587774324864 0 0 0 0 -0.19006000893247793 3.5854538306948598 0 3.5854538306948598 5.4500861771737306 0 0 0 0 -11.118356970010424 -1.1387420983999732 0 -1.1387420983999732 36.475617354452311 0 0 0 0 -88.415814876827284 -114.48680633926051 0 -114.48680633926051 -34.841025865607662 0 0 0 0 -0.1338599439520686 -69.719909391067631 0 -69.719909391067631 -129.54457752434973 0 0 0 0 -71.333968457947719 -148.04785352317413 0 -148.04785352317413 -53.822225561947562 0 0 0 0 -78.922332220251349 -121.93802122172201 0 -121.93802122172201 -31.819809154105315 0 0 0 0 -80.107797161295991 -171.56763302246691 0 -171.56763302246691 -17.406278280890547 0 0 0 0 -162.60228717793859 -122.62051906401757 0 -122.62051906401757 -35.730738404381555 0 0 0 0 -71.395830799331947 -162.77512688010574 0 -162.77512688010574 -15.912558521609753 0 0 0 0 -238.58140796198916 -189.76086884137476 0 -189.76086884137476 36.227345915540354 0 0 0 0 -88.004302843384949 -104.14348823486944 0 -104.14348823486944 259.22178954302672 0 0 0 0 0.19095971385801941 -189.72979748172656 0 -189.72979748172656 22.887922348076245 0 0 0 0 -385.49354966305282 1112.4866684433364 0 1112.4866684433364 -1133.9403570316317 0 0 0 0 163.2778509068778 -65.953687111490581 0 -65.953687111490581 -1006.9780548011186 0 0 0 0 1106.3805670412939 -3.3010615379898809 0 -3.3010615379898809 -752.87041514879093 0 0 0 0 248.09017794673673 370.68072188082806 0 370.68072188082806 -459.8872258233605 0 0 0 0 277.45205774807391 301.58874556598312 0 301.58874556598312 82.964710195956286 0 0 0 0 -526.44587500259217 -108.73331130368024 0 -108.73331130368024 121.17861199987237 0 0 0 0 -3.2861039535014931 5.8399990794234213 0 5.8399990794234213 56.379362919304526 0 0 0 0 -1353.5394532825494 1066.1773818110378 0 1066.1773818110378 997.76068164042954 0 0 0 0 -1500.7942702254004 638.05834125509136 0 638.05834125509136 -199.72626288834726 0 0 0 0 -252.90399017835966 -65.959310887755237 0 -65.959310887755237 1.1691280096711125 0 0 0 0 -6.6693310733832618 8.2599297937995573 0 8.2599297937995573 9.7042464519181522 0 0 0 0 -278.16547753850045 44.115051944696461 0 44.115051944696461 36.95672867941903 0 0 0 0 -1.293978296197537 -1.8589521998250618 0 -1.8589521998250618 2.8630070125925045 0 0 0 0 -76.095308290207868 147.84930886997608 0 147.84930886997608 -33.66314062330639 0 0 0 0 24.144042645160766 -61.04268150822827 0 -61.04268150822827 14.124718292645412 0 0 0 0 -1502.7819986711379 366.42569268793159 0 366.42569268793159 12.043421821785159 0 0 0 0 -149.33275325934903 -95.354304009233601 0 -95.354304009233601 7.318738076268346 0 0 0 0 -8.4338452027666015 -3.5412458528792286 0 -3.5412458528792286 42.650333992319304 0 0 0 0 -296.74955578595518 609.29043975740433 0 609.29043975740433 -337.47196639812319 0 0 0 0 277.84676492523431 458.81298637443979 0 458.81298637443979 -528.98382194893202 0 0 0 0 291.63869411511405 343.15322866781207 0 343.15322866781207 -442.48720921803033 0 0 0 0 21.706789273403842 312.96871702927456 0 312.96871702927456 -70.567614841973409 0 0 0 0 -51.318921948137188 122.19846911693458 0 122.19846911693458 -128.29950363785611 0 0 0 0 0.79760632804844889 2.228739998861986 0 2.228739998861986 0.099827248547171621 0 0 0 0 -125.75950950377705 95.764852274325676 0 95.764852274325676 -64.756080355582526 0 0 0 0 10.919103004345772 88.092102343412989 0 88.092102343412989 -118.94670040282654 0 0 0 0 -131.17800204002071 201.62486490704396 0 201.62486490704396 302.45096428086981 0 0 0 0 -1.9500450644861758 6.3161919290250808 0 6.3161919290250808 62.872478425328154 0 0 0 0 -10.350217473227536 -4.9855305109434198 0 -4.9855305109434198 59.161962993380143 0 0 0 0 -12.004283416875374 -22.655996984390498 0 -22.655996984390498 49.910469356113396 0 0 0 0 -66.291939015603958 36.542482932083658 0 36.542482932083658 -38.950173203018494 0 0 0 0 -3.5866820524294725 -6.7009091712414488 0 -6.7009091712414488 39.122138218449422 0 0 0 0 -63.986746157382186 -21.998592167466995 0 -21.998592167466995 89.845757436232816 0 0 0 0 172.34458869488481 138.32279404753353 0 138.32279404753353 -8.8084205833474698 0 0 0 0 7.5598135615289586 19.297557694011743 0 19.297557694011743 8.0226871433446476 0 0 0 0 -12.089837855931592 170.40482657859684 0 170.40482657859684 -21.445550959419052 0 0 0 0 -1.6163516333852597 4.4929122794252976 0 4.4929122794252976 22.027681411349334 0 0 0 0 -76.4837775932059 32.633582213580667 0 32.633582213580667 173.69354343003943 0 0 0 0 -40.438114732216491 106.23117733393883 0 106.23117733393883 -99.702161285385955 0 0 0 0 17.299431849954999 27.192379316897132 0 27.192379316897132 158.72772374784108 0 0 0 0 -196.41382925348103 180.0337642925515 0 180.0337642925515 56.167467657491216 0 0 0 0 -2.502448777899827 8.9883862423326146 0 8.9883862423326146 113.03575897783287 0 0 0 0 -206.66302853763955 -80.040143034646462 0 -80.040143034646462 88.490829324175138 0 0 0 0 -71.158596359089643 39.43520202091895 0 39.43520202091895 161.43239678821556 0 0 0 0 2.2976680455089991 -61.306182997494034 0 -61.306182997494034 67.944671880817623 0 0 0 0 -82.859521288644487 -122.50786244491428 0 -122.50786244491428 43.520113716542255 0 0 0 0 -2.6545599835580447 -33.758542486219085 0 -33.758542486219085 -3.3571922170376638 0 0 0 0 40.63548666514555 -23.55555106279644 0 -23.55555106279644 64.09234157584433 0 0 0 0 -17.131083440693246 -23.299250308955493 0 -23.299250308955493 17.428310604989662 0 0 0 0 -33.336612908292068 2.9013988888764288 0 2.9013988888764288 132.99687733884639 0 0 0 0 73.999904488119398 -32.137774057293427 0 -32.137774057293427 -316.0625310180767 0 0 0 0 -10.983064229112358 -12.485698376103386 0 -12.485698376103386 14.349744879304787 0 0 0 0 -9.0118293157747011 -26.378798740168975 0 -26.378798740168975 14.991842723072864 0 0 0 0 162.38047935875329 7.5572469845646992 0 7.5572469845646992 -298.29291479320091 0 0 0 0 380.7591342880807 -75.133850760801579 0 -75.133850760801579 -291.09343766071834 0 0 0 0 477.06506142067656 -105.68955441168509 0 -105.68955441168509 -350.57736443236354 0 0 0 0 -19.268768758312035 -264.1740104376222 0 -264.1740104376222 -173.60105714233941 0 0 0 0 -14.802630613095971 -289.58128625573227 0 -289.58128625573227 -93.956393953063525 0 0 0 0 107.11603078966982 -320.3585469917889 0 -320.3585469917889 -93.91210352924395 0 0 0 0 -137.74531526084138 -450.7604509833036 0 -450.7604509833036 190.61307579188724 0 0 0 0 -173.05138060764511 -330.61301409793668 0 -330.61301409793668 169.63504601191744 0 0 0 0 -372.39910948487886 -432.3952988236706 0 -432.3952988236706 284.89869232033379 0 0 0 0 -758.61371761852206 -264.10949897079263 0 -264.10949897079263 366.57254552518134 0 0 0 0 -6.982739239802072 -581.82004968848923 0 -581.82004968848923 479.49723125464516 0 0 0 0 812.58312829097508 -468.39791910834902 0 -468.39791910834902 154.24759452492435 0 0 0 0 792.64632548738723 -312.41215567321342 0 -312.41215567321342 -264.14745462720748 0 0 0 0 651.57433394300415 -684.66421284066746 0 -684.66421284066746 37.342904406221351 0 0 0 0 302.84579691450472 -478.10630347891129 0 -478.10630347891129 -28.724985487991944 0 0 0 0 -143.07729804998962 139.62346452934435 0 139.62346452934435 -114.99706850276561 0 0 0 0 9.6359497635061082 34.038478633529081 0 34.038478633529081 65.637217814728956 0 0 0 0 -120.87452311380548 -38.460827947023063 0 -38.460827947023063 57.502626898465678 0 0 0 0 3.8680915092262991 13.059401917356524 0 13.059401917356524 15.790626817423458 0 0 0 0 -182.65951148139993 125.52185560067301 0 125.52185560067301 -40.226407526286494 0 0 0 0 2.692546494071296 6.7201776909930686 0 6.7201776909930686 1.2658529122958839 0 0 0 0 -55.901062992948866 432.22455714178068 0 432.22455714178068 -362.69325124961324 0 0 0 0 -11.524274467025407 131.20655704340606 0 131.20655704340606 -217.14810260914965 0 0 0 0 -97.017800016152137 423.95959900001617 0 423.95959900001617 -80.729569678253029 0 0 0 0 -46.281691787306215 -22.159582969688927 0 -22.159582969688927 -517.36487004434457 0 0 0 0 -193.37962393183716 72.551124765741406 0 72.551124765741406 -201.21354403503938 0 0 0 0 -688.74254122960701 531.42068004555767 0 531.42068004555767 -254.54902565444354 0 0 0 0 -506.48745698465063 18.212384351005312 0 18.212384351005312 110.68545298755635 0 0 0 0 -834.78130955867891 286.50100711233972 0 286.50100711233972 -30.016141767380759 0 0 0 0 -419.75550186823239 318.04777886037482 0 318.04777886037482 -237.88156994601377 0 0 0 0 -600.24524612631376 -108.54989493617904 0 -108.54989493617904 141.01802299829433 0 0 0 0 -663.39179142777175 -144.24510566866957 0 -144.24510566866957 243.18489745119587 0 0 0 0 -896.86477699365059 -68.021347724890802 0 -68.021347724890802 295.14364263272728 0 0 0 0 -730.91740641193974 106.42512456799159 0 106.42512456799159 164.84466597336723 0 0 0 0 -270.38769755801513 -249.84873569224146 0 -249.84873569224146 88.247264732373878 0 0 0 0 -418.44485692788294 -232.91160428264993 0 -232.91160428264993 204.6735544087569 0 0 0 0 -91.26440171998911 65.417884601207334 0 65.417884601207334 -81.161007014045026 0 0 0 0 -363.78174295847202 -26.939256741519785 0 -26.939256741519785 104.86957990771043 0 0 0 0 -441.37010576157627 27.57341223928961 0 27.57341223928961 91.744687074853573 0 0 0 0 -168.72682546820488 -14.87182393780904 0 -14.87182393780904 105.59073130929028 0 0 0 0 -159.44804494230084 -193.36497582907032 0 -193.36497582907032 27.977450518446858 0 0 0 0 -25.01695632939381 -16.102981166877356 0 -16.102981166877356 26.179077423080827 0 0 0 0 -203.69680285766481 -4.6612383267784026 0 -4.6612383267784026 133.48307750522508 0 0 0 0 15.401250968327076 -49.934874264639802 0 -49.934874264639802 33.643309571125428 0 0 0 0 -115.05282236082621 183.23327662111842 0 183.23327662111842 -247.96444459542545 0 0 0 0 -26.830872024284286 -55.783207688428888 0 -55.783207688428888 83.534617983794305 0 0 0 0 -25.651334270338157 38.612547066897832 0 38.612547066897832 80.140509462624323 0 0 0 0 9.0919989091685238 -36.775592236255761 0 -36.775592236255761 -10.097177790099522 0 0 0 0 2.3159197099233237 -6.0684406387735095 0 -6.0684406387735095 -7.6603677523233955 0 0 0 0 34.638453797374495 35.413282934518065 0 35.413282934518065 110.9076085803099 0 0 0 0 -6.2367184376703113 -15.902860754383994 0 -15.902860754383994 8.6265044596824083 0 0 0 0 -54.099775745128454 19.405451483369689 0 19.405451483369689 77.032790163037134 0 0 0 0 -27.702015787233449 -10.061608675881871 0 -10.061608675881871 97.913241444242885 0 0 0 0 -6.782218885843772 -13.968594173028407 0 -13.968594173028407 1.572902300040699 0 0 0 0 15.649860229517685 -22.67300355349289 0 -22.67300355349289 -2.813296177936536 0 0 0 0 -26.947976848578847 -137.79268907112419 0 -137.79268907112419 111.2176400446333 0 0 0 0 -2.5007176381745841 -4.8686000551849133 0 -4.8686000551849133 6.7634736757033238 0 0 0 0 60.482801611175411 35.65564727427045 0 35.65564727427045 -39.380565047758864 0 0 0 0 61.388421225589951 237.37801670967747 0 237.37801670967747 713.13499473127013 0 0 0 0 235.88068950421939 242.48256233472785 0 242.48256233472785 75.769027320297027 0 0 0 0 366.32635087519805 688.72283297563149 0 688.72283297563149 796.39615915619652 0 0 0 0 476.46734730015783 904.64884773861559 0 904.64884773861559 1167.9031349629076 0 0 0 0 348.62569252272982 242.38230413624842 0 242.38230413624842 468.1992100584248 0 0 0 0 -3.9815334133104443 153.51123906662542 0 153.51123906662542 540.71312264741573 0 0 0 0 -1.123533501586647 -1.6480564293822795 0 -1.6480564293822795 12.246890550487876 0 0 0 0 53.775383717643876 -51.082883448063512 0 -51.082883448063512 0.62479857532889582 0 0 0 0 92.795369783343858 -29.919112353323726 0 -29.919112353323726 -3.5472473190675373 0 0 0 0 -153.36293333895333 -145.48042231174622 0 -145.48042231174622 36.829347725404659 0 0 0 0 83.859625536485964 -159.96328552971681 0 -159.96328552971681 -34.508661546940857 0 0 0 0 -0.69798519735633358 -0.0056474733822255985 0 -0.0056474733822255985 6.7958796549818885 0 0 0 0 641.47837808741224 -56.572065787157044 0 -56.572065787157044 -7.743551052381008 0 0 0 0 406.67103698677465 882.51961885733908 0 882.51961885733908 1668.600280063285 0 0 0 0 -49.231368252727407 -671.69676535169856 0 -671.69676535169856 804.17586728140304 0 0 0 0 308.73049100700052 1287.9674520788485 0 1287.9674520788485 4553.8704370064224 0 0 0 0 1241.4301830911099 1834.9821012150569 0 1834.9821012150569 935.65804245630807 0 0 0 0 395.84690259190324 1342.982125328017 0 1342.982125328017 2730.9377979915589 0 0 0 0 -0.13102562846672394 -0.21146755943740914 0 -0.21146755943740914 4.1635796560975251 0 0 0 0 44.85128477563768 172.33061980021012 0 172.33061980021012 2709.7197262139089 0 0 0 0 120.13890816663459 813.04282589567811 0 813.04282589567811 2170.8779855085595 0 0 0 0 429.59038994185568 493.68920009260182 0 493.68920009260182 1430.8584529885848 0 0 0 0 335.86510014305611 484.49952273783856 0 484.49952273783856 1855.2428171491047 0 0 0 0 0.98592579872357922 -0.28692689007107219 0 -0.28692689007107219 4.2687733149730036 0 0 0 0 134.3856833781166 656.84366872964893 0 656.84366872964893 1671.2930590247925 0 0 0 0 316.74361829414812 514.95529030858597 0 514.95529030858597 1404.3276969612352 0 0 0 0 16.591738254447137 69.010431512717332 0 69.010431512717332 1980.8800090498298 0 0 0 0 -57.162702698746216 237.06529934873106 0 237.06529934873106 1834.1288363089116 0 0 0 0 327.91566449662423 -148.25167912556935 0 -148.25167912556935 1571.7402357329247 0 0 0 0 -93.427226230310282 -234.13803120607918 0 -234.13803120607918 1561.1398102519361 0 0 0 0 339.33336282670189 -202.60910960438923 0 -202.60910960438923 889.6126836965268 0 0 0 0 371.19556365443532 271.9807833948289 0 271.9807833948289 1320.9177740404448 0 0 0 0 250.82779798550342 45.403091170861444 0 45.403091170861444 1164.0760118906619 0 0 0 0 1.0389788334466021 -0.00445733611118726 0 -0.00445733611118726 2.1682240453098984 0 0 0 0 247.05794333214175 452.96684354112949 0 452.96684354112949 1058.6791284853098 0 0 0 0 486.35874647643067 290.91950489117517 0 290.91950489117517 941.00318522975431 0 0 0 0 535.45652131334828 374.74465451011201 0 374.74465451011201 841.9654688204464 0 0 0 0 542.65479594080057 441.23363202624023 0 441.23363202624023 1055.4468562130151 0 0 0 0 363.77440538817655 627.12526021240774 0 627.12526021240774 931.74316261294007 0 0 0 0 246.8547221345043 487.66006945091067 0 487.66006945091067 1410.1791636275811 0 0 0 0 74.696152048481622 523.78850006304856 0 523.78850006304856 1404.2443310904873 0 0 0 0 300.05862674800449 619.23840054878383 0 619.23840054878383 1007.4077964687458 0 0 0 0 13.290349977447562 456.88417309611395 0 456.88417309611395 994.94792751864679 0 0 0 0 212.25818461162979 377.82272522502171 0 377.82272522502171 583.88468452781672 0 0 0 0 -49.976578778473154 20.241999260411831 0 20.241999260411831 435.61259442610026 0 0 0 0 -10.249735498755468 -73.917272506562767 0 -73.917272506562767 29.979107739578467 0 0 0 0 -56.744230291146131 300.43917023843142 0 300.43917023843142 992.13338316080626 0 0 0 0 3.4282459755485499 3.3048721163245602 0 3.3048721163245602 3.2616271925269302 0 0 0 0 121.60539574461461 -193.51159426149025 0 -193.51159426149025 359.60891703581729 0 0 0 0 25.655574129940305 52.4004804859469 0 52.4004804859469 -100.97630268658395 0 0 0 0 -5.9295521502176989 4.3931515505854293 0 4.3931515505854293 38.798935833193241 0 0 0 0 64.21104747977823 -12.815593104664003 0 -12.815593104664003 -119.28421973611694 0 0 0 0 -66.71514190686554 90.270832445225096 0 90.270832445225096 26.880036128360643 0 0 0 0 17.142612415600865 2.3072253336868016 0 2.3072253336868016 4.5602335589355789 0 0 0 0 -8.6261762331363556 8.1845749588609067 0 8.1845749588609067 13.503183947014673 0 0 0 0 -2.1414292552801015 -2.4823296107958299 0 -2.4823296107958299 2.1832764614111397 0 0 0 0 -48.461104914800671 50.591360698221251 0 50.591360698221251 13.119424094204078 0 0 0 0 18.607358474816103 17.700408329220934 0 17.700408329220934 8.9916660252315523 0 0 0 0 -11.661620815129027 40.602636109844752 0 40.602636109844752 45.647230118047446 0 0 0 0 -47.558408010174844 33.363627403989085 0 33.363627403989085 -32.505889448279049 0 0 0 0 -110.34861465513075 141.50221570610302 0 141.50221570610302 60.878794841468334 0 0 0 0 19.329112978309297 17.903052342041164 0 17.903052342041164 10.30752438086563 0 0 0 0 14.667919349113617 44.121592524366861 0 44.121592524366861 -1.4382627177016616 0 0 0 0 -9.6208856876653499 9.4709755925214267 0 9.4709755925214267 73.840706342380145 0 0 0 0 -3.5809926349274974 34.709918595464842 0 34.709918595464842 -1.4138493769714842 0 0 0 0 15.243048504885564 -37.903270317450733 0 -37.903270317450733 -516.03891047289653 0 0 0 0 -3.9400168097806869 6.8916224540763267 0 6.8916224540763267 1.9945821935822323 0 0 0 0 367.30133860194292 249.86047993329703 0 249.86047993329703 -389.77451876756095 0 0 0 0 418.44855545532619 136.51820149382547 0 136.51820149382547 79.497495131767209 0 0 0 0 3.8570474857236192 -1.8420777475697321 0 -1.8420777475697321 0.89346769026026607 0 0 0 0 -20.335413912278455 -41.049745456948585 0 -41.049745456948585 166.90191052344744 0 0 0 0 5.3115430664728329 -1.2299181530669898 0 -1.2299181530669898 -0.69075448782648152 0 0 0 0 -49.431038593881567 11.965333064916194 0 11.965333064916194 90.595888686020771 0 0 0 0 -39.541346603484271 110.13583443933021 0 110.13583443933021 -17.265879579419561 0 0 0 0 -78.066060076907888 83.363488380171475 0 83.363488380171475 151.10600158312627 0 0 0 0 424.70367858922373 -123.3180080184211 0 -123.3180080184211 -165.24995051072619 0 0 0 0 320.78119928419392 805.56290390090726 0 805.56290390090726 1305.158850925669 0 0 0 0 6.1694771808826765 1.144991099345134 0 1.144991099345134 0.32557194610938822 0 0 0 0 12.601369077081568 5.1347640451981249 0 5.1347640451981249 2.1828268787000269 0 0 0 0 496.2839119733901 217.97432823897543 0 217.97432823897543 97.009106441778385 0 0 0 0 2.0002943264996702 555.43859849794171 0 555.43859849794171 1109.7415821020695 0 0 0 0 406.26987308542584 602.76824410635891 0 602.76824410635891 985.73098594575276 0 0 0 0 406.00894778347663 586.47036621580628 0 586.47036621580628 816.98902319847912 0 0 0 0 677.92976690298156 805.8266937557637 0 805.8266937557637 922.49790777658563 0 0 0 0 342.71187002142926 399.96065954238293 0 399.96065954238293 1208.6345000836009 0 0 0 0 639.60859858161575 121.05665503513956 0 121.05665503513956 111.97934180719312 0 0 0 0 326.34620132418092 149.23296997968646 0 149.23296997968646 1246.0576727430162 0 0 0 0 450.32327413033772 -346.85394210935192 0 -346.85394210935192 130.47664605731188 0 0 0 0 451.4054006681572 -374.12665995260613 0 -374.12665995260613 613.07701383247695 0 0 0 0 854.2416803895901 -342.62917871556783 0 -342.62917871556783 252.80485739588039 0 0 0 0 1023.2439778725175 3373.2565374941842 0 3373.2565374941842 1128.2517700988683 0 0 0 0 8.3423151992603835 -398.37383740035148 0 -398.37383740035148 669.49387334867788 0 0 0 0 6.6811787141971308 -439.84577626411919 0 -439.84577626411919 -330.81508069982374 0 0 0 0 -564.93026672512815 -38.527367710019462 0 -38.527367710019462 2391.9470892989921 0 0 0 0 71.461255072548056 -263.83107628588186 0 -263.83107628588186 693.1211470110502 0 0 0 0 -1.5705309215227177 4.6850616703819128 0 4.6850616703819128 40.442856932650841 0 0 0 0 651.76800582068631 2751.3730619838052 0 2751.3730619838052 87.465611304010963 0 0 0 0 -958.50867277050634 -815.7400878035769 0 -815.7400878035769 1037.6625776106957 0 0 0 0 1672.2947713702779 588.66379974275696 0 588.66379974275696 473.14959820231888 0 0 0 0 332.43342792151202 1130.1182826952718 0 1130.1182826952718 2141.6337003225344 0 0 0 0 209.29710229584225 636.2496373606773 0 636.2496373606773 904.67398048916948 0 0 0 0 170.56231889085279 641.7628232885545 0 641.7628232885545 904.22982141381362 0 0 0 0 -3.3481962268842835 4.1284126475147787 0 4.1284126475147787 -184.38346787187038 0 0 0 0 -209.39283524802505 27.495077414707339 0 27.495077414707339 500.10965607775051 0 0 0 0 -990.54911581396163 -374.21490113562322 0 -374.21490113562322 73.794504990568385 0 0 0 0 -516.62598862777656 -461.36518658299974 0 -461.36518658299974 -248.86706772868638 0 0 0 0 -1166.6246368874886 -318.28284088194778 0 -318.28284088194778 29.641948654534644 0 0 0 0 -337.81838668708036 74.200244372839734 0 74.200244372839734 -19.469589718675707 0 0 0 0 -885.19731996833366 -337.70327574142721 0 -337.70327574142721 78.667748127067171 0 0 0 0 -863.96641113452483 -496.24782967949886 0 -496.24782967949886 -248.59795232344186 0 0 0 0 -1412.5851216832725 -379.10588115477003 0 -379.10588115477003 -79.444247049272235 0 0 0 0 -499.77801144711066 -103.08294254615612 0 -103.08294254615612 283.02825482885237 0 0 0 0 215.22011919771728 200.64442684324604 0 200.64442684324604 -11.854922489088494 0 0 0 0 483.80885225703855 414.36495687575371 0 414.36495687575371 94.835211993064149 0 0 0 0 -309.13604832366866 -20.37857885856647 0 -20.37857885856647 223.33667302200047 0 0 0 0 426.18041496324213 498.62261707341531 0 498.62261707341531 365.41439311673457 0 0 0 0 406.07711159410167 633.18925907855828 0 633.18925907855828 742.09506221742777 0 0 0 0 472.08060280862327 362.73333105166603 0 362.73333105166603 645.70416655430745 0 0 0 0 420.57401710359852 290.16001503088773 0 290.16001503088773 559.81679739156971 0 0 0 0 142.32576564439046 291.23009732847277 0 291.23009732847277 478.8633326204872 0 0 0 0 389.44708446406605 379.77276954925037 0 379.77276954925037 303.16517217410728 0 0 0 0 109.93304566303641 -101.59642448895465 0 -101.59642448895465 428.29953107047186 0 0 0 0 274.19774178476837 83.873120708845818 0 83.873120708845818 613.62013761703565 0 0 0 0 330.36680035796877 -75.636732646191376 0 -75.636732646191376 1025.9110811356368 0 0 0 0 317.09555995589858 -436.29822131055698 0 -436.29822131055698 1379.5099198301614 0 0 0 0 390.51954660082765 -511.39514992863042 0 -511.39514992863042 465.09226440028579 0 0 0 0 138.96997588528814 -548.5656907392331 0 -548.5656907392331 881.01040434824245 0 0 0 0 -650.14996928711298 -297.03485748705862 0 -297.03485748705862 350.65517103856837 0 0 0 0 204.49575045203937 -462.4914242564264 0 -462.4914242564264 -64.926064935702016 0 0 0 0 -541.67792938975708 -500.56026354181904 0 -500.56026354181904 322.64457092544762 0 0 0 0 -660.00643579092161 -220.97495668493502 0 -220.97495668493502 -140.68076701999235 0 0 0 0 -1489.110244734808 -529.18290091237577 0 -529.18290091237577 183.93930985366751 0 0 0 0 -565.55816393375881 -280.24640231397643 0 -280.24640231397643 -379.52347894842387 0 0 0 0 -1307.2670858224769 -744.7801722153672 0 -744.7801722153672 -540.9425475980388 0 0 0 0 -1514.0193242665928 -401.01750824773626 0 -401.01750824773626 -48.234566203711438 0 0 0 0 -484.44127918581478 -260.55584643717884 0 -260.55584643717884 -224.24924159403599 0 0 0 0 -1209.8707942783642 -615.28739396046149 0 -615.28739396046149 -12.685752095887437 0 0 0 0 -1263.3037563112457 -684.46896232719155 0 -684.46896232719155 -177.25791290099733 0 0 0 0 -1055.4454462936524 -295.96516789893212 0 -295.96516789893212 92.547506110335235 0 0 0 0 73.243728269007761 30.230683951596802 0 30.230683951596802 -15.947533602055046 0 0 0 0 14.293193032531008 -381.05016622287076 0 -381.05016622287076 7109.0037250266487 0 0 0 0 234.05206147324452 -2792.3575514112454 0 -2792.3575514112454 -4.487484954908723 0 0 0 0 6.2040137651862377 -10.553381873015994 0 -10.553381873015994 14.394736585532826 0 0 0 0 545.84803622671939 -2036.6331549688039 0 -2036.6331549688039 95.88120910822181 0 0 0 0 366.15446927809762 -3724.1060242095482 0 -3724.1060242095482 3163.6121105773782 0 0 0 0 -482.9180695165669 -3692.3185629748768 0 -3692.3185629748768 5016.1091895078716 0 0 0 0 -503.54605628560455 898.06622123825946 0 898.06622123825946 7608.7699156186536 0 0 0 0 2.471457645694727 -38.756254031961362 0 -38.756254031961362 22.99867371446453 0 0 0 0 877.17362843875571 2300.5480511349742 0 2300.5480511349742 4679.7072085255058 0 0 0 0 -1.4953702833205322 0.19656284552883108 0 0.19656284552883108 19.842729336758111 0 0 0 0 -808.80212828202684 -734.40001341454627 0 -734.40001341454627 7787.4227718326765 0 0 0 0 -763.95357628591114 -615.36769110169189 0 -615.36769110169189 6161.1390873338096 0 0 0 0 -482.93065856261308 938.89146788859216 0 938.89146788859216 4581.1428000706364 0 0 0 0 -459.54643111649716 1187.2226320699847 0 1187.2226320699847 4781.595665028668 0 0 0 0 799.25682708123531 1712.621924277817 0 1712.621924277817 1159.0745759410202 0 0 0 0 -47.93836155684312 -8.315207356135943 0 -8.315207356135943 26.297266349429265 0 0 0 0 -2491.363213587927 -1059.076240046983 0 -1059.076240046983 -71.436903331603389 0 0 0 0 -918.84132463866683 -954.15706365380174 0 -954.15706365380174 40.087524602480698 0 0 0 0 0.27374695489426593 -12.08985538650505 0 -12.08985538650505 49.494362268183067 0 0 0 0 2.5679317200376306 -14.5304382306647 0 -14.5304382306647 33.478669757561988 0 0 0 0 577.06638195575169 60.39397705461306 0 60.39397705461306 -1104.5957971018506 0 0 0 0 -1915.008950622142 302.33647395395383 0 302.33647395395383 -662.75248528807424 0 0 0 0 -1383.4373772657436 -476.74509566972847 0 -476.74509566972847 94.746649295033421 0 0 0 0 -355.55337483465883 -277.14411522800219 0 -277.14411522800219 -1610.5495743052161 0 0 0 0 165.95121173522193 -734.30795455902989 0 -734.30795455902989 -1356.9891364320356 0 0 0 0 152.28634773999983 -1401.6510082193067 0 -1401.6510082193067 574.36961096621235 0 0 0 0 565.71511825421339 -1081.7547326838394 0 -1081.7547326838394 -266.8692406531045 0 0 0 0 386.0958665712368 -1063.6335373671609 0 -1063.6335373671609 634.49045301716615 0 0 0 0 268.38399875014773 -1358.0163352617092 0 -1358.0163352617092 1551.6839948318957 0 0 0 0 54.240344972055595 -701.76597651123302 0 -701.76597651123302 1276.9567436829857 0 0 0 0 156.61357426637133 -1165.049999119241 0 -1165.049999119241 2296.8186429954221 0 0 0 0 -431.87442728792354 -1013.1845055271697 0 -1013.1845055271697 3356.2154286570294 0 0 0 0 -332.12580555671906 -1171.2285433001016 0 -1171.2285433001016 2297.1571064924619 0 0 0 0 -243.26660957612555 -1666.5043903743353 0 -1666.5043903743353 4112.7311017914617 0 0 0 0 337.21236128521309 -1784.6840246609354 0 -1784.6840246609354 1594.7190699656549 0 0 0 0 230.19738434516864 -2292.8940855393848 0 -2292.8940855393848 3745.3994962884753 0 0 0 0 -470.9772646206672 -1351.4837801820104 0 -1351.4837801820104 3883.8998734257766 0 0 0 0 -449.44484151007867 -584.14143055464956 0 -584.14143055464956 6829.94961204828 0 0 0 0 52.461150020171885 1088.3655411868094 0 1088.3655411868094 3202.7338466313377 0 0 0 0 -1005.2467247506363 -543.81507324310951 0 -543.81507324310951 4973.2614125064865 0 0 0 0 -1048.9273698598529 -249.76579215898164 0 -249.76579215898164 3526.8468195419991 0 0 0 0 -667.78419642198241 -388.05412881590746 0 -388.05412881590746 1960.5005120441565 0 0 0 0 6.6217311185637024 -21.27063123357911 0 -21.27063123357911 27.981037771886719 0 0 0 0 2.9733915860316937 -9.5752113199660016 0 -9.5752113199660016 16.065158889998287 0 0 0 0 201.43122864869781 -1880.3781535632806 0 -1880.3781535632806 914.82287637322588 0 0 0 0 69.018783510980029 366.02819894893037 0 366.02819894893037 936.41259518599941 0 0 0 0 1563.5002958462937 -1089.9745597210931 0 -1089.9745597210931 6586.9660494198033 0 0 0 0 -8.0617173373629356 1223.9730498133736 0 1223.9730498133736 7415.0258554714819 0 0 0 0 1576.581271112733 -958.33013559409301 0 -958.33013559409301 7044.8135712479752 0 0 0 0 80.10481273778943 -1577.2553287439951 0 -1577.2553287439951 4121.4929450740165 0 0 0 0 -232.27624258513379 -1721.7943956380113 0 -1721.7943956380113 6176.2532903766114 0 0 0 0 1922.3506888912191 -1410.8204696919493 0 -1410.8204696919493 5552.7170198811509 0 0 0 0 -425.38624995292128 -702.4268887076978 0 -702.4268887076978 3279.4518068049438 0 0 0 0 -911.12885971764058 165.21896232419385 0 165.21896232419385 2139.5504164346785 0 0 0 0 -378.83060852247866 -903.65987386726101 0 -903.65987386726101 3103.8215601757838 0 0 0 0 -401.72152368002696 32.433017581046443 0 32.433017581046443 1915.022856062169 0 0 0 0 -117.19133871567206 -36.140675112917052 0 -36.140675112917052 1903.3613533576863 0 0 0 0 -387.09287034828145 257.57626158100175 0 257.57626158100175 2529.3754055374593 0 0 0 0 -184.41368706765047 178.82663750283245 0 178.82663750283245 360.52162311979919 0 0 0 0 3.660456756615063 -14.244477299995992 0 -14.244477299995992 20.947334572035061 0 0 0 0 -140.60709835346543 -2311.0612496932117 0 -2311.0612496932117 -767.97649143346644 0 0 0 0 -231.45680573742277 1422.920881603608 0 1422.920881603608 7400.8292115331278 0 0 0 0 -198.4076796784783 -2315.203710233216 0 -2315.203710233216 2840.3650368953095 0 0 0 0 887.46805150155649 -1282.3505042096622 0 -1282.3505042096622 5500.2127309614661 0 0 0 0 -45.326927625663131 -1205.8304637208894 0 -1205.8304637208894 6775.9165457262643 0 0 0 0 151.86331685137804 -832.75665324455986 0 -832.75665324455986 5615.5572191903047 0 0 0 0 -280.68447208724837 -1350.8074277093638 0 -1350.8074277093638 5500.1712606800138 0 0 0 0 -655.42666180791616 -1187.2044414546617 0 -1187.2044414546617 5581.9537533628809 0 0 0 0 -62.723191089374318 -1333.9016098612301 0 -1333.9016098612301 5299.3053744726712 0 0 0 0 -399.80302826934553 -1782.7804813866023 0 -1782.7804813866023 4911.1267115384908 0 0 0 0 -220.39297472502332 103.12638804721428 0 103.12638804721428 3719.5413696041032 0 0 0 0 262.81266424158173 -372.10758968754453 0 -372.10758968754453 2297.9365618715892 0 0 0 0 -621.67190459404924 120.69650520459618 0 120.69650520459618 2421.4645250289686 0 0 0 0 53.979180528105218 -2144.5951718496435 0 -2144.5951718496435 465.58252132318012 0 0 0 0 4.4446144436438555 -10.262755965687489 0 -10.262755965687489 14.472104796265398 0 0 0 0 -83.440066386027354 -1633.1470533814936 0 -1633.1470533814936 4651.6754458722462 0 0 0 0 -215.98291825083953 -113.87050917335199 0 -113.87050917335199 7201.1113812420081 0 0 0 0 399.37421901113316 -1346.2103486508713 0 -1346.2103486508713 5088.3516361258735 0 0 0 0 477.95010813340718 -969.70291557470955 0 -969.70291557470955 4956.5960723436147 0 0 0 0 -118.12036253553561 -854.10069111610937 0 -854.10069111610937 5112.0286838768661 0 0 0 0 13.524703817260349 -1086.8377817269866 0 -1086.8377817269866 5499.6786820565176 0 0 0 0 -70.649144035470911 -1278.76205281273 0 -1278.76205281273 5182.7705857642286 0 0 0 0 -277.5360865248557 -595.46462105701721 0 -595.46462105701721 4982.5989705229294 0 0 0 0 -184.22125183521686 -890.48224101547021 0 -890.48224101547021 5021.3344650969375 0 0 0 0 -170.80093377968436 -884.18223804732406 0 -884.18223804732406 5499.555868509352 0 0 0 0 -66.876629437765189 -1106.0834562716773 0 -1106.0834562716773 4490.9477759618749 0 0 0 0 -44.458515067698698 -731.11060394677042 0 -731.11060394677042 5064.374142294866 0 0 0 0 219.59969295986602 -1323.5553667665481 0 -1323.5553667665481 3140.765669653716 0 0 0 0 10.577000750774786 -1125.5181989105213 0 -1125.5181989105213 4129.3305872509227 0 0 0 0 -25.361830695752872 -978.59535950092686 0 -978.59535950092686 4382.2745387865434 0 0 0 0 71.846440142151394 -664.10091902046588 0 -664.10091902046588 3163.5396042859502 0 0 0 0 -184.4628965329793 -497.34371572790769 0 -497.34371572790769 3217.9714959572157 0 0 0 0 -992.43608048371675 219.54206839017752 0 219.54206839017752 2903.2020079798822 0 0 0 0 -472.39324997694496 237.15825661126291 0 237.15825661126291 1747.2468218648901 0 0 0 0 -707.68181997307431 -264.97017173700442 0 -264.97017173700442 2890.928740927895 0 0 0 0 -718.42812539073623 -264.91569467003865 0 -264.91569467003865 3023.3902735113879 0 0 0 0 -88.57322570852827 -402.67777096353711 0 -402.67777096353711 2619.3675025285047 0 0 0 0 -423.19461964274404 -289.7807030230033 0 -289.7807030230033 3023.6072502887655 0 0 0 0 -543.64116597854809 -592.35619600610516 0 -592.35619600610516 2341.451943755601 0 0 0 0 3.0332340862323832 -615.69196490855757 0 -615.69196490855757 2338.3184900668712 0 0 0 0 -109.81211010094962 -237.48940271647461 0 -237.48940271647461 2422.1903213955084 0 0 0 0 -228.64505003421334 -173.06701170219458 0 -173.06701170219458 2480.4547970717249 0 0 0 0 3.9640470624709678 321.65059211423068 0 321.65059211423068 2463.2216348377333 0 0 0 0 -26.828516709646749 -178.56638483975985 0 -178.56638483975985 2982.5802231589332 0 0 0 0 -250.80093242677918 -238.4227672433899 0 -238.4227672433899 3001.8760470989655 0 0 0 0 37.298680883285698 -244.82536128989159 0 -244.82536128989159 4053.0602057607321 0 0 0 0 74.005199930700783 -280.89706228365685 0 -280.89706228365685 3256.1139571042731 0 0 0 0 -121.67788423842434 -381.34966853599872 0 -381.34966853599872 3632.3026041119301 0 0 0 0 -150.54146844056265 373.1414495325007 0 373.1414495325007 3380.1651122477924 0 0 0 0 -96.504566804938079 28.138991553382766 0 28.138991553382766 4019.6269559879729 0 0 0 0 321.68306277584338 -198.56992910707049 0 -198.56992910707049 3655.350784292983 0 0 0 0 1048.0451626070303 -943.21753865259234 0 -943.21753865259234 5371.3840943966352 0 0 0 0 367.37499604113111 -30.558317432747572 0 -30.558317432747572 4256.1501331834006 0 0 0 0 214.0052153945494 -703.30750584412453 0 -703.30750584412453 4576.5894829410936 0 0 0 0 619.97776267769314 -921.93983644888067 0 -921.93983644888067 4147.6480851758752 0 0 0 0 822.47170420039083 -272.29196551023779 0 -272.29196551023779 4689.2740651518106 0 0 0 0 270.75382932319297 -859.99631407006382 0 -859.99631407006382 4206.6399474695208 0 0 0 0 258.49760347929026 -934.12234187858121 0 -934.12234187858121 3864.5769016326885 0 0 0 0 206.34623323871142 -596.88865263073967 0 -596.88865263073967 3776.7627019019201 0 0 0 0 88.603759685885308 -761.79027236506226 0 -761.79027236506226 4099.6333980044728 0 0 0 0 89.028677392590566 -647.22080723502586 0 -647.22080723502586 3481.6181375326123 0 0 0 0 -4.1605394050449576 -785.9845623285546 0 -785.9845623285546 3785.215221403123 0 0 0 0 153.99150293516766 -921.47224218219344 0 -921.47224218219344 3738.7484230429218 0 0 0 0 230.65632419694387 -823.54557548669982 0 -823.54557548669982 4099.7545334659808 0 0 0 0 126.05674167812525 -968.69988310301414 0 -968.69988310301414 3990.9346094027132 0 0 0 0 -8.0038106164439284 -793.48966952499177 0 -793.48966952499177 4231.834293263244 0 0 0 0 -10.315012622047789 -784.30409550893819 0 -784.30409550893819 4422.9743272081687 0 0 0 0 -166.33425399857344 -334.65041544449923 0 -334.65041544449923 4787.6221207127965 0 0 0 0 -330.61206878292495 -542.64148041414228 0 -542.64148041414228 5499.8091009208583 0 0 0 0 -137.59267036463601 -152.14762065369632 0 -152.14762065369632 4069.2948353510874 0 0 0 0 -327.02571826131435 344.30118156737444 0 344.30118156737444 5498.3153686492378 0 0 0 0 401.96526152654843 77.779075972437568 0 77.779075972437568 3628.2898116614379 0 0 0 0 -365.75427246700838 715.92842930201732 0 715.92842930201732 3650.7997857057926 0 0 0 0 372.88621641143317 -270.11582991870819 0 -270.11582991870819 2950.5930467710859 0 0 0 0 389.25093496004189 -414.19818847283022 0 -414.19818847283022 4198.3844090524872 0 0 0 0 388.28352117373311 -1061.0228995211219 0 -1061.0228995211219 3998.1151567898123 0 0 0 0 242.26640977780505 -782.28100091754186 0 -782.28100091754186 3672.8667676713085 0 0 0 0 480.26697252236022 -1018.0598223655834 0 -1018.0598223655834 3544.5843476580048 0 0 0 0 579.25951795013714 -917.00294889928773 0 -917.00294889928773 3596.303032129319 0 0 0 0 287.46029438970072 -1022.1995332350707 0 -1022.1995332350707 4562.7252295264916 0 0 0 0 219.62114287505275 -1748.9953090867202 0 -1748.9953090867202 3120.9014624898264 0 0 0 0 -325.89493211760879 -1515.2293907006533 0 -1515.2293907006533 5454.0409539286047 0 0 0 0 519.7912249492922 -670.06340558172451 0 -670.06340558172451 2576.5539804014261 0 0 0 0 338.29459841038783 2225.3936954880628 0 2225.3936954880628 6990.5476188043249 0 0 0 0 4.5687821753855058 -9.3275298239047117 0 -9.3275298239047117 19.131670931527765 0 0 0 0 -304.47024377424441 -635.02534195251064 0 -635.02534195251064 -666.03229709254811 0 0 0 0 -70.719210788964858 -2642.2612768695881 0 -2642.2612768695881 225.18843344014022 0 0 0 0 -323.7938077570534 -988.79501435649581 0 -988.79501435649581 2306.2952795489909 0 0 0 0 -113.29241960700415 -2945.187720287824 0 -2945.187720287824 1824.3995878417627 0 0 0 0 -813.72111589233464 -2030.4721852914081 0 -2030.4721852914081 77.942092959303409 0 0 0 0 -2240.0894592836135 -645.47855657816399 0 -645.47855657816399 540.44565175165189 0 0 0 0 -1398.5232149875505 -503.84854453758453 0 -503.84854453758453 -101.93596656076261 0 0 0 0 -1970.8700937157651 72.442658406107512 0 72.442658406107512 755.22010090888944 0 0 0 0 -380.89970185716948 122.39145739387368 0 122.39145739387368 1688.3434083762404 0 0 0 0 -378.54292363803279 133.98122054267151 0 133.98122054267151 123.59149860545585 0 0 0 0 352.50014319276261 271.93515932915034 0 271.93515932915034 1163.4348346520419 0 0 0 0 565.38010327593474 -825.13802462798776 0 -825.13802462798776 2223.7611097250483 0 0 0 0 535.68494710260586 -280.96003997499065 0 -280.96003997499065 947.38412186023197 0 0 0 0 341.66912118525602 438.198543799037 0 438.198543799037 1932.0387331276143 0 0 0 0 -480.43839233822672 1881.5635411349213 0 1881.5635411349213 2720.0203886592353 0 0 0 0 -71.807398219617312 -105.3862695475691 0 -105.3862695475691 4139.9253718978562 0 0 0 0 -1.9685933033753309 2.6785495137360726 0 2.6785495137360726 14.30262198154378 0 0 0 0 -528.42228850080483 1490.9620307718724 0 1490.9620307718724 -180.69950949578197 0 0 0 0 -53.550625001637357 1547.8908820508514 0 1547.8908820508514 4342.9156490952228 0 0 0 0 -436.6114546967961 802.27388452452942 0 802.27388452452942 4449.5126031683467 0 0 0 0 -350.18506950134201 1667.4463237026648 0 1667.4463237026648 5501.0040637030615 0 0 0 0 2.3398576162993714 -2.9130930885390995 0 -2.9130930885390995 19.634035658089886 0 0 0 0 377.09254906601615 -967.60271612339056 0 -967.60271612339056 1098.4719061120995 0 0 0 0 598.83648721160228 -741.09464677727374 0 -741.09464677727374 1192.5414234919954 0 0 0 0 76.329958030944695 -1597.9457035381056 0 -1597.9457035381056 5474.453103958338 0 0 0 0 1.6607265794352482 47.37483740998141 0 47.37483740998141 1474.1811972073192 0 0 0 0 641.88553101202865 3342.3010717389116 0 3342.3010717389116 5492.3666901877559 0 0 0 0 99.56564894637205 1361.4753150984543 0 1361.4753150984543 2907.824610254931 0 0 0 0 -1.9971728898115284 -4.7609853413000138 0 -4.7609853413000138 46.191339487446896 0 0 0 0 -312.08907478878791 162.78225279929029 0 162.78225279929029 72.969658308269572 0 0 0 0 60.348988553042545 -214.50793631920533 0 -214.50793631920533 2846.9164599261039 0 0 0 0 23.872421323995241 82.42407977822586 0 82.42407977822586 60.597660192055628 0 0 0 0 0.0059504001385009518 2.41180689050816 0 2.41180689050816 10.705832498555537 0 0 0 0 -4.578228037685478 7.6453306202666624 0 7.6453306202666624 8.8890504683072322 0 0 0 0 329.64516101897351 269.85770442252397 0 269.85770442252397 -433.4598580407328 0 0 0 0 1.0989317428466692 0.54922369717260722 0 0.54922369717260722 -1.9479559500050527 0 0 0 0 -1.7408050917790949 9.8017913679650519 0 9.8017913679650519 24.289089242898626 0 0 0 0 0.73460211317400848 -0.31892065751736709 0 -0.31892065751736709 11.813034103417408 0 0 0 0 -1.9726674893731457 -0.11006167699815705 0 -0.11006167699815705 36.652482041629355 0 0 0 0 5.54752066920895 -42.17851647286443 0 -42.17851647286443 3473.5467886464612 0 0 0 0 -0.0041945561832448979 1.1910202064609621 0 1.1910202064609621 32.860268085423741 0 0 0 0 -2.8086386771522704 8.4631956254270335 0 8.4631956254270335 36.982219250290655 0 0 0 0 -6.817868704965294 9.673775935918357 0 9.673775935918357 6.00832830003759 0 0 0 0 -467.07912264671904 864.76055122585967 0 864.76055122585967 -527.4708609234076 0 0 0 0 71.332482435491784 -6.1668850012138137 0 -6.1668850012138137 91.842433785408502 0 0 0 0 -14.104890021956834 13.08903843273788 0 13.08903843273788 72.974719338698264 0 0 0 0 -126.99463907115276 -483.19231530892284 0 -483.19231530892284 2007.8480761217652 0 0 0 0 5.3779586279200124 -18.677179169101464 0 -18.677179169101464 49.378358124735939 0 0 0 0 131.00188025486028 -989.29172455822118 0 -989.29172455822118 1045.8888442814932 0 0 0 0 -24.793059174101558 751.90672023528896 0 751.90672023528896 3641.4480186206201 0 0 0 0 626.15454110375993 519.56859921521391 0 519.56859921521391 495.54934459517244 0 0 0 0 365.59750229562724 1045.4962578209088 0 1045.4962578209088 3314.7741909710458 0 0 0 0 306.66564413301649 1853.20365155318 0 1853.20365155318 2648.6217509884445 0 0 0 0 -494.33731692136763 908.90173684647016 0 908.90173684647016 6195.5954965272686 0 0 0 0 -27.99815667481127 762.62610743725963 0 762.62610743725963 3674.5357545794104 0 0 0 0 -0.63838291641001133 66.283795413803446 0 66.283795413803446 4790.2712405725615 0 0 0 0 -176.33062098388316 44.324804135532759 0 44.324804135532759 4891.3180476701527 0 0 0 0 124.63983006882921 -43.90516993390338 0 -43.90516993390338 5282.668918008756 0 0 0 0 -135.35813305132572 -186.16474669283889 0 -186.16474669283889 5504.794590607984 0 0 0 0 398.67593145445585 -779.3035335468594 0 -779.3035335468594 7141.7361324471676 0 0 0 0 1507.8771463999194 -458.36438057998748 0 -458.36438057998748 4997.7974637777079 0 0 0 0 269.60473301592469 -777.28690106535214 0 -777.28690106535214 4356.6988121532195 0 0 0 0 696.65650439219803 43.334636005834909 0 43.334636005834909 5410.4292997605853 0 0 0 0 847.91459925614663 -122.11252947235334 0 -122.11252947235334 4336.310226392583 0 0 0 0 797.47702205828284 -33.316287478082813 0 -33.316287478082813 4909.0568436399299 0 0 0 0 780.94122445697599 -6.9483959724529996 0 -6.9483959724529996 4870.3405379496398 0 0 0 0 -345.73330994189018 143.64957047324424 0 143.64957047324424 5329.7198999151224 0 0 0 0 930.23802819465459 579.97874486684304 0 579.97874486684304 4962.3253064906166 0 0 0 0 1767.7310794036284 241.38378229345108 0 241.38378229345108 4334.1062825384033 0 0 0 0 -263.75759319472564 -869.75889267537991 0 -869.75889267537991 4294.317705193258 0 0 0 0 -0.52519598201444562 -44.652525393932592 0 -44.652525393932592 4933.9031513916998 0 0 0 0 -106.76526371145852 27.823516004878911 0 27.823516004878911 4890.5793462037582 0 0 0 0 169.59223075721189 -177.02104484091251 0 -177.02104484091251 4428.3987878103071 0 0 0 0 -133.43224950045567 2.2528981358263991 0 2.2528981358263991 162.25772534543921 0 0 0 0 31.213477902400086 -128.8577264393316 0 -128.8577264393316 158.1163351956784 0 0 0 0 -53.886672754253595 -12.437687769717741 0 -12.437687769717741 44.696685711336613 0 0 0 0 -24.999493029408523 -8.534175886668649 0 -8.534175886668649 -3.1337617404678042 0 0 0 0 -75.498711125303998 -53.430036370897142 0 -53.430036370897142 109.42799572054355 0 0 0 0 -69.992818467442859 -47.641645970846184 0 -47.641645970846184 30.637703191896435 0 0 0 0 -18.19736187948444 -6.1157135128851792 0 -6.1157135128851792 0.078267107221137167 0 0 0 0 -151.34394076788476 97.104563728091307 0 97.104563728091307 13.694586153771525 0 0 0 0 89.0576294341449 -179.78665541691771 0 -179.78665541691771 201.29432553141669 0 0 0 0 -131.20548394445046 -21.299645109757876 0 -21.299645109757876 220.15282528237731 0 0 0 0 -79.82935240156803 -55.455970424271072 0 -55.455970424271072 133.2953968927759 0 0 0 0 -66.868615810669382 -77.630795414623435 0 -77.630795414623435 96.645923782270984 0 0 0 0 -68.14350292447034 -115.17489536309586 0 -115.17489536309586 168.5099871036582 0 0 0 0 -126.04389931456535 -71.661127688261331 0 -71.661127688261331 135.9715754457211 0 0 0 0 -125.7675686897621 -77.770954699932872 0 -77.770954699932872 270.41140280431136 0 0 0 0 -71.84992512988515 -65.215296699052487 0 -65.215296699052487 60.641280663738144 0 0 0 0 -45.200187137551438 -100.48554759422768 0 -100.48554759422768 26.826136599222082 0 0 0 0 -171.64571076168113 -214.78738494823483 0 -214.78738494823483 120.01815638072731 0 0 0 0 -257.22938031154445 -93.249761360086268 0 -93.249761360086268 33.562396456982242 0 0 0 0 4.1210089541735577 -3.7446814478997581 0 -3.7446814478997581 -2.1251512548421374 0 0 0 0 116.09049337633769 -81.264427838345 0 -81.264427838345 51.406043385737576 0 0 0 0 -196.45435971898223 -147.17192232409434 0 -147.17192232409434 35.694255466638424 0 0 0 0 -8.9822030654559057 -64.509484358597547 0 -64.509484358597547 88.281603630246536 0 0 0 0 -5.3486416625873971 -60.669107064255513 0 -60.669107064255513 92.309266034717439 0 0 0 0 27.074918621179677 -102.96607545721054 0 -102.96607545721054 94.677989430259913 0 0 0 0 -25.337609651351158 -92.397771515279601 0 -92.397771515279601 96.772233386745938 0 0 0 0 -31.924692222312046 -48.489942884263655 0 -48.489942884263655 88.706171148456633 0 0 0 0 -22.733569175913999 -40.122222257507019 0 -40.122222257507019 79.720202126845834 0 0 0 0 -18.790378421120295 -48.384730649071571 0 -48.384730649071571 77.645785328073543 0 0 0 0 -3.5389648574573584 -47.858283770285198 0 -47.858283770285198 80.75124390606652 0 0 0 0 -13.962401710589802 -52.766625752381515 0 -52.766625752381515 92.257020322562312 0 0 0 0 -104.34180005359485 -334.11163786233737 0 -334.11163786233737 284.14821552984358 0 0 0 0 -33.151249355886648 -41.96383997275916 0 -41.96383997275916 83.387585339944053 0 0 0 0 -17.781340975284365 -31.666897940336639 0 -31.666897940336639 86.163582228531595 0 0 0 0 0.33689635126309359 -31.564886370968839 0 -31.564886370968839 84.369000194175953 0 0 0 0 -32.050786607325904 -23.253404658284126 0 -23.253404658284126 -28.820652705242537 0 0 0 0 531.02888317652219 -152.27391310697567 0 -152.27391310697567 -100.97937466340227 0 0 0 0 35.964844639531179 -212.26675229938701 0 -212.26675229938701 364.87280056980671 0 0 0 0 47.201556311082413 51.089830361845088 0 51.089830361845088 207.10349876715918 0 0 0 0 -8.6768564220259918 32.698730427349801 0 32.698730427349801 465.81112188968473 0 0 0 0 53.854810825781954 -58.460159573114652 0 -58.460159573114652 217.27183167046314 0 0 0 0 14.077238564720176 -25.449832319325651 0 -25.449832319325651 278.11514130525757 0 0 0 0 1.6144826287540404 -2.6270510685753266 0 -2.6270510685753266 -4.049182040771349 0 0 0 0 -4.7163175942287126 -19.385203187761363 0 -19.385203187761363 40.775406136181118 0 0 0 0 -7.7027164905734988 -24.297702421322576 0 -24.297702421322576 8.2860007097947062 0 0 0 0 -11.209839555696817 -9.5683651385406847 0 -9.5683651385406847 37.673936407118163 0 0 0 0 -19.519507133234583 -37.182704613631358 0 -37.182704613631358 74.784857779581216 0 0 0 0 -27.208379331822993 -18.876626761731501 0 -18.876626761731501 10.531964202081184 0 0 0 0 -12.3599160699913 31.034535819977464 0 31.034535819977464 77.825184397339399 0 0 0 0 0.94590951413012825 -21.386993658083895 0 -21.386993658083895 62.722404914529335 0 0 0 0 -18.471423941449189 -45.201063513418376 0 -45.201063513418376 83.303102222453163 0 0 0 0 -5.7713675819264569 -14.858534557555487 0 -14.858534557555487 8.8966148060905255 0 0 0 0 -3.3914891930132853 22.822618206395418 0 22.822618206395418 131.52850918913464 0 0 0 0 -15.641723155171462 30.861182925844332 0 30.861182925844332 128.59583714923792 0 0 0 0 10.871587078324005 -52.593932736672286 0 -52.593932736672286 22.463682099791185 0 0 0 0 -2.9194753550391823 -66.281534599875158 0 -66.281534599875158 114.97721488631578 0 0 0 0 8.0317582846327014 1.6677511891466565 0 1.6677511891466565 77.430635026961681 0 0 0 0 6.6985317050185529 -10.388425223660306 0 -10.388425223660306 174.82256804095232 0 0 0 0 13.938969388221096 -37.264966712595196 0 -37.264966712595196 137.77719741500914 0 0 0 0 43.576677772048164 31.768585984228594 0 31.768585984228594 131.41087161297037 0 0 0 0 -8.3676578736456975 -28.489225595021253 0 -28.489225595021253 32.331573238945566 0 0 0 0 -3.3528433069291168 -13.347242255789752 0 -13.347242255789752 40.879122347054363 0 0 0 0 -4.0034223963342459 -11.304831314741151 0 -11.304831314741151 33.138171709054632 0 0 0 0 -11.771045391067446 -12.318556412430553 0 -12.318556412430553 70.571636159125774 0 0 0 0 3.122927254815437 -31.92225816860082 0 -31.92225816860082 61.849370886659017 0 0 0 0 -38.044001698856164 -20.580735162857309 0 -20.580735162857309 79.597156475196243 0 0 0 0 16.608047210388577 -34.209844601435179 0 -34.209844601435179 76.863061251053296 0 0 0 0 11.270967723748697 2.8612315956352177 0 2.8612315956352177 52.591941702732584 0 0 0 0 -13.697320497179589 -17.725713835046918 0 -17.725713835046918 84.775533208623528 0 0 0 0 -17.501828509221923 -2.7382396096436423 0 -2.7382396096436423 82.087857510738104 0 0 0 0 3.3065209320484428 -32.665682945043955 0 -32.665682945043955 34.350751282458077 0 0 0 0 -5.4946351815878529 -9.706243720745988 0 -9.706243720745988 148.07985867519892 0 0 0 0 14.549338104291792 -17.652809458097181 0 -17.652809458097181 -22.080579916410898 0 0 0 0 0.70210315893059683 1.0461285366885278 0 1.0461285366885278 -0.87683811007978818 0 0 0 0 -27.954030513376694 -21.353462498395857 0 -21.353462498395857 50.117301561956992 0 0 0 0 -76.198565046657336 -54.908131976801087 0 -54.908131976801087 148.98627881130233 0 0 0 0 -21.409786637900652 -30.212374668921257 0 -30.212374668921257 89.531850250161369 0 0 0 0 -3.0258691978792958 -12.949444413062189 0 -12.949444413062189 61.725365976458306 0 0 0 0 -31.310335158022099 21.512168929108157 0 21.512168929108157 49.881923671826371 0 0 0 0 -3.6484643453342795 -8.9351863267648071 0 -8.9351863267648071 15.983244886023755 0 0 0 0 1.7393828336886714 -3.7906488761515078 0 -3.7906488761515078 35.978274644878354 0 0 0 0 -37.378677096908632 -13.400959962451452 0 -13.400959962451452 60.481493593495543 0 0 0 0 -23.812164710052912 3.7530464861447399 0 3.7530464861447399 74.955802738433704 0 0 0 0 0.92330265907804887 2.7208364140828536 0 2.7208364140828536 24.250094871786217 0 0 0 0 10.248808377269711 -24.788614717405835 0 -24.788614717405835 29.34928959847457 0 0 0 0 -68.262689831615035 46.826454022761027 0 46.826454022761027 91.34869415038338 0 0 0 0 -10.74363202638915 -13.726973963210185 0 -13.726973963210185 34.284036737251881 0 0 0 0 37.884658487107572 -6.5188608232419938 0 -6.5188608232419938 0.41732063359813765 0 0 0 0 1.2679489674183739 -8.4005278750768841 0 -8.4005278750768841 29.58809598973582 0 0 0 0 -13.653337668582026 -27.374369474166087 0 -27.374369474166087 33.358849856405868 0 0 0 0 -28.993630006983949 -37.719694071081904 0 -37.719694071081904 10.866710940565099 0 0 0 0 -108.48432429383502 -51.453193360735895 0 -51.453193360735895 42.182740308810025 0 0 0 0 21.730284212577772 -31.406288474274334 0 -31.406288474274334 -57.373979877855163 0 0 0 0 1.4756388722051725 -2.6826697874176411 0 -2.6826697874176411 4.1663668805760778 0 0 0 0 6.7650183224532157 -25.305961692552955 0 -25.305961692552955 -77.712087923053332 0 0 0 0 40.020256114195035 24.274877736170311 0 24.274877736170311 -42.076154921029229 0 0 0 0 0.26464470320265487 -1.0452184463012202 0 -1.0452184463012202 2.3455533834065818 0 0 0 0 8.3881821210952694 63.764179166842951 0 63.764179166842951 71.694792546739336 0 0 0 0 -19.808512975971553 15.882059466861392 0 15.882059466861392 204.94598020119884 0 0 0 0 25.38222829834308 2.2142766600227333 0 2.2142766600227333 87.781202479418425 0 0 0 0 25.196501435152253 5.9433291949488876 0 5.9433291949488876 50.712025860557333 0 0 0 0 38.183146572495389 47.880876792187337 0 47.880876792187337 23.059413599694381 0 0 0 0 26.757507596841606 -2.3712550040509086 0 -2.3712550040509086 13.502443457138725 0 0 0 0 -8.7854412324072086 -9.9290860252694984 0 -9.9290860252694984 28.692445089640387 0 0 0 0 1.4107968596026597 -8.238756172533499 0 -8.238756172533499 -4.2258772520745751 0 0 0 0 3.9159661219306656 -74.50341585966089 0 -74.50341585966089 92.49116778861935 0 0 0 0 0.73770732107038839 -18.926934276350948 0 -18.926934276350948 24.23659581321408 0 0 0 0 14.08891593489011 -23.263433725698633 0 -23.263433725698633 24.631604028589209 0 0 0 0 2.286708904980375 -8.6923053041003442 0 -8.6923053041003442 0.71378485460657259 0 0 0 0 108.95858562717967 -15.917778579198057 0 -15.917778579198057 -24.798091111337271 0 0 0 0 11.26819460075933 -112.90694542758501 0 -112.90694542758501 142.53577243210748 0 0 0 0 223.9243534204021 -130.96029922632079 0 -130.96029922632079 90.320863693079446 0 0 0 0 -23.231810532762864 -99.399665624332556 0 -99.399665624332556 182.97879373333126 0 0 0 0 8.4793305977276532 -105.36357801069244 0 -105.36357801069244 131.37958878392965 0 0 0 0 -79.457463011535694 -59.64203989266025 0 -59.64203989266025 182.52941941469908 0 0 0 0 -54.950494757754797 -59.719305399237783 0 -59.719305399237783 168.85673455461801 0 0 0 0 -33.425719490594702 -77.392935315823706 0 -77.392935315823706 171.21605090303638 0 0 0 0 104.31245240277343 -216.92811578861438 0 -216.92811578861438 295.36848584630934 0 0 0 0 -51.431627825249279 -91.215287722799985 0 -91.215287722799985 305.92831575550372 0 0 0 0 0.33186615244267159 -163.75664885827427 0 -163.75664885827427 407.50730002428463 0 0 0 0 83.413982486611303 -154.06078154905845 0 -154.06078154905845 162.50296758024342 0 0 0 0 -24.054878338946537 160.21867601858685 0 160.21867601858685 339.31806284497725 0 0 0 0 -12.307108609716124 -62.38251120199493 0 -62.38251120199493 247.28322133977781 0 0 0 0 -21.171202466666699 16.64820792830308 0 16.64820792830308 20.773161878436419 0 0 0 0 -19.096616679889848 -0.73920838756021112 0 -0.73920838756021112 112.69956253457349 0 0 0 0 33.06577180349273 98.415962649356516 0 98.415962649356516 25.943909040288418 0 0 0 0 -64.633158449751505 -72.68928470202809 0 -72.68928470202809 179.53285402067559 0 0 0 0 -1.4778179859316509 3.7465779871360922 0 3.7465779871360922 -7.4204990832943452 0 0 0 0 -21.869378265796058 -40.858711186174332 0 -40.858711186174332 180.74563988127375 0 0 0 0 -37.596509424474107 -15.507124511474103 0 -15.507124511474103 429.57974217320589 0 0 0 0 19.015384071177323 29.494657629868016 0 29.494657629868016 139.57115961401723 0 0 0 0 173.85355579854217 -232.0922936885454 0 -232.0922936885454 190.97427277761744 0 0 0 0 20.731831144709474 -93.093775182727768 0 -93.093775182727768 216.9993509424603 0 0 0 0 -18.924574522477599 -54.830194419990221 0 -54.830194419990221 225.87617988199781 0 0 0 0 32.900052326146692 -58.530454463661954 0 -58.530454463661954 125.11085399471631 0 0 0 0 28.453352298074719 -45.451579242871958 0 -45.451579242871958 117.52323792331663 0 0 0 0 75.385260580440331 -115.7082756431555 0 -115.7082756431555 174.5343314716265 0 0 0 0 0.11135436261967335 6.3506525732094019 0 6.3506525732094019 16.093316285199023 0 0 0 0 -254.17963848140562 169.45342969956982 0 169.45342969956982 7.6662417981788167 0 0 0 0 -96.129629694062402 -49.914645065652621 0 -49.914645065652621 53.969402837872622 0 0 0 0 -173.82421820990703 130.27310636911716 0 130.27310636911716 48.776722655798949 0 0 0 0 35.664782906560617 -6.6379854346878346 0 -6.6379854346878346 43.997229686487117 0 0 0 0 0.018529743653755482 7.626103505365549 0 7.626103505365549 17.181866591452945 0 0 0 0 -76.2475935211354 -2.1848294733554212 0 -2.1848294733554212 161.92811988433095 0 0 0 0 -106.44172105826277 16.949828944438195 0 16.949828944438195 162.63164401981521 0 0 0 0 119.57486584879189 -219.74178737013244 0 -219.74178737013244 244.52679747264483 0 0 0 0 -10.354507306822365 -3.0130209794840397 0 -3.0130209794840397 0.37252848498212643 0 0 0 0 -73.929153524385413 -47.839201801059971 0 -47.839201801059971 59.139908457938873 0 0 0 0 87.410231448864579 -155.22673478764045 0 -155.22673478764045 264.82103314859569 0 0 0 0 0.30094623382272856 4.6790134329550028 0 4.6790134329550028 11.345741918470196 0 0 0 0 -320.19780795982064 226.24057746559629 0 226.24057746559629 -59.225884116502129 0 0 0 0 -62.773549124306101 155.73833918188029 0 155.73833918188029 -146.81289638737508 0 0 0 0 -151.5565115887465 -23.607702936016722 0 -23.607702936016722 82.178804420749657 0 0 0 0 -54.025761115629848 66.311793926070095 0 66.311793926070095 196.63111682527233 0 0 0 0 51.860369036126713 -126.50336982747103 0 -126.50336982747103 265.41650574012601 0 0 0 0 -38.865720762198862 31.52923102985369 0 31.52923102985369 83.065680196181347 0 0 0 0 50.476683583970953 -171.56673826996848 0 -171.56673826996848 242.04537912853266 0 0 0 0 -62.867839816382912 -67.148480744537665 0 -67.148480744537665 220.48851419727725 0 0 0 0 54.600587741882919 -122.0511141231691 0 -122.0511141231691 272.59396744050173 0 0 0 0 43.670992988276112 -102.69267221159134 0 -102.69267221159134 401.85117288825859 0 0 0 0 42.947292061799317 39.064902804109806 0 39.064902804109806 487.51333907949447 0 0 0 0 36.910377051731302 87.411175845605612 0 87.411175845605612 172.30524422490271 0 0 0 0 126.64251581744429 -91.153755869767338 0 -91.153755869767338 354.11720272385719 0 0 0 0 222.52883879727278 175.24274600849458 0 175.24274600849458 165.09466565914045 0 0 0 0 2.3485475904888435 -3.9701528707088016 0 -3.9701528707088016 6.5673260501671109 0 0 0 0 960.08712552635552 -86.091191861138213 0 -86.091191861138213 -1819.4459358489839 0 0 0 0 214.81169165795836 268.4156155892706 0 268.4156155892706 655.8012270337058 0 0 0 0 177.22694146835784 -159.758848261612 0 -159.758848261612 734.58479908293702 0 0 0 0 262.95122231440541 46.169768580552045 0 46.169768580552045 298.21373620306258 0 0 0 0 235.19194619830523 136.67941860976862 0 136.67941860976862 3.3336334641790017 0 0 0 0 214.11348409503807 40.045946139725856 0 40.045946139725856 -347.22689728238038 0 0 0 0 -29.188988104222517 -332.70808306995605 0 -332.70808306995605 -132.10413304335088 0 0 0 0 12.637096587525775 -207.00108006116352 0 -207.00108006116352 67.564960091141984 0 0 0 0 495.62100508707408 -93.483439681964228 0 -93.483439681964228 41.07644476146379 0 0 0 0 298.90057411404632 -159.84182768539176 0 -159.84182768539176 -151.93797534955957 0 0 0 0 374.48982574487718 -22.469943780044559 0 -22.469943780044559 57.398325545887928 0 0 0 0 -151.37157768182612 114.42238117369016 0 114.42238117369016 135.99044141572085 0 0 0 0 -329.1161605659554 -80.456005046507926 0 -80.456005046507926 206.43449070421048 0 0 0 0 335.58885484729399 -172.55735754223133 0 -172.55735754223133 150.44098323991057 0 0 0 0 334.84071196695368 -228.73660930195183 0 -228.73660930195183 97.94146872163401 0 0 0 0 211.31008788039799 -105.0222306882788 0 -105.0222306882788 74.82747090846533 0 0 0 0 307.72178191892544 -223.81702993753424 0 -223.81702993753424 79.171449873439997 0 0 0 0 155.36390159506391 -53.462948379761656 0 -53.462948379761656 88.722820296214195 0 0 0 0 -83.315143996675033 -202.54494953408721 0 -202.54494953408721 139.35567758469551 0 0 0 0 182.69963962907059 -163.7854216591586 0 -163.7854216591586 50.215998457104433 0 0 0 0 65.794112500310575 175.16866675829806 0 175.16866675829806 -50.032540211948799 0 0 0 0 189.19409241091944 -128.58404231307941 0 -128.58404231307941 105.96607677984866 0 0 0 0 378.1031390743774 -87.930789906225982 0 -87.930789906225982 -11.235861810710048 0 0 0 0 384.61818128301962 -218.52981822988431 0 -218.52981822988431 113.85068004834466 0 0 0 0 429.41074752504665 -185.03139745961744 0 -185.03139745961744 322.5008818005299 0 0 0 0 0.33959544435740874 3.5882618354669376 0 3.5882618354669376 43.691339827969784 0 0 0 0 525.14062567313022 393.44560885937244 0 393.44560885937244 1887.6782808617572 0 0 0 0 413.16812761945403 -132.58672100125114 0 -132.58672100125114 168.16968009485572 0 0 0 0 104.82144848126245 -44.804242497146333 0 -44.804242497146333 556.58405013091397 0 0 0 0 260.82168121605559 31.51144018735431 0 31.51144018735431 27.323529459579731 0 0 0 0 148.42567165627952 -211.32056724293216 0 -211.32056724293216 307.31450654118089 0 0 0 0 160.61634702998754 125.15134407443111 0 125.15134407443111 -44.141684189933585 0 0 0 0 0.17557605003259535 -0.095823899371257681 0 -0.095823899371257681 29.561027516750869 0 0 0 0 183.95756668589593 -210.48335463170588 0 -210.48335463170588 341.52525438107841 0 0 0 0 -146.96686848654736 -144.89296480397024 0 -144.89296480397024 -85.124900078857536 0 0 0 0 438.27073850982697 -218.15518620528746 0 -218.15518620528746 85.114699371304596 0 0 0 0 725.07823566479692 -327.10956249423907 0 -327.10956249423907 49.511237623926718 0 0 0 0 667.54295377177277 -289.65762082289439 0 -289.65762082289439 58.300535896822112 0 0 0 0 436.33736271300677 -238.18468131715781 0 -238.18468131715781 37.877245708936243 0 0 0 0 356.8531837949231 40.992969920727774 0 40.992969920727774 -226.04115325368184 0 0 0 0 485.61494586355366 -250.49854458855407 0 -250.49854458855407 -115.65731261188557 0 0 0 0 776.14312140867105 -266.89655401790515 0 -266.89655401790515 175.5894259129127 0 0 0 0 434.2538877470447 -344.09234269877197 0 -344.09234269877197 206.78654369188007 0 0 0 0 663.44006907770608 -431.13205025702337 0 -431.13205025702337 308.63790264754789 0 0 0 0 473.08963590385588 -39.306845149414585 0 -39.306845149414585 322.83072455080401 0 0 0 0 964.78704504236566 -465.17797440061986 0 -465.17797440061986 77.063899401025992 0 0 0 0 825.60378981288568 -438.92119937604002 0 -438.92119937604002 252.68584970825032 0 0 0 0 860.57357570777276 -441.19940287825011 0 -441.19940287825011 459.22959656384774 0 0 0 0 798.88512717045069 -479.06790549174184 0 -479.06790549174184 441.57831430106307 0 0 0 0 948.97320820189634 -443.44972439201956 0 -443.44972439201956 262.1342989410914 0 0 0 0 1341.6123821002111 -524.29826083299122 0 -524.29826083299122 390.99454054624948 0 0 0 0 1671.4647836921138 -977.27069971873425 0 -977.27069971873425 584.32545770386787 0 0 0 0 307.55217731983839 31.043962041082523 0 31.043962041082523 -217.1350778422202 0 0 0 0 84.051437875725696 -63.896384355259215 0 -63.896384355259215 123.20553319899045 0 0 0 0 141.04574309985628 77.639944144430046 0 77.639944144430046 -305.45386289910175 0 0 0 0 137.39853186427445 -158.77618583148433 0 -158.77618583148433 160.01378921878495 0 0 0 0 -2.742792543679248 -0.97869995290909628 0 -0.97869995290909628 -0.20092110018055109 0 0 0 0 25.690538772641503 350.33762690819822 0 350.33762690819822 -321.43872551634558 0 0 0 0 89.51399400781429 -254.52415727829793 0 -254.52415727829793 294.1195345416163 0 0 0 0 -186.30002605289565 2100.7991984223336 0 2100.7991984223336 2674.3889839074545 0 0 0 0 -935.15579975470064 486.65443252440309 0 486.65443252440309 -804.64474179993476 0 0 0 0 1015.7458304076218 2712.9390191089947 0 2712.9390191089947 -932.98927356168861 0 0 0 0 25.627709969455282 1231.8995792137976 0 1231.8995792137976 3467.0898021793546 0 0 0 0 211.15509022505262 -886.47108912235126 0 -886.47108912235126 3171.0774746418829 0 0 0 0 13.826789407338296 14.358011987839774 0 14.358011987839774 14.39317631852586 0 0 0 0 287.81111018745878 -706.15765498136898 0 -706.15765498136898 1604.8218739312979 0 0 0 0 219.84312715128539 640.31878280734963 0 640.31878280734963 2115.6657389181928 0 0 0 0 376.41970617527511 551.4362154806804 0 551.4362154806804 1321.7286280998887 0 0 0 0 561.87578194905666 -229.76034238617285 0 -229.76034238617285 662.29324846478994 0 0 0 0 -1642.9514144451146 1180.5635754072428 0 1180.5635754072428 197.70366549657774 0 0 0 0 119.52867103581761 -208.47883374706726 0 -208.47883374706726 712.52820191536739 0 0 0 0 568.79539502343755 -188.07608498663467 0 -188.07608498663467 656.21820223062241 0 0 0 0 22.950709595684117 37.12944259891259 0 37.12944259891259 47.917184223333351 0 0 0 0 678.69700810309541 -421.99913903753622 0 -421.99913903753622 621.12157373980153 0 0 0 0 878.48293499999068 -504.34636391584354 0 -504.34636391584354 335.13974821398733 0 0 0 0 0.72017681450147308 15.273336024776633 0 15.273336024776633 11.997327284341623 0 0 0 0 692.44801180609988 -441.69653887824097 0 -441.69653887824097 404.61555192903324 0 0 0 0 676.02722552878731 -393.61227399761265 0 -393.61227399761265 351.56746557830775 0 0 0 0 675.13709905891619 -370.90662807958142 0 -370.90662807958142 407.20722472947091 0 0 0 0 649.69135376582244 -187.02261917094438 0 -187.02261917094438 397.1779297334142 0 0 0 0 628.96990330175117 -228.71793987387355 0 -228.71793987387355 586.03161034162622 0 0 0 0 523.05773001500756 -313.16308811985073 0 -313.16308811985073 550.73872386313451 0 0 0 0 663.07225759203607 -176.18923922837712 0 -176.18923922837712 638.77483521828253 0 0 0 0 536.16030911200903 -252.6878463954381 0 -252.6878463954381 800.76247306499863 0 0 0 0 549.1372203170331 32.777418877245509 0 32.777418877245509 1105.6732865351514 0 0 0 0 530.08150391448783 329.17665523280812 0 329.17665523280812 918.87742394569796 0 0 0 0 736.65953138124928 305.44995892403313 0 305.44995892403313 604.83017159701558 0 0 0 0 611.93665625188714 11.552236315583286 0 11.552236315583286 554.07547759456793 0 0 0 0 598.1451408121477 15.209369010895898 0 15.209369010895898 593.25450647747493 0 0 0 0 658.48638854856381 33.146329361115932 0 33.146329361115932 354.82867434844957 0 0 0 0 704.73785408176445 249.13346623475809 0 249.13346623475809 221.76177833578549 0 0 0 0 584.85399823767739 -42.9844389881182 0 -42.9844389881182 317.51936493759786 0 0 0 0 546.23387443027877 29.747738486621529 0 29.747738486621529 180.8432173152396 0 0 0 0 542.79988856801947 -232.88957038841909 0 -232.88957038841909 170.59894258499799 0 0 0 0 472.92432133109469 -119.40310280252015 0 -119.40310280252015 60.619236518250545 0 0 0 0 600.11287243151264 -157.25725468741439 0 -157.25725468741439 238.60389629745623 0 0 0 0 635.32879150397775 -216.49425274238456 0 -216.49425274238456 338.10826924212506 0 0 0 0 664.68422478394268 -336.62286483887874 0 -336.62286483887874 180.34738879885845 0 0 0 0 656.84902671617374 -319.51814585414832 0 -319.51814585414832 301.42649668402737 0 0 0 0 706.91695872973446 -445.9313265778037 0 -445.9313265778037 264.28267071671507 0 0 0 0 718.6666773087145 -395.95167433022289 0 -395.95167433022289 154.18044510862092 0 0 0 0 579.42320324623688 -256.2500146352686 0 -256.2500146352686 78.845915642246837 0 0 0 0 554.97797522178644 -285.74289405046147 0 -285.74289405046147 189.16088713350473 0 0 0 0 715.56730646813321 -475.64766110561322 0 -475.64766110561322 304.73179413602338 0 0 0 0 767.96411167070892 -465.15441410269705 0 -465.15441410269705 174.80044947868373 0 0 0 0 628.81082698313367 -378.20648793922737 0 -378.20648793922737 213.21557293913793 0 0 0 0 627.17635974907932 -362.44837684488084 0 -362.44837684488084 180.90295618472737 0 0 0 0 680.17210523982965 -430.86136066112522 0 -430.86136066112522 270.14850182863302 0 0 0 0 784.82663823819303 -520.11586820357479 0 -520.11586820357479 267.08573772412637 0 0 0 0 662.29997574191009 -527.97393381828442 0 -527.97393381828442 470.61170923263126 0 0 0 0 836.9404811886177 -817.99354755968307 0 -817.99354755968307 601.99406528614054 0 0 0 0 695.11933186690578 -650.77228814199043 0 -650.77228814199043 606.73598572259652 0 0 0 0 759.30761183334607 -514.29589890553325 0 -514.29589890553325 338.88888886207133 0 0 0 0 978.87200603806741 -628.02201475996117 0 -628.02201475996117 350.92516239332872 0 0 0 0 866.19445972981339 -587.24367620093108 0 -587.24367620093108 299.4341998535383 0 0 0 0 837.32107417169209 -488.5762877164525 0 -488.5762877164525 197.91692055216117 0 0 0 0 861.13267607618059 -559.44318714025576 0 -559.44318714025576 412.47439159301575 0 0 0 0 19.847186494532707 -14.993750095141877 0 -14.993750095141877 45.813225699705072 0 0 0 0 944.01755931206173 -703.87684580167115 0 -703.87684580167115 666.8013083114638 0 0 0 0 1318.3610440470984 -699.87077300183591 0 -699.87077300183591 442.68092567232088 0 0 0 0 1028.5583706046318 -939.71931926927209 0 -939.71931926927209 1150.6916102990508 0 0 0 0 -4.3709048344337162 -2.0115890785432669 0 -2.0115890785432669 11.858115360069718 0 0 0 0 1388.9420452687232 -1393.2699665663094 0 -1393.2699665663094 1232.1112810096602 0 0 0 0 944.82633844401016 -818.16795318318873 0 -818.16795318318873 579.08468695753254 0 0 0 0 5.5077086124311494 11.12948636077536 0 11.12948636077536 22.462219350971878 0 0 0 0 19.616363912281031 -12.536278503364883 0 -12.536278503364883 27.838159932827693 0 0 0 0 -25.871083600436123 -26.305100765908719 0 -26.305100765908719 48.777102167085104 0 0 0 0 634.20352561910272 -477.14354438966257 0 -477.14354438966257 385.28467224046472 0 0 0 0 697.64846279061794 -383.65417741015335 0 -383.65417741015335 304.43327099291491 0 0 0 0 -0.56952991572487766 7.3819298161046589 0 7.3819298161046589 28.347155350368809 0 0 0 0 -7.4049379203920118 6.1602656223543661 0 6.1602656223543661 74.695419664025849 0 0 0 0 -1772.6539535133468 -345.32801017844758 0 -345.32801017844758 630.35457807341299 0 0 0 0 -960.66568069842333 -1061.3104732895154 0 -1061.3104732895154 79.968786612003896 0 0 0 0 -1034.5331610005933 141.49093274211191 0 141.49093274211191 360.49229850602569 0 0 0 0 -154.10155206846639 -1049.0349189634799 0 -1049.0349189634799 1942.9187519591069 0 0 0 0 -1943.2439573275763 -824.7809880997811 0 -824.7809880997811 -1.9468525763513753 0 0 0 0 -360.01425303088251 -158.0045631586363 0 -158.0045631586363 690.88212835050945 0 0 0 0 -2.4077576777346512 -17.539920620045244 0 -17.539920620045244 93.274505286324768 0 0 0 0 -1250.1843453194467 -879.55625761433475 0 -879.55625761433475 -439.15427487168927 0 0 0 0 -2174.4781957376872 -813.22766711675649 0 -813.22766711675649 278.17172068651416 0 0 0 0 -906.971086552835 -344.1424000714469 0 -344.1424000714469 -423.61650917338557 0 0 0 0 -6.5530003290858216 -12.4394336289552 0 -12.4394336289552 87.803168849652138 0 0 0 0 -76.374724042170328 -144.58034706772378 0 -144.58034706772378 -80.278630833956413 0 0 0 0 187.86538506833904 127.78435072295542 0 127.78435072295542 -119.05649788272422 0 0 0 0 9.8461725662830304 57.696586820384255 0 57.696586820384255 311.8945559188578 0 0 0 0 -6.8929455447300825 -156.997192654846 0 -156.997192654846 239.1126131033634 0 0 0 0 3.0313340939088445 -13.468224886810994 0 -13.468224886810994 52.514481111316172 0 0 0 0 71.876757020013883 -37.931999412794539 0 -37.931999412794539 99.562006104206375 0 0 0 0 12.717347064561864 27.529630167318828 0 27.529630167318828 42.998366357176565 0 0 0 0 11.117021887154465 -6.4802988450792327 0 -6.4802988450792327 35.604280971339904 0 0 0 0 26.625986950479614 -9.9529012773455179 0 -9.9529012773455179 18.621015919212368 0 0 0 0 2.1055226905322115 -272.12895290320557 0 -272.12895290320557 171.59478906917502 0 0 0 0 2.2904093558656191 -9.210330721362439 0 -9.210330721362439 40.198104526453221 0 0 0 0 35.68412001173715 2.8526722462192993 0 2.8526722462192993 33.466323998127336 0 0 0 0 510.66288904836773 -398.13940696327336 0 -398.13940696327336 45.506557254178915 0 0 0 0 427.38304112838659 399.0476183865394 0 399.0476183865394 -373.43998417549301 0 0 0 0 388.76150711160426 168.94413692876697 0 168.94413692876697 51.294626682821786 0 0 0 0 -92.772261831636399 -96.619979049724861 0 -96.619979049724861 148.72307464251935 0 0 0 0 180.81328731110926 102.89788228371617 0 102.89788228371617 63.892657323893218 0 0 0 0 1.6297065387712837 -13.727147627911975 0 -13.727147627911975 62.889609683098627 0 0 0 0 -76.927861684613163 -7.9879000893270131 0 -7.9879000893270131 118.89246067807835 0 0 0 0 86.887854260985478 75.867834714430501 0 75.867834714430501 165.49816474397085 0 0 0 0 48.341549350809146 -90.879169496845861 0 -90.879169496845861 -18.970930746174417 0 0 0 0 115.13925154727258 -68.71101603727584 0 -68.71101603727584 -12.21645325076679 0 0 0 0 -40.896595213300259 -350.64096922512817 0 -350.64096922512817 -238.09742034270312 0 0 0 0 -56.418384440622503 -271.19772001786623 0 -271.19772001786623 1.5928669256099965 0 0 0 0 192.78802303855809 -90.653965040983167 0 -90.653965040983167 -206.935870917805 0 0 0 0 64.907293460438723 -217.8332014370244 0 -217.8332014370244 -114.6241121001076 0 0 0 0 302.43154325534533 88.940450680005597 0 88.940450680005597 -92.669919415104232 0 0 0 0 -2.7261692700487554 -3.2315841425155725 0 -3.2315841425155725 17.589801636858112 0 0 0 0 252.6022800863775 142.91350875129865 0 142.91350875129865 216.83502028155635 0 0 0 0 157.29508944728639 -243.33458597717436 0 -243.33458597717436 -15.57816535733582 0 0 0 0 -192.64114970225637 -29.426654938870342 0 -29.426654938870342 -128.95290935164667 0 0 0 0 -225.70817059445721 16.996102767829143 0 16.996102767829143 -139.69365279143676 0 0 0 0 -423.31257662532471 -563.27432636183221 0 -563.27432636183221 -157.73001499185921 0 0 0 0 -3.6779004517791445 1.8214571092578922 0 1.8214571092578922 21.980329223594936 0 0 0 0 -68.086107845312654 -49.734506636603328 0 -49.734506636603328 449.71360840994748 0 0 0 0 -5.6701971876800599 -167.0243970585434 0 -167.0243970585434 -347.34412186466943 0 0 0 0 1.1937234813800786 -23.312374916185853 0 -23.312374916185853 80.767041096506659 0 0 0 0 1.7362285005534446 -2.4852539547339632 0 -2.4852539547339632 1.9227843802993903 0 0 0 0 -1679.1623417960334 -791.95274110816172 0 -791.95274110816172 -52.40843210046296 0 0 0 0 -208.73950509661518 -20.809079549551825 0 -20.809079549551825 330.21461998109589 0 0 0 0 281.38607543398166 252.44700298187672 0 252.44700298187672 -329.43825488103903 0 0 0 0 -84.880692448137779 -26.1399374891771 0 -26.1399374891771 -348.72677080085123 0 0 0 0 -1283.5467074882904 -604.99071667104727 0 -604.99071667104727 -434.43309090053663 0 0 0 0 -1422.4832155553613 -331.88888974747533 0 -331.88888974747533 -286.81366456497926 0 0 0 0 190.46001205490097 -371.94484785109307 0 -371.94484785109307 719.07645594479982 0 0 0 0 -8.2237790796807531 -58.524616256272566 0 -58.524616256272566 167.30147494040648 0 0 0 0 -38.731661588743464 -124.66272702535571 0 -124.66272702535571 476.60953812635853 0 0 0 0 -95.3863069691688 234.55872556075701 0 234.55872556075701 -118.78835759795038 0 0 0 0 -57.940418952383709 -40.054187629567423 0 -40.054187629567423 178.06569787605258 0 0 0 0 102.5202039720532 185.64073058097711 0 185.64073058097711 426.45629185944563 0 0 0 0 0.64503129715168606 -1.8666129020873612 0 -1.8666129020873612 10.735864623659239 0 0 0 0 1268.3462075357404 -651.1256926363094 0 -651.1256926363094 160.88532734110777 0 0 0 0 415.4997191811558 22.161804254428716 0 22.161804254428716 122.12738811894815 0 0 0 0 859.21246142673033 -590.65435327357045 0 -590.65435327357045 214.10434949757473 0 0 0 0 960.81080741447272 -420.5210952553025 0 -420.5210952553025 384.80821899707371 0 0 0 0 584.43372829732766 -313.69630929904815 0 -313.69630929904815 135.51500672757174 0 0 0 0 898.84024535970025 -709.711267157576 0 -709.711267157576 447.42228574980254 0 0 0 0 678.50355779917777 110.67271730599168 0 110.67271730599168 742.46944325434197 0 0 0 0 1015.0461029059122 -476.90665825824544 0 -476.90665825824544 234.59082354953716 0 0 0 0 518.11623579603315 87.115759567343048 0 87.115759567343048 175.24663065546883 0 0 0 0 525.32194525732075 -223.8944163664637 0 -223.8944163664637 125.28386974451132 0 0 0 0 281.34468183998297 1.8537818727418198 0 1.8537818727418198 52.482766457781509 0 0 0 0 313.43471787646877 -84.703968753852678 0 -84.703968753852678 68.989996306838293 0 0 0 0 691.11055547487615 -252.1057898324143 0 -252.1057898324143 -2.809988332024659 0 0 0 0 512.13822715314791 -196.39094959841168 0 -196.39094959841168 -17.136833143820695 0 0 0 0 511.71184200378957 -224.227848417926 0 -224.227848417926 -71.835856240075373 0 0 0 0 444.91364165571622 -216.13845359988773 0 -216.13845359988773 115.88040762692253 0 0 0 0 485.32745468219684 -327.06825953499811 0 -327.06825953499811 171.88249921216629 0 0 0 0 167.1850657207342 -182.65949879047184 0 -182.65949879047184 113.83132737235792 0 0 0 0 167.37650743287486 -183.38352970172855 0 -183.38352970172855 108.02944553802809 0 0 0 0 70.899647291532347 -202.17580785656901 0 -202.17580785656901 39.446252372037634 0 0 0 0 357.85485893498458 -91.496639463824977 0 -91.496639463824977 -133.02457679811778 0 0 0 0 112.26500702092028 -46.258307048458846 0 -46.258307048458846 -95.659441714946297 0 0 0 0 0.54753641412235687 0.41115549827443942 0 0.41115549827443942 0.89704545307827743 0 0 0 0 40.628754162678888 -17.822503069866798 0 -17.822503069866798 -90.225246701894321 0 0 0 0 834.46808387851047 -457.94284132615212 0 -457.94284132615212 137.09993976213445 0 0 0 0 510.07900922525846 -212.65812486717186 0 -212.65812486717186 28.353782543199486 0 0 0 0 483.19585341637338 -240.38604112920439 0 -240.38604112920439 19.697920193386381 0 0 0 0 478.94756530189943 -259.47625315223559 0 -259.47625315223559 -39.932865810507792 0 0 0 0 467.36739554891824 -211.76526678496157 0 -211.76526678496157 -22.268804096056556 0 0 0 0 479.15185070451707 -183.24486346140839 0 -183.24486346140839 46.581216157355811 0 0 0 0 186.17380163477884 -120.3549655473762 0 -120.3549655473762 79.152986177728963 0 0 0 0 -2.8184033587344852 23.931957337464127 0 23.931957337464127 39.498030463747597 0 0 0 0 215.52762401457505 -43.229499750718787 0 -43.229499750718787 51.908193182272953 0 0 0 0 365.65384330751203 -298.49038982701859 0 -298.49038982701859 218.0954195184022 0 0 0 0 357.64450252325594 -232.55709295134147 0 -232.55709295134147 205.75158725661367 0 0 0 0 742.05391831546365 -1931.3029514261334 0 -1931.3029514261334 3874.7136206093492 0 0 0 0 -2.0039598062942314 14.568075594835875 0 14.568075594835875 30.048015689941437 0 0 0 0 560.71895904926691 -1512.4887126471494 0 -1512.4887126471494 3050.8662496777106 0 0 0 0 1490.2724846019382 -2683.3819185492684 0 -2683.3819185492684 4057.581348490281 0 0 0 0 -6.2102007085557878 -2.2427572173103982 0 -2.2427572173103982 11.1148627170993 0 0 0 0 -1.0348019787224627 3.9375037670733519 0 3.9375037670733519 14.142909134047386 0 0 0 0 614.38128065646652 -570.75719454572754 0 -570.75719454572754 514.88759948141524 0 0 0 0 1500.3887833455938 -2724.7614966556612 0 -2724.7614966556612 4146.1214405829305 0 0 0 0 873.74600611537221 -1416.489737678472 0 -1416.489737678472 3540.7687572700379 0 0 0 0 688.68357947377785 -425.63686172831876 0 -425.63686172831876 644.24281458715268 0 0 0 0 851.22192432135353 221.23952019810349 0 221.23952019810349 -17.374903360381722 0 0 0 0 708.98961621663238 -618.14377558701744 0 -618.14377558701744 439.54238528991118 0 0 0 0 389.71711063124951 -474.05117395070556 0 -474.05117395070556 508.45779059462075 0 0 0 0 672.64948163311533 -490.17191482673661 0 -490.17191482673661 131.65335523882095 0 0 0 0 -765.69041524189447 -357.97365511445969 0 -357.97365511445969 4382.1381231139385 0 0 0 0 -974.30559608116153 -238.68227651659254 0 -238.68227651659254 5486.7400872137514 0 0 0 0 -772.04296594392656 -306.10122565660276 0 -306.10122565660276 4115.7520100896363 0 0 0 0 -407.36350697715898 1051.4762837845483 0 1051.4762837845483 3089.6886156519759 0 0 0 0 -300.44601580255107 1018.6785531038622 0 1018.6785531038622 2540.9700140595669 0 0 0 0 -278.67315130351108 550.42452132070321 0 550.42452132070321 2831.9243720221057 0 0 0 0 -244.39878742313522 458.72573279270728 0 458.72573279270728 2007.3062269803486 0 0 0 0 423.07530707505362 908.43746071592432 0 908.43746071592432 1148.055284870672 0 0 0 0 114.68816099803701 561.8473654379718 0 561.8473654379718 1169.6879102249513 0 0 0 0 118.59106913596634 -16.689820275089005 0 -16.689820275089005 -55.958136973553337 0 0 0 0 -809.46693226040168 -180.53362160792312 0 -180.53362160792312 400.97853735933313 0 0 0 0 -344.97291555791026 148.95625038590515 0 148.95625038590515 183.04062905663159 0 0 0 0 296.31728941821075 24.084913524333388 0 24.084913524333388 429.80986831532209 0 0 0 0 9.4014501350047794 -55.670623536498169 0 -55.670623536498169 300.99563387103262 0 0 0 0 29.437469158760848 175.1303117495363 0 175.1303117495363 1250.1323670779238 0 0 0 0 -48.345305951780119 173.67776172558661 0 173.67776172558661 1522.0724401809857 0 0 0 0 -35.65097988626718 295.29361843755123 0 295.29361843755123 1308.059703922976 0 0 0 0 513.03087783943465 -28.192811498360243 0 -28.192811498360243 328.10423595938482 0 0 0 0 289.97922487458948 137.28069227011656 0 137.28069227011656 638.56378669667174 0 0 0 0 431.05767785379794 -32.666760185966268 0 -32.666760185966268 144.97956481139408 0 0 0 0 488.55040424407434 64.085232995596016 0 64.085232995596016 307.32895844322047 0 0 0 0 341.72041998671011 -248.44559131932328 0 -248.44559131932328 658.64877077791607 0 0 0 0 346.89484246078018 -219.77186243957476 0 -219.77186243957476 75.483899799408391 0 0 0 0 349.03748262404679 -492.42156675866136 0 -492.42156675866136 371.56113955850014 0 0 0 0 118.17733151146876 -229.55362185151898 0 -229.55362185151898 1479.1067760790611 0 0 0 0 329.27337713973702 -517.45013630622998 0 -517.45013630622998 564.50486552795337 0 0 0 0 7.8243926592667776 -216.30038630391937 0 -216.30038630391937 1483.7143145960326 0 0 0 0 -77.068250658795932 -605.78868314297142 0 -605.78868314297142 2656.5879518725997 0 0 0 0 -227.20013648594204 -111.47098672302673 0 -111.47098672302673 2828.1080558893154 0 0 0 0 -377.97233903371125 -842.19232996596838 0 -842.19232996596838 3892.0636117201793 0 0 0 0 -423.23190685674308 -376.31795953102119 0 -376.31795953102119 2729.1968430476772 0 0 0 0 -183.47294292276001 -701.72563503425044 0 -701.72563503425044 2621.8420207547497 0 0 0 0 406.28976464655534 -312.96923245027574 0 -312.96923245027574 1335.2492218932166 0 0 0 0 513.85538554954064 -1070.0994985562138 0 -1070.0994985562138 2001.1205299985522 0 0 0 0 92.916298797151683 -212.30543230151306 0 -212.30543230151306 1378.8432166362254 0 0 0 0 329.26909951099748 -510.93321270246452 0 -510.93321270246452 922.75662707255833 0 0 0 0 -3.314052822838331 25.300594051918495 0 25.300594051918495 45.787807257685643 0 0 0 0 -284.31622617106405 -145.00246088457061 0 -145.00246088457061 177.3482547221065 0 0 0 0 -3.8826162475745516 8.0165726910231498 0 8.0165726910231498 5.4471279070015726 0 0 0 0 48.650319302593516 58.665906132187956 0 58.665906132187956 68.943273935590696 0 0 0 0 88.310514770585314 -80.844066540899803 0 -80.844066540899803 106.09971569721529 0 0 0 0 418.50418264861878 -795.92363125747215 0 -795.92363125747215 2390.6191683052457 0 0 0 0 276.65216618605643 -1181.6250552363636 0 -1181.6250552363636 3279.6759526829701 0 0 0 0 -246.743957522698 -1725.0204698723937 0 -1725.0204698723937 4780.5402690231895 0 0 0 0 723.09109914592909 -1352.0548833505163 0 -1352.0548833505163 3247.6300059102214 0 0 0 0 430.1730360750164 -1132.6782564446476 0 -1132.6782564446476 3830.4451336027123 0 0 0 0 244.61175698812849 -2128.3978912298262 0 -2128.3978912298262 5545.1131201295648 0 0 0 0 -121.84798178076835 -1106.8477391822307 0 -1106.8477391822307 3747.0766758036643 0 0 0 0 -118.77891249688037 -1212.4935874879411 0 -1212.4935874879411 3706.767615087374 0 0 0 0 -230.08074980039828 -1586.8753618960254 0 -1586.8753618960254 4402.3196581345837 0 0 0 0 -663.37639155320949 -1012.4655306313143 0 -1012.4655306313143 3795.7839730328196 0 0 0 0 -828.68192897975268 -1403.1222705091859 0 -1403.1222705091859 5128.105172969932 0 0 0 0 -868.0002882076443 -1249.0611879764401 0 -1249.0611879764401 4627.3852823230536 0 0 0 0 -877.17424835309828 -1393.0140236233856 0 -1393.0140236233856 4657.5320456113623 0 0 0 0 -633.80061640034046 -1276.3702392579189 0 -1276.3702392579189 4641.2115456493921 0 0 0 0 -830.31141029818718 -1668.2217688136079 0 -1668.2217688136079 5779.6024882520724 0 0 0 0 -825.53627614859693 -442.70975539107894 0 -442.70975539107894 1989.6360482162709 0 0 0 0 6.5563860896742607 -31.389648518744636 0 -31.389648518744636 40.542099430047813 0 0 0 0 -531.54896101095551 -826.06486623215551 0 -826.06486623215551 1655.2918264586187 0 0 0 0 -474.00593266371334 364.68009122751391 0 364.68009122751391 3632.3308188730553 0 0 0 0 -961.81849680288769 -108.52051628422487 0 -108.52051628422487 890.87305643445688 0 0 0 0 4.080107488316699 -15.76755103382763 0 -15.76755103382763 21.044884915263538 0 0 0 0 -610.31585716644588 497.43431404959847 0 497.43431404959847 7928.3529085988994 0 0 0 0 -540.17726275129417 -3500.4737017354782 0 -3500.4737017354782 -595.90252993634931 0 0 0 0 -484.24259423776181 -2847.3306870037968 0 -2847.3306870037968 3587.4957922277608 0 0 0 0 2.7814899163245173 -1513.1180632102332 0 -1513.1180632102332 2343.6962777344997 0 0 0 0 -1017.7419670243792 -897.83801157668677 0 -897.83801157668677 4121.6256594447987 0 0 0 0 -1118.469817289345 -780.26626831274916 0 -780.26626831274916 4067.4603144273133 0 0 0 0 -1879.6620480140916 -767.12418684579825 0 -767.12418684579825 5499.3091342518601 0 0 0 0 -1665.0557205893742 58.798136525854716 0 58.798136525854716 4135.4762274699169 0 0 0 0 -1600.8373723098946 -738.68382694567845 0 -738.68382694567845 4598.0736793374235 0 0 0 0 -1108.1540475465285 -30.391795872237708 0 -30.391795872237708 5500.7264112014063 0 0 0 0 1408.2194513344202 -2323.7845241097093 0 -2323.7845241097093 3832.7020535827105 0 0 0 0 1137.9142894766817 -2336.1442598914873 0 -2336.1442598914873 3850.2166224918401 0 0 0 0 1553.4661041893089 -1989.848995201786 0 -1989.848995201786 3031.8701534748252 0 0 0 0 -10.618621473223739 -4.9271525028510723 0 -4.9271525028510723 13.263604080450392 0 0 0 0 1554.0029821655155 -1895.1304370790938 0 -1895.1304370790938 3811.752045797708 0 0 0 0 1051.9854671745538 -1980.8137257691342 0 -1980.8137257691342 3360.3318186210272 0 0 0 0 -246.1735604958568 -1580.5582680148254 0 -1580.5582680148254 3239.187801228145 0 0 0 0 80.94302662070038 -1876.5094150739678 0 -1876.5094150739678 3919.393275243543 0 0 0 0 316.55172499608176 -1628.2087934198444 0 -1628.2087934198444 3711.459958712534 0 0 0 0 606.69367539468703 -2176.15804306464 0 -2176.15804306464 4691.5890820358691 0 0 0 0 -923.08073533865468 -1206.8677158690407 0 -1206.8677158690407 4899.6058571852045 0 0 0 0 -268.56379341110835 -1861.5031363034723 0 -1861.5031363034723 5499.2781601035967 0 0 0 0 -116.6136139956584 -1597.6141536900641 0 -1597.6141536900641 4593.443455602006 0 0 0 0 716.80649641835976 -2481.9641603108375 0 -2481.9641603108375 5498.474330872079 0 0 0 0 1576.6236512641694 -2695.1465360316024 0 -2695.1465360316024 4375.8919651122596 0 0 0 0 808.70596598527379 -2374.053744402263 0 -2374.053744402263 4984.1888131453525 0 0 0 0 1839.2283078749349 -3083.6973409271814 0 -3083.6973409271814 4875.6646830187819 0 0 0 0 1275.8791764289315 -2890.745232326246 0 -2890.745232326246 5501.5846835853663 0 0 0 0 1672.1391050371353 -3586.1217651491702 0 -3586.1217651491702 4106.9507008056353 0 0 0 0 2830.7110690944987 -3480.6108870868666 0 -3480.6108870868666 2543.0411580705695 0 0 0 0 -5.8731516983061676 -5.9280761479505486 0 -5.9280761479505486 9.4172112287776315 0 0 0 0 1651.3012848907697 -2788.0095297318512 0 -2788.0095297318512 4413.5593129036897 0 0 0 0 12.982970603772012 -17.590160498199708 0 -17.590160498199708 46.837856415971494 0 0 0 0 1737.2393479287787 3379.7565863491773 0 3379.7565863491773 5490.8846057876235 0 0 0 0 5295.1209906570793 -4298.929966706979 0 -4298.929966706979 1649.0144376156568 0 0 0 0 979.95864609284399 -4440.0435927936014 0 -4440.0435927936014 5488.7021949356731 0 0 0 0 1807.135892522977 -1530.4966309262927 0 -1530.4966309262927 -321.22993103899353 0 0 0 0 -141.40154050094134 165.71345837451372 0 165.71345837451372 433.94621180245485 0 0 0 0 1552.403253175512 -1212.506496105414 0 -1212.506496105414 1313.7002659068166 0 0 0 0 -95.236905434489017 330.80574061573861 0 330.80574061573861 1501.4768176348439 0 0 0 0 297.67666183658599 576.35723546505415 0 576.35723546505415 738.08710198073823 0 0 0 0 117.95636078858297 8.8085367606181535 0 8.8085367606181535 297.6695064360465 0 0 0 0 65.996081388909261 289.21024503687659 0 289.21024503687659 867.65019570159347 0 0 0 0 -92.712776652486355 189.33488331467379 0 189.33488331467379 874.80544803933208 0 0 0 0 -10.84458007932246 -7.9475853791541624 0 -7.9475853791541624 10.823468225398997 0 0 0 0 1710.1630571456722 -2516.1714717296381 0 -2516.1714717296381 3017.7209561193959 0 0 0 0 1852.7295505544612 -1590.7432612935627 0 -1590.7432612935627 2809.9575110973528 0 0 0 0 1287.9736494982239 -1089.9296825662859 0 -1089.9296825662859 2371.6589746986419 0 0 0 0 -2.6406288740541708 1.4639549839148316 0 1.4639549839148316 11.917625812852151 0 0 0 0 309.38390227688649 309.71029728789006 0 309.71029728789006 36.406644752220018 0 0 0 0 813.31339270532681 -1799.163161625147 0 -1799.163161625147 2769.6892300357213 0 0 0 0 1717.9702412714341 -2195.2323031692831 0 -2195.2323031692831 1747.5857486569803 0 0 0 0 1542.3738242605937 -1909.0718869882694 0 -1909.0718869882694 2838.7967398159853 0 0 0 0 2.8540957051048577 -2.6971382745117189 0 -2.6971382745117189 6.39164232815844 0 0 0 0 6.5095295738283312 37.5136039781828 0 37.5136039781828 1661.6235465170764 0 0 0 0 1720.4975025182782 -1168.9888858770464 0 -1168.9888858770464 569.20295536339108 0 0 0 0 -1.9450557218884719 0.13691912019392305 0 0.13691912019392305 22.304249852924613 0 0 0 0 3.4943638141899172 -2.6434883718475319 0 -2.6434883718475319 5.6911612237147438 0 0 0 0 7.5459107627152662 -38.481771685554122 0 -38.481771685554122 21.55354300064937 0 0 0 0 5.5280567321392553 -14.464514955600727 0 -14.464514955600727 30.121398238539626 0 0 0 0 -42.838955615471718 -38.745374520836776 0 -38.745374520836776 42.07202300742938 0 0 0 0 27.214007147007351 -31.63728279796851 0 -31.63728279796851 12.491689810689422 0 0 0 0 17.890307125592699 -31.312427326323814 0 -31.312427326323814 12.589401872406597 0 0 0 0 0.91335688395702164 -63.841143978661421 0 -63.841143978661421 54.763490384699253 0 0 0 0 -142.90764392461369 10.805049544444046 0 10.805049544444046 65.12132546306384 0 0 0 0 16.333373346948974 -161.78134741026224 0 -161.78134741026224 65.209330077325376 0 0 0 0 93.669465235687312 -81.678466963479877 0 -81.678466963479877 30.6154290901286 0 0 0 0 187.97573501776606 51.431049190319754 0 51.431049190319754 139.77483479060174 0 0 0 0 184.35584611547256 84.126346945735349 0 84.126346945735349 232.0475663785619 0 0 0 0 -225.84140822659992 -78.064006183811216 0 -78.064006183811216 349.99774262197025 0 0 0 0 42.416123099485048 -35.052247881663789 0 -35.052247881663789 234.47627834605851 0 0 0 0 44.259919235912321 -41.816670952561253 0 -41.816670952561253 -50.394440726784524 0 0 0 0 55.523212741266434 -0.18694623104238417 0 -0.18694623104238417 -4.3638412277796306 0 0 0 0 -10.324164633959299 90.091116171250178 0 90.091116171250178 -69.286595202720491 0 0 0 0 111.82634759148641 21.795201601344161 0 21.795201601344161 -6.8297375937108882 0 0 0 0 35.321569324768461 -25.978331632511981 0 -25.978331632511981 8.3989578501059441 0 0 0 0 43.56818469341988 -7.787094700113812 0 -7.787094700113812 2.7688751956884516 0 0 0 0 9.3052889687733114 -10.29669867575285 0 -10.29669867575285 8.6099465924271499 0 0 0 0 -23.931089030384101 -20.832459076809755 0 -20.832459076809755 61.899315924441908 0 0 0 0 26.59003986634707 10.829636505975941 0 10.829636505975941 -8.3202393549800036 0 0 0 0 -11.916833359580778 26.100891999260057 0 26.100891999260057 10.656951437733369 0 0 0 0 3.5166227250265365 9.8807369056448806 0 9.8807369056448806 17.496530231135694 0 0 0 0 1.8738353251537774 -11.094638255148311 0 -11.094638255148311 41.006888761679875 0 0 0 0 -35.08470521361096 -6.9235975196279469 0 -6.9235975196279469 55.898995346316951 0 0 0 0 -36.38645534740499 14.010184411330556 0 14.010184411330556 31.450929928949336 0 0 0 0 -10.49032028170177 -45.306605960155139 0 -45.306605960155139 124.97039473730547 0 0 0 0 -1.6481012254276877 -18.318836368982033 0 -18.318836368982033 18.899459434839571 0 0 0 0 10.305980512675887 0.18021288338059094 0 0.18021288338059094 31.242333206348121 0 0 0 0 1.3345195566159802 -10.800351943195722 0 -10.800351943195722 -6.4691020903032168 0 0 0 0 1.9275022188685398 -49.161635585594922 0 -49.161635585594922 93.064961899952323 0 0 0 0 8.4290235258959001 -69.37679544929415 0 -69.37679544929415 121.51878900890006 0 0 0 0 43.73931245732183 -56.06028108530154 0 -56.06028108530154 43.385845969336515 0 0 0 0 8.1871879153728813 -10.410511926983702 0 -10.410511926983702 -2.4258537254309047 0 0 0 0 14.301182030958444 -18.379360243055999 0 -18.379360243055999 19.38543271272647 0 0 0 0 3.11817788337612 -61.408218302916794 0 -61.408218302916794 87.24109445906106 0 0 0 0 10.317315830985535 -23.986351688901777 0 -23.986351688901777 12.965225008199923 0 0 0 0 -56.060570911217837 -59.509478376727202 0 -59.509478376727202 15.111822083683364 0 0 0 0 -174.71861972903389 -177.54200861405116 0 -177.54200861405116 -214.78103913186351 0 0 0 0 -282.30763392189147 -38.625958949691267 0 -38.625958949691267 57.046100048475637 0 0 0 0 0.34038405937059935 -3.0671764144157976 0 -3.0671764144157976 3.6728129343024705 0 0 0 0 -66.961344227913287 -216.05685239995364 0 -216.05685239995364 -66.012770910318068 0 0 0 0 -44.389165140538353 -52.12215757114609 0 -52.12215757114609 -140.85592926513345 0 0 0 0 114.3766247394686 -145.77577673146789 0 -145.77577673146789 -49.838548269268358 0 0 0 0 33.0966965857167 -21.494139527658263 0 -21.494139527658263 8.1893023058073595 0 0 0 0 -66.188487603643807 -81.102893550138106 0 -81.102893550138106 -27.580737692085677 0 0 0 0 3.8180590864253645 -30.919234219558348 0 -30.919234219558348 14.574635923738242 0 0 0 0 14.336718217046382 -25.573428197647445 0 -25.573428197647445 11.206783375542727 0 0 0 0 6.2685831937915157 -15.684637730623301 0 -15.684637730623301 23.9792925356588 0 0 0 0 7.3632575654718568 -25.439250229081566 0 -25.439250229081566 131.7932009469408 0 0 0 0 9.4427712680677018 -41.85879132311311 0 -41.85879132311311 46.949162881806842 0 0 0 0 19.831094253727315 -89.436381097550111 0 -89.436381097550111 346.5201450783934 0 0 0 0 -0.85374094445469606 -15.985578502621081 0 -15.985578502621081 28.727188216126503 0 0 0 0 30.822805944411694 -39.967625250463456 0 -39.967625250463456 35.774917507201593 0 0 0 0 -366.50147594427654 -79.432544288764802 0 -79.432544288764802 -121.99921275704037 0 0 0 0 22.844366777535026 -5.9168885057504319 0 -5.9168885057504319 -30.645532197526357 0 0 0 0 16.585509598625322 -44.77860029959993 0 -44.77860029959993 238.95406630403522 0 0 0 0 72.828011770974626 35.148427705579707 0 35.148427705579707 103.38767933110648 0 0 0 0 14.628518935098192 -37.985518728208859 0 -37.985518728208859 33.207067402244554 0 0 0 0 24.759777544518141 -49.841364828289628 0 -49.841364828289628 133.70018474375695 0 0 0 0 13.79575773975921 -13.297287867851992 0 -13.297287867851992 35.674447952347691 0 0 0 0 15.365273758572584 -10.946324473552522 0 -10.946324473552522 39.177078821296163 0 0 0 0 -0.73342153381024744 -1.6085882084873457 0 -1.6085882084873457 31.79816844857173 0 0 0 0 -30.482647734697593 -63.744814524156936 0 -63.744814524156936 141.98541638511915 0 0 0 0 -15.057624965513696 -26.141494835497724 0 -26.141494835497724 235.98646107898867 0 0 0 0 -1.4930023941930823 6.4216613915990184 0 6.4216613915990184 31.561884816390403 0 0 0 0 -17.440988222177111 -47.004804006654012 0 -47.004804006654012 121.95806742792411 0 0 0 0 -14.897760619366892 -19.675668598293328 0 -19.675668598293328 202.93107528384644 0 0 0 0 -9.0144721899098386 -60.90717786395453 0 -60.90717786395453 193.4226297390469 0 0 0 0 10.227433762805504 4.7344018943467745 0 4.7344018943467745 97.72950345010986 0 0 0 0 35.664242329581683 -32.093520687099954 0 -32.093520687099954 31.561168717111286 0 0 0 0 7.2515173315371459 -30.436854653480015 0 -30.436854653480015 65.466351427017685 0 0 0 0 -34.663568629409269 -26.668771111901776 0 -26.668771111901776 163.62276321339414 0 0 0 0 -27.870692298891857 -95.395902453208691 0 -95.395902453208691 83.936684205735219 0 0 0 0 19.068668105398046 -12.276895050315943 0 -12.276895050315943 48.934870282173506 0 0 0 0 -22.834082079020931 -50.640087444442997 0 -50.640087444442997 71.839701992488699 0 0 0 0 4.8577339398015589 -25.433731105827892 0 -25.433731105827892 67.563577438720358 0 0 0 0 40.628510476340921 -66.469730504002655 0 -66.469730504002655 102.25288327685848 0 0 0 0 15.540285962106907 -83.561998415920243 0 -83.561998415920243 98.311955663646586 0 0 0 0 -0.23938991276029498 -55.613863309685257 0 -55.613863309685257 156.40589707953768 0 0 0 0 42.86208573481224 -97.47967003321537 0 -97.47967003321537 176.79883534380497 0 0 0 0 17.150115766776253 -5.5812193933088565 0 -5.5812193933088565 60.53899268749683 0 0 0 0 -15.142417482219344 -29.823762045345575 0 -29.823762045345575 50.656867235484242 0 0 0 0 186.85563178231996 -95.187676070992893 0 -95.187676070992893 62.747419635052211 0 0 0 0 60.816105751923942 97.465818804928858 0 97.465818804928858 -3.8751126715214923 0 0 0 0 59.267361444197547 -42.617465516457742 0 -42.617465516457742 45.854275373902055 0 0 0 0 1.3843195469032707 -41.741946569745778 0 -41.741946569745778 51.921192170691938 0 0 0 0 -8.5663352078063326 -54.565789986911113 0 -54.565789986911113 91.628523922440763 0 0 0 0 2.1766643287038492 -32.50904516971022 0 -32.50904516971022 83.784791427922073 0 0 0 0 -167.15573730551057 37.587459507867607 0 37.587459507867607 98.896113031842106 0 0 0 0 -94.452616556007342 26.177884832624841 0 26.177884832624841 47.058859047159785 0 0 0 0 112.03667746651263 98.90679320446543 0 98.90679320446543 137.85301135073678 0 0 0 0 -4.4918042339518589 -5.7101562289408676 0 -5.7101562289408676 47.377173318666621 0 0 0 0 25.838032505125739 29.297903736602166 0 29.297903736602166 139.33329143824085 0 0 0 0 -17.221871638012626 -0.67359097384621691 0 -0.67359097384621691 29.581500584121059 0 0 0 0 -11.939620718598498 -21.493515072069158 0 -21.493515072069158 20.657576177255685 0 0 0 0 -50.594646969440873 -55.266258392537566 0 -55.266258392537566 179.61092491675845 0 0 0 0 4.2023640162551601 -125.63797967403661 0 -125.63797967403661 638.75024706251861 0 0 0 0 -1.8580056990928142 -14.430662273465714 0 -14.430662273465714 36.550153644835518 0 0 0 0 16.439484211081435 -84.907055810559541 0 -84.907055810559541 350.44449219599483 0 0 0 0 -13.527599646279681 -10.385580145031639 0 -10.385580145031639 45.520889659931001 0 0 0 0 -117.22162110950012 37.581524408560654 0 37.581524408560654 181.38424357280746 0 0 0 0 -213.03747518621094 -44.872849365703587 0 -44.872849365703587 205.38206857914338 0 0 0 0 -154.65810208131916 -75.126484306223574 0 -75.126484306223574 208.50786044609777 0 0 0 0 25.467818273321832 -78.899426831162458 0 -78.899426831162458 168.2633350372808 0 0 0 0 -137.5532059825486 144.66670662818842 0 144.66670662818842 278.94813930218515 0 0 0 0 -30.352442287068698 -45.148160203309089 0 -45.148160203309089 294.29430175973357 0 0 0 0 49.846879836277367 126.74730809594621 0 126.74730809594621 205.23002908598573 0 0 0 0 1.412379201769614 -1.553653015807015 0 -1.553653015807015 15.283252580789991 0 0 0 0 947.38813519170071 709.60657347807319 0 709.60657347807319 -104.50289887269901 0 0 0 0 413.57890313088501 -80.34527909312601 0 -80.34527909312601 33.320358638651669 0 0 0 0 -440.00580062732843 -191.89449418451113 0 -191.89449418451113 195.1176490052585 0 0 0 0 52.411028696080393 216.69605531133493 0 216.69605531133493 281.72828515997389 0 0 0 0 -1159.579493782514 -607.63611977483379 0 -607.63611977483379 339.47518907337508 0 0 0 0 781.40823327679209 -799.21465115110914 0 -799.21465115110914 -36.655859312099892 0 0 0 0 -4.786949267822596 -2.2619856303700914 0 -2.2619856303700914 24.362517582038222 0 0 0 0 -192.00130044113757 57.513376422437432 0 57.513376422437432 -131.79224284677184 0 0 0 0 -704.78142670176021 62.382219987695862 0 62.382219987695862 -600.78604122081742 0 0 0 0 -718.34457299717178 -419.69012227858184 0 -419.69012227858184 384.95779431099072 0 0 0 0 -287.97432042898799 164.18604895677709 0 164.18604895677709 131.03236561329686 0 0 0 0 -366.8350523093286 -312.20716299091146 0 -312.20716299091146 -209.42496337375451 0 0 0 0 -51.224163983859398 -127.84657221624002 0 -127.84657221624002 716.96294989246076 0 0 0 0 94.479665774456407 310.48613533026582 0 310.48613533026582 728.56082113028242 0 0 0 0 1007.0868738529534 26.156132416639593 0 26.156132416639593 464.29685445789073 0 0 0 0 133.24266551556775 167.250440784072 0 167.250440784072 99.601507598747048 0 0 0 0 10.459996292666844 2.1419734962740655 0 2.1419734962740655 -3.7039808171715123 0 0 0 0 -28.797421838933936 15.017659297542883 0 15.017659297542883 70.642044852058248 0 0 0 0 2.8386518132247147 -507.22987642328007 0 -507.22987642328007 -21.929410901204392 0 0 0 0 389.27189517609531 -124.15032168334346 0 -124.15032168334346 -92.220603475849202 0 0 0 0 200.27433863646593 -19.469626282747413 0 -19.469626282747413 -79.080977092460671 0 0 0 0 -252.56947412007139 -320.00757777258241 0 -320.00757777258241 79.280629024477093 0 0 0 0 54.982687170155259 -88.651262442228472 0 -88.651262442228472 -91.918024479416317 0 0 0 0 67.800329689993532 -7.0786742816344486 0 -7.0786742816344486 -14.813474430335191 0 0 0 0 18.877425192255032 -11.993731172347907 0 -11.993731172347907 -14.806698902569451 0 0 0 0 -13.657988362841934 -14.751847183877544 0 -14.751847183877544 88.264175199488818 0 0 0 0 -73.008296944876747 -76.851501905856367 0 -76.851501905856367 26.771339902632462 0 0 0 0 -6.261867916783558 -73.915132904491884 0 -73.915132904491884 2.225600125048004 0 0 0 0 -76.103916499441311 29.247665752389366 0 29.247665752389366 62.73745902990413 0 0 0 0 -41.029129915874364 -22.738751058079288 0 -22.738751058079288 115.12747712214332 0 0 0 0 28.241625789371483 37.796266760018625 0 37.796266760018625 -65.539095966851164 0 0 0 0 -71.952990415505838 -104.66480216563104 0 -104.66480216563104 313.35416417897795 0 0 0 0 -4.3809022633085988 44.137247544509592 0 44.137247544509592 273.96341560842848 0 0 0 0 -375.67582780512794 -282.04114469021988 0 -282.04114469021988 254.69561967667323 0 0 0 0 168.90631421013268 80.39652076000209 0 80.39652076000209 581.89325762710155 0 0 0 0 -4.6898080173869445 47.606252981976169 0 47.606252981976169 48.489694058331722 0 0 0 0 -157.22423257382707 164.9798165217403 0 164.9798165217403 1299.2387052146278 0 0 0 0 -569.42199625190551 -178.65619257847356 0 -178.65619257847356 280.69972843292965 0 0 0 0 325.74956437895662 -15.141492668837827 0 -15.141492668837827 157.60440309630394 0 0 0 0 -252.91489877070421 -104.23642234913279 0 -104.23642234913279 1365.8816480156115 0 0 0 0 -220.11138309001853 186.41203798297988 0 186.41203798297988 1414.487511965197 0 0 0 0 -320.64418307899268 656.43539313821589 0 656.43539313821589 2979.5453478656418 0 0 0 0 -338.23392270354475 125.08024174858542 0 125.08024174858542 2595.1286612110298 0 0 0 0 -48.342638813494659 -165.58128174753796 0 -165.58128174753796 1871.9142191246776 0 0 0 0 -101.1053958876563 -350.61324155337377 0 -350.61324155337377 1520.1237031093531 0 0 0 0 -889.91488974732783 1153.3440054913772 0 1153.3440054913772 1199.5466517052846 0 0 0 0 1008.6465300533655 -315.94285234701056 0 -315.94285234701056 -457.92928033575299 0 0 0 0 -1402.1746507181579 -123.93817099153603 0 -123.93817099153603 699.6522235224802 0 0 0 0 95.167320609769604 -282.93955063695148 0 -282.93955063695148 613.3402868578637 0 0 0 0 -107.30595901002323 -73.423745365672971 0 -73.423745365672971 451.94328403662212 0 0 0 0 7.1313941092150985 -43.249527772016684 0 -43.249527772016684 148.13982430882538 0 0 0 0 485.80514083470308 712.06009149115971 0 712.06009149115971 906.8273904488351 0 0 0 0 276.63572104348003 760.71405194797103 0 760.71405194797103 2124.9658563428984 0 0 0 0 -1349.373299462402 -1224.0887789592725 0 -1224.0887789592725 550.41094336531387 0 0 0 0 15.640892371179454 -45.530832129672334 0 -45.530832129672334 114.6993700884959 0 0 0 0 272.51615999889975 1141.1113908750294 0 1141.1113908750294 2069.398966830141 0 0 0 0 -340.90848177399062 1795.2875811799001 0 1795.2875811799001 5500.1818264980138 0 0 0 0 -410.05190830368474 14.356429701476657 0 14.356429701476657 2639.2550232654935 0 0 0 0 -729.45502704343573 541.65645053733283 0 541.65645053733283 4208.2107917826715 0 0 0 0 -728.02073627618438 543.63690797283311 0 543.63690797283311 3040.7099051832383 0 0 0 0 -1089.4255981213239 214.2485509259335 0 214.2485509259335 5499.3905379479938 0 0 0 0 -677.86455015467709 -131.92806227870497 0 -131.92806227870497 4396.0369201001358 0 0 0 0 -676.30923878787962 -117.83696379637195 0 -117.83696379637195 4257.9016313489383 0 0 0 0 -508.58905994761335 100.40192256475922 0 100.40192256475922 4090.35863818902 0 0 0 0 -222.88246301076606 -317.46590459258539 0 -317.46590459258539 2669.7715754135111 0 0 0 0 330.28168074062813 -865.5037889381133 0 -865.5037889381133 2563.6095998583551 0 0 0 0 -140.57128351543247 -702.74340625190757 0 -702.74340625190757 4197.3457094837104 0 0 0 0 -306.63269406659839 -827.35623361908938 0 -827.35623361908938 5498.4339096920539 0 0 0 0 347.75261391790718 -693.19961161319725 0 -693.19961161319725 4476.1975300731683 0 0 0 0 835.66173500858099 -1434.1334014083754 0 -1434.1334014083754 5502.8723916291465 0 0 0 0 374.90387126586108 -1177.9096367174218 0 -1177.9096367174218 4731.5887054477653 0 0 0 0 -227.61336741702871 -258.98490272119307 0 -258.98490272119307 137.5580940297441 0 0 0 0 -385.26616352653275 582.58047182483051 0 582.58047182483051 -371.79126161307795 0 0 0 0 11.730971453700418 37.116529638523183 0 37.116529638523183 41.67914723048019 0 0 0 0 -723.01645546569955 -166.1425522357431 0 -166.1425522357431 94.015511415836954 0 0 0 0 -334.68089373071689 -226.70201382928417 0 -226.70201382928417 598.71691432833541 0 0 0 0 -554.01425697944683 203.4507532831185 0 203.4507532831185 678.97650868755591 0 0 0 0 86.573399759580752 116.89406310937193 0 116.89406310937193 661.66177329492712 0 0 0 0 463.33477846834376 1138.9754118036835 0 1138.9754118036835 1052.0057898365794 0 0 0 0 159.13052048123802 -641.09183366620493 0 -641.09183366620493 -364.5283622307652 0 0 0 0 9.0037418903095841 -9.5659540701700436 0 -9.5659540701700436 11.777440876137817 0 0 0 0 -1199.9253389312735 -992.59146989072906 0 -992.59146989072906 61.689580580732652 0 0 0 0 -1084.6709019467753 -558.9653858948659 0 -558.9653858948659 210.32793505934751 0 0 0 0 447.56572463522934 -2524.3009734882762 0 -2524.3009734882762 -876.06432586253504 0 0 0 0 -268.41470774100458 -288.148415579264 0 -288.148415579264 2660.4015544990607 0 0 0 0 28.162103936612198 -757.35604857295834 0 -757.35604857295834 2165.0999806323116 0 0 0 0 141.03296733591878 -739.9378941206237 0 -739.9378941206237 1090.2182930516099 0 0 0 0 -456.09888031377614 526.731900959021 0 526.731900959021 1252.3837419463816 0 0 0 0 12.596668821730947 49.112154194656611 0 49.112154194656611 53.055429344919787 0 0 0 0 243.49251258831364 -468.28771907986993 0 -468.28771907986993 2534.3309431592588 0 0 0 0 2354.3992186286268 849.12988546014822 0 849.12988546014822 633.48560642168377 0 0 0 0 -514.19607965174612 -31.072700150130004 0 -31.072700150130004 2932.3478685441223 0 0 0 0 -1162.4112503986962 24.559221390161838 0 24.559221390161838 5499.6823709495729 0 0 0 0 -780.3396477914041 489.40549451993866 0 489.40549451993866 4249.7887797149233 0 0 0 0 -641.9547467079002 94.062695387651729 0 94.062695387651729 4136.7899776585255 0 0 0 0 364.47501435059405 961.39249415683662 0 961.39249415683662 2516.4234272691501 0 0 0 0 462.92181819846314 2814.3221334545087 0 2814.3221334545087 3511.3398156913736 0 0 0 0 52.89316917459572 342.99402775538692 0 342.99402775538692 1416.4649678783426 0 0 0 0 -954.222452111606 291.57992724033966 0 291.57992724033966 5707.3044625017501 0 0 0 0 915.31905386266885 665.63596648071689 0 665.63596648071689 5498.8016289746538 0 0 0 0 878.41351825110655 -213.17655189450306 0 -213.17655189450306 9250.5329856122189 0 0 0 0 5.563082065009846 13.086497138569225 0 13.086497138569225 17.749524362690554 0 0 0 0 181.04650546143193 1656.9565698971455 0 1656.9565698971455 -1027.2413461677497 0 0 0 0 78.946665014165262 -100.7583064554874 0 -100.7583064554874 602.9305366006538 0 0 0 0 -30.052706900174599 247.78007255412012 0 247.78007255412012 340.99463340481816 0 0 0 0 -30.869064162633375 285.13791043704862 0 285.13791043704862 1493.2932528090314 0 0 0 0 175.1846493591913 -219.38686780510761 0 -219.38686780510761 745.92258728720299 0 0 0 0 194.93639568582782 3.0521041866595624 0 3.0521041866595624 1528.9043920568802 0 0 0 0 -53.981209814454814 -263.08040257096582 0 -263.08040257096582 1800.3630099755519 0 0 0 0 1.2906161461128782 -2.4951799153720913 0 -2.4951799153720913 -1.6330222731754986 0 0 0 0 217.42909513263339 -220.74219127786728 0 -220.74219127786728 1013.4075985992786 0 0 0 0 -318.18898608659333 -220.88525204886719 0 -220.88525204886719 1774.7145851644309 0 0 0 0 -250.87725357467525 -233.25668229720395 0 -233.25668229720395 2964.9821224638945 0 0 0 0 195.77155710126738 -29.395348043052763 0 -29.395348043052763 1728.6770304978199 0 0 0 0 -1.1701616003169875 2.8665748087842076 0 2.8665748087842076 133.35005603594982 0 0 0 0 7.629565644414015 -3.9644951563132054 0 -3.9644951563132054 125.4601446786437 0 0 0 0 8.5927690582759482 4.0908405066593332 0 4.0908405066593332 115.41474765169551 0 0 0 0 12.418682334682217 -41.947329031587287 0 -41.947329031587287 55.622248236519226 0 0 0 0 -13.761393763626643 -39.553833044750718 0 -39.553833044750718 106.21474546814716 0 0 0 0 128.51188785272296 -28.60998877552629 0 -28.60998877552629 88.785901981356801 0 0 0 0 33.608276790099367 28.152677016427788 0 28.152677016427788 56.064467433672689 0 0 0 0 36.071384364463597 24.569064471848833 0 24.569064471848833 131.37061589412406 0 0 0 0 -3.1934371709433567 19.034769393272654 0 19.034769393272654 146.43997451915493 0 0 0 0 -82.417728302815249 -79.107671588139056 0 -79.107671588139056 600.14114052660716 0 0 0 0 52.865944161389507 -19.251261634890398 0 -19.251261634890398 175.69349007395067 0 0 0 0 59.511926404371025 -5.0856327524998051 0 -5.0856327524998051 193.20381590363831 0 0 0 0 213.9931189927479 -130.58072566492228 0 -130.58072566492228 167.71991242371223 0 0 0 0 61.333315384130401 -212.80605603546428 0 -212.80605603546428 454.21379315296508 0 0 0 0 11.525799850785006 -28.581676251760655 0 -28.581676251760655 302.26262557031077 0 0 0 0 125.65401535731348 -22.605587710342661 0 -22.605587710342661 148.19350443559233 0 0 0 0 69.429908906636456 -93.189784239131768 0 -93.189784239131768 207.87390955318551 0 0 0 0 23.246338739524049 -27.286236985866253 0 -27.286236985866253 150.45322062665946 0 0 0 0 16.657766743431239 -35.019182194060704 0 -35.019182194060704 186.0480258922471 0 0 0 0 53.878454406251876 -53.883389550144784 0 -53.883389550144784 152.26169070807373 0 0 0 0 19.621315757636694 -0.96941649400105234 0 -0.96941649400105234 96.383650961040985 0 0 0 0 73.751050807949468 -14.215896501453244 0 -14.215896501453244 91.695040078833699 0 0 0 0 59.289212379557739 -35.736597888797405 0 -35.736597888797405 147.13940233977701 0 0 0 0 77.859673386836221 -26.008116945566144 0 -26.008116945566144 20.29758703718835 0 0 0 0 70.739955862437569 -39.792216394180286 0 -39.792216394180286 54.246605861073476 0 0 0 0 63.392196460876676 -41.616347881328693 0 -41.616347881328693 82.765236273000482 0 0 0 0 80.247048331028054 -17.814276624834747 0 -17.814276624834747 10.071559933319804 0 0 0 0 61.374059602160287 -35.085977543632907 0 -35.085977543632907 85.519149253872456 0 0 0 0 20.632206782962385 -0.091745437188365031 0 -0.091745437188365031 82.36067583586555 0 0 0 0 29.781511899234829 9.5167112050548894 0 9.5167112050548894 37.36429048559512 0 0 0 0 28.48451620898858 -40.410729140582852 0 -40.410729140582852 33.820308789409992 0 0 0 0 -15.147613731707679 -50.361313701701874 0 -50.361313701701874 2.1131181018572534 0 0 0 0 53.064806554086431 -73.121636174895684 0 -73.121636174895684 32.486415669127382 0 0 0 0 -85.245310605467239 -121.89547034840552 0 -121.89547034840552 127.9457252471534 0 0 0 0 17.054860847799151 -32.815547346073458 0 -32.815547346073458 43.364671357765772 0 0 0 0 -81.856037193938391 -83.929403904185392 0 -83.929403904185392 48.383869907878761 0 0 0 0 -77.164204637935654 -101.01981125238441 0 -101.01981125238441 100.81571305298212 0 0 0 0 -75.990829117272369 -128.08133299959945 0 -128.08133299959945 70.661037803480212 0 0 0 0 26.11002941997765 -64.899404089901509 0 -64.899404089901509 64.731782652897891 0 0 0 0 26.246548451299589 -14.820019792703533 0 -14.820019792703533 70.572841004242946 0 0 0 0 6.6128443803234944 -32.587541540686288 0 -32.587541540686288 82.784702418095549 0 0 0 0 61.437115880613305 -25.288745137444494 0 -25.288745137444494 77.700883234347202 0 0 0 0 49.516259916729155 -29.246193455035609 0 -29.246193455035609 103.96417057769577 0 0 0 0 79.841268833890183 -19.673770294395581 0 -19.673770294395581 105.95185181060515 0 0 0 0 28.116837339934079 2.1383235324410634 0 2.1383235324410634 120.20078915810154 0 0 0 0 67.756428106039067 -10.601480227153843 0 -10.601480227153843 124.18466559966328 0 0 0 0 3.7175785526709895 -6.7848597037178706 0 -6.7848597037178706 20.16894071923668 0 0 0 0 12.240961552289001 1.8505464545791597 0 1.8505464545791597 147.48539728198375 0 0 0 0 11.577311140670986 -24.292294825449062 0 -24.292294825449062 92.499751094688691 0 0 0 0 -4.7188147363667667 -25.190289054662571 0 -25.190289054662571 102.66438615109655 0 0 0 0 14.616677144568371 37.175298187173212 0 37.175298187173212 125.73121975584218 0 0 0 0 0.97666863561159234 -0.68993259358420289 0 -0.68993259358420289 -0.70298419908408505 0 0 0 0 30.324162102093396 5.1141618547680991 0 5.1141618547680991 128.39508811751148 0 0 0 0 24.296722085923193 10.602023782259494 0 10.602023782259494 132.41788234851992 0 0 0 0 16.136597989427628 9.1833264981287357 0 9.1833264981287357 132.19240229851857 0 0 0 0 20.056717206327107 1.7520648153949878 0 1.7520648153949878 127.5471829972812 0 0 0 0 -285.55482084920368 -157.55114116884852 0 -157.55114116884852 -18.85622412394514 0 0 0 0 -287.31237518897797 -167.64913825885014 0 -167.64913825885014 19.929437158767996 0 0 0 0 -234.99378187653929 -211.04179233123432 0 -211.04179233123432 -129.64047388339168 0 0 0 0 -221.10905637288215 -256.73607232249014 0 -256.73607232249014 -7.8020167477880022 0 0 0 0 58.462660349160615 -135.10826178911157 0 -135.10826178911157 216.85209539406969 0 0 0 0 -15.867066271931876 6.2998080325086754 0 6.2998080325086754 8.5112822510842854 0 0 0 0 18.040042036698757 -5.1453550344915762 0 -5.1453550344915762 -0.014851024911557431 0 0 0 0 -104.87012319267239 80.9651869063091 0 80.9651869063091 372.02522730525379 0 0 0 0 0.091442150185381266 -0.097269037730672636 0 -0.097269037730672636 3.0123301793108688 0 0 0 0 49.843581690299288 76.997690747499291 0 76.997690747499291 77.09920397465612 0 0 0 0 2.0638586339214271 -24.44533746318848 0 -24.44533746318848 0.13509851096750936 0 0 0 0 -124.20423123376167 -301.3438255357305 0 -301.3438255357305 -96.253081608515458 0 0 0 0 -227.48355763629706 -127.57347420327278 0 -127.57347420327278 276.50918519419793 0 0 0 0 -125.48683139819877 -51.754211111599943 0 -51.754211111599943 262.20104798441753 0 0 0 0 -516.7696429849434 -268.32132632843604 0 -268.32132632843604 338.85311724050189 0 0 0 0 -288.23945572567482 -752.31896259387213 0 -752.31896259387213 62.272676295430081 0 0 0 0 -565.41731865750444 -322.22819706334849 0 -322.22819706334849 -31.208810806905603 0 0 0 0 -148.53835800453862 -585.64257252402331 0 -585.64257252402331 -341.05136331371614 0 0 0 0 -261.86761278857193 -169.11180546646392 0 -169.11180546646392 -223.11202243258231 0 0 0 0 20.174754397617068 -29.090763094712848 0 -29.090763094712848 39.194723186235493 0 0 0 0 114.60881380027786 230.21847505151527 0 230.21847505151527 538.05184538016874 0 0 0 0 -173.44073402301592 56.633456366134851 0 56.633456366134851 653.29678960277124 0 0 0 0 8.6901424983986999 -9.2235520230565271 0 -9.2235520230565271 172.39751129905926 0 0 0 0 -523.38424641876531 -540.3142220702249 0 -540.3142220702249 -178.02375999635478 0 0 0 0 -272.92108675879535 -331.80346344207919 0 -331.80346344207919 -264.01222319290264 0 0 0 0 2.641559392527391 2.1817967032934673 0 2.1817967032934673 -2.6995281521442394 0 0 0 0 -378.99492564859634 -466.20998724809976 0 -466.20998724809976 -416.90216304556816 0 0 0 0 36.890183758082486 -48.752956781646311 0 -48.752956781646311 58.830347704958669 0 0 0 0 -451.82686972601732 -285.70327797531218 0 -285.70327797531218 -45.055284600141022 0 0 0 0 30.386770302269952 -45.349111384757634 0 -45.349111384757634 195.10099232081848 0 0 0 0 -97.313502388224151 -102.67581049859928 0 -102.67581049859928 27.390540831785984 0 0 0 0 -299.66292947533657 -98.267377596299184 0 -98.267377596299184 106.55709403471428 0 0 0 0 -126.2324243212679 -113.77250029412835 0 -113.77250029412835 108.14656147439291 0 0 0 0 -97.097240798393614 -15.718520758990508 0 -15.718520758990508 120.55382222756907 0 0 0 0 -301.34037577352387 -94.091515451765304 0 -94.091515451765304 403.8277872546887 0 0 0 0 -179.00329087246337 269.7833949609103 0 269.7833949609103 792.31273643338045 0 0 0 0 -532.33491582916758 113.50074080610955 0 113.50074080610955 329.74962734392761 0 0 0 0 -344.27287455909754 -203.75385021262605 0 -203.75385021262605 319.11649149126436 0 0 0 0 -29.011132012272355 -119.70498259618944 0 -119.70498259618944 273.46087615686156 0 0 0 0 -29.103147493979122 47.463332825815087 0 47.463332825815087 389.8555391398404 0 0 0 0 -20.128332976188176 -76.501843427040512 0 -76.501843427040512 364.06775624377224 0 0 0 0 -59.682633383305074 -108.10560619203261 0 -108.10560619203261 -153.57401912017394 0 0 0 0 1.0765536910286642 -0.45403328146382549 0 -0.45403328146382549 0.91015208322153995 0 0 0 0 -15.796560332208628 -9.3522500541675981 0 -9.3522500541675981 193.46636443835177 0 0 0 0 20.12439011737024 49.898679878249823 0 49.898679878249823 262.32821335062545 0 0 0 0 17.231882921981196 28.347930527786957 0 28.347930527786957 236.49792745805826 0 0 0 0 -22.557769802317239 -112.67548716763591 0 -112.67548716763591 196.15669712246017 0 0 0 0 -18.238942718292492 5.199208330647707 0 5.199208330647707 298.44834436166366 0 0 0 0 -26.914400789470164 -48.382779304415635 0 -48.382779304415635 166.61452150134937 0 0 0 0 -46.213280245997339 -39.888825907930368 0 -39.888825907930368 231.1178798569058 0 0 0 0 20.288435183339971 -49.805776164871531 0 -49.805776164871531 45.814194980513776 0 0 0 0 230.88526136031805 -113.20863327413463 0 -113.20863327413463 29.132030843985092 0 0 0 0 2.597507554810714 -25.720329128219106 0 -25.720329128219106 51.898008869010368 0 0 0 0 44.678577132495889 0.72131190967411385 0 0.72131190967411385 37.754933772573168 0 0 0 0 113.02055362500869 -341.62391180624309 0 -341.62391180624309 -47.376904235224174 0 0 0 0 -274.94114903938134 -557.5457256295233 0 -557.5457256295233 -166.51346663748905 0 0 0 0 -8.2387360129928311 -59.42813525717429 0 -59.42813525717429 58.348677020083414 0 0 0 0 607.87522713471571 777.20873707371243 0 777.20873707371243 -704.8293151794519 0 0 0 0 -5.713124218980143 -18.344096181218887 0 -18.344096181218887 48.629048795033178 0 0 0 0 61.903686970289527 37.891381672212447 0 37.891381672212447 17.606260950500655 0 0 0 0 -4.2554790185349702 39.144998338633741 0 39.144998338633741 141.63701687906996 0 0 0 0 -26.862052950335965 -30.080145081244609 0 -30.080145081244609 129.96735332349999 0 0 0 0 7.4786097961118472 -12.388392044440479 0 -12.388392044440479 58.017802979833505 0 0 0 0 -4.2509027646780169 -5.9770409123921127 0 -5.9770409123921127 62.388206086878199 0 0 0 0 -0.95584661167230101 -19.027190074809411 0 -19.027190074809411 48.969472767739944 0 0 0 0 0.4594858455951254 -16.550301166993613 0 -16.550301166993613 29.157970793947676 0 0 0 0 -12.160090009009821 -36.101902526785125 0 -36.101902526785125 70.760809101404448 0 0 0 0 8.8751172706056423 -5.8903754378989106 0 -5.8903754378989106 58.6416035067341 0 0 0 0 -0.73987792245956907 -21.839027883860567 0 -21.839027883860567 11.377763865701034 0 0 0 0 2.3155858276604704 -9.9950135737308301 0 -9.9950135737308301 23.603308081681462 0 0 0 0 1.7108173619853915 -23.138276868732646 0 -23.138276868732646 72.830103518768738 0 0 0 0 -11.468803411719364 -28.855290307303221 0 -28.855290307303221 73.672654355837949 0 0 0 0 4.1777829028506694 -20.520142624844397 0 -20.520142624844397 -1.9912302015280829 0 0 0 0 1.0578766691462482 0.36930137904705873 0 0.36930137904705873 9.8913890544569192 0 0 0 0 -3.5776060487157832 -17.230479465417631 0 -17.230479465417631 54.045145919816548 0 0 0 0 4.4860339130521822 -25.781430080300197 0 -25.781430080300197 2.5951034540903493 0 0 0 0 -13.197035662676967 -10.252732032888161 0 -10.252732032888161 84.624683238362195 0 0 0 0 2.2209559313041609 -13.891370893667045 0 -13.891370893667045 83.542091796312889 0 0 0 0 -19.035429266118914 -41.19667016287115 0 -41.19667016287115 71.942064818373893 0 0 0 0 -2.1059085694450914 -30.879552947050342 0 -30.879552947050342 213.93834960893219 0 0 0 0 0.20918777597959348 6.3524883013103928 0 6.3524883013103928 29.238994496673897 0 0 0 0 -90.368471436693653 -103.15455565458251 0 -103.15455565458251 267.64851641511586 0 0 0 0 -84.660578636088758 -83.101367916918207 0 -83.101367916918207 186.21379776603135 0 0 0 0 -82.979408328274076 -100.54424594912621 0 -100.54424594912621 151.14547392174063 0 0 0 0 -67.190059832092629 -44.805133134001608 0 -44.805133134001608 131.8328413077088 0 0 0 0 -60.950305947459128 -18.750358423286343 0 -18.750358423286343 232.11330305309639 0 0 0 0 -14.638032357806878 8.0774305008164902 0 8.0774305008164902 138.54484501558727 0 0 0 0 -21.80126984679373 -46.709830140801387 0 -46.709830140801387 77.458415332199365 0 0 0 0 -29.618033074348205 -74.638966530344078 0 -74.638966530344078 88.810590979973995 0 0 0 0 -10.82910351620416 -45.178661485536217 0 -45.178661485536217 70.085910605287282 0 0 0 0 -39.289282899626414 -53.219483947311346 0 -53.219483947311346 124.80000800812013 0 0 0 0 -0.85291035194109099 -25.084593613682955 0 -25.084593613682955 91.461185692060099 0 0 0 0 4.1702701470458123 -19.01900590628793 0 -19.01900590628793 94.903348721689326 0 0 0 0 -0.66181660185563462 -6.4231715998319885 0 -6.4231715998319885 38.009272386237924 0 0 0 0 157.9576952338175 -9.3396301465824081 0 -9.3396301465824081 200.55695519471737 0 0 0 0 35.046040323613852 351.28615196799456 0 351.28615196799456 437.12876234482428 0 0 0 0 -10.175369723308172 -19.814923999796765 0 -19.814923999796765 46.038742787152117 0 0 0 0 -2.2254282081523691 -11.953472225881761 0 -11.953472225881761 35.42100561296067 0 0 0 0 -24.769114825904808 0.6281896823520583 0 0.6281896823520583 129.49879946978035 0 0 0 0 -3.9392111488873525 -6.1775698886722239 0 -6.1775698886722239 100.13323649494851 0 0 0 0 -404.7317808737389 -129.12172995849596 0 -129.12172995849596 356.04965434293763 0 0 0 0 -140.32552758831457 -200.19466432510319 0 -200.19466432510319 35.931692242664212 0 0 0 0 -59.445586187313893 -142.93637433893912 0 -142.93637433893912 172.98111753920784 0 0 0 0 -73.998720076333484 -54.880482899272465 0 -54.880482899272465 276.29312855980379 0 0 0 0 -62.26300063785493 -125.42971013581155 0 -125.42971013581155 134.88086628187011 0 0 0 0 -100.78348350962551 -134.17329156840105 0 -134.17329156840105 179.03669456408534 0 0 0 0 -157.74777879932662 -310.61989908785472 0 -310.61989908785472 -9.3236687271883056 0 0 0 0 -114.65959438629216 -182.19315624912269 0 -182.19315624912269 160.29500419544161 0 0 0 0 -63.601202232710421 -209.26940505702669 0 -209.26940505702669 -92.94010892502547 0 0 0 0 -138.98192435384544 -387.53382091171511 0 -387.53382091171511 -362.91485802797888 0 0 0 0 -171.40508892073831 -245.19379029739616 0 -245.19379029739616 46.575619964260113 0 0 0 0 -295.0431229557762 -610.13276847056522 0 -610.13276847056522 -569.04541680819148 0 0 0 0 -71.496244558316903 -38.183736352530559 0 -38.183736352530559 -680.98485101639039 0 0 0 0 -144.6816289232811 -44.523080111808895 0 -44.523080111808895 -275.74359282892328 0 0 0 0 -521.49375556195082 -150.7514610299304 0 -150.7514610299304 600.59171904523134 0 0 0 0 -149.36769020052088 241.81985324717698 0 241.81985324717698 588.70070693926118 0 0 0 0 -1080.3992877987166 -937.62157187013918 0 -937.62157187013918 -69.259119667518917 0 0 0 0 168.95385510406686 -235.64726993622821 0 -235.64726993622821 -1190.5957302245015 0 0 0 0 -16.661189017972145 -2.4139904510399348 0 -2.4139904510399348 -3.1718960526538109 0 0 0 0 -418.2041596471372 219.6170155974302 0 219.6170155974302 43.590542825914781 0 0 0 0 -887.54945255600614 -157.68224336221272 0 -157.68224336221272 227.85928263824815 0 0 0 0 -156.2374917885827 -115.70754106384447 0 -115.70754106384447 224.98475915429231 0 0 0 0 -150.69788250853526 88.108440010144989 0 88.108440010144989 92.666598355566862 0 0 0 0 -9.2167444905498996 -6.3274323887919763 0 -6.3274323887919763 117.67637906311549 0 0 0 0 -3.7663510075326485 -91.368302809483225 0 -91.368302809483225 111.78538895607201 0 0 0 0 -65.96723888964334 -133.1958866286493 0 -133.1958866286493 131.79560442717798 0 0 0 0 117.50168217846294 -96.793670084996847 0 -96.793670084996847 -86.660212992600009 0 0 0 0 -44.0802542997681 -19.425295639347329 0 -19.425295639347329 14.430112330006846 0 0 0 0 -76.368547006648441 -159.70979746711873 0 -159.70979746711873 -87.161921926414891 0 0 0 0 16.452796449118978 -39.995626726402406 0 -39.995626726402406 16.001355179403618 0 0 0 0 -1.485882846997665 -0.6803477278279928 0 -0.6803477278279928 15.374452974761025 0 0 0 0 5.2200138179705391 -38.050234591137269 0 -38.050234591137269 43.387402646528244 0 0 0 0 -90.535396621477048 28.199824640026463 0 28.199824640026463 201.91152864890341 0 0 0 0 -6.0589430373774888 -35.850526296144011 0 -35.850526296144011 53.363307512204678 0 0 0 0 8.0052154907776227 -55.695644023127549 0 -55.695644023127549 113.2936146140092 0 0 0 0 6.5328181025218006 -33.859519155977324 0 -33.859519155977324 52.920469527519778 0 0 0 0 -19.893702410383412 -171.52195800951631 0 -171.52195800951631 -200.52764759865113 0 0 0 0 -96.09660950673242 -122.82235163528776 0 -122.82235163528776 -153.45378962300447 0 0 0 0 -56.278723690662446 -179.09726199313991 0 -179.09726199313991 -91.962491072503326 0 0 0 0 -62.707343526943077 -161.15200857873424 0 -161.15200857873424 -107.07920913187354 0 0 0 0 -36.041471869884845 -205.05932594525984 0 -205.05932594525984 -115.52823242457295 0 0 0 0 -56.739729539764085 -203.04577396111199 0 -203.04577396111199 -115.56118211278729 0 0 0 0 -76.066328355846053 -242.76499560884622 0 -242.76499560884622 -97.025074358069105 0 0 0 0 -21.93010394117664 -168.38067318867797 0 -168.38067318867797 -222.14672736514876 0 0 0 0 -35.787226013711916 -234.53048434741322 0 -234.53048434741322 -221.93744975134905 0 0 0 0 -29.12340841967125 -192.61020321190381 0 -192.61020321190381 -180.9758981921168 0 0 0 0 -20.630853456979821 -177.10005226875683 0 -177.10005226875683 -187.17454337921117 0 0 0 0 -21.021838679932443 -41.501564051552123 0 -41.501564051552123 60.254840047815378 0 0 0 0 -55.983924825920894 -19.273328985727858 0 -19.273328985727858 112.10504911268072 0 0 0 0 -4.2765515673833718 -35.521699826189433 0 -35.521699826189433 97.444437996455235 0 0 0 0 6.4847009755991571 -12.612090825590712 0 -12.612090825590712 74.452845999505371 0 0 0 0 -16.970812324402914 -38.600476287914717 0 -38.600476287914717 93.056214543717942 0 0 0 0 -6.2273268014238505 -17.318055323338815 0 -17.318055323338815 58.18622990399188 0 0 0 0 -37.378689853723699 -38.605799934446623 0 -38.605799934446623 70.100161758902686 0 0 0 0 8.7363128701488897 -26.529146364280173 0 -26.529146364280173 38.368557003946478 0 0 0 0 -99.691914504203282 -178.0760115989749 0 -178.0760115989749 -84.749734201366664 0 0 0 0 -1.8245596503105319 -28.10878110259867 0 -28.10878110259867 42.831128361469894 0 0 0 0 -41.727219803810385 -81.003047184072784 0 -81.003047184072784 0.10962264503541519 0 0 0 0 -13.78365199197151 -31.311315926686802 0 -31.311315926686802 33.864916258418816 0 0 0 0 0.54416482968786895 1.1399308543497426 0 1.1399308543497426 20.592087465341478 0 0 0 0 -51.542932428636959 86.132797028243658 0 86.132797028243658 222.60544431206654 0 0 0 0 9.6187398231231782 -56.82297664883481 0 -56.82297664883481 20.872645625455334 0 0 0 0 -12.634387456975674 -17.112388178564288 0 -17.112388178564288 55.545406088785967 0 0 0 0 -18.330399400583094 -36.641482587600549 0 -36.641482587600549 52.03965679513778 0 0 0 0 -52.286841034907411 -35.096931414318533 0 -35.096931414318533 65.802036381923244 0 0 0 0 -17.370015522777159 -17.781873118810012 0 -17.781873118810012 47.631969609156293 0 0 0 0 -37.674773651222495 -73.382844971361919 0 -73.382844971361919 36.727554499004327 0 0 0 0 -4.7335742957147477 -44.581585782794619 0 -44.581585782794619 54.347191874850338 0 0 0 0 -89.788107486159788 -199.57558643101811 0 -199.57558643101811 0.33489588671864112 0 0 0 0 -114.47403394770481 -144.70975669860809 0 -144.70975669860809 -75.136480945601079 0 0 0 0 -129.33619481198821 -208.05027930475489 0 -208.05027930475489 -1.2749968090438415 0 0 0 0 -102.3041855787269 -177.79037825646355 0 -177.79037825646355 -11.770200341799864 0 0 0 0 -51.510776882860227 -161.61921879730971 0 -161.61921879730971 -16.368431474495083 0 0 0 0 -90.007206087870145 -167.14155136178306 0 -167.14155136178306 25.978134500357555 0 0 0 0 -127.63671499823249 -191.81778482512891 0 -191.81778482512891 -27.246210057652206 0 0 0 0 -80.342622776524152 -53.599408621804997 0 -53.599408621804997 1.9454839001672255 0 0 0 0 -84.431923890751932 -163.85424079380482 0 -163.85424079380482 24.341589382323491 0 0 0 0 -60.667484674916977 -125.61883650396589 0 -125.61883650396589 54.569284738929127 0 0 0 0 -370.72564154044812 -158.34730705051697 0 -158.34730705051697 85.723960366040728 0 0 0 0 -138.50941404144396 -144.36872648233293 0 -144.36872648233293 -125.19285471960393 0 0 0 0 -50.856778644694714 -143.19372220400237 0 -143.19372220400237 12.127020901124524 0 0 0 0 -388.60729706136135 160.49650203338933 0 160.49650203338933 511.68728309302969 0 0 0 0 -400.92448390687787 85.641887896810658 0 85.641887896810658 58.849258494534297 0 0 0 0 -404.17040702413215 -214.79834032640065 0 -214.79834032640065 39.659107134157239 0 0 0 0 -569.76046361718181 -401.84327379495153 0 -401.84327379495153 784.28755130474019 0 0 0 0 -337.22850200462562 -901.04178449926258 0 -901.04178449926258 316.24748744635144 0 0 0 0 -90.311772404285875 -185.90090193205742 0 -185.90090193205742 36.359380744224154 0 0 0 0 -73.192240000447782 -142.75747144733396 0 -142.75747144733396 47.800802985773771 0 0 0 0 -86.005799907814435 -143.73842120918698 0 -143.73842120918698 67.922942902148861 0 0 0 0 -97.033458204936323 -148.96606490626482 0 -148.96606490626482 80.332044373877579 0 0 0 0 -87.962138513219543 -119.84880013315978 0 -119.84880013315978 136.74439985115714 0 0 0 0 -90.112202434545907 -149.10197693440659 0 -149.10197693440659 93.142206150769653 0 0 0 0 -106.78240448953875 -183.7335600779279 0 -183.7335600779279 108.4351318726417 0 0 0 0 -108.91493909755286 -232.6156801697058 0 -232.6156801697058 1.7535707076458493 0 0 0 0 -83.133492212798956 -184.49991778340791 0 -184.49991778340791 -11.364851500975419 0 0 0 0 -79.884683073475571 -214.84216078644658 0 -214.84216078644658 -24.821953908383875 0 0 0 0 -72.35658699387568 -202.01109990422356 0 -202.01109990422356 -44.026507651689826 0 0 0 0 -67.860262609914571 -173.91955805955695 0 -173.91955805955695 -39.442662934614418 0 0 0 0 -67.8791519807437 -184.08010996665826 0 -184.08010996665826 -37.311471005916246 0 0 0 0 -60.881464636786404 -191.00262170701444 0 -191.00262170701444 -75.59898281934511 0 0 0 0 -70.549774000548496 -153.58861809467089 0 -153.58861809467089 -49.000793727403561 0 0 0 0 -72.343333391490887 -183.93901860724577 0 -183.93901860724577 -0.61059728648069722 0 0 0 0 -77.463270106148684 -166.46459607754161 0 -166.46459607754161 -7.374631417839737 0 0 0 0 -78.567241441787701 -137.55434364717848 0 -137.55434364717848 -75.640093797132295 0 0 0 0 -68.971255273314455 -162.57349139543749 0 -162.57349139543749 -9.5102225250616357 0 0 0 0 -77.672406240759301 -143.01842062255855 0 -143.01842062255855 33.154260451783252 0 0 0 0 -99.861981011610624 -148.56011855684142 0 -148.56011855684142 33.134387762856932 0 0 0 0 -73.418376224704843 -164.43925116310311 0 -164.43925116310311 33.514832056579507 0 0 0 0 -81.76424427731763 -151.7168206323513 0 -151.7168206323513 23.499251500731589 0 0 0 0 -45.357583426455108 -39.941190020100734 0 -39.941190020100734 -8.6413918340848959 0 0 0 0 -52.761534631037648 -151.5332674166516 0 -151.5332674166516 91.112032012351619 0 0 0 0 -60.331817988285117 -13.40971002034351 0 -13.40971002034351 17.317503447262197 0 0 0 0 -82.811109776685043 -159.69918884543858 0 -159.69918884543858 88.905647961676323 0 0 0 0 -75.455367621409096 -138.75023815120358 0 -138.75023815120358 56.382514551724853 0 0 0 0 -69.24383768615246 -151.04093378027059 0 -151.04093378027059 70.158862500275063 0 0 0 0 -96.911123811676589 -143.80153351117178 0 -143.80153351117178 88.072732385317977 0 0 0 0 -79.849837023637519 -165.07665630709062 0 -165.07665630709062 59.566213565368344 0 0 0 0 -9.0484708868571033 -105.23913455754337 0 -105.23913455754337 96.622493677960847 0 0 0 0 -65.548862643150642 -125.76161435348286 0 -125.76161435348286 91.411227883325409 0 0 0 0 -41.106656799620396 -133.641919903911 0 -133.641919903911 74.133936163334738 0 0 0 0 -26.392567249662534 -116.76922863297295 0 -116.76922863297295 89.202548548418235 0 0 0 0 -53.835500926412351 -91.253258123364503 0 -91.253258123364503 116.29226854943909 0 0 0 0 -42.655828572718747 -87.623350815397316 0 -87.623350815397316 111.59393699949487 0 0 0 0 -67.267310391538558 -99.600177162471255 0 -99.600177162471255 113.22731252705307 0 0 0 0 -70.499738030435765 -122.7026128475306 0 -122.7026128475306 87.480564890045571 0 0 0 0 -46.005039427764132 -123.12210506304837 0 -123.12210506304837 84.476099060074375 0 0 0 0 -74.758165897223989 -115.85932706547283 0 -115.85932706547283 111.88936438337078 0 0 0 0 -79.56817587120895 -145.28678046245477 0 -145.28678046245477 68.192131535069166 0 0 0 0 -81.178769880229083 -101.30508402653322 0 -101.30508402653322 115.71370109597683 0 0 0 0 -67.648637279737159 -82.965245706330279 0 -82.965245706330279 135.41796380934829 0 0 0 0 -67.332169441619044 -104.26308864757721 0 -104.26308864757721 104.44087067791543 0 0 0 0 -55.395398513846885 -74.051710337651002 0 -74.051710337651002 116.33218044008208 0 0 0 0 -52.568549191650163 -90.726762882658022 0 -90.726762882658022 127.85262580104154 0 0 0 0 -28.651400585928059 -80.771898775469708 0 -80.771898775469708 111.44725395421983 0 0 0 0 -11.602858962525364 -59.388662100557703 0 -59.388662100557703 60.70324339541186 0 0 0 0 -28.595127244713701 -50.812458754358971 0 -50.812458754358971 47.985015521565764 0 0 0 0 -47.274911566059018 -79.512617004846106 0 -79.512617004846106 136.13295713819844 0 0 0 0 -21.504182127207059 -28.392366540250805 0 -28.392366540250805 85.760234885012324 0 0 0 0 -18.090809845161857 -65.340071486989473 0 -65.340071486989473 133.00029037504282 0 0 0 0 -36.108346902678612 -35.009946355872373 0 -35.009946355872373 92.324873436930559 0 0 0 0 -38.021792618490338 -25.813694984048539 0 -25.813694984048539 72.362632644189205 0 0 0 0 -20.577566456802742 -81.852654588285077 0 -81.852654588285077 114.67224605169406 0 0 0 0 6.3915583744674223 -96.036175003515382 0 -96.036175003515382 125.50614893047896 0 0 0 0 -6.0151712515691749 -88.324160885784806 0 -88.324160885784806 10.572453093896783 0 0 0 0 74.3543082728429 -119.83178701790894 0 -119.83178701790894 130.93153030471512 0 0 0 0 103.63584707051632 -35.888007928242587 0 -35.888007928242587 130.10845980835438 0 0 0 0 -30.270867448620265 -78.064088784492924 0 -78.064088784492924 124.67863253570977 0 0 0 0 -51.578982839672122 -24.77776964947364 0 -24.77776964947364 61.808755419063871 0 0 0 0 -0.58928817351261387 -126.63653400152907 0 -126.63653400152907 131.00738623648732 0 0 0 0 -0.53904638777866865 -13.126863966808259 0 -13.126863966808259 22.997848955425425 0 0 0 0 11.918613253008516 -46.658895307093189 0 -46.658895307093189 128.95950096954994 0 0 0 0 -131.66839310349314 -57.047223668310835 0 -57.047223668310835 104.51521873399906 0 0 0 0 -226.95138450281229 -76.918340409971279 0 -76.918340409971279 119.6561991215649 0 0 0 0 111.21292936566897 -42.21548708568298 0 -42.21548708568298 38.23000892375785 0 0 0 0 13.663195757359858 -29.316236894411873 0 -29.316236894411873 13.199712308808984 0 0 0 0 3.7303569921550661 -61.75196587962273 0 -61.75196587962273 97.753584477035474 0 0 0 0 -20.136973127505463 -11.205099405634172 0 -11.205099405634172 37.729750311516256 0 0 0 0 34.182474074688798 -43.689627925352397 0 -43.689627925352397 70.342364786294638 0 0 0 0 22.025910928268786 -59.813724868443387 0 -59.813724868443387 130.12742325399449 0 0 0 0 22.982324176714343 -55.709464830352012 0 -55.709464830352012 67.670375226270608 0 0 0 0 -5.9053683058245099 3.2468097209263522 0 3.2468097209263522 -1.4385612609350185 0 0 0 0 -311.10104969960594 297.27996473162966 0 297.27996473162966 834.96090501957042 0 0 0 0 104.68843578548694 -666.67522744810776 0 -666.67522744810776 -1097.2334990720001 0 0 0 0 -111.55034554497979 -959.61534095589195 0 -959.61534095589195 -586.19442610315491 0 0 0 0 -222.68874128982134 -514.52385953538396 0 -514.52385953538396 -292.13150172174937 0 0 0 0 -172.20706482691457 -107.51989016749576 0 -107.51989016749576 -608.08768367108132 0 0 0 0 -247.61980813069204 -601.0821854469857 0 -601.0821854469857 -151.96208470456259 0 0 0 0 249.44354689269312 402.56779313106108 0 402.56779313106108 401.92950316699716 0 0 0 0 -176.63072122421727 -122.59318323409207 0 -122.59318323409207 10.49975053884009 0 0 0 0 -210.41760674872785 -80.351143483742817 0 -80.351143483742817 594.72805325301488 0 0 0 0 -578.28224941772351 -626.29359762549575 0 -626.29359762549575 291.05957949570438 0 0 0 0 -17.278272302395806 -8.9950638627917439 0 -8.9950638627917439 8.1429589341931905 0 0 0 0 575.67596117936046 -4.2510150138114113 0 -4.2510150138114113 -351.22843021599692 0 0 0 0 -234.28854283278633 -36.329293948434497 0 -36.329293948434497 -118.15872046331424 0 0 0 0 -324.55177444028232 -188.52309542791591 0 -188.52309542791591 104.50749353090168 0 0 0 0 -225.34893011559325 -336.04361323585454 0 -336.04361323585454 49.385424047708511 0 0 0 0 -201.39043957662943 -42.526781944059621 0 -42.526781944059621 183.78097805546349 0 0 0 0 -15.485546555995825 -104.87016661377311 0 -104.87016661377311 136.1326496566835 0 0 0 0 -222.39678558611922 -192.34259265043875 0 -192.34259265043875 120.03653391595481 0 0 0 0 -193.92238814378788 78.655101197467275 0 78.655101197467275 457.32203911618853 0 0 0 0 -570.43677136093902 -3.0569920755806379 0 -3.0569920755806379 637.77444395726343 0 0 0 0 -239.49949712857233 -236.44430545814885 0 -236.44430545814885 7.8942363723181188 0 0 0 0 -396.03225847538488 -113.71266848701634 0 -113.71266848701634 218.84945194707689 0 0 0 0 -219.80664936827088 -230.67190966678208 0 -230.67190966678208 -27.390466030309653 0 0 0 0 -130.12237414571428 -209.65554900948337 0 -209.65554900948337 -22.791906473437848 0 0 0 0 -110.18790445285413 -158.44853060734749 0 -158.44853060734749 101.3249150556594 0 0 0 0 -103.22284403218509 -118.19365467324133 0 -118.19365467324133 123.4100322661543 0 0 0 0 26.960945228206526 -40.56409484249297 0 -40.56409484249297 55.794501740693065 0 0 0 0 -60.49057528342928 -348.830579433401 0 -348.830579433401 -54.713591228100995 0 0 0 0 -234.53578172559446 -169.97276033195749 0 -169.97276033195749 -47.594295504059119 0 0 0 0 -406.06970471649402 -351.98574076225668 0 -351.98574076225668 -147.65170529824809 0 0 0 0 26.379118087186725 -55.067810509157425 0 -55.067810509157425 -86.901135098298255 0 0 0 0 96.855726564643192 -61.156145258610195 0 -61.156145258610195 -137.38947108271896 0 0 0 0 126.32202612178298 -95.986719501910557 0 -95.986719501910557 -143.58394302902721 0 0 0 0 42.739893230934598 -60.134786617113235 0 -60.134786617113235 69.06037141282323 0 0 0 0 24.227466139724129 -210.79785615580477 0 -210.79785615580477 -143.99534112616675 0 0 0 0 104.70622805250423 -164.83415345991307 0 -164.83415345991307 74.215578313298465 0 0 0 0 135.7009507641269 -41.299240691430896 0 -41.299240691430896 82.10146778327271 0 0 0 0 233.61082990406248 9.804621101570774 0 9.804621101570774 -66.70535904069402 0 0 0 0 164.1714694534694 107.82725480114459 0 107.82725480114459 67.620431486349844 0 0 0 0 132.41587927251021 -90.979542361732456 0 -90.979542361732456 94.47934892063131 0 0 0 0 -50.068807385605396 -18.072117265361157 0 -18.072117265361157 -6.3630179627652979 0 0 0 0 106.40733586118404 43.386200199394807 0 43.386200199394807 -256.12697871537239 0 0 0 0 11.36276684555208 -15.91345913288977 0 -15.91345913288977 -5.6704708774173582 0 0 0 0 -68.581315264451405 40.833724714750133 0 40.833724714750133 99.403682211384876 0 0 0 0 12.134203880339555 -88.342584323290794 0 -88.342584323290794 98.72766133415098 0 0 0 0 -12.522979730261376 -5.3170789942978871 0 -5.3170789942978871 4.1952358305028667 0 0 0 0 -27.487208861958763 11.421420539872187 0 11.421420539872187 23.061556769056182 0 0 0 0 4.1493706310790088 5.6751398838511449 0 5.6751398838511449 9.9549620996789088 0 0 0 0 -1.7614005605061038 225.16754688816854 0 225.16754688816854 -91.209586909251811 0 0 0 0 50.360803207639037 -47.557266997457191 0 -47.557266997457191 -41.779599867736579 0 0 0 0 10.386110805760836 -104.48255314322159 0 -104.48255314322159 68.034966732696944 0 0 0 0 -89.368929922336974 107.56862865743096 0 107.56862865743096 64.843550548462304 0 0 0 0 4.2614983498727241 6.1769739441373588 0 6.1769739441373588 6.957428239840965 0 0 0 0 -3.0956682690788959 -2.7296941343326466 0 -2.7296941343326466 5.1623416115473049 0 0 0 0 -54.075362942004972 -10.307844736427796 0 -10.307844736427796 115.96777839801507 0 0 0 0 3.8243097547803018 -55.860485900837375 0 -55.860485900837375 128.26137060085603 0 0 0 0 -28.561522924979311 13.530350827455806 0 13.530350827455806 20.383254556353691 0 0 0 0 18.435872920425027 -85.476916373663698 0 -85.476916373663698 98.382003399077803 0 0 0 0 15.129361858602351 5.147715291226632 0 5.147715291226632 121.43425659833156 0 0 0 0 -1.5798087050293361 -55.415538167066188 0 -55.415538167066188 151.84955989757145 0 0 0 0 3.9180141872892023 -65.376854270871263 0 -65.376854270871263 154.09109034767334 0 0 0 0 -35.845260208215052 -76.462013889380614 0 -76.462013889380614 152.62574061773194 0 0 0 0 -0.1541549322823812 -16.548860112052353 0 -16.548860112052353 16.031949481883203 0 0 0 0 -1.0215167232961448 -30.076063993037678 0 -30.076063993037678 140.59448033744411 0 0 0 0 0.40242733392458785 -8.8449427998829009 0 -8.8449427998829009 -0.95902725541150602 0 0 0 0 -12.002340249351629 -59.670589555205424 0 -59.670589555205424 162.13831564510474 0 0 0 0 59.10942647347656 -50.479130477018771 0 -50.479130477018771 150.33736898045754 0 0 0 0 -11.604390828119818 -64.839127717144038 0 -64.839127717144038 195.63871447012934 0 0 0 0 -4.8774180774707929 6.6241272726183524 0 6.6241272726183524 219.52378931477506 0 0 0 0 71.398232118302531 -89.289823226929002 0 -89.289823226929002 46.747665203787619 0 0 0 0 -0.45150144455348595 -19.387771702461478 0 -19.387771702461478 14.11696631439392 0 0 0 0 4.6613722566827569 -6.444607723038132 0 -6.444607723038132 -7.5948958390243604 0 0 0 0 -7.2223243590079136 -66.38423258822445 0 -66.38423258822445 146.98942104593152 0 0 0 0 -6.2684429262826598 -53.487999163451605 0 -53.487999163451605 176.65410555937706 0 0 0 0 -1.0338301889817103 -56.530795794675214 0 -56.530795794675214 161.80374788247354 0 0 0 0 1.5525993299034564 -37.81553653983643 0 -37.81553653983643 27.612287261518105 0 0 0 0 5.2180284843639129 -54.307562365276681 0 -54.307562365276681 155.66519739463547 0 0 0 0 -8.1973744727229132 -81.405343774476933 0 -81.405343774476933 134.50254726864659 0 0 0 0 15.912179761355219 -69.436426296968421 0 -69.436426296968421 147.24749199733924 0 0 0 0 -24.564783561696757 4.9367694943592824 0 4.9367694943592824 38.793573389540512 0 0 0 0 8.1214220314668637 21.637242152799445 0 21.637242152799445 126.94861050552572 0 0 0 0 -23.676221447243474 3.0945812211758579 0 3.0945812211758579 26.92278006699631 0 0 0 0 13.287983757957136 -46.503454397919995 0 -46.503454397919995 133.18425482264138 0 0 0 0 -359.84854259525309 -274.71814529126277 0 -274.71814529126277 431.46354069549307 0 0 0 0 -198.78622142948188 -225.24777221891418 0 -225.24777221891418 436.78227198861714 0 0 0 0 -158.29721654657442 -272.7763973120891 0 -272.7763973120891 183.17375908137183 0 0 0 0 -91.958164937361289 -384.54833053346374 0 -384.54833053346374 228.08260572079234 0 0 0 0 -112.88005467110088 -398.64217959976668 0 -398.64217959976668 446.44284692095243 0 0 0 0 -103.87638571827642 -181.60467819350652 0 -181.60467819350652 297.81877435615752 0 0 0 0 -84.018763160294384 -109.41577151516276 0 -109.41577151516276 -125.25332552123291 0 0 0 0 -99.283633259823546 3.9312781133703538 0 3.9312781133703538 365.55071130793658 0 0 0 0 -134.20003894522779 -112.88120913072999 0 -112.88120913072999 187.081807554845 0 0 0 0 -105.99486341507327 -26.825642899435479 0 -26.825642899435479 449.60690726687881 0 0 0 0 -72.125717882712706 154.63650534917542 0 154.63650534917542 930.19444848291823 0 0 0 0 -33.146054411980003 -325.37698647600337 0 -325.37698647600337 791.93477005200839 0 0 0 0 693.98051773866882 -111.75159694819376 0 -111.75159694819376 348.25440279958275 0 0 0 0 -111.95970360522085 -12.983722675675381 0 -12.983722675675381 337.41366204716905 0 0 0 0 -90.111119406317357 -153.13311548520505 0 -153.13311548520505 444.46603014277207 0 0 0 0 93.68805463245053 -231.32459636580461 0 -231.32459636580461 171.66774367690232 0 0 0 0 -5.0410215116717154 -368.21606429847452 0 -368.21606429847452 -471.44326369193732 0 0 0 0 -801.60095828193334 -199.24088081360605 0 -199.24088081360605 172.88481291087373 0 0 0 0 384.94775525981026 -73.357987902018067 0 -73.357987902018067 -14.892143136392406 0 0 0 0 30.915487930687505 -152.33161370626112 0 -152.33161370626112 120.28641436980251 0 0 0 0 8.4347953479874604 -367.22493420562387 0 -367.22493420562387 -223.06880715164516 0 0 0 0 9.4820059395460703 -63.433061036739673 0 -63.433061036739673 12.213851475114097 0 0 0 0 -459.81521681957111 -266.59944475002158 0 -266.59944475002158 -11.10698295160546 0 0 0 0 -4.3225922437242446 -2.2213643042497893 0 -2.2213643042497893 -0.49529652214843622 0 0 0 0 -15.841589034578647 117.26604070263056 0 117.26604070263056 -278.69984462980938 0 0 0 0 -46.557445497388471 -55.322017779715679 0 -55.322017779715679 -130.17582076273538 0 0 0 0 -1.8428580584895826 73.009947883623681 0 73.009947883623681 -160.34237511079118 0 0 0 0 -150.20496017275036 -311.97244096355644 0 -311.97244096355644 51.452306602754106 0 0 0 0 -74.076941497291045 -437.90526128627607 0 -437.90526128627607 -106.09994938982709 0 0 0 0 -154.76281234170619 -275.28242256168232 0 -275.28242256168232 408.74448762566317 0 0 0 0 -193.15929194326236 -315.13396057986392 0 -315.13396057986392 576.63393187663314 0 0 0 0 -4.1504564675497022 189.2713357208977 0 189.2713357208977 398.9297353233851 0 0 0 0 0.48491803384136745 -43.416318072711036 0 -43.416318072711036 101.86599288431776 0 0 0 0 288.77165549518395 279.14457213038986 0 279.14457213038986 -516.19065239387965 0 0 0 0 -0.33243215893162414 -237.90234634152876 0 -237.90234634152876 -274.95377222276329 0 0 0 0 29.957474172118964 -11.908293853655323 0 -11.908293853655323 130.59454599304712 0 0 0 0 1.9924383394172764 -11.12628584158756 0 -11.12628584158756 130.7805850612898 0 0 0 0 -1.0695004062172302 -15.800316384320922 0 -15.800316384320922 128.76620498856937 0 0 0 0 -1.5947507344338163 -45.070241101723212 0 -45.070241101723212 96.125119894122093 0 0 0 0 -198.72827897614479 -1006.0162772271397 0 -1006.0162772271397 637.48561975383927 0 0 0 0 -2.8001513419846589 -16.319472292951964 0 -16.319472292951964 14.893820185643833 0 0 0 0 -760.44916950762854 -10.278702883068036 0 -10.278702883068036 43.913797445682576 0 0 0 0 5.4941900368160681 -23.492385990037334 0 -23.492385990037334 122.93196204753281 0 0 0 0 -14.26663965498301 -17.855993933431364 0 -17.855993933431364 136.56333147144323 0 0 0 0 -140.79628775624951 -268.35993545385827 0 -268.35993545385827 -97.033199035606231 0 0 0 0 -17.397794986412919 -30.620177181850522 0 -30.620177181850522 123.30102993660057 0 0 0 0 -319.96418685871322 -81.431447842121997 0 -81.431447842121997 28.409083370693679 0 0 0 0 -0.047235666745823579 -6.2353464893484798 0 -6.2353464893484798 38.015101152088164 0 0 0 0 -344.00562591788184 -164.030059198245 0 -164.030059198245 186.61272342798475 0 0 0 0 -768.85447864425078 -230.88173300558265 0 -230.88173300558265 522.35161312616947 0 0 0 0 -382.66516508041968 -141.98978792853814 0 -141.98978792853814 240.04504692695991 0 0 0 0 -393.41521109994937 -192.15251327197893 0 -192.15251327197893 517.11689197439409 0 0 0 0 2.5603603637300694 58.600404618579432 0 58.600404618579432 166.62577480632899 0 0 0 0 -5.4489684157090679 0.5665970592187719 0 0.5665970592187719 92.810186387351479 0 0 0 0 -34.043815917335451 -4.923046805197373 0 -4.923046805197373 97.768075237887388 0 0 0 0 131.04938525647958 -51.890590605675243 0 -51.890590605675243 173.23010204243354 0 0 0 0 -27.852327937327527 -16.069918781248944 0 -16.069918781248944 98.812366651710363 0 0 0 0 -538.75862178966418 95.964521898853491 0 95.964521898853491 -739.64832403301261 0 0 0 0 1.7646768644889619 -4.373713581793325 0 -4.373713581793325 9.8138663745458175 0 0 0 0 -249.32653138611568 -941.96430520895592 0 -941.96430520895592 -252.85165904133464 0 0 0 0 136.55303897231065 851.08741995662081 0 851.08741995662081 -472.35518576802497 0 0 0 0 -53.108854585026165 -357.7521251349026 0 -357.7521251349026 177.12354473215237 0 0 0 0 195.62711906505137 424.75997128000745 0 424.75997128000745 115.02137687430513 0 0 0 0 3.8882450542857789 -6.1237898384672604 0 -6.1237898384672604 10.662803681169834 0 0 0 0 -11.73458712271816 -28.323203566603226 0 -28.323203566603226 111.9915137953561 0 0 0 0 -155.97202993205974 6.1611435119630187 0 6.1611435119630187 199.47007351473439 0 0 0 0 -144.3734228973517 -33.608841492554347 0 -33.608841492554347 189.74966939015576 0 0 0 0 -95.840140197224173 -12.643238888638734 0 -12.643238888638734 119.84437065347447 0 0 0 0 -79.446132103115815 31.825669896297768 0 31.825669896297768 208.03965533825976 0 0 0 0 -22.131883341440002 9.3751314550158167 0 9.3751314550158167 111.59979472098529 0 0 0 0 -83.162609634146065 -41.649917876144173 0 -41.649917876144173 185.79802983652007 0 0 0 0 -19.276663619901228 63.559536571494391 0 63.559536571494391 117.24642931492417 0 0 0 0 -338.51369507879463 -71.751065384856702 0 -71.751065384856702 104.41409022145672 0 0 0 0 -280.87344733389364 42.814851153030759 0 42.814851153030759 181.641341726674 0 0 0 0 -5.5975510546055496 -7.8575724767117237 0 -7.8575724767117237 38.608595813034981 0 0 0 0 -50.216538678690995 -6.1393123813541024 0 -6.1393123813541024 34.670246329907968 0 0 0 0 -20.498447294594371 48.454393250387511 0 48.454393250387511 100.94587812922327 0 0 0 0 -13.522358378648899 -23.080545234031462 0 -23.080545234031462 41.721851961637782 0 0 0 0 2.6016898572561331 19.771382080016338 0 19.771382080016338 42.467840840108693 0 0 0 0 -80.747225342069214 -13.473338663265167 0 -13.473338663265167 100.2390717030321 0 0 0 0 -11.196564848361811 5.5156287735234741 0 5.5156287735234741 17.456905876207799 0 0 0 0 -63.789169281249997 92.877058481022686 0 92.877058481022686 80.188547627694788 0 0 0 0 -227.07993878384468 49.12629477003793 0 49.12629477003793 144.72864996232965 0 0 0 0 -243.2330573660729 97.14148204760204 0 97.14148204760204 91.975857259019449 0 0 0 0 -16.630694079505339 -1.0594458116615186 0 -1.0594458116615186 79.359214972009255 0 0 0 0 490.72867901563586 -603.38812600635356 0 -603.38812600635356 807.65062444253272 0 0 0 0 -38.853930346963637 -19.480475515415144 0 -19.480475515415144 71.855748080158506 0 0 0 0 -18.806888377732321 -8.4433610883434085 0 -8.4433610883434085 78.912613802320266 0 0 0 0 -18.544906852682061 -52.538225478689128 0 -52.538225478689128 -1.9690417130404967 0 0 0 0 -16.701806348530226 -1.0735523211824329 0 -1.0735523211824329 95.438572505579032 0 0 0 0 -27.489577289579728 -14.572897151554201 0 -14.572897151554201 62.938133183398548 0 0 0 0 41.062355784577449 -136.43593046979368 0 -136.43593046979368 -188.73671736372853 0 0 0 0 -95.165359727729992 20.332448385819589 0 20.332448385819589 353.04866527123886 0 0 0 0 -0.068813854190386436 -1.3571250451023644 0 -1.3571250451023644 -0.14041295504995333 0 0 0 0 47.766536807560442 -29.815599767614913 0 -29.815599767614913 -4.573844149850629 0 0 0 0 63.778339530614176 -57.907172365994484 0 -57.907172365994484 115.36553195052693 0 0 0 0 -19.900314981265183 -10.35427485017226 0 -10.35427485017226 80.46798223053338 0 0 0 0 -23.849540132555383 -21.506322454576647 0 -21.506322454576647 63.153439208094049 0 0 0 0 -61.981048261928663 -42.656662504385167 0 -42.656662504385167 59.040244519417683 0 0 0 0 -88.871072264235863 -62.22732174041812 0 -62.22732174041812 67.100549930590205 0 0 0 0 -52.445631863811286 -10.874008524040619 0 -10.874008524040619 -59.820314870157745 0 0 0 0 -89.348458196335741 -27.31654102727407 0 -27.31654102727407 184.81815262118835 0 0 0 0 -15.550205753648697 -116.0912916074376 0 -116.0912916074376 62.434745749211288 0 0 0 0 -6.9621479564578976 -59.026882019306413 0 -59.026882019306413 19.625384401224437 0 0 0 0 7.0647746513381691 -44.444354093678385 0 -44.444354093678385 -15.413079333928181 0 0 0 0 2.6343728014517183 -159.13253308370622 0 -159.13253308370622 -45.521019332969445 0 0 0 0 57.74039518851032 -179.64798620012152 0 -179.64798620012152 188.85298587870057 0 0 0 0 -78.115448376454879 26.876591989056351 0 26.876591989056351 461.8733017615159 0 0 0 0 198.25698979805475 178.70195081425481 0 178.70195081425481 137.82929481774408 0 0 0 0 -78.734257642785224 9.9751260632360754 0 9.9751260632360754 151.18004733268026 0 0 0 0 -56.919364736997977 35.929707690225769 0 35.929707690225769 179.21290609122661 0 0 0 0 -50.549414516949128 -2.541419847177167 0 -2.541419847177167 101.57867748476201 0 0 0 0 -48.088454331653338 5.6700895064604993 0 5.6700895064604993 50.498184831340041 0 0 0 0 1.3149438462126897 -1.7323758001491569 0 -1.7323758001491569 3.1730830289393168 0 0 0 0 142.87060560061491 -94.456747762858868 0 -94.456747762858868 2.7970012036385015 0 0 0 0 97.789123232694692 -214.80778726941207 0 -214.80778726941207 273.97197263361829 0 0 0 0 91.705575690965816 199.01854776608707 0 199.01854776608707 283.14985827922646 0 0 0 0 -116.27398093355077 60.06835797299027 0 60.06835797299027 182.97532937693177 0 0 0 0 -77.062155062362763 -116.50508405248547 0 -116.50508405248547 69.145918375352267 0 0 0 0 -11.824221897596946 15.594366759872713 0 15.594366759872713 100.94641983280368 0 0 0 0 -125.89537961437418 178.3324817507746 0 178.3324817507746 -56.775346748327138 0 0 0 0 142.7984970974976 80.242598063647165 0 80.242598063647165 162.77073148961063 0 0 0 0 -7.7070860572733544 9.562863985009983 0 9.562863985009983 33.865154059416056 0 0 0 0 -147.1433502706077 256.24354149277497 0 256.24354149277497 -257.15534440372721 0 0 0 0 -4.3415841617162414 29.97825140371242 0 29.97825140371242 38.617399162932998 0 0 0 0 -348.7259681348678 523.31464374184725 0 523.31464374184725 144.28420099207324 0 0 0 0 -14.048013757426773 22.713374614225017 0 22.713374614225017 -0.12562266162353808 0 0 0 0 -13.618387562639327 15.627720410819165 0 15.627720410819165 34.271299010826624 0 0 0 0 -3.6802264604357333 27.29543810490577 0 27.29543810490577 12.827804470507544 0 0 0 0 730.26689149130834 -208.4435050733664 0 -208.4435050733664 5.4137897868931759 0 0 0 0 -691.16868767160486 341.86935698370507 0 341.86935698370507 183.68051822419511 0 0 0 0 -274.6299788145061 -573.00273038567684 0 -573.00273038567684 450.9849685569061 0 0 0 0 -7.144752494592467 19.754816110973479 0 19.754816110973479 2.057676476018969 0 0 0 0 -3.9392178209559745 6.7981934736854015 0 6.7981934736854015 -10.307623063837553 0 0 0 0 535.7628562240443 260.82691728451027 0 260.82691728451027 64.642254735401366 0 0 0 0 -10.842976710066068 14.103602027418674 0 14.103602027418674 2.3043132860038895 0 0 0 0 322.58037894248992 7.7191154691827251 0 7.7191154691827251 115.51918260411367 0 0 0 0 -7.4603446888213512 34.126157875492936 0 34.126157875492936 117.71827992290491 0 0 0 0 -13.322481195849832 34.211102946632309 0 34.211102946632309 222.18351587219149 0 0 0 0 211.48419223079691 111.50118105611182 0 111.50118105611182 130.45111131062731 0 0 0 0 -8.9261850919906465 85.879526457841621 0 85.879526457841621 165.51313697453588 0 0 0 0 260.43016537625226 242.68725723775879 0 242.68725723775879 160.99106437101727 0 0 0 0 166.465243305694 179.31764978866704 0 179.31764978866704 205.6573959892703 0 0 0 0 -125.82193981593991 175.00682484809295 0 175.00682484809295 29.050363829606795 0 0 0 0 -276.04147672374529 183.22407201353781 0 183.22407201353781 170.62142518971814 0 0 0 0 -7.9599379975533111 100.47335771081566 0 100.47335771081566 127.33952163526556 0 0 0 0 -136.99324246523611 96.911963037477108 0 96.911963037477108 172.18876630916202 0 0 0 0 -137.6425401372835 122.95092286023282 0 122.95092286023282 1.0752833876213117 0 0 0 0 -157.04975878373989 109.20935774171085 0 109.20935774171085 142.27314211291377 0 0 0 0 -32.21886637874195 71.457616009058256 0 71.457616009058256 125.18878438667161 0 0 0 0 -149.52562089059984 65.53393772058098 0 65.53393772058098 180.19559118660982 0 0 0 0 12.231233171678468 96.462363598962838 0 96.462363598962838 126.76893009091145 0 0 0 0 11.516891265957383 101.30251914749533 0 101.30251914749533 170.54598080257711 0 0 0 0 147.35413847430482 132.69465637434041 0 132.69465637434041 130.00499796189251 0 0 0 0 140.30522979896091 166.55289177115992 0 166.55289177115992 152.00932744418969 0 0 0 0 -21.776061116761412 121.96063753600902 0 121.96063753600902 227.7373238996297 0 0 0 0 -48.690337037434801 60.264916608066414 0 60.264916608066414 177.95707092694647 0 0 0 0 24.152314907969412 198.49527566727556 0 198.49527566727556 424.07543254815391 0 0 0 0 -93.283770222815292 82.236155663129466 0 82.236155663129466 250.10466271382757 0 0 0 0 -164.63518995652774 19.32484138853016 0 19.32484138853016 208.64586496230913 0 0 0 0 -164.88108384979205 -15.592552660302317 0 -15.592552660302317 88.952078677335521 0 0 0 0 421.4417956595027 62.833995644688912 0 62.833995644688912 3.0883809868246317 0 0 0 0 163.18629173931322 405.4684443926235 0 405.4684443926235 522.47623228676821 0 0 0 0 -1.4887149394270889 -0.46000304261987424 0 -0.46000304261987424 11.280027073850192 0 0 0 0 156.40364251011124 235.31467623707431 0 235.31467623707431 151.81488746977993 0 0 0 0 153.97329867563008 256.61369822714596 0 256.61369822714596 130.07149062593817 0 0 0 0 175.90969623561045 230.65801639351776 0 230.65801639351776 110.80747709333082 0 0 0 0 -73.837912145499558 -172.62410436883874 0 -172.62410436883874 -49.940257714391919 0 0 0 0 1.4448872489733215 0.4585969665483276 0 0.4585969665483276 -3.388579850628247 0 0 0 0 229.38484037210765 211.40784384668223 0 211.40784384668223 117.7051532481637 0 0 0 0 191.83231851023811 196.03849287866615 0 196.03849287866615 162.8901252809228 0 0 0 0 227.50304275788403 132.59119942362304 0 132.59119942362304 145.90521031446406 0 0 0 0 -72.158837222289577 72.514137256443064 0 72.514137256443064 3.4914173408469651 0 0 0 0 -139.88876083759442 -59.491758510979707 0 -59.491758510979707 5.7442474345589289 0 0 0 0 33.676911272507652 35.920458425087418 0 35.920458425087418 -5.9011400651106669 0 0 0 0 0.20265571923494008 3.8073795907803287 0 3.8073795907803287 117.08496957289753 0 0 0 0 -8.9227802611549123 87.672972844724427 0 87.672972844724427 47.7896297484549 0 0 0 0 102.19377703540795 1.0362006628784002 0 1.0362006628784002 -33.587905003038031 0 0 0 0 -94.326006070172298 131.5244671972614 0 131.5244671972614 103.21051139434712 0 0 0 0 -219.98315071377556 -90.596087895515666 0 -90.596087895515666 10.162125815288164 0 0 0 0 230.79813155737065 192.91804222867358 0 192.91804222867358 244.93193443166092 0 0 0 0 -1.9190863896365258 1.7947806046178556 0 1.7947806046178556 -2.7649510488583928 0 0 0 0 89.111553730988817 -127.87781003607961 0 -127.87781003607961 -113.60927579001873 0 0 0 0 -12.123258468456925 17.704932063554224 0 17.704932063554224 7.7192823419172782 0 0 0 0 0.27091906578003933 2.5268435116483872 0 2.5268435116483872 8.6727185815308587 0 0 0 0 -13.611776317673502 15.114408020235715 0 15.114408020235715 12.708874199622187 0 0 0 0 -10.778716582076413 22.055665318901447 0 22.055665318901447 13.593367911278619 0 0 0 0 -9.9499480065803709 31.425426698391675 0 31.425426698391675 -20.688339417181851 0 0 0 0 -1.593344483116339 0.97062596923288424 0 0.97062596923288424 3.9401776461705253 0 0 0 0 8.5315824651710273 -3.009540266568365 0 -3.009540266568365 -20.116760206779873 0 0 0 0 -3.0716449643773558 24.179321554933267 0 24.179321554933267 -14.212968725820247 0 0 0 0 0.6327994310748295 2.4609734822623182 0 2.4609734822623182 5.7229189166701531 0 0 0 0 1.7160494047710131 1.1151118445068278 0 1.1151118445068278 30.671334632119397 0 0 0 0 -13.682023079483088 28.58986396923865 0 28.58986396923865 -8.8770504461863311 0 0 0 0 -20.046464647602079 33.804245011982857 0 33.804245011982857 -12.445392670939327 0 0 0 0 -1.191637073235247 2.9819876964074155 0 2.9819876964074155 6.0642978072324354 0 0 0 0 -223.96926391128346 24.769673333707033 0 24.769673333707033 574.80364082516462 0 0 0 0 -2.7134747095363423 12.463110018681618 0 12.463110018681618 10.821291542073595 0 0 0 0 -6.9898508252170863 8.7162207952556088 0 8.7162207952556088 6.6536134731505214 0 0 0 0 -7.8253095770388654 10.571914867148735 0 10.571914867148735 11.247966092414572 0 0 0 0 -17.806281329124886 -7.6440303599956678 0 -7.6440303599956678 23.5877199069364 0 0 0 0 -13.870720121048988 3.2021254770945404 0 3.2021254770945404 22.132311827748737 0 0 0 0 -22.299572282397548 87.577340552277747 0 87.577340552277747 141.46647855556876 0 0 0 0 -14.538102407940933 -1.986268339294412 0 -1.986268339294412 13.40485869046131 0 0 0 0 -11.370310596979209 -0.9975191261692089 0 -0.9975191261692089 -43.663032160373405 0 0 0 0 108.66728264880662 -226.40741209513271 0 -226.40741209513271 -12.478570885614317 0 0 0 0 18.51109449323485 267.49623750906903 0 267.49623750906903 -712.21292053215439 0 0 0 0 -0.4881079549228815 0.15929190158645667 0 0.15929190158645667 3.3844618864760179 0 0 0 0 -0.70624559184560098 6.7757570158323475 0 6.7757570158323475 23.323742648162408 0 0 0 0 -24.802982437186984 6.451304342950607 0 6.451304342950607 36.781081049979548 0 0 0 0 -19.523889276484169 12.409161320509156 0 12.409161320509156 41.756559041656146 0 0 0 0 -12.801680326905625 7.7230993572302395 0 7.7230993572302395 40.563206220012944 0 0 0 0 -11.791527117513397 18.271622752778057 0 18.271622752778057 37.170750284334645 0 0 0 0 -12.898471061437704 16.90026440944348 0 16.90026440944348 50.716051997966133 0 0 0 0 -19.846701167736001 8.7361380482725508 0 8.7361380482725508 61.876734680416121 0 0 0 0 -12.930179625574056 8.8445774840874947 0 8.8445774840874947 47.061361844644125 0 0 0 0 -6.2524458181123892 11.837653382320156 0 11.837653382320156 39.83720667214223 0 0 0 0 10.502024116674875 24.679453560002003 0 24.679453560002003 114.52221032169473 0 0 0 0 -7.3818513732250608 22.782946795909542 0 22.782946795909542 102.24666244137339 0 0 0 0 -19.619915952864076 4.2314970806481682 0 4.2314970806481682 58.204129318285993 0 0 0 0 -5.4499751635971734 19.427038318630366 0 19.427038318630366 66.800441753672203 0 0 0 0 -3.2878671836224385 -2.9568145183184242 0 -2.9568145183184242 42.471821112558246 0 0 0 0 -13.521421258543381 -0.70530563018176906 0 -0.70530563018176906 22.088232676400104 0 0 0 0 -100.22124039360278 19.469811713046511 0 19.469811713046511 82.470214738568757 0 0 0 0 -6.7720394607216505 5.6695736968545276 0 5.6695736968545276 39.903059620250758 0 0 0 0 -33.161609538827605 14.263689845189219 0 14.263689845189219 45.779988752736244 0 0 0 0 6.332771426554217 9.5329848258479615 0 9.5329848258479615 34.448201618302846 0 0 0 0 -10.004897329781841 -2.843100797612351 0 -2.843100797612351 71.683919372022501 0 0 0 0 -4.0326696654554723 -19.675440322957002 0 -19.675440322957002 122.71069391569472 0 0 0 0 9.8421927493773183 -10.833885574349551 0 -10.833885574349551 73.474992235342143 0 0 0 0 -6.1594040229780376 -39.114643944882118 0 -39.114643944882118 96.784288803231902 0 0 0 0 2.4393477557880487 -17.565715991870093 0 -17.565715991870093 44.979679418262094 0 0 0 0 -6.3504677299916619 5.3013465942534168 0 5.3013465942534168 32.065925599704229 0 0 0 0 17.814423414435169 56.368227338134602 0 56.368227338134602 -14.636692908210534 0 0 0 0 -48.197656886507048 54.578121678117895 0 54.578121678117895 13.618106884423469 0 0 0 0 -0.4650712368101857 -0.34480405937625846 0 -0.34480405937625846 3.246263395777305 0 0 0 0 1.1970952856053363 2.8129656188629539 0 2.8129656188629539 11.10409685256576 0 0 0 0 -114.65572361706974 96.389627360583972 0 96.389627360583972 702.3611574365932 0 0 0 0 2.438934322953628 3.626148785915575 0 3.626148785915575 11.012440619389963 0 0 0 0 -12.919514086778918 22.578818987727573 0 22.578818987727573 7.1270964229042875 0 0 0 0 144.23013913823456 -140.6703084464898 0 -140.6703084464898 -106.54307950014481 0 0 0 0 77.128152076540559 43.294993203415288 0 43.294993203415288 12.941688223319943 0 0 0 0 0.31854317918651454 1.0559727078345134 0 1.0559727078345134 3.5982114200952253 0 0 0 0 67.73155847735552 -52.785942516973591 0 -52.785942516973591 -45.260444759071106 0 0 0 0 1.1251149712373376 8.7725807550305035 0 8.7725807550305035 4.7726613089034799 0 0 0 0 44.895883776719756 -9.9979290487717662 0 -9.9979290487717662 -8.1968639347469434 0 0 0 0 49.569815144422591 50.608473758868058 0 50.608473758868058 -15.429443999211799 0 0 0 0 28.819917597426866 9.3277831146988319 0 9.3277831146988319 11.159975731447048 0 0 0 0 4.1329074623558881 -48.163712170895451 0 -48.163712170895451 59.585028887049702 0 0 0 0 -60.474535452555756 -42.939339936277975 0 -42.939339936277975 154.84541686659941 0 0 0 0 24.325079806944473 -15.83637715975874 0 -15.83637715975874 106.91191885956505 0 0 0 0 -22.794502144342914 -31.993388388393214 0 -31.993388388393214 136.35767896637117 0 0 0 0 -40.403944042012427 -5.5492390236286155 0 -5.5492390236286155 224.5005025833525 0 0 0 0 -32.235257482653651 66.259409228950972 0 66.259409228950972 111.25792346047456 0 0 0 0 -34.1901191569209 82.367182637481164 0 82.367182637481164 168.8676066218859 0 0 0 0 -42.666849762442325 65.314517392282141 0 65.314517392282141 -14.526710004072811 0 0 0 0 24.770646002584726 48.614723966247766 0 48.614723966247766 -11.633402073959587 0 0 0 0 -33.003032286483176 -0.15712038437231968 0 -0.15712038437231968 34.256339238978398 0 0 0 0 -106.21401074694631 21.913449700954516 0 21.913449700954516 29.463177958357846 0 0 0 0 -45.795117947112431 278.4432571734651 0 278.4432571734651 487.82419958212995 0 0 0 0 -0.37357603015616192 -2.6186052884069184 0 -2.6186052884069184 3.9269728982198728 0 0 0 0 -40.751937927825566 -133.31302998921456 0 -133.31302998921456 -164.98573892444983 0 0 0 0 148.93585068253287 283.11451236537687 0 283.11451236537687 147.43489173202397 0 0 0 0 7.8327776960195479 158.35632063905723 0 158.35632063905723 252.27003127701528 0 0 0 0 74.92199441198909 6.9027439622695965 0 6.9027439622695965 12.171012538037758 0 0 0 0 -7.4718931112733138 4.2103843113501966 0 4.2103843113501966 16.97517524820401 0 0 0 0 -0.94082175733365148 -59.076765187393903 0 -59.076765187393903 236.27699135939088 0 0 0 0 -80.958862426491578 11.339586875965324 0 11.339586875965324 6.9479265156696783 0 0 0 0 34.057166445496932 -237.69818612763629 0 -237.69818612763629 -111.46656066077412 0 0 0 0 3.5444593739821428 -6.69753715823758 0 -6.69753715823758 4.990903299915459 0 0 0 0 -26.825505399161557 75.699218543897587 0 75.699218543897587 181.69934110802205 0 0 0 0 5.2813664524676156 -4.0972731221597911 0 -4.0972731221597911 32.63263565520429 0 0 0 0 -19.819640748186842 -7.8416563251860083 0 -7.8416563251860083 42.035122562476403 0 0 0 0 114.79482623203057 41.696990706876022 0 41.696990706876022 83.790576389925263 0 0 0 0 -81.315564480762987 -19.562445111449051 0 -19.562445111449051 128.18442434181998 0 0 0 0 -15.518512534708407 -0.50660343009076314 0 -0.50660343009076314 47.15723570692353 0 0 0 0 7.0187720680260099 -13.218309841438895 0 -13.218309841438895 54.185631780434051 0 0 0 0 -3.2104491479684611 -12.325131232977583 0 -12.325131232977583 122.51939546279027 0 0 0 0 17.473260471811727 -8.852300364022085 0 -8.852300364022085 80.73378697703447 0 0 0 0 -11.882965312775013 -10.71929880145035 0 -10.71929880145035 82.01821034202294 0 0 0 0 15.639443060389567 -30.655718421445272 0 -30.655718421445272 45.817083531452226 0 0 0 0 -5.1306121321858882 -24.952507127127319 0 -24.952507127127319 135.67876543843886 0 0 0 0 -1.1027547221501663 9.446405633338145 0 9.446405633338145 74.254777414629643 0 0 0 0 -9.0900880491259581 -19.599451218336682 0 -19.599451218336682 56.586102604089717 0 0 0 0 -19.663706184762034 -39.308726381801534 0 -39.308726381801534 54.394452712731436 0 0 0 0 -18.122933656462465 -16.041864761704346 0 -16.041864761704346 114.44391809461376 0 0 0 0 -3.1479627776536319 -1.5261674280788498 0 -1.5261674280788498 0.39369691081249769 0 0 0 0 -4.2936896977565766 44.008203313306694 0 44.008203313306694 124.28792017339583 0 0 0 0 -49.628605454336139 11.451120319186884 0 11.451120319186884 248.43556013869238 0 0 0 0 91.434057081418359 -30.907362640245992 0 -30.907362640245992 17.524072324742519 0 0 0 0 -258.38185342033194 -250.1524717805878 0 -250.1524717805878 629.22782300418476 0 0 0 0 -13.620343391650749 -61.827704069699394 0 -61.827704069699394 142.6097982495121 0 0 0 0 -24.706795823890388 -32.390108376162971 0 -32.390108376162971 73.931887628938057 0 0 0 0 -5.2064537288650596 -22.756089059961354 0 -22.756089059961354 67.861393178503448 0 0 0 0 -16.994252014584617 -62.610437135572283 0 -62.610437135572283 53.859408620658542 0 0 0 0 -20.253058829174165 -17.122245973882855 0 -17.122245973882855 133.10376771251322 0 0 0 0 18.423077677527544 -29.323985709914268 0 -29.323985709914268 42.258219988190831 0 0 0 0 -4.5311016326863864 -15.863769304341986 0 -15.863769304341986 120.10787936816632 0 0 0 0 -1.3264120881913186 -33.101072519690206 0 -33.101072519690206 72.375077460932516 0 0 0 0 -7.1838878818889498 -32.447333018255449 0 -32.447333018255449 93.125274153528153 0 0 0 0 5.9032526681176023 -10.192441330655129 0 -10.192441330655129 78.815291190345306 0 0 0 0 45.902343631183612 13.000544794340385 0 13.000544794340385 111.87911670385802 0 0 0 0 9.3602680299738381 -18.457182875428202 0 -18.457182875428202 87.170483136113035 0 0 0 0 -11.976192815202012 -58.607297247399401 0 -58.607297247399401 89.136515459589646 0 0 0 0 28.042698006225692 -52.301158495451091 0 -52.301158495451091 18.291415629442781 0 0 0 0 198.6701055975891 79.903638009895076 0 79.903638009895076 16.665844038740033 0 0 0 0 31.489217669455684 83.021923796361079 0 83.021923796361079 233.75029839923627 0 0 0 0 1.9612110550542639 22.208827480833861 0 22.208827480833861 109.95009283868421 0 0 0 0 -1.6220880922983838 1.2352061508777297 0 1.2352061508777297 173.20770508777059 0 0 0 0 -258.96005044998799 -591.19162671513186 0 -591.19162671513186 2888.7201068120121 0 0 0 0 -71.052893047897669 -266.41057913371515 0 -266.41057913371515 1533.9540838470712 0 0 0 0 -2.3455180831612541 -5.5196722936431541 0 -5.5196722936431541 9.4557409399493011 0 0 0 0 266.17352464912676 -59.597614697976496 0 -59.597614697976496 863.97401472029378 0 0 0 0 2.7053883249991486 -818.99151668235572 0 -818.99151668235572 1401.4201090821216 0 0 0 0 3.4509636920747653 -12.861883835828849 0 -12.861883835828849 29.441069896227418 0 0 0 0 -3.6260693129208867 4.8710496773211247 0 4.8710496773211247 10.853514242532498 0 0 0 0 -436.64722453893364 -279.37495979063169 0 -279.37495979063169 1722.5540273766674 0 0 0 0 -8.9495427070868807 36.286938232575409 0 36.286938232575409 21.99169269733305 0 0 0 0 602.3417387965203 -110.1041180235643 0 -110.1041180235643 72.27019058282167 0 0 0 0 -17.008847420023471 -1560.7219987515164 0 -1560.7219987515164 3276.425647093587 0 0 0 0 106.76966067753619 -667.8568985155016 0 -667.8568985155016 1483.0881363335502 0 0 0 0 1329.0936058777068 -1252.0173634863131 0 -1252.0173634863131 660.3578034982238 0 0 0 0 -274.91940417107344 -325.22977261037522 0 -325.22977261037522 1007.7682286319832 0 0 0 0 259.3884353356907 85.174376846895029 0 85.174376846895029 -325.3852559319057 0 0 0 0 -0.65874521833529798 -28.386799150328443 0 -28.386799150328443 139.00679916024092 0 0 0 0 4.2383975333653012 12.151630068951818 0 12.151630068951818 138.65438072186953 0 0 0 0 -16.880904923169162 33.426459317979806 0 33.426459317979806 18.773477465636027 0 0 0 0 12.600588345373126 -33.136433319406933 0 -33.136433319406933 206.27893813300034 0 0 0 0 -17.871781911276912 -10.859677804990497 0 -10.859677804990497 197.81589677998272 0 0 0 0 38.86455472516343 -15.738136547064641 0 -15.738136547064641 122.53280891934992 0 0 0 0 0.28998443597841383 -1.6834835395007701 0 -1.6834835395007701 14.907703045544118 0 0 0 0 -7.5335363517222049 -58.524027305684285 0 -58.524027305684285 282.54523624820285 0 0 0 0 -20.601239452724968 5.8882916564271284 0 5.8882916564271284 55.874096741573055 0 0 0 0 12.849886290614478 -7.721511410898529 0 -7.721511410898529 59.698807398486679 0 0 0 0 -180.76330197898915 129.35491562021525 0 129.35491562021525 291.57445730099789 0 0 0 0 336.15037144367852 -128.88388842593031 0 -128.88388842593031 -34.096507081681921 0 0 0 0 15.822412278643748 -6.4056305035634864 0 -6.4056305035634864 16.061193047747672 0 0 0 0 666.08105454605391 -1552.0664392585204 0 -1552.0664392585204 4558.9128730619013 0 0 0 0 419.41830451751798 -2016.4803230305533 0 -2016.4803230305533 5499.5864292733459 0 0 0 0 350.84622956874858 -1462.2883332239144 0 -1462.2883332239144 4759.3057561914829 0 0 0 0 -488.04553299815666 -632.43071832503483 0 -632.43071832503483 4078.3011917180775 0 0 0 0 79.325271863890237 -868.24151620005068 0 -868.24151620005068 4166.8172843141074 0 0 0 0 -1034.2230377547967 -290.86190571573024 0 -290.86190571573024 4246.1549049919959 0 0 0 0 -907.41700736337782 -798.02555317761653 0 -798.02555317761653 5498.9978106188919 0 0 0 0 -299.56219725056098 -725.82987640451756 0 -725.82987640451756 2887.5501236864106 0 0 0 0 -694.74255895636281 -419.14297609140158 0 -419.14297609140158 4260.1216261086665 0 0 0 0 6.3245286925737156 -22.98801777855823 0 -22.98801777855823 2.3053616119717049 0 0 0 0 138.77821834324709 -16.447793183026079 0 -16.447793183026079 -41.487226902252587 0 0 0 0 14.703693233925151 -91.295600279932842 0 -91.295600279932842 385.9916815786637 0 0 0 0 140.79774437335027 176.7927188272588 0 176.7927188272588 150.4345863064591 0 0 0 0 66.119731808670394 -49.065261156778433 0 -49.065261156778433 150.58971285731241 0 0 0 0 6.7375372118859129 -20.792869176294715 0 -20.792869176294715 15.637531999967688 0 0 0 0 -19.010903728841413 -60.595057141290454 0 -60.595057141290454 16.885189692096901 0 0 0 0 -48.365893256317122 117.57174758076144 0 117.57174758076144 304.21766035882683 0 0 0 0 -62.463120067582622 -172.04940322969196 0 -172.04940322969196 227.19640287861694 0 0 0 0 88.835132288000295 139.39083695522277 0 139.39083695522277 60.554727885173634 0 0 0 0 -25.023329160154617 15.863573799324513 0 15.863573799324513 20.206504518733709 0 0 0 0 -62.273431177799978 48.08141993036952 0 48.08141993036952 155.0444988682284 0 0 0 0 26.155245296426983 9.758682426665473 0 9.758682426665473 7.1004853590711718 0 0 0 0 -13.200246630171016 18.984463559266572 0 18.984463559266572 1.8144128759858944 0 0 0 0 22.081019433756182 -1.3245042745584215 0 -1.3245042745584215 24.032159882190172 0 0 0 0 -0.16198801519341322 2.901203727967129 0 2.901203727967129 -0.82642253000582855 0 0 0 0 51.622459784461171 -130.85018943349496 0 -130.85018943349496 347.98848867161723 0 0 0 0 -0.89615942326416764 0.0079223453947889766 0 0.0079223453947889766 4.9376692213069191 0 0 0 0 2.7075217427251062 -60.377248065130516 0 -60.377248065130516 143.74845715881384 0 0 0 0 -36.859885869956315 -11.741529770253692 0 -11.741529770253692 179.46089040945662 0 0 0 0 -15.329053626523745 -7.4947836227511289 0 -7.4947836227511289 160.32333725191711 0 0 0 0 -23.952824021425229 -29.032779226596176 0 -29.032779226596176 159.92660563625395 0 0 0 0 -19.10961948617674 -20.585948323969205 0 -20.585948323969205 122.8836617427296 0 0 0 0 -45.671021693326566 -13.398330098534643 0 -13.398330098534643 157.47563375978552 0 0 0 0 -22.184483079740062 -14.268670841978746 0 -14.268670841978746 153.19027302306495 0 0 0 0 22.378640781793305 -21.095857282600264 0 -21.095857282600264 150.20427070645383 0 0 0 0 -13.213575148859832 -32.485700845514657 0 -32.485700845514657 127.72677935136016 0 0 0 0 -22.586503072348904 -10.623858311102595 0 -10.623858311102595 120.98136179393623 0 0 0 0 -13.069273508502022 -32.060908438506885 0 -32.060908438506885 114.59949928706919 0 0 0 0 -10.445985927882617 -1.7625525607654708 0 -1.7625525607654708 45.027325790477335 0 0 0 0 -37.000150909095453 -19.465206828295777 0 -19.465206828295777 147.28982399450615 0 0 0 0 -64.788804412695754 -36.968237292589038 0 -36.968237292589038 161.65056028649997 0 0 0 0 -63.073202294631528 29.736125897921738 0 29.736125897921738 137.06056031916523 0 0 0 0 -134.37920329660801 -70.140834328529309 0 -70.140834328529309 100.97872299291703 0 0 0 0 -219.53317323327849 -275.47088975264342 0 -275.47088975264342 838.13071639076952 0 0 0 0 -7.5152384761937014 -22.622363261913947 0 -22.622363261913947 22.177916587239018 0 0 0 0 228.79733104233071 -925.28242110846986 0 -925.28242110846986 3775.1288353346827 0 0 0 0 6.7570749661196725 14.137571503764576 0 14.137571503764576 56.624239613396185 0 0 0 0 668.05095283755418 -2042.4968437172292 0 -2042.4968437172292 3608.0185532007745 0 0 0 0 1507.0365820378715 -3578.4370118994193 0 -3578.4370118994193 5495.0116856069508 0 0 0 0 1217.1494363908375 1571.4609865969433 0 1571.4609865969433 699.26350253986311 0 0 0 0 4.5876136833796428 5.5918002989847224 0 5.5918002989847224 21.288808148172365 0 0 0 0 -839.74374335994048 1147.593689052319 0 1147.593689052319 5491.9917147375745 0 0 0 0 560.63127582597929 -2.2215585196827305 0 -2.2215585196827305 -260.5850157124114 0 0 0 0 574.51725905493765 28.48955733134062 0 28.48955733134062 -430.85242128135724 0 0 0 0 -509.01502751672444 -29.86625352259216 0 -29.86625352259216 2051.5561542639261 0 0 0 0 -753.00166012667478 -79.495162791317853 0 -79.495162791317853 2063.1231488454614 0 0 0 0 -687.07060613347755 -1302.0239266062417 0 -1302.0239266062417 5490.209013407999 0 0 0 0 1121.3517194287506 -1329.7255509225797 0 -1329.7255509225797 752.27617795954575 0 0 0 0 4.2266386417062636 -3.2952749108622825 0 -3.2952749108622825 15.702586345815064 0 0 0 0 3.8154194730198308 1.825357122915122 0 1.825357122915122 14.53453941353996 0 0 0 0 5.3685479632519453 -3.8745974234407186 0 -3.8745974234407186 5466.3827002989992 0 0 0 0 1001.9699794798795 1074.103193415307 0 1074.103193415307 446.92275063133275 0 0 0 0 -5.2064719049681116 -8.4762291642473429 0 -8.4762291642473429 39.047813109194976 0 0 0 0 -1.5538602260912868 -6.8688897184160851 0 -6.8688897184160851 37.590805905358195 0 0 0 0 -316.67678206000858 -304.71039688160454 0 -304.71039688160454 552.5049932191323 0 0 0 0 -0.884152515632326 -4.5570024642497131 0 -4.5570024642497131 31.293686989083625 0 0 0 0 -269.54227859283174 386.10188415675657 0 386.10188415675657 408.9168793242934 0 0 0 0 -1.922092923929418 8.069356299422509 0 8.069356299422509 23.530934702093191 0 0 0 0 17.460244611233975 27.484157619284815 0 27.484157619284815 54.012029706453177 0 0 0 0 -13.425511411515572 3.4548416558463941 0 3.4548416558463941 123.56939255433099 0 0 0 0 26.076647791670894 64.115990520025662 0 64.115990520025662 160.67570833407808 0 0 0 0 3.9512810532879161 -1.5953453575994203 0 -1.5953453575994203 -1.7054029943046771 0 0 0 0 6.4056289244733762 -6.8728486255131429 0 -6.8728486255131429 80.330594448198099 0 0 0 0 14.68057382691768 -37.411372777940414 0 -37.411372777940414 193.0026546070585 0 0 0 0 -63.838552827998555 25.98068647542982 0 25.98068647542982 115.00308296915318 0 0 0 0 -6.8934531922688036 13.426926094538288 0 13.426926094538288 73.989334388942439 0 0 0 0 -14.824839885487563 10.638057265729003 0 10.638057265729003 87.09042721503647 0 0 0 0 20.148881149091949 1.8854796605410229 0 1.8854796605410229 69.450551594069111 0 0 0 0 -11.292369655070615 -46.266694419668056 0 -46.266694419668056 68.968355644681992 0 0 0 0 -2.9670884413288663 1.1627970186284813 0 1.1627970186284813 75.119730587737479 0 0 0 0 -39.590762785860534 -11.164250580484804 0 -11.164250580484804 127.56547549975221 0 0 0 0 -27.150159581392472 43.751995835555135 0 43.751995835555135 71.9667086310983 0 0 0 0 3.5378980586156104 8.5628201001236448 0 8.5628201001236448 48.971373975815368 0 0 0 0 106.47094408740122 -16.791458018677076 0 -16.791458018677076 61.651655406789359 0 0 0 0 26.545610084773671 49.266736158875574 0 49.266736158875574 120.1149426130869 0 0 0 0 11.353711009337276 -12.157807246181022 0 -12.157807246181022 20.546637322226864 0 0 0 0 552.66366757074036 32.329225123183278 0 32.329225123183278 -256.52038877826817 0 0 0 0 37.627281466536942 -57.823237308661191 0 -57.823237308661191 86.818386881423066 0 0 0 0 -32.956230205565589 -0.40502066173939966 0 -0.40502066173939966 141.69951666329871 0 0 0 0 -306.32866923860644 252.03373275820923 0 252.03373275820923 1007.4578138202342 0 0 0 0 7.4640812808899462 16.07860172761648 0 16.07860172761648 54.001060287893949 0 0 0 0 -418.24765012473517 704.27983805932672 0 704.27983805932672 5489.318548034702 0 0 0 0 -314.91485779709728 -123.7339215987522 0 -123.7339215987522 1013.6541439093352 0 0 0 0 -170.750456822968 -1667.3910571500273 0 -1667.3910571500273 5491.0962734343339 0 0 0 0 1995.2741461461535 2177.4673861260599 0 2177.4673861260599 1124.6458803862915 0 0 0 0 4.8774351835429819 8.2704839824730669 0 8.2704839824730669 22.773415712018846 0 0 0 0 -319.14447059023547 1938.8884393489971 0 1938.8884393489971 5487.8011669378175 0 0 0 0 134.53632779189934 897.50003593483416 0 897.50003593483416 2038.218428580185 0 0 0 0 146.15469609279972 -331.97856480092742 0 -331.97856480092742 501.99219440743582 0 0 0 0 -905.68823400399754 105.87490279971098 0 105.87490279971098 5504.6225994725028 0 0 0 0 -688.42336566315737 524.30381339803716 0 524.30381339803716 2287.0257010565838 0 0 0 0 -279.71992795832557 -598.50402482757636 0 -598.50402482757636 2289.7063996120705 0 0 0 0 -79.783880890568483 436.0978301181749 0 436.0978301181749 1668.6150278425921 0 0 0 0 331.96041623161062 -25.004470498572118 0 -25.004470498572118 179.29714497081295 0 0 0 0 53.030801742100913 -8.4219101309885218 0 -8.4219101309885218 -2.6686093261939305 0 0 0 0 16.348116829412902 23.020892151922453 0 23.020892151922453 146.58039391305465 0 0 0 0 73.693327287905049 12.429091900592539 0 12.429091900592539 119.5309136834112 0 0 0 0 -47.050004060383522 -29.766320764889315 0 -29.766320764889315 73.505743497677031 0 0 0 0 -16.01467428804699 -9.930766402190784 0 -9.930766402190784 137.50219406184806 0 0 0 0 10.8038818583561 -4.728132499937999 0 -4.728132499937999 15.84490631867979 0 0 0 0 41.885838256065654 -31.377674909424968 0 -31.377674909424968 76.225246601192339 0 0 0 0 2.0725244170612314 3.7449563170257534 0 3.7449563170257534 50.045323404163355 0 0 0 0 -24.70077784791647 -74.076745522070269 0 -74.076745522070269 17.35390199918038 0 0 0 0 13.274193357603508 -6.79483266337229 0 -6.79483266337229 -26.957169301764225 0 0 0 0 99.401788360293722 65.740996441585594 0 65.740996441585594 12.271887486265769 0 0 0 0 76.653247207501408 -128.24920377418312 0 -128.24920377418312 -23.83115838014055 0 0 0 0 46.518266525801891 87.459856408633641 0 87.459856408633641 87.095303888199851 0 0 0 0 22.402200550246427 -18.259040423501006 0 -18.259040423501006 13.40943550776916 0 0 0 0 141.2516689160002 -11.078295300467289 0 -11.078295300467289 46.910983729350846 0 0 0 0 71.265142685877436 -2.249623321054969 0 -2.249623321054969 74.419960597319005 0 0 0 0 -2.6871263646444277 -22.10095045548951 0 -22.10095045548951 99.816604904561245 0 0 0 0 -1.2067536540780566 -113.87749569764856 0 -113.87749569764856 -25.065961070041567 0 0 0 0 117.40411037360172 -16.594612638084072 0 -16.594612638084072 -25.027500892269018 0 0 0 0 143.49305552257283 -77.232296637539548 0 -77.232296637539548 99.325613695109496 0 0 0 0 315.29922094019275 -76.647041668111342 0 -76.647041668111342 -55.585933123869836 0 0 0 0 -24.143739471524896 7.6853543816250749 0 7.6853543816250749 -3.1266003834098228 0 0 0 0 -39.891096474333835 223.78953370085378 0 223.78953370085378 882.74856516045111 0 0 0 0 -545.88261778593733 -405.33894139940094 0 -405.33894139940094 716.77742716029752 0 0 0 0 -54.175640891286037 -29.356174984187419 0 -29.356174984187419 227.7840109384415 0 0 0 0 7.9746618872055137 -3.786008060022354 0 -3.786008060022354 1.0350990251956205 0 0 0 0 3.6631961400421744 -6.0362119969121295 0 -6.0362119969121295 44.074275884691758 0 0 0 0 280.77481851353059 -452.35985588844142 0 -452.35985588844142 201.65902773749258 0 0 0 0 843.13021304117137 459.30893357808236 0 459.30893357808236 250.1048915181691 0 0 0 0 135.87316522426045 15.155342114827363 0 15.155342114827363 160.17683413898339 0 0 0 0 135.30711680051016 -46.343383327745812 0 -46.343383327745812 80.904934420788777 0 0 0 0 183.92243527515802 13.112280964523961 0 13.112280964523961 43.397286354011158 0 0 0 0 53.75851917521868 -9.2718742252982338 0 -9.2718742252982338 162.14946632097417 0 0 0 0 -55.281707087717223 -50.536634018280893 0 -50.536634018280893 168.79781171391369 0 0 0 0 15.519277927782362 -11.839620113474197 0 -11.839620113474197 8.7261356319111769 0 0 0 0 -24.685239379436098 58.336620645874063 0 58.336620645874063 112.66866147828114 0 0 0 0 33.892399646560079 -38.298742455561296 0 -38.298742455561296 167.19937079256943 0 0 0 0 104.81642097878466 -86.535344466166862 0 -86.535344466166862 194.42335979070594 0 0 0 0 26.689587635154567 -25.129280771525373 0 -25.129280771525373 181.78231909690658 0 0 0 0 105.76807562489194 -80.978090625554614 0 -80.978090625554614 126.51642221447401 0 0 0 0 112.92097188841035 -96.478877105560969 0 -96.478877105560969 105.24344281302911 0 0 0 0 76.489502622210239 -33.926891516151954 0 -33.926891516151954 66.199585247202776 0 0 0 0 93.258362436141397 -84.124142203712836 0 -84.124142203712836 126.34440634840576 0 0 0 0 3.0068421811248669 1.7323895399060092 0 1.7323895399060092 -0.18679093720544415 0 0 0 0 43.882161494122556 -48.397874560316268 0 -48.397874560316268 95.52758049214026 0 0 0 0 178.96339546075524 29.996655468193239 0 29.996655468193239 13.490421645808965 0 0 0 0 37.328510135626857 -33.17558581205958 0 -33.17558581205958 86.455649736766645 0 0 0 0 -0.31031933551457769 24.427052086633921 0 24.427052086633921 54.531789185806701 0 0 0 0 25.684169756817937 26.309827721794136 0 26.309827721794136 -11.60878139322449 0 0 0 0 0.85781687227972725 7.3656835237052292 0 7.3656835237052292 38.093454285612097 0 0 0 0 75.683231801875081 -35.779721340099059 0 -35.779721340099059 38.050033496860124 0 0 0 0 47.750749301254473 -29.108299957952113 0 -29.108299957952113 70.914305014244746 0 0 0 0 19.322901235600511 18.673402254811663 0 18.673402254811663 41.592438920750283 0 0 0 0 51.086380474145926 24.357271730278171 0 24.357271730278171 -21.773424070226611 0 0 0 0 -10.614263929761364 11.935769002149755 0 11.935769002149755 -12.434844644731129 0 0 0 0 0.35378599116353149 3.3045656555760559 0 3.3045656555760559 6.4939666547038541 0 0 0 0 -9.7760765976045718 5.6433112147533393 0 5.6433112147533393 32.191033082119247 0 0 0 0 -19.357343784727618 -5.7963520647317637 0 -5.7963520647317637 45.794234804081498 0 0 0 0 1.6006623724841802 17.929799143792479 0 17.929799143792479 -10.781189987097605 0 0 0 0 -5.1435653552589429 25.884918982003001 0 25.884918982003001 51.792500259729422 0 0 0 0 4.572531065195343 7.2843240810298582 0 7.2843240810298582 17.81192745281794 0 0 0 0 18.935728741702178 6.8671690866394783 0 6.8671690866394783 -3.6702248667133972 0 0 0 0 1.9452037117069954 5.1553961493559797 0 5.1553961493559797 9.8490937949621866 0 0 0 0 -0.34691001041754177 12.482650926590509 0 12.482650926590509 12.497804632061161 0 0 0 0 -13.720834657092382 45.186572346223329 0 45.186572346223329 36.368364662659587 0 0 0 0 -13.555029528696821 20.650391811839654 0 20.650391811839654 33.441825680813054 0 0 0 0 -27.447889823217679 48.006015478269546 0 48.006015478269546 50.469256966880494 0 0 0 0 0.93665445963404892 -7.4232126138771548 0 -7.4232126138771548 18.129244915393826 0 0 0 0 -12.746377361548866 23.970232037492679 0 23.970232037492679 72.12458897450415 0 0 0 0 23.104317993674158 9.8690751767207985 0 9.8690751767207985 60.864061698586738 0 0 0 0 0.99819979396559688 31.82424782228918 0 31.82424782228918 57.402046301082009 0 0 0 0 8.0930350016954549 13.359254910727032 0 13.359254910727032 6.3265025451764814 0 0 0 0 18.72498903689791 77.016929799705395 0 77.016929799705395 61.93836350159836 0 0 0 0 -92.139650670485196 -360.44171942929961 0 -360.44171942929961 297.22537012855173 0 0 0 0 3.3003888084109576 -11.456842895957195 0 -11.456842895957195 21.22114603273846 0 0 0 0 0.87876995910806954 -15.615705489741231 0 -15.615705489741231 60.55195766273755 0 0 0 0 17.244006490660468 -5.1107784211999387 0 -5.1107784211999387 20.010886608604778 0 0 0 0 -0.41232781715575584 -12.504179790543276 0 -12.504179790543276 84.737908659790264 0 0 0 0 35.12812255797553 -1.0730065855605062 0 -1.0730065855605062 20.843640081002377 0 0 0 0 19.029736592652625 -4.8445666948828148 0 -4.8445666948828148 23.712592186726397 0 0 0 0 16.987589135292183 5.1564574658987112 0 5.1564574658987112 63.702273053131648 0 0 0 0 50.959587999514952 36.295905588474852 0 36.295905588474852 -4.2082475982897449 0 0 0 0 0.82147500865767142 16.566438016794564 0 16.566438016794564 22.185551140544248 0 0 0 0 -43.910695125433449 20.392525859781017 0 20.392525859781017 123.45150077830476 0 0 0 0 2.9926231639618157 7.1106560540983281 0 7.1106560540983281 31.624278022134945 0 0 0 0 9.3065731628002357 4.2813533637164198 0 4.2813533637164198 38.224217270838324 0 0 0 0 48.251234889972693 80.048739924110123 0 80.048739924110123 59.73674084214872 0 0 0 0 27.408102078712506 -20.052993660408148 0 -20.052993660408148 23.851071562915621 0 0 0 0 59.423513288727918 -25.340184027350915 0 -25.340184027350915 -16.293919538962655 0 0 0 0 17.182795727061603 56.225580253987573 0 56.225580253987573 128.85610459532472 0 0 0 0 -0.092047310648538883 2.3880752646292933 0 2.3880752646292933 3.2156561608825598 0 0 0 0 46.066754645576069 69.346800859708424 0 69.346800859708424 80.237124637496891 0 0 0 0 3.4725395445129834 22.990518549937406 0 22.990518549937406 70.32652068065363 0 0 0 0 17.466538208154816 -21.191421061243091 0 -21.191421061243091 12.490414733416401 0 0 0 0 3.0594605648199149 1.5037915850946888 0 1.5037915850946888 9.2271007361674151 0 0 0 0 -1.0867934505113226 3.9440104284585686 0 3.9440104284585686 21.323594186957052 0 0 0 0 5.5847838699831236 11.618794054321114 0 11.618794054321114 12.175588145755569 0 0 0 0 -2.9174602063370791 1.8229776449480397 0 1.8229776449480397 12.845676247135771 0 0 0 0 3.3215917437956977 10.401059579433785 0 10.401059579433785 31.378897142233228 0 0 0 0 -4.0985511621711339 4.8248114907619311 0 4.8248114907619311 11.170734394720057 0 0 0 0 1.9593945157425239 8.8181465199937463 0 8.8181465199937463 32.670649721894819 0 0 0 0 7.8384764204747626 -35.613754295962281 0 -35.613754295962281 40.072334758238867 0 0 0 0 -6.0586503714268254 -1.8068433965990067 0 -1.8068433965990067 9.8117721692968871 0 0 0 0 46.042188747044534 21.231744383574355 0 21.231744383574355 27.286279252904933 0 0 0 0 43.059838055117723 -0.79474061854125466 0 -0.79474061854125466 2.0443454790802207 0 0 0 0 31.504600562506596 -16.167853502513026 0 -16.167853502513026 -5.4113105157812242 0 0 0 0 20.381859057122256 10.119081758457469 0 10.119081758457469 34.078253976751512 0 0 0 0 -0.7341060252710282 -3.7233144939698306 0 -3.7233144939698306 6.5046690038828956 0 0 0 0 -0.29172634387986024 0.78113659302539418 0 0.78113659302539418 10.49435452561243 0 0 0 0 -6.6872036013451073 18.247637919052067 0 18.247637919052067 8.0166643856058215 0 0 0 0 -1.861301432876977 -7.193803041542246 0 -7.193803041542246 64.717348762546123 0 0 0 0 -47.756885494545628 -130.93544690551425 0 -130.93544690551425 41.606522003712598 0 0 0 0 -4.989021353499778 -0.30371424393558755 0 -0.30371424393558755 66.528466324733728 0 0 0 0 -151.63275936298402 133.65937949111139 0 133.65937949111139 -12.610556071827887 0 0 0 0 -11.12949027144623 5.0154629978933372 0 5.0154629978933372 10.842594384426775 0 0 0 0 -538.00408841696208 -160.86873511447448 0 -160.86873511447448 466.44649148995813 0 0 0 0 315.41047815012428 -95.314266279267031 0 -95.314266279267031 0.91797004637919599 0 0 0 0 0.413513512119557 0.63705468036461355 0 0.63705468036461355 1.2051861237774801 0 0 0 0 1.7299764366397739 10.581768312702479 0 10.581768312702479 978.9416558087978 0 0 0 0 -39.96438144503152 26.20728396702907 0 26.20728396702907 1538.2780817903695 0 0 0 0 91.47107110535238 2347.7134585030653 0 2347.7134585030653 5478.2310474661754 0 0 0 0 1804.6663197329729 -2317.6532152421023 0 -2317.6532152421023 1397.947795871878 0 0 0 0 2.4941979891515107 -4.4533958759163568 0 -4.4533958759163568 24.820740838129609 0 0 0 0 -123.1588081343657 208.12915309928212 0 208.12915309928212 1446.6898025388073 0 0 0 0 1.6446311664432551 -9.8376768244601891 0 -9.8376768244601891 55.808576551860938 0 0 0 0 314.20444904825194 99.687527004891308 0 99.687527004891308 342.75043433823157 0 0 0 0 -432.71649454298819 -1770.1909666229913 0 -1770.1909666229913 5490.2048176740645 0 0 0 0 -709.86243856234012 -498.08258646246031 0 -498.08258646246031 2269.1087787707511 0 0 0 0 362.37239823530911 -878.79022968791833 0 -878.79022968791833 1625.4658054420579 0 0 0 0 -18.067150000756794 354.76907564088833 0 354.76907564088833 889.00611682573799 0 0 0 0 86.375783010835391 -144.26399759873311 0 -144.26399759873311 343.69858018274681 0 0 0 0 72.629785848434693 291.48481441609329 0 291.48481441609329 89.441062816717022 0 0 0 0 276.39062101293098 103.20545920194854 0 103.20545920194854 -435.93115953810047 0 0 0 0 10.560568311554837 16.089888934318424 0 16.089888934318424 -5.4574780430884999 0 0 0 0 73.299785360349233 -2.436527833880973 0 -2.436527833880973 -101.5510240511212 0 0 0 0 -31.333116740936021 66.592794844647869 0 66.592794844647869 -1.3501166982277937 0 0 0 0 21.194592064615787 12.423750683317593 0 12.423750683317593 1.2860537131005572 0 0 0 0 -227.80482825743456 -205.28228062028938 0 -205.28228062028938 238.5058517982543 0 0 0 0 367.1098950783005 -182.02527680005005 0 -182.02527680005005 -418.48649285337524 0 0 0 0 70.774262868880953 -42.424126565778352 0 -42.424126565778352 21.144341476581758 0 0 0 0 8.8070733226474101 2.950251430136575 0 2.950251430136575 -1.6579861676206633 0 0 0 0 323.46265423884438 -164.98952419108537 0 -164.98952419108537 -180.07817954247002 0 0 0 0 -404.73327074916995 -193.18464691647569 0 -193.18464691647569 -111.39977272402029 0 0 0 0 -327.49243501704711 104.98471067151695 0 104.98471067151695 799.18582323718874 0 0 0 0 454.65808706249641 9.7940427399698819 0 9.7940427399698819 299.832525040576 0 0 0 0 65.222424263398807 -25.113957109526382 0 -25.113957109526382 1324.7628662561037 0 0 0 0 -86.593650272906871 851.75792367396934 0 851.75792367396934 2026.4937868815396 0 0 0 0 -654.33097856798531 573.15715274423565 0 573.15715274423565 2274.7101630883117 0 0 0 0 -882.34176778953315 -60.511693409662257 0 -60.511693409662257 5501.1482692933641 0 0 0 0 -448.04372707893253 1567.1758196830961 0 1567.1758196830961 5489.0636998962291 0 0 0 0 170.80915631486141 -129.35964944810985 0 -129.35964944810985 245.15135572111467 0 0 0 0 878.46985729688163 531.73817459682323 0 531.73817459682323 560.19902645639377 0 0 0 0 1807.2238833981464 1877.9536204410615 0 1877.9536204410615 1410.7480263766483 0 0 0 0 1.7685935229429059 4.2422123917011163 0 4.2422123917011163 31.960710172970551 0 0 0 0 758.7669284408089 -2860.9730164763168 0 -2860.9730164763168 5484.0136770096142 0 0 0 0 -314.50092412148979 -399.23076598823536 0 -399.23076598823536 1410.4823188652517 0 0 0 0 152.15190074755623 55.73688754572504 0 55.73688754572504 166.47130272049253 0 0 0 0 66.733731834125365 -375.90525959299703 0 -375.90525959299703 1404.236260693202 0 0 0 0 -188.8982810939201 -190.69467572887515 0 -190.69467572887515 322.4343493241322 0 0 0 0 14.99706784290783 4.2824407516743079 0 4.2824407516743079 77.365365486650944 0 0 0 0 56.001337021394761 -175.4726665564267 0 -175.4726665564267 -97.188327138268505 0 0 0 0 30.802772093998158 -19.578759630362327 0 -19.578759630362327 30.993115978192392 0 0 0 0 9.9312411533495961 -21.075868239506249 0 -21.075868239506249 105.9455015526429 0 0 0 0 18.761111970488855 8.2257441638794262 0 8.2257441638794262 82.428086732335942 0 0 0 0 82.691186443197196 -13.104114074007384 0 -13.104114074007384 17.050634237108603 0 0 0 0 114.36262696565973 -15.999156817015319 0 -15.999156817015319 130.16536246596843 0 0 0 0 157.72029137299251 -17.5569761747538 0 -17.5569761747538 102.21478861285141 0 0 0 0 140.99391968050259 -36.850124700722517 0 -36.850124700722517 141.85683246931876 0 0 0 0 -5.6778049178192305 20.560870218010677 0 20.560870218010677 88.827965520060388 0 0 0 0 25.758271029711977 29.540986153559061 0 29.540986153559061 85.522629729035543 0 0 0 0 -28.267163354177683 27.986808036919683 0 27.986808036919683 88.834142248539138 0 0 0 0 -158.53129702240039 95.164783468550013 0 95.164783468550013 168.46491643504123 0 0 0 0 7.5791795371078479 96.015600929262291 0 96.015600929262291 78.314137739711441 0 0 0 0 -6.8840633055545783 -11.803948858883942 0 -11.803948858883942 151.09499416044076 0 0 0 0 158.67344342212891 -62.454022978687135 0 -62.454022978687135 104.84070389600674 0 0 0 0 138.11554620782772 -68.938231818054192 0 -68.938231818054192 162.64701972155308 0 0 0 0 -5.6776101019859961 -10.412659677494929 0 -10.412659677494929 197.74916674537445 0 0 0 0 -101.35812024026382 -188.07800587536622 0 -188.07800587536622 127.50085350166955 0 0 0 0 -320.73967948413519 -82.20077974963715 0 -82.20077974963715 273.84710114693735 0 0 0 0 -447.37207861802199 168.74794846438454 0 168.74794846438454 183.47180949125323 0 0 0 0 -2.4245792157079578 -14.283929325435224 0 -14.283929325435224 67.582060006058185 0 0 0 0 -324.40345127911132 -147.18727172755462 0 -147.18727172755462 391.23773760479526 0 0 0 0 -228.52965168978699 179.53521015163278 0 179.53521015163278 287.15587175691326 0 0 0 0 -117.76551304091481 74.398996562144021 0 74.398996562144021 193.62328840090777 0 0 0 0 -76.003041354904781 -2.4810631299187662 0 -2.4810631299187662 319.42801215191139 0 0 0 0 -201.62873509611654 115.12832201282436 0 115.12832201282436 399.12711645767558 0 0 0 0 60.145383368977491 182.03156266495353 0 182.03156266495353 218.22887284572062 0 0 0 0 -381.2312432879462 43.567134757329768 0 43.567134757329768 314.40130004804814 0 0 0 0 -97.288060328150095 68.542988725122996 0 68.542988725122996 125.59734243000275 0 0 0 0 -57.472260446269502 174.44796761114776 0 174.44796761114776 230.00858027147478 0 0 0 0 543.52950713181144 379.86399922287819 0 379.86399922287819 358.68288399322773 0 0 0 0 400.61535457470382 166.73646346878377 0 166.73646346878377 85.692369037584285 0 0 0 0 137.33213358747525 58.140866056128289 0 58.140866056128289 45.427388940857782 0 0 0 0 87.88542938809951 282.20216231360973 0 282.20216231360973 474.92156814690679 0 0 0 0 2.7183781899748283 131.9218119219222 0 131.9218119219222 536.48531643746537 0 0 0 0 128.91852433202257 77.436167301028036 0 77.436167301028036 390.41771785124001 0 0 0 0 154.63595284649432 208.79394894050711 0 208.79394894050711 1017.2232001233497 0 0 0 0 463.85269480067836 -403.3200650538347 0 -403.3200650538347 730.10494203288545 0 0 0 0 9.8160151105821569 -232.03334843732591 0 -232.03334843732591 534.03205417834158 0 0 0 0 -278.05877672523457 510.10778035446128 0 510.10778035446128 921.98545029786328 0 0 0 0 385.06314852875494 -844.88137114463461 0 -844.88137114463461 -335.69868709234288 0 0 0 0 28.230194441845015 -616.92628245661035 0 -616.92628245661035 -481.05591337993974 0 0 0 0 481.79518029022438 -621.71160686227086 0 -621.71160686227086 -456.37882555427495 0 0 0 0 -44.654350428780162 366.91771620752115 0 366.91771620752115 764.55017214904365 0 0 0 0 0.26907116625038618 -3.8076332369312809 0 -3.8076332369312809 9.4764501475711995 0 0 0 0 0.16568681465592761 0.23719771122074818 0 0.23719771122074818 12.947890244635687 0 0 0 0 -377.23554118935499 146.37818644495565 0 146.37818644495565 -998.07394487393321 0 0 0 0 -148.08181955569125 4.1916580195247661 0 4.1916580195247661 1050.2105668250151 0 0 0 0 79.783311380637315 -123.47122011796455 0 -123.47122011796455 14.228488774067955 0 0 0 0 -14.18159289522373 -493.45134129037615 0 -493.45134129037615 682.48154814376903 0 0 0 0 127.73850795998624 -526.17583297780948 0 -526.17583297780948 -81.031795038841665 0 0 0 0 -0.92289766658307659 -1.2296776060577308 0 -1.2296776060577308 34.58208697488908 0 0 0 0 -510.73921478049715 36.247330720405444 0 36.247330720405444 1891.6262563554337 0 0 0 0 135.29795915523391 57.908480585982034 0 57.908480585982034 47.325239741403493 0 0 0 0 153.27361996074251 118.51152930567332 0 118.51152930567332 81.409353697730694 0 0 0 0 104.19103517298026 33.373281009407947 0 33.373281009407947 58.130021060525905 0 0 0 0 54.083218690318063 15.275400746708328 0 15.275400746708328 65.787283768091584 0 0 0 0 -148.96523859301988 184.95028936055678 0 184.95028936055678 -118.52626043220516 0 0 0 0 4.8386652915398507 -1.7287429411434552 0 -1.7287429411434552 48.217016230976185 0 0 0 0 25.740626782526931 30.349090841116777 0 30.349090841116777 58.828387727058725 0 0 0 0 82.464254022394016 55.660301956595504 0 55.660301956595504 -168.2400460561621 0 0 0 0 174.84992817668677 -109.69499369285131 0 -109.69499369285131 9.4266463140374981 0 0 0 0 159.88769876343213 64.624459712664247 0 64.624459712664247 -532.01293557498138 0 0 0 0 85.629701758619291 -59.582797754906096 0 -59.582797754906096 7.2393705571594182 0 0 0 0 33.051981045704906 13.645793742573005 0 13.645793742573005 69.848142917224322 0 0 0 0 -36.31416358706214 4.3698882207245333 0 4.3698882207245333 56.614547743432922 0 0 0 0 21.32014589444816 -40.659145581754274 0 -40.659145581754274 78.742384206605493 0 0 0 0 1.4093407746245248 72.865586539504875 0 72.865586539504875 205.105522618338 0 0 0 0 -33.938121573418812 104.37154953896243 0 104.37154953896243 183.21467699209461 0 0 0 0 -44.970035635948079 161.37820106938307 0 161.37820106938307 549.2541599299002 0 0 0 0 35.324334657382906 -145.51635126195106 0 -145.51635126195106 371.58480160695035 0 0 0 0 -85.292743792695546 39.790418617718387 0 39.790418617718387 359.50673065009141 0 0 0 0 -37.321230379347071 327.2566216980631 0 327.2566216980631 444.47475563115586 0 0 0 0 -23.529811161432235 316.28749848355073 0 316.28749848355073 387.69137692305958 0 0 0 0 0.24622988625357056 -7.5133259205886986 0 -7.5133259205886986 18.263622130492081 0 0 0 0 -421.37598247195115 -230.09115879267483 0 -230.09115879267483 171.02199038590697 0 0 0 0 -323.8204998293229 181.97650940727908 0 181.97650940727908 952.23841576969426 0 0 0 0 58.517589562472523 171.37666488782907 0 171.37666488782907 77.654912065801909 0 0 0 0 79.117583742978695 286.87878153087513 0 286.87878153087513 354.90532008040464 0 0 0 0 1.2389100972991216 3.0956517366550358 0 3.0956517366550358 8.7385024070891859 0 0 0 0 429.43390834836555 365.77805768946564 0 365.77805768946564 142.71442189771915 0 0 0 0 -55.881236136905216 -175.81803985890292 0 -175.81803985890292 594.05344082422744 0 0 0 0 210.26676352768766 340.89982795184187 0 340.89982795184187 530.00052164167573 0 0 0 0 -6.1689890719901825 198.31532548103132 0 198.31532548103132 713.67922150011145 0 0 0 0 0.1962383656465323 55.932142216544889 0 55.932142216544889 84.327819771628128 0 0 0 0 -31.974342711462491 33.791455591242993 0 33.791455591242993 77.244466063406435 0 0 0 0 -38.753265237095775 -2.5668365670353523 0 -2.5668365670353523 102.06431424277253 0 0 0 0 -35.2350227876194 23.265619513545971 0 23.265619513545971 56.740176656690892 0 0 0 0 1.2365234531849585 7.5671322566210293 0 7.5671322566210293 24.265673728833917 0 0 0 0 -27.527701208100552 -16.848083256860264 0 -16.848083256860264 15.359660812013317 0 0 0 0 -54.296686171499005 22.073070725789876 0 22.073070725789876 63.004754027206218 0 0 0 0 -1.2428634764630715 -20.88429359215661 0 -20.88429359215661 -13.301683260502614 0 0 0 0 -2.9356864212086689 3.3005076676282101 0 3.3005076676282101 21.025557884463751 0 0 0 0 -2.0480159698586382 9.5798422345111049 0 9.5798422345111049 15.850368641510272 0 0 0 0 -4.7119080926155448 20.74636312268558 0 20.74636312268558 0.58658270160958637 0 0 0 0 -8.1141974072359062 18.486977955602924 0 18.486977955602924 -0.25338055242900737 0 0 0 0 -0.078924313726126585 35.506795546672123 0 35.506795546672123 33.253314769535791 0 0 0 0 -1.5041641492869839 -1.0130355943861673 0 -1.0130355943861673 0.39935229788559923 0 0 0 0 123.99541871615486 -63.676698776340345 0 -63.676698776340345 -333.12739129138208 0 0 0 0 15.856027657304722 23.29470792736538 0 23.29470792736538 411.70345477116825 0 0 0 0 -2.6104420737301046 227.34986400110347 0 227.34986400110347 -26.821173186035594 0 0 0 0 9.2390531934154865 -265.61839177315414 0 -265.61839177315414 -23.559065691020805 0 0 0 0 -383.29414791502415 446.64904779773497 0 446.64904779773497 818.68149503067252 0 0 0 0 -0.004926364521101065 -225.2244801658276 0 -225.2244801658276 -14.556915263674455 0 0 0 0 -55.421598230671862 214.00579101165931 0 214.00579101165931 137.40931670961436 0 0 0 0 1.4775721308337553 -0.4807723989052306 0 -0.4807723989052306 0.42239253373217522 0 0 0 0 -68.672339003611611 4.928756145585794 0 4.928756145585794 310.90325349496561 0 0 0 0 -136.39526618860998 -15.017991620436078 0 -15.017991620436078 282.62731125856499 0 0 0 0 -45.359777014627525 -36.757247679197462 0 -36.757247679197462 222.63304726267233 0 0 0 0 0.19613008326244369 3.8323977038526209 0 3.8323977038526209 247.64452796377009 0 0 0 0 -0.27464368731607075 90.884759173437487 0 90.884759173437487 502.89918436649896 0 0 0 0 146.54985640169397 137.39760656240105 0 137.39760656240105 204.61610204566387 0 0 0 0 143.32154450284708 43.445106042840052 0 43.445106042840052 256.15581606512569 0 0 0 0 173.635311018142 -348.39452270482889 0 -348.39452270482889 -283.14545183986775 0 0 0 0 558.68366092823999 81.506639400493441 0 81.506639400493441 -214.80885387578746 0 0 0 0 -280.96755593089404 -589.83952234386743 0 -589.83952234386743 55.274284526487463 0 0 0 0 -147.71252805503659 -38.83095727241016 0 -38.83095727241016 287.32411633277661 0 0 0 0 -72.031725933514409 -221.24588826991385 0 -221.24588826991385 705.48516317177564 0 0 0 0 -0.15493908184171712 -3.4249809036799093 0 -3.4249809036799093 9.2578503150115239 0 0 0 0 39.668583246326307 371.96555467088183 0 371.96555467088183 608.86035922880546 0 0 0 0 -507.62066004190456 -219.608092059927 0 -219.608092059927 298.0575992113445 0 0 0 0 9.8356031820790122 229.5223007909517 0 229.5223007909517 161.06955876099528 0 0 0 0 38.089141805084395 323.1813198905038 0 323.1813198905038 347.59848751305253 0 0 0 0 -133.2899848959928 72.582082932989579 0 72.582082932989579 533.99863363485201 0 0 0 0 -80.941861289340522 97.369386329984991 0 97.369386329984991 302.75094508504844 0 0 0 0 -18.387987291449356 -3.0980571727043298 0 -3.0980571727043298 2.2341169653270327 0 0 0 0 33.039305226685428 -51.581104567550938 0 -51.581104567550938 -52.535146501526469 0 0 0 0 -86.301287181781845 70.431703994552663 0 70.431703994552663 207.38750198920025 0 0 0 0 -40.365081518748411 -228.28032814592007 0 -228.28032814592007 306.72018328568811 0 0 0 0 -99.793631183471007 161.15662906027865 0 161.15662906027865 767.31276214805257 0 0 0 0 1.5245588284891145 -1.872746948350823 0 -1.872746948350823 0.34381301261877795 0 0 0 0 -138.47517351293936 -40.54641484329477 0 -40.54641484329477 195.75576657434794 0 0 0 0 420.65280188259499 -468.75648686625573 0 -468.75648686625573 334.36792060144944 0 0 0 0 -73.213618608224351 248.82075431520934 0 248.82075431520934 -37.909715161993518 0 0 0 0 75.547449157472329 -82.258817631416605 0 -82.258817631416605 -268.91437949234387 0 0 0 0 -0.54355596439629039 56.234945002863242 0 56.234945002863242 381.1803742632801 0 0 0 0 -7.1700660599287014 -2.2664004895250969 0 -2.2664004895250969 0.86578510489482596 0 0 0 0 3.7662989763388453 67.03537276572024 0 67.03537276572024 397.63961680076318 0 0 0 0 -5.8215593487320945 87.88037220172555 0 87.88037220172555 359.68257949510007 0 0 0 0 -50.530114274508392 47.001792220322386 0 47.001792220322386 448.1166126725002 0 0 0 0 -62.764853071085781 83.627856829349184 0 83.627856829349184 376.6776888029417 0 0 0 0 -31.825995894157995 -0.48769676058117284 0 -0.48769676058117284 -4.7964359884786916 0 0 0 0 47.85040233257314 -37.648836053929699 0 -37.648836053929699 83.025900757420459 0 0 0 0 -15.45182574651426 89.097716569551267 0 89.097716569551267 136.80531316519773 0 0 0 0 22.801245152990305 180.88793943206838 0 180.88793943206838 298.71999391571217 0 0 0 0 -42.630660979853928 8.4164494742581155 0 8.4164494742581155 175.97193544023321 0 0 0 0 276.08313239790186 42.881063853114028 0 42.881063853114028 178.99131804614444 0 0 0 0 63.737860740447559 223.15599857159032 0 223.15599857159032 205.77256460711942 0 0 0 0 802.69389447465073 112.97438319950015 0 112.97438319950015 212.30180336415651 0 0 0 0 102.70551573343255 -165.77346076235699 0 -165.77346076235699 318.57594572445669 0 0 0 0 222.0163980589432 -86.803519590415817 0 -86.803519590415817 326.5892431079119 0 0 0 0 51.50380819275415 -84.994281163017149 0 -84.994281163017149 226.80349339020904 0 0 0 0 -63.902352920973499 -70.736997931395308 0 -70.736997931395308 225.04310521782463 0 0 0 0 -106.36280818175692 -170.20629419804754 0 -170.20629419804754 363.74487154651433 0 0 0 0 -168.08147051612241 -15.705705233966 0 -15.705705233966 236.31744689639891 0 0 0 0 -88.435732699141226 -61.456671389445546 0 -61.456671389445546 316.85520799315418 0 0 0 0 -45.899714332765143 -101.61253793140122 0 -101.61253793140122 355.30542225214595 0 0 0 0 -281.28026315189709 -0.93675698867446044 0 -0.93675698867446044 356.55273878034495 0 0 0 0 -4.3401639989488645 -1.921906174778016 0 -1.921906174778016 227.84884656622791 0 0 0 0 -88.884903204405873 52.858592075438537 0 52.858592075438537 318.06303513274179 0 0 0 0 -14.089602251066687 -2.2813618430030616 0 -2.2813618430030616 258.96811064556607 0 0 0 0 -107.44873892183932 -75.152215567752137 0 -75.152215567752137 271.49172399990493 0 0 0 0 -111.32544071082094 -4.7018165289628087 0 -4.7018165289628087 395.70902208138068 0 0 0 0 -68.928451134674106 -65.079799813269346 0 -65.079799813269346 263.10409973752394 0 0 0 0 -48.80749697735056 -2.8984196283074084 0 -2.8984196283074084 63.019531281081626 0 0 0 0 -68.654847864211206 -11.115160821842437 0 -11.115160821842437 351.95499451590877 0 0 0 0 -14.919424770057587 -25.686892697094457 0 -25.686892697094457 278.60951633279763 0 0 0 0 -86.226034328166861 9.0868951460215612 0 9.0868951460215612 328.74731721659191 0 0 0 0 -126.88231079109696 15.277213433619181 0 15.277213433619181 370.48716420617711 0 0 0 0 -258.88806576194696 -96.717954182931862 0 -96.717954182931862 328.86438805336365 0 0 0 0 -153.08169182226453 -41.816924681203091 0 -41.816924681203091 340.1425938258617 0 0 0 0 -26.190316097675947 -94.746374174050288 0 -94.746374174050288 249.87615943902347 0 0 0 0 -147.44303533415962 -146.57349423103733 0 -146.57349423103733 238.12594696017914 0 0 0 0 -9.842450003884414 -0.94111603925102827 0 -0.94111603925102827 65.710176095294628 0 0 0 0 -153.29896822735645 158.16998221779795 0 158.16998221779795 290.26769403569051 0 0 0 0 -166.68155167042983 168.4623084901832 0 168.4623084901832 286.66737333107449 0 0 0 0 -244.35617522268194 81.754022476947284 0 81.754022476947284 303.08170723592229 0 0 0 0 -316.10428803314375 123.3876264223436 0 123.3876264223436 398.64537405216834 0 0 0 0 -92.713647151729674 -15.550710566181806 0 -15.550710566181806 470.32222902053036 0 0 0 0 -11.85311531005749 87.319585570316121 0 87.319585570316121 139.21394515641441 0 0 0 0 -92.866603166785467 -144.13535794142808 0 -144.13535794142808 281.46059532804793 0 0 0 0 -12.022660064879005 -19.037123283684195 0 -19.037123283684195 466.03330138768069 0 0 0 0 17.672631305683467 -128.25919740342943 0 -128.25919740342943 437.81030545404064 0 0 0 0 -8.858717749975014 10.4097788181748 0 10.4097788181748 360.60576967606903 0 0 0 0 43.538687209420033 -10.538676360753016 0 -10.538676360753016 308.17871095506416 0 0 0 0 -235.77827363224162 107.81731319323671 0 107.81731319323671 335.85580643918365 0 0 0 0 36.000697445579078 42.272334088520438 0 42.272334088520438 293.7738822770043 0 0 0 0 -45.643994731051862 31.358263645553961 0 31.358263645553961 342.05263152769476 0 0 0 0 -50.774468736071945 84.535453592834983 0 84.535453592834983 364.64049065993458 0 0 0 0 17.137091496455071 54.078363687731326 0 54.078363687731326 372.17614806490019 0 0 0 0 47.425416241822745 13.171856777131325 0 13.171856777131325 391.0159131030814 0 0 0 0 23.349288662103646 33.057075278571574 0 33.057075278571574 391.76984670075763 0 0 0 0 59.494327727512868 -20.614925506364671 0 -20.614925506364671 383.77899635475114 0 0 0 0 35.219893928311969 -43.532416564111372 0 -43.532416564111372 468.08105123121641 0 0 0 0 55.10451918504269 -66.535089588389383 0 -66.535089588389383 466.80856297568744 0 0 0 0 17.07727081127107 -30.640982976619853 0 -30.640982976619853 506.31607539348624 0 0 0 0 42.366166862390777 -41.745527994386066 0 -41.745527994386066 499.85252712055808 0 0 0 0 52.332758813720417 -19.11611545321648 0 -19.11611545321648 435.197585088099 0 0 0 0 0.14641062581763278 0.21682631075236714 0 0.21682631075236714 529.59373096871605 0 0 0 0 8.3952548598400334 -29.116250102539198 0 -29.116250102539198 521.1105113458143 0 0 0 0 34.746417378356568 -2.9164584016252775 0 -2.9164584016252775 429.54231885110494 0 0 0 0 -0.036568353267857581 4.7384076566668227 0 4.7384076566668227 467.84562607384578 0 0 0 0 13.993584183082731 12.468210178150912 0 12.468210178150912 436.02898083282116 0 0 0 0 0.05720028358310502 22.400130078394017 0 22.400130078394017 422.16390275149024 0 0 0 0 -59.896337824810871 -315.23692949866017 0 -315.23692949866017 512.68850090008345 0 0 0 0 84.189351258133684 -302.70720881532907 0 -302.70720881532907 495.0225092991459 0 0 0 0 -188.5692595167875 -219.79720242817712 0 -219.79720242817712 640.8865023189137 0 0 0 0 -55.360856110699388 66.727201506189886 0 66.727201506189886 344.55282523759161 0 0 0 0 -195.69276885202635 51.203896108345361 0 51.203896108345361 1231.6546993312022 0 0 0 0 85.067384769570253 -656.03782850380776 0 -656.03782850380776 1172.7843729303204 0 0 0 0 10.129802755496438 -5.9368492627843494 0 -5.9368492627843494 2.7669884088441279 0 0 0 0 -56.598089934637756 -496.83062573372808 0 -496.83062573372808 1022.2997879357645 0 0 0 0 773.91261458257486 239.94914782599517 0 239.94914782599517 -76.155024010731722 0 0 0 0 0.30010831149467165 4.5080056223251646 0 4.5080056223251646 20.419994849924791 0 0 0 0 -161.41038203770404 282.59774643798301 0 282.59774643798301 188.59493849373393 0 0 0 0 35.238954795326151 26.630072283676782 0 26.630072283676782 38.801906941254856 0 0 0 0 937.14143963160313 -706.86366594990614 0 -706.86366594990614 281.1654782440819 0 0 0 0 144.3254145733863 -273.83461867669394 0 -273.83461867669394 281.48367755861238 0 0 0 0 301.16735914495666 -249.14423182743849 0 -249.14423182743849 -40.244175032727071 0 0 0 0 149.58800868142498 -0.69780818706203718 0 -0.69780818706203718 -165.87840921208772 0 0 0 0 0.079571226747475521 0.31419818611175288 0 0.31419818611175288 19.816403113021806 0 0 0 0 0.70761484071033465 -1.9213948247961525 0 -1.9213948247961525 23.993183656522888 0 0 0 0 0.55779827128679216 5.3539068938337593 0 5.3539068938337593 21.697402940512688 0 0 0 0 -54.494260466107335 74.659647734741156 0 74.659647734741156 8.7317244631412905 0 0 0 0 36.221030335751493 -66.787155014702876 0 -66.787155014702876 20.795821971110854 0 0 0 0 93.578674172371393 -20.222924997811788 0 -20.222924997811788 13.497770070083789 0 0 0 0 147.08583432497699 -141.00584761766368 0 -141.00584761766368 114.61609417390719 0 0 0 0 174.98529702540509 -202.46478234644019 0 -202.46478234644019 100.79238440246263 0 0 0 0 152.06034973919924 -170.92925023269589 0 -170.92925023269589 147.44354496385495 0 0 0 0 92.943098733132501 -121.63916306238389 0 -121.63916306238389 221.73184799525916 0 0 0 0 179.54534108269638 -356.15468184392148 0 -356.15468184392148 426.61650838972128 0 0 0 0 83.915096559458107 -99.414059221544449 0 -99.414059221544449 180.83751123807451 0 0 0 0 117.68725388545499 -136.51061122381725 0 -136.51061122381725 173.92234301268763 0 0 0 0 90.884122827109422 -177.1035812672917 0 -177.1035812672917 304.50727436152374 0 0 0 0 49.884326409968708 -97.453608049883769 0 -97.453608049883769 212.84157090343069 0 0 0 0 57.781982797629098 -145.50413350079543 0 -145.50413350079543 304.96447712014196 0 0 0 0 92.022237156465053 -260.35661752806482 0 -260.35661752806482 537.80340583651559 0 0 0 0 -1.2374590520196094 2.1776450472650311 0 2.1776450472650311 4.0708450199877007 0 0 0 0 -41.602060812263517 -19.301081358986266 0 -19.301081358986266 271.91556801303523 0 0 0 0 1.3661537246804514 5.62377240454461 0 5.62377240454461 -0.061415466375578376 0 0 0 0 82.560626585058344 -218.63655961980839 0 -218.63655961980839 453.65023720782483 0 0 0 0 57.546898682470783 -223.14992556030847 0 -223.14992556030847 81.485828516655602 0 0 0 0 77.467921085164562 -114.86886301292543 0 -114.86886301292543 325.6980935221145 0 0 0 0 -136.5561247653568 -82.888750499187154 0 -82.888750499187154 420.68514704474001 0 0 0 0 -26.670886105044701 -0.62054634637388517 0 -0.62054634637388517 349.45626484249078 0 0 0 0 -94.629533045626886 -117.70080073105783 0 -117.70080073105783 228.9244851142048 0 0 0 0 -4.1485980500461039 -4.3293360025452188 0 -4.3293360025452188 72.873696165125935 0 0 0 0 -122.2481747460215 -115.6184559829635 0 -115.6184559829635 299.97040188417304 0 0 0 0 -79.263070908528789 3.8394193380145225 0 3.8394193380145225 348.81492498314037 0 0 0 0 -123.03225161023875 -77.920744993927656 0 -77.920744993927656 350.72625398774835 0 0 0 0 -97.731180014297024 -86.174923072470847 0 -86.174923072470847 288.70341689765337 0 0 0 0 -1.0594238007083732 -121.81196537043525 0 -121.81196537043525 449.34483165231359 0 0 0 0 -20.259599064451322 -103.74783167378337 0 -103.74783167378337 464.9254170598615 0 0 0 0 20.901707887076554 -63.425670911110501 0 -63.425670911110501 363.80167183752928 0 0 0 0 25.65942042691313 0.04034516242245445 0 0.04034516242245445 341.15192669597491 0 0 0 0 -79.794088064675634 -47.780337580019477 0 -47.780337580019477 419.88210795883788 0 0 0 0 -87.485628314800124 -82.318175364212948 0 -82.318175364212948 391.39914613546716 0 0 0 0 -187.57316146565063 -145.2608897111204 0 -145.2608897111204 439.78134809112453 0 0 0 0 -133.40253708008549 -41.345095508240775 0 -41.345095508240775 -25.949670777263236 0 0 0 0 -14.891572443266341 11.550736930657877 0 11.550736930657877 447.94687256263569 0 0 0 0 -159.59703049709424 -56.201470296029584 0 -56.201470296029584 493.1065801980476 0 0 0 0 3.0351049637380925 3.8445273462734235 0 3.8445273462734235 -9.9553596052220072 0 0 0 0 -62.899338737941434 129.58448864804086 0 129.58448864804086 687.31497300272167 0 0 0 0 -276.31452267670466 -380.18995197566255 0 -380.18995197566255 -397.85024230643103 0 0 0 0 12.481923248186085 -14.184831336805068 0 -14.184831336805068 13.023086189324488 0 0 0 0 -251.46157696009095 -477.28547186288506 0 -477.28547186288506 -267.85640744463308 0 0 0 0 -44.252140338925528 -0.83575771283358335 0 -0.83575771283358335 277.99517695606846 0 0 0 0 -141.80020165367387 60.079846627588267 0 60.079846627588267 415.09322899456311 0 0 0 0 67.362811690105445 46.760468433174537 0 46.760468433174537 383.31149839152204 0 0 0 0 -62.772610178701143 4.2884605118524632 0 4.2884605118524632 423.03726106323302 0 0 0 0 -83.37111426309275 -372.9364969468952 0 -372.9364969468952 21.348348823175911 0 0 0 0 -11.3735169730052 -23.472362143365913 0 -23.472362143365913 295.74619987933772 0 0 0 0 -4.9641140605016858 -3.054735604849057 0 -3.054735604849057 68.906761249569485 0 0 0 0 -103.57749405060895 18.401646511032595 0 18.401646511032595 454.78386702120042 0 0 0 0 -13.245615684149726 -26.573921052269036 0 -26.573921052269036 319.71288055784788 0 0 0 0 -353.36071627086494 -152.52230509640503 0 -152.52230509640503 355.22709121668595 0 0 0 0 -90.067846052144887 -439.89422415731497 0 -439.89422415731497 263.95416671158455 0 0 0 0 -319.09962581118612 -126.73464845355312 0 -126.73464845355312 1105.2170445752272 0 0 0 0 435.51684317841318 169.28460327817083 0 169.28460327817083 337.2848899837154 0 0 0 0 -658.8887482410064 114.60311214445392 0 114.60311214445392 733.5633236083595 0 0 0 0 -11.883433739091375 -23.574860828370458 0 -23.574860828370458 326.86760447968379 0 0 0 0 -319.30428377775672 -108.729266359066 0 -108.729266359066 239.85259075864451 0 0 0 0 -498.67983642149602 277.97196616561223 0 277.97196616561223 1236.8868537429225 0 0 0 0 -425.24295621560304 -815.1029280788789 0 -815.1029280788789 667.8529524908954 0 0 0 0 -64.537303911592744 -388.25220007816279 0 -388.25220007816279 -480.68367107717495 0 0 0 0 5.1639419296719922 -4.8820223823106019 0 -4.8820223823106019 5.0439200942025764 0 0 0 0 141.8323320184827 -322.6287889419109 0 -322.6287889419109 858.57396913784032 0 0 0 0 -396.90492057392476 666.09225861611048 0 666.09225861611048 1591.5199456596965 0 0 0 0 -1223.3467795578108 851.23987347801085 0 851.23987347801085 792.25908259744028 0 0 0 0 -1186.512722181873 1154.798102859495 0 1154.798102859495 -561.8561196918381 0 0 0 0 1428.0035697416577 -2084.750197214807 0 -2084.750197214807 2456.3069717908293 0 0 0 0 -3.6939850820977682 5.6692916749976661 0 5.6692916749976661 18.199383109154439 0 0 0 0 1271.0687101197757 -892.55030347208776 0 -892.55030347208776 1028.2117939104064 0 0 0 0 765.50520732363611 239.55404424223343 0 239.55404424223343 523.63109234158765 0 0 0 0 64.935595988617933 -683.16015966061241 0 -683.16015966061241 2698.4121176418621 0 0 0 0 6.479374572244069 544.80676058047993 0 544.80676058047993 569.91342522454215 0 0 0 0 131.25025225378192 354.68203202768643 0 354.68203202768643 49.998044352440047 0 0 0 0 56.954908816320312 -1032.4099188396685 0 -1032.4099188396685 -540.23911318757746 0 0 0 0 -205.4331661748663 -263.60977225170427 0 -263.60977225170427 110.68878446221061 0 0 0 0 16.626965967983921 -15.349927577153395 0 -15.349927577153395 11.712449554238674 0 0 0 0 700.45642807806053 -518.15768296846727 0 -518.15768296846727 782.48108848491756 0 0 0 0 722.35098305440351 -451.9033289577892 0 -451.9033289577892 -667.94094510607829 0 0 0 0 694.24430650061186 -40.321785282885685 0 -40.321785282885685 327.09578482704819 0 0 0 0 696.63661900890747 227.31439651263645 0 227.31439651263645 301.93182444203558 0 0 0 0 506.80309413595342 218.5694483696534 0 218.5694483696534 359.35631045046466 0 0 0 0 680.38536156943337 -203.41424406969963 0 -203.41424406969963 127.00448492921714 0 0 0 0 407.4289096387829 142.75864540206362 0 142.75864540206362 427.06189857790741 0 0 0 0 1115.3529040750127 -700.04638947652711 0 -700.04638947652711 1431.8671653772253 0 0 0 0 776.01680939682228 -7.6652271391758404 0 -7.6652271391758404 526.13161695237068 0 0 0 0 1288.2541780161664 -1419.5668425802469 0 -1419.5668425802469 1848.0328650864976 0 0 0 0 1822.4118354872517 -1261.6471549143134 0 -1261.6471549143134 372.62114113183088 0 0 0 0 83.414329623789797 59.142949928063899 0 59.142949928063899 70.42766975802806 0 0 0 0 1060.1123017576774 -105.22861183054192 0 -105.22861183054192 -1372.8915351014439 0 0 0 0 985.00499280303302 -1889.2270740642198 0 -1889.2270740642198 2990.7237090967174 0 0 0 0 7.1077566000841479 0.94990761074934937 0 0.94990761074934937 1.6018109015639652 0 0 0 0 1922.439955326849 -1937.2813710429318 0 -1937.2813710429318 1800.4837367226864 0 0 0 0 -5.5144493471002356 19.422715279084116 0 19.422715279084116 47.856125704790713 0 0 0 0 1971.3558903255671 -1499.2643366956036 0 -1499.2643366956036 1780.8806293018697 0 0 0 0 -836.77451849569115 655.7371814753642 0 655.7371814753642 -1164.0724187507149 0 0 0 0 -84.025431647229198 661.47009191851248 0 661.47009191851248 -1181.9822786098157 0 0 0 0 -825.40345962916581 716.86641251509354 0 716.86641251509354 -936.42260371581506 0 0 0 0 -724.03889460358278 1763.6701740288458 0 1763.6701740288458 -1123.2427165761401 0 0 0 0 1435.2048388291169 -1903.0953612964986 0 -1903.0953612964986 1819.4672042034058 0 0 0 0 -8.9594552836656263 32.1642672239416 0 32.1642672239416 75.252805558530653 0 0 0 0 -95.992879491257895 1308.8584743817037 0 1308.8584743817037 -1211.830270086044 0 0 0 0 39.260053841764602 1091.033325510969 0 1091.033325510969 -800.12220108326437 0 0 0 0 27.657483183936165 454.35634348526128 0 454.35634348526128 -190.80555528600235 0 0 0 0 -352.2172557863878 1534.8576199663676 0 1534.8576199663676 2045.7208707308928 0 0 0 0 1720.6665631382675 1224.0976838543502 0 1224.0976838543502 149.39226741764469 0 0 0 0 -1011.8207761727533 437.56892681586032 0 437.56892681586032 489.05765300708663 0 0 0 0 -452.71593774812345 -987.90576716494979 0 -987.90576716494979 1588.6923160434453 0 0 0 0 691.25039087260302 -142.92633421305436 0 -142.92633421305436 -99.624852488865145 0 0 0 0 1625.8257715581876 -1376.120315464028 0 -1376.120315464028 1399.8766610758175 0 0 0 0 -841.52953105061715 -339.51092610759952 0 -339.51092610759952 -106.98618980069261 0 0 0 0 46.314110697026081 -877.9608225338161 0 -877.9608225338161 -1843.5928362339182 0 0 0 0 -9.5173975999474294 -2.0418090033528102 0 -2.0418090033528102 0.19204074080574784 0 0 0 0 -418.88599624399285 170.77218346001609 0 170.77218346001609 -1257.7763605044274 0 0 0 0 460.54866686118703 295.84182194477853 0 295.84182194477853 -1260.4678521839523 0 0 0 0 -958.35061593353385 -172.4507536147612 0 -172.4507536147612 -907.09952392347259 0 0 0 0 -892.51666593408618 410.46520094907692 0 410.46520094907692 -215.084961990804 0 0 0 0 -804.13517789427169 310.09067783025148 0 310.09067783025148 388.14821444167319 0 0 0 0 -89.908157737425427 6.199907963793521 0 6.199907963793521 97.007325054612011 0 0 0 0 -86.961710994793975 39.533167622783367 0 39.533167622783367 454.01201472251705 0 0 0 0 -28.715709325892849 -1.0352043985813992 0 -1.0352043985813992 -5.0824326525810868 0 0 0 0 108.32818287954251 -12.472341630844312 0 -12.472341630844312 219.3578300303634 0 0 0 0 -209.11523891222168 -647.07632608362474 0 -647.07632608362474 -634.20549413286426 0 0 0 0 -455.75314365805286 175.28723707236895 0 175.28723707236895 413.15762283289223 0 0 0 0 -326.20062732946303 -148.94930481988558 0 -148.94930481988558 330.17775657889433 0 0 0 0 -116.94319550286673 69.016630513899145 0 69.016630513899145 404.97058276913594 0 0 0 0 -120.85525773279369 31.545633273370186 0 31.545633273370186 166.37676049032598 0 0 0 0 -119.83232316913382 95.573895069475839 0 95.573895069475839 285.03878351272579 0 0 0 0 -52.591819851932812 -1.684415503965468 0 -1.684415503965468 81.640765057858573 0 0 0 0 39.452713953573948 179.01098725787597 0 179.01098725787597 252.69642971732537 0 0 0 0 -512.55394000154968 -65.238287276166375 0 -65.238287276166375 698.83281917043496 0 0 0 0 -17.728839719609283 -25.09423921521547 0 -25.09423921521547 329.24314521446888 0 0 0 0 -269.12974771096196 190.45309140597601 0 190.45309140597601 302.85126987060721 0 0 0 0 -117.65246357982869 -394.96548622232513 0 -394.96548622232513 -184.32097126462031 0 0 0 0 -8.1536559428352486 -9.5594397017579809 0 -9.5594397017579809 104.85706293309312 0 0 0 0 -14.008843084950369 3.9075257824196576 0 3.9075257824196576 314.95604109539613 0 0 0 0 -160.54897665012476 -51.901639506895663 0 -51.901639506895663 360.72747956730018 0 0 0 0 -432.39089529171315 48.816566376568517 0 48.816566376568517 491.01005707759759 0 0 0 0 -351.14841714939394 -206.8072220267677 0 -206.8072220267677 234.41330040331195 0 0 0 0 -451.76906924380478 -248.71062171834637 0 -248.71062171834637 232.34720945860317 0 0 0 0 -468.74956959282235 -293.81652270043924 0 -293.81652270043924 354.20330550036306 0 0 0 0 -18.372297758148761 -91.931292462417332 0 -91.931292462417332 314.0099074539321 0 0 0 0 -392.97406913928444 -673.23238579692588 0 -673.23238579692588 97.284680759017647 0 0 0 0 -230.09097098422944 -376.75370910327001 0 -376.75370910327001 168.18182943329157 0 0 0 0 -530.86741992589759 -661.25878871789791 0 -661.25878871789791 778.98574081372499 0 0 0 0 -556.96273607502644 -465.48111162318673 0 -465.48111162318673 174.71346413491642 0 0 0 0 -333.62878074451328 -625.89853253109322 0 -625.89853253109322 95.543422693391676 0 0 0 0 -447.22197679786223 -229.56620818126976 0 -229.56620818126976 1075.7315735976372 0 0 0 0 -624.05855373447775 1.9001580043477588 0 1.9001580043477588 781.79150664710141 0 0 0 0 -236.42789121944861 694.01860294006656 0 694.01860294006656 1035.9484546842286 0 0 0 0 56.257249311452711 -74.350734417022068 0 -74.350734417022068 226.47694131653407 0 0 0 0 -4.0705437432770761 0.70315204992144231 0 0.70315204992144231 277.17925967932706 0 0 0 0 -1208.9950673337751 33.629079751157406 0 33.629079751157406 560.21600023153951 0 0 0 0 -802.06055493042425 -273.30248957992262 0 -273.30248957992262 556.78064396197442 0 0 0 0 -998.02165569141948 481.52658046482611 0 481.52658046482611 368.34838516241325 0 0 0 0 46.714006141920436 -36.813645849695604 0 -36.813645849695604 265.89364237385598 0 0 0 0 131.70265082770766 1.285194685231545 0 1.285194685231545 201.31391718935629 0 0 0 0 77.662080318567405 -21.10756038769614 0 -21.10756038769614 203.13682440703269 0 0 0 0 -5.7598395494726393 -0.96789375787648346 0 -0.96789375787648346 234.01166600485544 0 0 0 0 -416.4334239571732 381.19987078918348 0 381.19987078918348 -1.3606623102459707 0 0 0 0 1.2794795218049435 -2.6801363850860991 0 -2.6801363850860991 185.36417448207368 0 0 0 0 67.303737990774152 12.339587780530564 0 12.339587780530564 204.49850657043658 0 0 0 0 545.71608859151456 367.01318060946869 0 367.01318060946869 432.75864396069119 0 0 0 0 -131.59293150374924 616.24345666730005 0 616.24345666730005 553.98173249659885 0 0 0 0 -630.60123127472252 167.28050182312836 0 167.28050182312836 448.37563291055994 0 0 0 0 -269.19863228705617 565.9634544460132 0 565.9634544460132 142.66329901898644 0 0 0 0 -108.57429073927324 477.98444098237451 0 477.98444098237451 -114.71561813903099 0 0 0 0 632.89918214296085 5.2889781634148676 0 5.2889781634148676 258.56912027843646 0 0 0 0 -0.15783093064237619 1153.2623752249638 0 1153.2623752249638 94.028438890946745 0 0 0 0 1473.9561578110461 515.37697444238438 0 515.37697444238438 175.90345906786388 0 0 0 0 -231.95020773243232 -148.69461465486711 0 -148.69461465486711 -59.34059756437091 0 0 0 0 3.4649045978915112 -17.911324889497408 0 -17.911324889497408 121.24081293155626 0 0 0 0 -788.84951013372665 -175.78774511737356 0 -175.78774511737356 108.88592174768928 0 0 0 0 -747.88688718796129 -434.23660284044308 0 -434.23660284044308 -72.090248749802413 0 0 0 0 -697.63567960399632 -697.60515341495739 0 -697.60515341495739 -512.54653889168912 0 0 0 0 -587.59859140484014 -888.75286895749377 0 -888.75286895749377 -761.22068311296243 0 0 0 0 -872.90024737388467 -581.42934746923129 0 -581.42934746923129 -502.30895897185837 0 0 0 0 -469.21988447177318 -649.13195035168246 0 -649.13195035168246 -492.02311716230361 0 0 0 0 -666.0646653172081 -623.29899201343505 0 -623.29899201343505 -89.339126895654772 0 0 0 0 -642.07471912959591 -535.88879855297091 0 -535.88879855297091 237.58016385795054 0 0 0 0 -406.41005057724914 -589.05050143392509 0 -589.05050143392509 -92.168618137366138 0 0 0 0 -557.70520684801158 -302.99122344747047 0 -302.99122344747047 213.83271136742769 0 0 0 0 -273.1267414384838 -422.61103304718199 0 -422.61103304718199 -86.262371029053611 0 0 0 0 839.55931655619497 -1055.6423686065918 0 -1055.6423686065918 746.69911409677661 0 0 0 0 -266.47028941069857 -228.94572921497229 0 -228.94572921497229 232.65586042028008 0 0 0 0 -12.039351271207124 -773.51649029188411 0 -773.51649029188411 292.34851772899947 0 0 0 0 -713.59320859942591 -725.51103991253149 0 -725.51103991253149 1094.8584795661809 0 0 0 0 -982.42283890118108 -90.274205627414631 0 -90.274205627414631 1085.3740652390406 0 0 0 0 -850.7348907374253 -710.50786426653031 0 -710.50786426653031 2667.2564429427075 0 0 0 0 79.093094853009461 223.94483248155302 0 223.94483248155302 1243.5319064782534 0 0 0 0 -177.92000412154266 252.72963626962883 0 252.72963626962883 3419.0081617904616 0 0 0 0 571.48197323768909 483.13116478836173 0 483.13116478836173 666.2276311184396 0 0 0 0 2333.7011887570261 1559.3725274299541 0 1559.3725274299541 1321.9623319683851 0 0 0 0 3.4746075161614804 -6.4837530429751737 0 -6.4837530429751737 41.167203110834265 0 0 0 0 55.48016372494849 -12.119622029676975 0 -12.119622029676975 167.70420797741099 0 0 0 0 -0.051263589867854412 -109.1510643927395 0 -109.1510643927395 345.65712106200226 0 0 0 0 -43.115659732102472 -39.849386757749016 0 -39.849386757749016 322.03075647120932 0 0 0 0 39.559890104222291 -56.570186818611546 0 -56.570186818611546 324.78909985296195 0 0 0 0 -7.2758212312035004 14.056792204886733 0 14.056792204886733 570.95836832991336 0 0 0 0 0.11601996189605873 -112.84458065655781 0 -112.84458065655781 613.69164672171246 0 0 0 0 0.62645379081816288 -0.42799907676942439 0 -0.42799907676942439 1.4520419638993474 0 0 0 0 15.200134767889121 -75.340531197507516 0 -75.340531197507516 652.16025270392129 0 0 0 0 25.031844335794801 -124.48792070123454 0 -124.48792070123454 637.56014937197324 0 0 0 0 -22.609684672487589 -10.39924131090811 0 -10.39924131090811 875.9998417183233 0 0 0 0 -78.648883906764809 -53.416502844404022 0 -53.416502844404022 995.11298448525486 0 0 0 0 23.82669324427097 -97.623494709027 0 -97.623494709027 645.55920889868867 0 0 0 0 3.0639602324609165 -0.99506071637097193 0 -0.99506071637097193 1.3919369662426675 0 0 0 0 58.717692372882425 -101.20782779582805 0 -101.20782779582805 642.7375211265753 0 0 0 0 -155.39345727406999 -16.499346618482377 0 -16.499346618482377 653.4144839763303 0 0 0 0 -37.897590384588739 17.723118492329377 0 17.723118492329377 630.65786268284319 0 0 0 0 9.1357359772434847 24.872904445033782 0 24.872904445033782 266.04042437032331 0 0 0 0 -8.3400072208790448 -146.44942714933859 0 -146.44942714933859 176.10333011181501 0 0 0 0 9.2893244076747372 -20.133657952024507 0 -20.133657952024507 40.869839219928792 0 0 0 0 -361.1718940889898 -238.79508190392517 0 -238.79508190392517 178.55298037555986 0 0 0 0 57.92388042220864 -132.96419604776747 0 -132.96419604776747 22.631216026416951 0 0 0 0 4.3248189239126198 -7.5769779409361178 0 -7.5769779409361178 14.823981617699133 0 0 0 0 453.43633520209721 -389.47318859140796 0 -389.47318859140796 105.38715393356688 0 0 0 0 -176.28464669063806 482.44939985393648 0 482.44939985393648 1314.8531651886587 0 0 0 0 908.07008600510471 -670.25625428323838 0 -670.25625428323838 266.67849922410096 0 0 0 0 -90.422318572095492 -11.436911705801322 0 -11.436911705801322 77.607519012293778 0 0 0 0 -214.08190320046879 218.11854654726631 0 218.11854654726631 824.30668322232668 0 0 0 0 -647.51913527090619 -316.70211795727664 0 -316.70211795727664 1179.9280432917876 0 0 0 0 -284.68893131337541 -359.70809922998887 0 -359.70809922998887 835.0210578301776 0 0 0 0 33.56033320993788 -177.12105941203481 0 -177.12105941203481 694.58694786404885 0 0 0 0 9.403626132523927 -1.1346668882599147 0 -1.1346668882599147 1.1846338677798443 0 0 0 0 9.0234190220530195 -49.831902350873861 0 -49.831902350873861 571.25094975056709 0 0 0 0 -75.563048415909748 -119.11758836647641 0 -119.11758836647641 786.2800338541274 0 0 0 0 40.340202307724951 -63.774684923148016 0 -63.774684923148016 479.6041351800086 0 0 0 0 11.26966566627849 1.3133330889326089 0 1.3133330889326089 1.3055298278472662 0 0 0 0 1817.4980043334956 299.36243014696811 0 299.36243014696811 247.20228658730048 0 0 0 0 -749.46924892223296 -105.03614930383992 0 -105.03614930383992 1688.1089595952653 0 0 0 0 -172.02358520361031 -646.34880048746709 0 -646.34880048746709 1317.9668119004491 0 0 0 0 -483.5603625202798 -133.96344857663644 0 -133.96344857663644 606.73534919909434 0 0 0 0 92.7337897697671 -35.453970807531732 0 -35.453970807531732 421.89572719126591 0 0 0 0 21.967493571837622 110.44876528713576 0 110.44876528713576 446.53158855097718 0 0 0 0 -233.55955234785006 126.52270280571975 0 126.52270280571975 484.41806341244956 0 0 0 0 -413.87335468151991 -85.893406846822472 0 -85.893406846822472 611.00242711717874 0 0 0 0 -277.63396332380489 34.52375187263533 0 34.52375187263533 751.16216907411581 0 0 0 0 -622.17431226884582 148.47967470562435 0 148.47967470562435 406.87880188011331 0 0 0 0 4.1336748882907095 2.5146078038606561 0 2.5146078038606561 1.5583370803521461 0 0 0 0 -264.12441719409799 -287.13917721970938 0 -287.13917721970938 379.45672177530651 0 0 0 0 -271.64658676938461 -295.69850410711661 0 -295.69850410711661 374.64698928152211 0 0 0 0 -257.99293747626007 -293.71957463622675 0 -293.71957463622675 360.96002257164218 0 0 0 0 -13.370422831502765 -573.02938050597731 0 -573.02938050597731 729.13777528850187 0 0 0 0 -249.87951976756602 -280.73755647335202 0 -280.73755647335202 373.04125883735833 0 0 0 0 172.5377138729084 -357.88998998897296 0 -357.88998998897296 296.39917910310032 0 0 0 0 -32.41970898063488 -183.48391560241862 0 -183.48391560241862 155.68071034550667 0 0 0 0 36.111164648226463 -105.44945027623908 0 -105.44945027623908 194.64610995740077 0 0 0 0 29.09190476664142 -85.942934986336695 0 -85.942934986336695 163.71812324464554 0 0 0 0 62.826630760590433 -5.0647593036919716 0 -5.0647593036919716 189.91266080975402 0 0 0 0 63.969907777347316 2.4214956863288535 0 2.4214956863288535 199.09826661519764 0 0 0 0 67.462334486483769 21.260695975099225 0 21.260695975099225 147.915577915624 0 0 0 0 37.377888099853863 -40.983361413596867 0 -40.983361413596867 144.90622468436777 0 0 0 0 14.298514039772726 -34.531776885087311 0 -34.531776885087311 142.01829748712771 0 0 0 0 -0.80300040211886881 -3.8142622315062908 0 -3.8142622315062908 108.83397192558914 0 0 0 0 -38.795717385559328 4.9251487472429289 0 4.9251487472429289 112.70444439982384 0 0 0 0 -26.226914566754431 -83.968138746720797 0 -83.968138746720797 42.487329452240374 0 0 0 0 -191.36625603035554 -105.07309540996357 0 -105.07309540996357 83.238089435864822 0 0 0 0 38.953321222223167 -122.70350186589349 0 -122.70350186589349 86.518078625522321 0 0 0 0 -5.7343587520690562 -65.741231854804937 0 -65.741231854804937 16.712634058334515 0 0 0 0 -79.891553971253416 -161.19616069065523 0 -161.19616069065523 70.992930678330595 0 0 0 0 -206.96457512639938 -211.74007812166383 0 -211.74007812166383 27.707462754470043 0 0 0 0 -97.045627070787418 -25.183780659204785 0 -25.183780659204785 33.129454358437215 0 0 0 0 -6.0766594465863193 -124.58576507232647 0 -124.58576507232647 -25.150159717304632 0 0 0 0 13.525933026907706 -29.480140891332582 0 -29.480140891332582 60.459426844616303 0 0 0 0 -154.90169849331051 -112.06519601257605 0 -112.06519601257605 96.410881214920664 0 0 0 0 17.838183815593212 -37.111687573015857 0 -37.111687573015857 77.186278318320092 0 0 0 0 -123.61314264361062 -170.76506265808348 0 -170.76506265808348 1.4065905733295949 0 0 0 0 -24.981884436119373 -116.22917915276776 0 -116.22917915276776 -5.487987356071244 0 0 0 0 -28.19220882018044 -108.51986030484113 0 -108.51986030484113 22.602880152509897 0 0 0 0 -0.010410018647685093 -128.12483975253417 0 -128.12483975253417 -0.26713433336408343 0 0 0 0 -19.994115848558721 -86.196368156181052 0 -86.196368156181052 41.580842778843362 0 0 0 0 0.073918032065453387 -138.43075508822949 0 -138.43075508822949 96.598639324409305 0 0 0 0 1643.576865923932 1131.8289465230118 0 1131.8289465230118 228.11963607995858 0 0 0 0 -0.004544715667412623 -10.546340911940206 0 -10.546340911940206 16.825809753849171 0 0 0 0 -26.424935715476494 -31.273069351766026 0 -31.273069351766026 46.264385058867447 0 0 0 0 -3.2832200046050382 -2.9648511060623264 0 -2.9648511060623264 46.631332970551568 0 0 0 0 253.31641145300364 700.98270334748668 0 700.98270334748668 1096.9264228748507 0 0 0 0 -7.3740009001477373 -15.041964850660676 0 -15.041964850660676 81.666283372633359 0 0 0 0 18.776429298066482 -13.247409022180364 0 -13.247409022180364 43.556912132873549 0 0 0 0 -17.749525320117392 13.911505637035589 0 13.911505637035589 111.25500930465932 0 0 0 0 0.016394129943579257 -27.444679837673903 0 -27.444679837673903 112.85617455403553 0 0 0 0 -27.756230640605956 -6.5723987637684331 0 -6.5723987637684331 215.06676711610635 0 0 0 0 -0.085801981414389883 0.56202109392432931 0 0.56202109392432931 0.86767110311788542 0 0 0 0 -15.539347798018298 -97.7116306872922 0 -97.7116306872922 5.4176113452704158 0 0 0 0 -0.012657514139654387 -105.767461927033 0 -105.767461927033 -65.748414040834177 0 0 0 0 -26.685980190745454 -86.898239244190336 0 -86.898239244190336 38.422884788218653 0 0 0 0 -1.1792218494405402 -5.1845088359625606 0 -5.1845088359625606 33.169987753463488 0 0 0 0 -40.390339961647754 -31.82403784082635 0 -31.82403784082635 133.32304822243168 0 0 0 0 -21.521603168292398 -1.5115043366748466 0 -1.5115043366748466 21.70602607499012 0 0 0 0 306.84477934391043 890.06746143083728 0 890.06746143083728 1524.2040821396658 0 0 0 0 -33.900577400331599 -99.216695165334386 0 -99.216695165334386 17.973231193624088 0 0 0 0 16.244003503874517 -44.599054230170736 0 -44.599054230170736 92.775313167193701 0 0 0 0 -102.88918919998196 -43.501103693251935 0 -43.501103693251935 208.08707544182835 0 0 0 0 9.2642008801312841 -20.355177429206378 0 -20.355177429206378 104.88681953692594 0 0 0 0 -1329.2563636449158 616.65725721189665 0 616.65725721189665 1616.2669469138928 0 0 0 0 549.17553456221503 263.30869526343304 0 263.30869526343304 823.87515694269678 0 0 0 0 -1338.349816337291 -221.20328304477516 0 -221.20328304477516 466.77187203627545 0 0 0 0 -1110.0709803264863 262.20719101466602 0 262.20719101466602 1268.955272902007 0 0 0 0 785.96296240810989 1056.2807045173031 0 1056.2807045173031 451.14163065359753 0 0 0 0 914.77515012172262 1321.3163525583004 0 1321.3163525583004 957.4814275082681 0 0 0 0 -3.5629937251739645 6.8817254600541844 0 6.8817254600541844 15.3143176708856 0 0 0 0 -465.63371369259039 211.04428734288376 0 211.04428734288376 48.107499179110164 0 0 0 0 -537.50111856775766 170.39817416787264 0 170.39817416787264 26.207239518189454 0 0 0 0 -518.24253518981095 59.84981910190254 0 59.84981910190254 -222.97843534919957 0 0 0 0 -584.23712745562989 104.49256811095984 0 104.49256811095984 39.56023708844441 0 0 0 0 4.6012950450618568 16.464988024069768 0 16.464988024069768 48.246242153662877 0 0 0 0 -59.446342187209666 1.0092908499937039 0 1.0092908499937039 472.10708460531896 0 0 0 0 -639.52688774653598 222.16813737276243 0 222.16813737276243 -9.9234141471679322 0 0 0 0 1132.2064087002746 -1625.2640532547084 0 -1625.2640532547084 1645.8193175517372 0 0 0 0 2.5664919306527487 5.5619563891496995 0 5.5619563891496995 18.002351631974193 0 0 0 0 503.02255404386324 -536.88226425227549 0 -536.88226425227549 464.39575745986076 0 0 0 0 -475.2187667109356 125.68809854841675 0 125.68809854841675 -55.441694208420813 0 0 0 0 -99.067260750636706 962.01534131912194 0 962.01534131912194 515.18187596768257 0 0 0 0 21.848345290121806 -3.2793997744283843 0 -3.2793997744283843 -0.093785268753389772 0 0 0 0 40.498616334799664 36.741334877084228 0 36.741334877084228 195.33031014580047 0 0 0 0 2017.3398689071473 115.54240759537788 0 115.54240759537788 1781.8518883823053 0 0 0 0 -1187.3103959072714 1057.213506426051 0 1057.213506426051 2506.4642498116882 0 0 0 0 -26.735588450996829 31.843519863170513 0 31.843519863170513 270.83480646953103 0 0 0 0 -408.61250536191073 -1019.0947752817883 0 -1019.0947752817883 2854.3065139503015 0 0 0 0 -275.77408792664937 -164.71030576458725 0 -164.71030576458725 876.35450590399523 0 0 0 0 -640.18555368959551 -97.997067585483819 0 -97.997067585483819 1631.4594062985561 0 0 0 0 36.693346731735573 20.735242561007908 0 20.735242561007908 247.62014982505934 0 0 0 0 48.092682677669984 -7.5058114204560411 0 -7.5058114204560411 -1.3758078280748727 0 0 0 0 -315.03896731856844 -388.09578597658856 0 -388.09578597658856 1350.779530511616 0 0 0 0 -334.58882787812422 -259.76878642972406 0 -259.76878642972406 1503.8432936790923 0 0 0 0 -341.39582578228146 -138.70603894552914 0 -138.70603894552914 1404.8289149649936 0 0 0 0 -262.63315275807668 68.204897676210862 0 68.204897676210862 1997.0674888095818 0 0 0 0 -261.94252674419306 33.042563124769231 0 33.042563124769231 1088.2659569973766 0 0 0 0 -169.95024115293927 -27.837786685573519 0 -27.837786685573519 997.14670985829434 0 0 0 0 -317.61673942616471 -282.42821475215169 0 -282.42821475215169 971.64068497327389 0 0 0 0 -121.07904296214474 -634.6816279428167 0 -634.6816279428167 1521.2714950522786 0 0 0 0 -171.36984996124011 -11.98729068544344 0 -11.98729068544344 837.05471770303848 0 0 0 0 9.2235584481641126 -181.95774766539398 0 -181.95774766539398 545.75872715507285 0 0 0 0 65.027664001287803 23.267562274563716 0 23.267562274563716 77.892934713541763 0 0 0 0 72.67853737964947 -73.150591813986466 0 -73.150591813986466 377.47928778995993 0 0 0 0 1059.723236897582 -1975.956907235377 0 -1975.956907235377 6004.8126774788834 0 0 0 0 74.135316972401824 -67.025552942271361 0 -67.025552942271361 271.53084208097425 0 0 0 0 10.485449580848542 -20.420598672854581 0 -20.420598672854581 36.299706974448952 0 0 0 0 80.224651721979171 102.45790204535297 0 102.45790204535297 100.38843644775625 0 0 0 0 198.06316390801567 86.854043051276676 0 86.854043051276676 180.34849187586224 0 0 0 0 80.5892887897935 190.29668109567137 0 190.29668109567137 773.88953957543708 0 0 0 0 1.0990852817553112 0.83007222805836989 0 0.83007222805836989 31.210733225130866 0 0 0 0 94.836456929344422 45.757046643353533 0 45.757046643353533 -8.7197055456927046 0 0 0 0 36.151679670879275 127.19524560695208 0 127.19524560695208 39.690695040277205 0 0 0 0 4.1063717017413985 21.285854062370433 0 21.285854062370433 74.659474536875905 0 0 0 0 -6.8900212582320819 32.025449424734688 0 32.025449424734688 -4.4307146168830513 0 0 0 0 -22.121329480105487 99.32322302411194 0 99.32322302411194 26.405170002544764 0 0 0 0 83.334394231609622 -439.77841241331771 0 -439.77841241331771 -185.6105172036805 0 0 0 0 -162.10157088838605 479.74319201509934 0 479.74319201509934 175.99866090208525 0 0 0 0 1491.9235281492511 441.16456722555449 0 441.16456722555449 195.70516101428984 0 0 0 0 114.43487291397742 614.26208931711153 0 614.26208931711153 1247.6716412010719 0 0 0 0 -3.6506958738042314 -7.7679562550287926 0 -7.7679562550287926 12.830363384980899 0 0 0 0 756.19130933900487 784.24063323159498 0 784.24063323159498 979.2012750612048 0 0 0 0 642.94712621080907 364.97468399893842 0 364.97468399893842 190.7204585702566 0 0 0 0 482.7099758207296 587.29508710222945 0 587.29508710222945 13.050259640236618 0 0 0 0 527.65367186757339 698.14670857569581 0 698.14670857569581 279.27163182696677 0 0 0 0 343.4093758939307 562.51089605142624 0 562.51089605142624 472.28044822922675 0 0 0 0 542.16040056008933 387.92978814232629 0 387.92978814232629 332.24679194008422 0 0 0 0 262.02109761676365 120.96815495305782 0 120.96815495305782 578.90102200201363 0 0 0 0 659.12290155850133 36.334643502850668 0 36.334643502850668 897.85841274703853 0 0 0 0 443.95230841112425 338.4857870258129 0 338.4857870258129 492.99292863643495 0 0 0 0 515.78481795592234 93.96805710735498 0 93.96805710735498 312.67648324195761 0 0 0 0 568.04331009942416 414.85611424618946 0 414.85611424618946 391.01089205025346 0 0 0 0 228.28383821262105 92.937526167952456 0 92.937526167952456 242.26987382039079 0 0 0 0 202.94542693057156 134.36865020047117 0 134.36865020047117 371.18056021427037 0 0 0 0 93.30195364822066 101.82065126151429 0 101.82065126151429 293.41221775961458 0 0 0 0 379.30928164328725 280.6549011447205 0 280.6549011447205 338.41825219983002 0 0 0 0 437.20570752985896 724.08861975898981 0 724.08861975898981 379.72498235589592 0 0 0 0 367.06455313654078 479.90923549050058 0 479.90923549050058 366.60109112755163 0 0 0 0 356.69727306525056 303.76820500718895 0 303.76820500718895 333.30940933182137 0 0 0 0 538.53244572553376 540.24189307003689 0 540.24189307003689 370.16271089878865 0 0 0 0 578.34184678854581 568.38653796059953 0 568.38653796059953 283.83393630385399 0 0 0 0 636.0515868647235 589.31604074992356 0 589.31604074992356 425.02726017193345 0 0 0 0 537.08512207650438 569.03283510153051 0 569.03283510153051 402.55479566758731 0 0 0 0 -12.735662814628999 -12.338785539277609 0 -12.338785539277609 75.806708656616422 0 0 0 0 267.27496438922935 217.07599417498568 0 217.07599417498568 617.73542893689591 0 0 0 0 545.17471529044087 525.98450819493155 0 525.98450819493155 388.0601971502183 0 0 0 0 489.61920473683131 601.9717264296487 0 601.9717264296487 717.30990707786987 0 0 0 0 530.37211913180363 464.75335667916806 0 464.75335667916806 382.34786792777595 0 0 0 0 468.79041664773922 505.18369678772433 0 505.18369678772433 433.31304448784795 0 0 0 0 635.34909157484799 595.49834706564434 0 595.49834706564434 504.46080806787359 0 0 0 0 858.78060676078894 358.7930132659676 0 358.7930132659676 378.5732945711934 0 0 0 0 1186.6215190118673 407.6631454663293 0 407.6631454663293 366.25085086499166 0 0 0 0 1072.4156428881761 697.3779317617882 0 697.3779317617882 502.72071838422562 0 0 0 0 185.41084880912877 277.38349640893284 0 277.38349640893284 785.05755442148075 0 0 0 0 -118.47886744676907 -204.38571971775673 0 -204.38571971775673 -108.6774171003708 0 0 0 0 -1232.2203303318911 -544.85543729778146 0 -544.85543729778146 -22.793750385055318 0 0 0 0 -239.74777313039885 15.774440529843559 0 15.774440529843559 -19.800157709978521 0 0 0 0 -528.69550410658849 -163.99378887671628 0 -163.99378887671628 -86.485722211073153 0 0 0 0 -696.24691094817535 -10.240475216443883 0 -10.240475216443883 196.17117763462011 0 0 0 0 -593.00525994467171 -272.03229564210051 0 -272.03229564210051 -234.75298920209752 0 0 0 0 -874.81923623811963 -167.66016787846456 0 -167.66016787846456 138.91926397674251 0 0 0 0 -1016.3226278066541 -317.16313046676805 0 -317.16313046676805 -16.92115249420749 0 0 0 0 -763.74287896292299 -394.85931919803261 0 -394.85931919803261 -273.55274450175057 0 0 0 0 615.15499114751583 512.43571440846426 0 512.43571440846426 368.76729465881363 0 0 0 0 613.60769098664969 596.60172759809939 0 596.60172759809939 110.36153376527363 0 0 0 0 -18.284484855818441 -7.3602510820067266 0 -7.3602510820067266 68.970222900600788 0 0 0 0 618.88441091933873 561.48256583754301 0 561.48256583754301 278.67598239978543 0 0 0 0 -2.4771920365730544 -11.308548940052802 0 -11.308548940052802 9.4574077101883631 0 0 0 0 622.33300494097784 631.89406767261971 0 631.89406767261971 108.94745196419535 0 0 0 0 615.49670037784381 643.40655673018773 0 643.40655673018773 324.60345222352771 0 0 0 0 650.70737478786123 868.22090771980402 0 868.22090771980402 -107.74416428161203 0 0 0 0 651.03003429432692 892.14838252869959 0 892.14838252869959 264.64922206196934 0 0 0 0 502.70846489277028 890.58038820000365 0 890.58038820000365 636.23568996680115 0 0 0 0 -1459.2377917675635 -259.1395690836116 0 -259.1395690836116 219.54721816006349 0 0 0 0 -1405.1430421756504 -864.91144543339033 0 -864.91144543339033 -580.88242452526174 0 0 0 0 -1237.6330994244472 -252.88098399540468 0 -252.88098399540468 22.648778169983416 0 0 0 0 -1196.4982799652109 113.71549125431739 0 113.71549125431739 619.30910218760255 0 0 0 0 -1230.7188580868869 -324.78891772432235 0 -324.78891772432235 128.9132336609473 0 0 0 0 -1014.211227951153 -45.886819300387288 0 -45.886819300387288 309.05815947537485 0 0 0 0 -920.39373710924519 -26.85854082579317 0 -26.85854082579317 268.1821084334515 0 0 0 0 -921.722916190398 176.97974057921579 0 176.97974057921579 511.87733202963136 0 0 0 0 -691.78322583529553 90.108013029588619 0 90.108013029588619 256.97049185186916 0 0 0 0 -728.80839998148633 339.83294094604571 0 339.83294094604571 494.17066296609119 0 0 0 0 -752.71571011141032 138.41954199890642 0 138.41954199890642 346.10770175140351 0 0 0 0 -842.62923925986615 107.1489583534858 0 107.1489583534858 383.95044088418945 0 0 0 0 -2.5563706276137417 0.09541335752771829 0 0.09541335752771829 7.7859517224228512 0 0 0 0 -450.83810910523607 51.105107860741555 0 51.105107860741555 163.12431412097067 0 0 0 0 -815.85099125342731 -40.784375640196231 0 -40.784375640196231 255.1574045449961 0 0 0 0 -637.52735967464832 58.197356011514785 0 58.197356011514785 290.14914328241139 0 0 0 0 -615.41836290324864 -11.642797171603888 0 -11.642797171603888 374.46220421628095 0 0 0 0 -574.52540030526143 -75.088356598163955 0 -75.088356598163955 385.11711046482378 0 0 0 0 -574.28907654194336 -19.652035143590183 0 -19.652035143590183 327.96061505543184 0 0 0 0 -322.04705905122319 -82.446172663174366 0 -82.446172663174366 163.84132904361468 0 0 0 0 -460.66823507104709 90.902881351561518 0 90.902881351561518 -33.180910553026479 0 0 0 0 -557.47712397932696 140.11392852618837 0 140.11392852618837 67.714525395625969 0 0 0 0 -580.89384174784936 82.558226907422068 0 82.558226907422068 255.67357256511605 0 0 0 0 -556.66832516816066 160.5148734157458 0 160.5148734157458 71.531324413605034 0 0 0 0 -492.5794901882573 215.00764490790607 0 215.00764490790607 103.37811016842898 0 0 0 0 -5.1915303986377062 7.6660284282010167 0 7.6660284282010167 30.816911400877586 0 0 0 0 -466.99263532613168 303.85654777110904 0 303.85654777110904 231.90156966223731 0 0 0 0 -485.97337482889088 151.68499987223913 0 151.68499987223913 215.50697366725944 0 0 0 0 -738.15652357661077 517.75037238957702 0 517.75037238957702 1104.386686832906 0 0 0 0 -793.91398192050747 132.97561757966469 0 132.97561757966469 354.06940132261661 0 0 0 0 -506.84479738488517 -124.08505954472639 0 -124.08505954472639 479.693253008998 0 0 0 0 -1168.9603514526298 -426.651568864414 0 -426.651568864414 259.35406198895362 0 0 0 0 -939.02897381698165 77.964500533140381 0 77.964500533140381 524.22594801973901 0 0 0 0 -491.44798026386127 256.67336307334176 0 256.67336307334176 2224.5885010203056 0 0 0 0 447.00175005440929 -1038.5801037088822 0 -1038.5801037088822 661.60613625912811 0 0 0 0 727.9949282231355 977.79824481396281 0 977.79824481396281 694.55993299433612 0 0 0 0 -2.7970612533357437 3.4453458600405753 0 3.4453458600405753 16.67480124450617 0 0 0 0 219.13374198424981 280.80535714906 0 280.80535714906 220.86369470254431 0 0 0 0 -1648.0529865965327 -791.95272460304841 0 -791.95272460304841 1664.4772920342511 0 0 0 0 299.45702579748558 -573.98998229160065 0 -573.98998229160065 1222.1977830342366 0 0 0 0 -0.067751387464676682 -0.69066731353857591 0 -0.69066731353857591 5.3094516443305793 0 0 0 0 -291.92184905543223 255.34759531675229 0 255.34759531675229 695.8685609010281 0 0 0 0 4.7689426018294361 -380.36767085525207 0 -380.36767085525207 1534.1584005199838 0 0 0 0 384.05385064368477 355.70757611999579 0 355.70757611999579 2477.2038195359637 0 0 0 0 2610.3897856587992 2153.316723481752 0 2153.316723481752 1309.5853905699987 0 0 0 0 -535.92008955518736 607.96331908330103 0 607.96331908330103 819.79859260462399 0 0 0 0 -0.72438710805631057 2.4366484983761438 0 2.4366484983761438 15.511353647822091 0 0 0 0 1892.0284514803004 782.05538519493712 0 782.05538519493712 -30.844909211371487 0 0 0 0 415.49932226114322 -1044.3269678929646 0 -1044.3269678929646 280.21790495159803 0 0 0 0 -0.024316275394693408 -10.535491012589773 0 -10.535491012589773 16.824404479528312 0 0 0 0 -601.26270355971974 228.6493551606759 0 228.6493551606759 453.86202976336972 0 0 0 0 -39.541467149771051 176.80515246766754 0 176.80515246766754 366.14012949301411 0 0 0 0 -106.74541476830663 50.863507361108162 0 50.863507361108162 70.409717091148039 0 0 0 0 -26.400243114403565 166.06835369265536 0 166.06835369265536 358.33506994520258 0 0 0 0 -41.621673078869208 190.18076802892938 0 190.18076802892938 338.33630984598312 0 0 0 0 -49.061620868709724 188.44801201608743 0 188.44801201608743 342.2280168040661 0 0 0 0 -59.307523159211996 220.47563008646375 0 220.47563008646375 314.38192047991197 0 0 0 0 -60.024749020209129 199.28993356922092 0 199.28993356922092 346.62657879204608 0 0 0 0 -1258.2322540769496 263.65705531268031 0 263.65705531268031 932.141030879342 0 0 0 0 -10.092232691362838 -53.965104828510448 0 -53.965104828510448 291.28102213567445 0 0 0 0 -1422.341694722898 -14.783896748107509 0 -14.783896748107509 471.19536050030729 0 0 0 0 -2624.0219720444438 -893.44718865503091 0 -893.44718865503091 -167.69699609981035 0 0 0 0 -35.466629037992099 13.354709101742245 0 13.354709101742245 110.77908145315661 0 0 0 0 -4073.2516943815936 -1622.3303505398799 0 -1622.3303505398799 -313.59950386617129 0 0 0 0 -1.1536830607401498 145.23475364814203 0 145.23475364814203 368.38148171284024 0 0 0 0 -2730.6987564874762 -221.69292722662067 0 -221.69292722662067 528.95399322849698 0 0 0 0 -8.2135927518538665 143.44898442845806 0 143.44898442845806 371.57706045176099 0 0 0 0 7.8419461444609624 146.90143246703963 0 146.90143246703963 353.35510464888762 0 0 0 0 -46.279043770194974 23.895330621241023 0 23.895330621241023 349.69361676064682 0 0 0 0 -3356.6061072229641 388.83847096611862 0 388.83847096611862 307.95561210176675 0 0 0 0 -2755.7422077994042 -651.18353823507641 0 -651.18353823507641 436.70698145218194 0 0 0 0 1.9224716981843812 144.97648181987074 0 144.97648181987074 337.22160588366296 0 0 0 0 -23.046410649032623 161.30030111544465 0 161.30030111544465 353.72098440742593 0 0 0 0 -24.60074707386957 164.88117121204868 0 164.88117121204868 350.00453004387964 0 0 0 0 -13.391859503029991 173.69691616949558 0 173.69691616949558 345.31080453798404 0 0 0 0 -26.824639557456976 191.98864369505009 0 191.98864369505009 321.73905083682314 0 0 0 0 -20.707614916653256 201.61370776617377 0 201.61370776617377 335.46925058240595 0 0 0 0 -20.258810118892143 210.33382113298603 0 210.33382113298603 353.48043305227202 0 0 0 0 48.640180378348305 225.96100479909546 0 225.96100479909546 316.31753500059949 0 0 0 0 71.508468536926557 259.61992503304009 0 259.61992503304009 340.64483384903087 0 0 0 0 2.4304796085270937 205.69611431779958 0 205.69611431779958 332.35356383350154 0 0 0 0 45.110926089124405 237.90867080040925 0 237.90867080040925 348.92635010872709 0 0 0 0 45.187216312184319 237.04588115522256 0 237.04588115522256 352.73592392610135 0 0 0 0 4.5056529172470619 199.92517389422483 0 199.92517389422483 341.42073158609674 0 0 0 0 4.2852277732800133 237.92970810827416 0 237.92970810827416 421.34997078557717 0 0 0 0 -8.3730135048738248 196.5030753828413 0 196.5030753828413 330.23979457592941 0 0 0 0 -7.132877213498432 214.24921421691033 0 214.24921421691033 372.05241460392244 0 0 0 0 -20.956697847341275 158.24151744315077 0 158.24151744315077 291.29502989786761 0 0 0 0 -23.601358461935888 181.34033008051119 0 181.34033008051119 366.44062621077046 0 0 0 0 -45.528665127480053 202.91298327906588 0 202.91298327906588 337.11752200826231 0 0 0 0 -21.665196852382905 184.83993480496684 0 184.83993480496684 306.19964164150224 0 0 0 0 -20.971646927697293 190.78224163718642 0 190.78224163718642 340.42231829060984 0 0 0 0 -26.319879540154943 215.33695050072083 0 215.33695050072083 266.42381407198081 0 0 0 0 -71.731118068985481 10.381767341599989 0 10.381767341599989 15.294627984153569 0 0 0 0 -0.54159375310700852 163.05336840163886 0 163.05336840163886 252.69637005494133 0 0 0 0 442.5949115852527 1031.2681593495008 0 1031.2681593495008 5372.2364600552501 0 0 0 0 -87.317414474400721 92.166077824679633 0 92.166077824679633 319.05568918827623 0 0 0 0 -27.158866491849494 154.75852936571505 0 154.75852936571505 318.45642531884369 0 0 0 0 2.9912798837503942 151.32215487490612 0 151.32215487490612 291.39831308633802 0 0 0 0 -4.4411154657227598 121.01232496118428 0 121.01232496118428 193.52093125662759 0 0 0 0 -10.243392495707811 -24.31391476831481 0 -24.31391476831481 41.474416571725911 0 0 0 0 2500.9900887739259 2089.57335533575 0 2089.57335533575 5823.6890910754255 0 0 0 0 -123.57394378658864 -8.4940327890126355 0 -8.4940327890126355 177.28577832842893 0 0 0 0 -38.96570493282853 2.1222749739919293 0 2.1222749739919293 24.660133295975502 0 0 0 0 0.14991937689734414 -4.3047079857373678 0 -4.3047079857373678 10.123527675070846 0 0 0 0 -742.23708504163733 -1130.4343417762284 0 -1130.4343417762284 -1438.6871059039076 0 0 0 0 -1377.7070863139743 -1921.4061431988939 0 -1921.4061431988939 -1129.0316565089215 0 0 0 0 -622.70468673041523 -383.64906525401329 0 -383.64906525401329 -894.81828328630218 0 0 0 0 1251.0955939567812 4171.9746088431757 0 4171.9746088431757 4364.4797177700502 0 0 0 0 -804.71338253619979 -618.65585086226747 0 -618.65585086226747 -280.50633510954867 0 0 0 0 -798.66700002971083 -576.9925002889463 0 -576.9925002889463 -65.411850904261883 0 0 0 0 -1016.8798812250025 -587.42371526289753 0 -587.42371526289753 -202.61484639447735 0 0 0 0 -892.51845898572037 -797.41765130785291 0 -797.41765130785291 489.75493163023566 0 0 0 0 -888.41770690274279 -781.64649563020066 0 -781.64649563020066 -296.387390060283 0 0 0 0 -1866.2841948261739 -1167.7803921777522 0 -1167.7803921777522 846.74607708023905 0 0 0 0 -694.57094806914029 39.677862870956233 0 39.677862870956233 187.86854706569284 0 0 0 0 -1182.3741874012485 257.87909208915698 0 257.87909208915698 2307.7284971130921 0 0 0 0 539.24310836082441 931.04892982128376 0 931.04892982128376 883.06084789360284 0 0 0 0 -1318.754129565536 8.7935075963541749 0 8.7935075963541749 1086.8856703877391 0 0 0 0 -799.71542654307996 257.96024061645585 0 257.96024061645585 807.68673602055605 0 0 0 0 -590.28856752598222 157.29448454845988 0 157.29448454845988 917.34531594850705 0 0 0 0 651.32167221525378 752.43878138660511 0 752.43878138660511 835.35538378917772 0 0 0 0 -932.8627493860422 -213.75483413726033 0 -213.75483413726033 1007.1328587930184 0 0 0 0 620.0193686790808 519.19935077514674 0 519.19935077514674 -627.28876867488725 0 0 0 0 5.0646102932358659 -29.577706814545621 0 -29.577706814545621 207.78417113785287 0 0 0 0 -190.75625010893418 425.28089017594175 0 425.28089017594175 -112.98465134262028 0 0 0 0 434.03733926691712 539.63295986740195 0 539.63295986740195 -1775.1654645931776 0 0 0 0 -1.8417039316459594 -0.40050827420208179 0 -0.40050827420208179 -3.1966759678110321 0 0 0 0 -603.68002311711371 722.59883688789341 0 722.59883688789341 2288.1690078551255 0 0 0 0 -193.30287116293687 383.03376247219057 0 383.03376247219057 -268.04821711688419 0 0 0 0 -4.0158252197638493 6.4468397865999805 0 6.4468397865999805 34.146751749737859 0 0 0 0 484.48126299029167 452.88340207830333 0 452.88340207830333 569.00490073184483 0 0 0 0 256.52938282713694 947.70550631989317 0 947.70550631989317 750.19084896148706 0 0 0 0 -196.05751953893105 1227.8666382178562 0 1227.8666382178562 996.07928125033504 0 0 0 0 -551.09701056637277 657.86404564755503 0 657.86404564755503 1090.7410672145779 0 0 0 0 -756.19768762917738 697.95055053720716 0 697.95055053720716 1202.6389789998502 0 0 0 0 -53.763848594835508 252.71957945191389 0 252.71957945191389 1476.5886454572028 0 0 0 0 183.47552245208863 624.67063711256196 0 624.67063711256196 721.50665700490936 0 0 0 0 86.577051385524101 0.85527549977996387 0 0.85527549977996387 206.16463584070152 0 0 0 0 61.113170837137403 -6.2674556309862908 0 -6.2674556309862908 26.30469073091102 0 0 0 0 11.449024398313474 19.531078098992303 0 19.531078098992303 102.19977815672075 0 0 0 0 -1454.1774581154596 834.59642119100317 0 834.59642119100317 749.75364011435886 0 0 0 0 304.24896954273055 298.09496006356494 0 298.09496006356494 436.35742115110043 0 0 0 0 1426.6880249154569 1514.2828612326412 0 1514.2828612326412 -335.45210361279896 0 0 0 0 576.44420278866164 -376.48319412914861 0 -376.48319412914861 -342.60541045755417 0 0 0 0 759.88679463187873 29.623069997498533 0 29.623069997498533 -39.961122255714145 0 0 0 0 2025.975628214379 -1662.7503522673069 0 -1662.7503522673069 1232.9494484561146 0 0 0 0 10.895297344205378 -13.3941957865636 0 -13.3941957865636 17.634704538930862 0 0 0 0 347.39799961988319 903.82861577415315 0 903.82861577415315 2514.6966199852395 0 0 0 0 449.38227716369511 -1939.8291381697172 0 -1939.8291381697172 70.522284649618086 0 0 0 0 323.25909445941033 624.71315261250129 0 624.71315261250129 843.67732482135762 0 0 0 0 -29.954379216651432 -286.14694397005951 0 -286.14694397005951 1481.3971739727422 0 0 0 0 -27.512025854922285 -492.66313797960174 0 -492.66313797960174 3236.7819983711815 0 0 0 0 2.2837711295415 5.669029381378575 0 5.669029381378575 41.650797946264333 0 0 0 0 18.084486263812323 -1949.0424751165356 0 -1949.0424751165356 2127.0058740790118 0 0 0 0 378.21260979780163 -2225.3064708297752 0 -2225.3064708297752 1957.5812894567061 0 0 0 0 394.98653527906572 801.98113846265915 0 801.98113846265915 1499.6996410392749 0 0 0 0 548.86511427406731 1552.5315042211441 0 1552.5315042211441 3647.4190162099076 0 0 0 0 -507.09991975295634 2519.4683961556511 0 2519.4683961556511 -1664.8928883719782 0 0 0 0 -3798.5252846427102 2845.6651575577271 0 2845.6651575577271 5531.4451134179253 0 0 0 0 209.04618600621325 1452.3406509345077 0 1452.3406509345077 908.01301692365087 0 0 0 0 -976.43622253073045 834.60821857799601 0 834.60821857799601 1623.4032290228497 0 0 0 0 -867.46626330098661 499.33091639007034 0 499.33091639007034 202.22630674229003 0 0 0 0 -1826.9209981944296 663.14596707155579 0 663.14596707155579 888.56259586068336 0 0 0 0 -3518.9316030952059 130.57747016328722 0 130.57747016328722 173.35023519961396 0 0 0 0 -1601.2727954646689 633.11217136355117 0 633.11217136355117 -3.4624399938693387 0 0 0 0 -726.49747444199238 915.28170908153697 0 915.28170908153697 744.35189852269832 0 0 0 0 -1415.6799550565302 867.87170241122658 0 867.87170241122658 1107.9929494534299 0 0 0 0 -777.85951041549743 968.01143321486234 0 968.01143321486234 1010.2276213902223 0 0 0 0 978.85232839646505 1363.8398093532451 0 1363.8398093532451 691.57066295368713 0 0 0 0 411.65937670829771 1082.1371693611145 0 1082.1371693611145 925.37482342692238 0 0 0 0 3558.0108250368748 1200.9083492444333 0 1200.9083492444333 256.15347413113341 0 0 0 0 1340.4802757070656 368.05715558913653 0 368.05715558913653 -45.02538252910017 0 0 0 0 2022.5544192558446 2323.0069716514263 0 2323.0069716514263 1748.2906663917238 0 0 0 0 -72.467715082615541 1142.1807224662043 0 1142.1807224662043 3673.9433576096344 0 0 0 0 870.5491061610237 -1498.3999412410121 0 -1498.3999412410121 2670.8488911242312 0 0 0 0 2502.0504287718413 -1528.2775195695212 0 -1528.2775195695212 793.43285398873559 0 0 0 0 -629.36210966819817 -208.43886672156805 0 -208.43886672156805 1563.5310245316941 0 0 0 0 -713.18803436370945 -802.35790621506749 0 -802.35790621506749 712.97103308841179 0 0 0 0 -1746.6157371066074 -198.33631218431401 0 -198.33631218431401 1607.0970743140788 0 0 0 0 -342.53828941083339 194.3088137959603 0 194.3088137959603 899.93613722609007 0 0 0 0 -1040.9559193852365 536.5634528415394 0 536.5634528415394 1189.2157864533801 0 0 0 0 -1920.3619549018731 26.454045194899663 0 26.454045194899663 -618.79931257999851 0 0 0 0 -3182.2257123771551 -797.84926607145098 0 -797.84926607145098 491.00822365400381 0 0 0 0 -1944.8556758621271 186.72555030384683 0 186.72555030384683 811.0838955824438 0 0 0 0 -1359.835986401532 -194.92965634885331 0 -194.92965634885331 443.815227585088 0 0 0 0 -2416.005648510949 -287.39058551186463 0 -287.39058551186463 1044.1943434258283 0 0 0 0 -2409.6727098446172 -364.83110305704759 0 -364.83110305704759 716.16661171993474 0 0 0 0 -2861.3385011623104 -565.17726633473649 0 -565.17726633473649 983.13843068838469 0 0 0 0 -2462.8937471103018 -326.76691679499345 0 -326.76691679499345 1005.5605004265963 0 0 0 0 -1682.3208060189781 -311.84152623239424 0 -311.84152623239424 820.814246939437 0 0 0 0 -1564.8866801632903 -643.63515353223193 0 -643.63515353223193 436.6798003569711 0 0 0 0 -2462.8427768018651 -325.1302174817165 0 -325.1302174817165 550.3897951815743 0 0 0 0 -3265.7970031427285 -177.78036413004156 0 -177.78036413004156 524.03992694415501 0 0 0 0 -3659.9006421480854 -1925.8251720214321 0 -1925.8251720214321 -406.70007670891937 0 0 0 0 -2484.2095039768064 -18.272324930439936 0 -18.272324930439936 -714.94331156893168 0 0 0 0 -1579.8226325075302 -788.29256554177846 0 -788.29256554177846 -472.5815756675438 0 0 0 0 -2462.7596591866418 -169.91172746321536 0 -169.91172746321536 208.62806756008649 0 0 0 0 -2288.8935331384673 -1306.5138759109541 0 -1306.5138759109541 -159.16139798134827 0 0 0 0 -2190.4374789834401 -449.24601291300496 0 -449.24601291300496 -272.26527372625424 0 0 0 0 -3072.7826249180362 211.63311582067399 0 211.63311582067399 -109.72720367764123 0 0 0 0 -2234.5530894880467 -953.83796124873334 0 -953.83796124873334 -336.43561321179004 0 0 0 0 -4421.6819930294223 -1021.4292445824249 0 -1021.4292445824249 -321.74481058004312 0 0 0 0 -5533.7932597722975 877.15962669308647 0 877.15962669308647 -187.46141266438644 0 0 0 0 -2588.0738521874737 -1159.2619446471799 0 -1159.2619446471799 -1300.6270405545074 0 0 0 0 -1713.7121465447963 -828.12302177978563 0 -828.12302177978563 193.04214922033134 0 0 0 0 -1521.9684417434619 -1144.0942155870725 0 -1144.0942155870725 239.70194920066206 0 0 0 0 -102.16640307188936 -1023.1296175235111 0 -1023.1296175235111 -180.37306017419905 0 0 0 0 -1153.660547238138 -722.60224550150451 0 -722.60224550150451 157.22026744342293 0 0 0 0 -1570.4560306056919 -659.05141343551804 0 -659.05141343551804 615.87327469761658 0 0 0 0 -1042.6996996047938 -1473.9372865857076 0 -1473.9372865857076 185.65584844519617 0 0 0 0 -1266.7208081297085 -218.78340819166624 0 -218.78340819166624 227.14461604272947 0 0 0 0 -175.36320385010185 -528.61051743128337 0 -528.61051743128337 111.93547514962847 0 0 0 0 1844.2717868701484 -789.07011546850845 0 -789.07011546850845 37.377389001529082 0 0 0 0 560.4981731052867 -767.30011298978206 0 -767.30011298978206 -271.96691276727506 0 0 0 0 -436.51507322664838 -326.59567175873963 0 -326.59567175873963 -242.20572050000192 0 0 0 0 15.617577493900059 21.14926057358122 0 21.14926057358122 52.29356141800298 0 0 0 0 -2036.522933120878 -725.23147257373057 0 -725.23147257373057 413.8719655869354 0 0 0 0 -2047.9527233733072 -630.7306162637251 0 -630.7306162637251 292.70693065226078 0 0 0 0 -872.12480162933207 -426.83636053540977 0 -426.83636053540977 -256.77902974153403 0 0 0 0 -438.67441338197631 -448.08239230615209 0 -448.08239230615209 -335.04842863650993 0 0 0 0 -1106.7104946608522 -7.1291520637423673 0 -7.1291520637423673 -439.54281144036213 0 0 0 0 -1796.8776866149915 -125.69000998573028 0 -125.69000998573028 85.087987500650343 0 0 0 0 -1228.7662330314424 -800.3506362928747 0 -800.3506362928747 147.2841945514665 0 0 0 0 5.6534004166684362 12.357653834902436 0 12.357653834902436 31.684426488278461 0 0 0 0 -675.8133232499822 -203.43990246772591 0 -203.43990246772591 2720.4717678094712 0 0 0 0 2243.9657032197265 385.76064385611608 0 385.76064385611608 -996.96515363565413 0 0 0 0 -770.45905711391788 512.59549014593358 0 512.59549014593358 1507.0414822483581 0 0 0 0 747.09863578863042 -28.982735817422508 0 -28.982735817422508 16.102667573031795 0 0 0 0 833.81843262633492 197.55877642650921 0 197.55877642650921 -472.19540591957048 0 0 0 0 2900.7843189849373 1030.6508360468415 0 1030.6508360468415 527.89552083873423 0 0 0 0 162.14314044654384 419.96592635231355 0 419.96592635231355 -335.08294994204334 0 0 0 0 428.20280093162364 -15.033973554644035 0 -15.033973554644035 -395.69583074254115 0 0 0 0 950.7871261784685 29.567790785466059 0 29.567790785466059 -470.77673052615137 0 0 0 0 -61.685304197282676 461.08451035592952 0 461.08451035592952 395.47636282887834 0 0 0 0 16.096824102674312 37.000913190130163 0 37.000913190130163 85.440518276856267 0 0 0 0 98.501991985554923 312.78174681389646 0 312.78174681389646 296.64493238023715 0 0 0 0 207.14901403683325 297.71464957089847 0 297.71464957089847 75.824516160937492 0 0 0 0 82.511110764911791 -186.30435728980228 0 -186.30435728980228 39.64816787026939 0 0 0 0 -281.96835808994911 48.708278475944098 0 48.708278475944098 274.0381536327186 0 0 0 0 5.2627595848934448 45.506991737265068 0 45.506991737265068 140.80342389635916 0 0 0 0 121.03663957559957 -132.41963341749579 0 -132.41963341749579 69.163192032719962 0 0 0 0 -97.090653532595752 -109.77231704970472 0 -109.77231704970472 227.7939633602582 0 0 0 0 686.24542082344624 847.4021415525167 0 847.4021415525167 863.54166264549713 0 0 0 0 -621.84254840092945 -601.76024446994415 0 -601.76024446994415 30.587599220663833 0 0 0 0 -0.87715141083380876 -9.4954967466697333 0 -9.4954967466697333 15.891971452296104 0 0 0 0 -347.58160477238562 -421.58257158716879 0 -421.58257158716879 -514.66962789370154 0 0 0 0 -610.71399998019297 -220.17784720478812 0 -220.17784720478812 -460.93646475547212 0 0 0 0 120.47701564356021 -274.29617789082477 0 -274.29617789082477 -129.46899672562722 0 0 0 0 -321.41347139837671 -596.15493600546324 0 -596.15493600546324 -276.84591203029959 0 0 0 0 -619.72747429390893 -452.0082328668941 0 -452.0082328668941 197.25677660827932 0 0 0 0 -85.386150628754876 13.329153809372656 0 13.329153809372656 588.12868251283362 0 0 0 0 -2.3180775879164806 11.12440068041775 0 11.12440068041775 21.818470182825223 0 0 0 0 -348.19855284544155 -463.58569298247312 0 -463.58569298247312 -94.01877255677573 0 0 0 0 -922.71642698732649 -268.08649883254839 0 -268.08649883254839 750.26556014004746 0 0 0 0 548.09673141141957 1078.7389731765943 0 1078.7389731765943 476.59701440382923 0 0 0 0 1225.407830660909 787.98686394152173 0 787.98686394152173 469.60113634959271 0 0 0 0 -613.3459037245641 -500.47246880509647 0 -500.47246880509647 504.67785552918212 0 0 0 0 -561.03775996327431 778.90774111367136 0 778.90774111367136 1520.665646581765 0 0 0 0 216.82594978212683 176.50506577522901 0 176.50506577522901 1274.6726053164602 0 0 0 0 1325.4620261688699 -286.18467745272255 0 -286.18467745272255 584.28461640275782 0 0 0 0 194.3899497518787 385.34339494665619 0 385.34339494665619 377.39944388199365 0 0 0 0 -135.51375434741067 14.73032105879247 0 14.73032105879247 -38.380900263044168 0 0 0 0 -2.0157537640312446 8.7718953214156841 0 8.7718953214156841 52.174092323679076 0 0 0 0 -498.54903073205924 399.64706220884091 0 399.64706220884091 79.270689669487183 0 0 0 0 -41.833732196349956 -77.037719545165601 0 -77.037719545165601 401.53480113373689 0 0 0 0 -571.58212908437963 127.75352864961314 0 127.75352864961314 382.17099733048963 0 0 0 0 -58.130797526537208 -53.397783482068917 0 -53.397783482068917 552.42755330048385 0 0 0 0 58.937931067783779 -59.989815040420126 0 -59.989815040420126 400.13343463285128 0 0 0 0 29.358236446406551 -267.25585623955521 0 -267.25585623955521 1547.3228714337456 0 0 0 0 515.85534940661137 864.62422198342392 0 864.62422198342392 -515.91525690014532 0 0 0 0 7.2583249469757538 5.2172663483532062 0 5.2172663483532062 1.9320191923162895 0 0 0 0 742.15396401272164 915.99819278887298 0 915.99819278887298 965.82217863552796 0 0 0 0 147.75027006203845 370.13022229319176 0 370.13022229319176 40.601236388392863 0 0 0 0 1309.3781390147542 -82.557763655589952 0 -82.557763655589952 -659.77422461865353 0 0 0 0 -85.953953103638469 -262.12201771888067 0 -262.12201771888067 45.110007844108623 0 0 0 0 163.53318676088236 173.64437538717175 0 173.64437538717175 347.03133708144014 0 0 0 0 -202.69414559785628 203.91847443539882 0 203.91847443539882 647.63226774925715 0 0 0 0 257.39759216536879 144.95836885867539 0 144.95836885867539 -55.809327112612664 0 0 0 0 1.9060890555333572 129.90148740690896 0 129.90148740690896 360.70228680617129 0 0 0 0 60.057172987324684 141.14518475453795 0 141.14518475453795 156.05379288937161 0 0 0 0 248.12816325747599 398.2681777392354 0 398.2681777392354 -114.99203878602384 0 0 0 0 -4.3430367983310134 129.46306998821649 0 129.46306998821649 372.72011464033153 0 0 0 0 -33.112866023868712 16.106878716392941 0 16.106878716392941 51.481822529718897 0 0 0 0 29.956322292564437 193.96744125496355 0 193.96744125496355 297.83404733727366 0 0 0 0 41.521899372110056 173.73969216307808 0 173.73969216307808 189.34998210000754 0 0 0 0 106.78157955046481 219.13399878597102 0 219.13399878597102 209.61905934090623 0 0 0 0 6.2683810355556489 148.47614962940719 0 148.47614962940719 319.05384720454111 0 0 0 0 27.135631710672897 171.21697110015714 0 171.21697110015714 208.00833035203004 0 0 0 0 51.135736694079242 204.31192805374587 0 204.31192805374587 177.39778517803268 0 0 0 0 -111.47826561806596 232.07790718667093 0 232.07790718667093 317.80851585336495 0 0 0 0 34.567238043411635 204.44913413745309 0 204.44913413745309 177.46753339872839 0 0 0 0 32.720289047864945 136.05979837382424 0 136.05979837382424 148.25803520223857 0 0 0 0 19.359815325969976 183.63093258694306 0 183.63093258694306 187.26240868860708 0 0 0 0 43.660750885361267 135.22140457856517 0 135.22140457856517 170.45056684527299 0 0 0 0 276.03968118398916 134.60119747770523 0 134.60119747770523 82.947913253436582 0 0 0 0 -49.83259350573644 67.39343907200282 0 67.39343907200282 7.3276373118178526 0 0 0 0 -21.19404945068527 -111.85890053309458 0 -111.85890053309458 842.96766779372092 0 0 0 0 -107.20124071500473 42.293667398783029 0 42.293667398783029 218.0397994610646 0 0 0 0 -78.063716914657562 -87.422908708531992 0 -87.422908708531992 464.28384113758602 0 0 0 0 -71.499760913531119 -19.864159537792673 0 -19.864159537792673 240.24080861563749 0 0 0 0 -35.324817443892243 6.3076693902212355 0 6.3076693902212355 597.79878329736857 0 0 0 0 -44.237201867339536 94.617903021833627 0 94.617903021833627 359.55551473788364 0 0 0 0 -91.444936732634687 40.691374887144775 0 40.691374887144775 297.95716595000704 0 0 0 0 -47.344037901496449 -97.715219403020456 0 -97.715219403020456 324.09504970638227 0 0 0 0 34.740146596646809 165.3182752585567 0 165.3182752585567 349.63061607924828 0 0 0 0 -47.024387596501072 -0.057919901381310979 0 -0.057919901381310979 216.39323499320025 0 0 0 0 137.28834957122308 186.59946476300547 0 186.59946476300547 313.20188940922071 0 0 0 0 112.88531580532799 274.6094184120966 0 274.6094184120966 364.14376762436768 0 0 0 0 119.22548189338704 272.56684544865993 0 272.56684544865993 354.88083373193331 0 0 0 0 -10.260392346109867 35.63410567569187 0 35.63410567569187 38.607251037922715 0 0 0 0 21.467106870153657 249.44483464962462 0 249.44483464962462 691.97139063538361 0 0 0 0 13.181881047205025 197.21816852052416 0 197.21816852052416 391.97550479814163 0 0 0 0 63.729639128301642 192.24535572402237 0 192.24535572402237 286.78278970408428 0 0 0 0 305.61728939814202 299.70552867936476 0 299.70552867936476 188.47688475967243 0 0 0 0 63.080490834425291 546.87804482087836 0 546.87804482087836 1067.3908117184701 0 0 0 0 98.867498804931529 367.86835544517771 0 367.86835544517771 362.53752914887355 0 0 0 0 232.62132890430075 303.52186053497098 0 303.52186053497098 212.29417081288193 0 0 0 0 -1.6851360421205754 86.606025573113357 0 86.606025573113357 197.9723511497719 0 0 0 0 41.091498794710787 208.16157987075985 0 208.16157987075985 382.88948104204792 0 0 0 0 -13.91318420330505 -1.6606392371063023 0 -1.6606392371063023 -1.0614081815923782 0 0 0 0 -408.74383771941211 580.63329118917761 0 580.63329118917761 520.01165361083918 0 0 0 0 450.46452213218436 336.17823124861206 0 336.17823124861206 926.826744654908 0 0 0 0 -223.2481473396474 473.50357524480387 0 473.50357524480387 499.69466148386118 0 0 0 0 118.16678555213002 743.95360951975113 0 743.95360951975113 638.30653965658473 0 0 0 0 0.37686975575839199 1.7831208270803351 0 1.7831208270803351 14.958221547946149 0 0 0 0 -97.385580131172901 119.43895310842584 0 119.43895310842584 1182.2226280082716 0 0 0 0 16.072537619096693 181.86835495873947 0 181.86835495873947 233.5104741510936 0 0 0 0 157.98804002087854 163.13116543455612 0 163.13116543455612 -32.77556192822243 0 0 0 0 348.17238267392531 369.42975447555364 0 369.42975447555364 127.64758023415288 0 0 0 0 -100.53193808889046 -73.12334176738625 0 -73.12334176738625 1045.4621674761788 0 0 0 0 58.232714391429909 -3.7273886639168268 0 -3.7273886639168268 -59.599782594127532 0 0 0 0 -91.000511247744726 9.0669265133270756 0 9.0669265133270756 28.035954424353349 0 0 0 0 9.7721783967517695 32.710711842630189 0 32.710711842630189 -6.9440846361285367 0 0 0 0 19.647598095209105 27.433935904675309 0 27.433935904675309 -21.084444848945168 0 0 0 0 398.81560835730124 -71.488021082284376 0 -71.488021082284376 13.589305827538738 0 0 0 0 -55.372249957552413 80.971829556186094 0 80.971829556186094 158.94992074024458 0 0 0 0 309.7888963732039 163.05358055879879 0 163.05358055879879 172.15769857391479 0 0 0 0 343.36243536157417 195.95150556793578 0 195.95150556793578 80.977624768198439 0 0 0 0 14.986821088288032 -12.872189475667536 0 -12.872189475667536 7.0105901602686078 0 0 0 0 618.71994776693464 223.73088092411672 0 223.73088092411672 83.402459956480556 0 0 0 0 259.99344387021847 312.81278828437758 0 312.81278828437758 249.1352149760969 0 0 0 0 434.69984674396255 431.96790995498361 0 431.96790995498361 211.49783757893027 0 0 0 0 -89.848297743010335 -184.01510319511999 0 -184.01510319511999 1576.5744488653745 0 0 0 0 700.69219973525469 1128.7759261204924 0 1128.7759261204924 742.5491202347057 0 0 0 0 425.17809713612496 381.01906666099381 0 381.01906666099381 -42.53308493810755 0 0 0 0 1480.005572401602 633.84918741597835 0 633.84918741597835 1.8867340452479766 0 0 0 0 -150.94254653789903 137.15711692820315 0 137.15711692820315 31.589016428991272 0 0 0 0 5.2458847925663576 -125.44867433338646 0 -125.44867433338646 38.705878518397185 0 0 0 0 13.098917824622617 2.4708210047679167 0 2.4708210047679167 0.25605178007994978 0 0 0 0 5.5030378652372747 118.03115975666151 0 118.03115975666151 1923.362041884297 0 0 0 0 873.41435932707464 -39.509919660934742 0 -39.509919660934742 -99.24957521162321 0 0 0 0 9.1791497377853375 -45.794307278211932 0 -45.794307278211932 477.41842609334981 0 0 0 0 99.635609023134748 663.58772968310495 0 663.58772968310495 647.72000091555674 0 0 0 0 -244.04653713569132 391.93613863772407 0 391.93613863772407 899.65635387537031 0 0 0 0 344.86518996693485 556.34324076244502 0 556.34324076244502 455.95114673308763 0 0 0 0 200.36978382758025 375.61907819642181 0 375.61907819642181 633.1134439413654 0 0 0 0 1382.0736297406729 -135.78828348874333 0 -135.78828348874333 492.21121014366508 0 0 0 0 814.30067206615058 994.43324107899116 0 994.43324107899116 1243.6836460979766 0 0 0 0 360.42717577827716 -53.367232145035814 0 -53.367232145035814 50.816555303517816 0 0 0 0 247.96747318682901 56.948845089364113 0 56.948845089364113 513.87391231266247 0 0 0 0 137.18683807449634 233.16202304559738 0 233.16202304559738 -44.072427654338753 0 0 0 0 -84.854725091241562 131.24435796656871 0 131.24435796656871 145.59592735523984 0 0 0 0 -83.754904314802843 -234.8341421296991 0 -234.8341421296991 204.52022031160141 0 0 0 0 456.1066216769068 -34.754956287639288 0 -34.754956287639288 158.41379852570935 0 0 0 0 -44.378195559878804 561.27397167259926 0 561.27397167259926 412.51205687975926 0 0 0 0 -105.94273048150717 225.02473215099235 0 225.02473215099235 212.48904225865044 0 0 0 0 -0.39771610222669551 225.56291914560188 0 225.56291914560188 315.4056532563518 0 0 0 0 -30.120331642687617 39.462734799262442 0 39.462734799262442 33.196993501665958 0 0 0 0 -9.4356263314562341 8.7758368368934505 0 8.7758368368934505 18.161203696335456 0 0 0 0 -21.404994168202393 166.7672538562656 0 166.7672538562656 297.89139195081225 0 0 0 0 -116.21096814725024 -131.95599484127069 0 -131.95599484127069 38.782907792056903 0 0 0 0 -74.74197482017189 212.0785069801077 0 212.0785069801077 358.81250368662222 0 0 0 0 -344.1706683254306 50.556433624784404 0 50.556433624784404 321.09395907268208 0 0 0 0 -22.257608273968799 110.93786045838715 0 110.93786045838715 170.3840836958052 0 0 0 0 -127.14114400231483 401.66505891926238 0 401.66505891926238 553.3806314831927 0 0 0 0 -377.77869049389483 397.14894301549111 0 397.14894301549111 672.45973437588327 0 0 0 0 -37.347338770414353 -85.754055701831021 0 -85.754055701831021 838.92683163670335 0 0 0 0 -201.17731849813572 286.43491070344135 0 286.43491070344135 72.595555114923627 0 0 0 0 -122.96053882381966 140.19953166668347 0 140.19953166668347 249.9810346253953 0 0 0 0 79.955416589342349 -331.38115611235753 0 -331.38115611235753 -177.63365203615672 0 0 0 0 148.78856174250723 248.95356842303318 0 248.95356842303318 206.71641743405416 0 0 0 0 -9.0750239269387265 -0.40810153548498818 0 -0.40810153548498818 4.4232448590616578 0 0 0 0 379.46543717747045 68.389229497955512 0 68.389229497955512 -170.20669397345955 0 0 0 0 108.42272138569825 158.1481082895389 0 158.1481082895389 149.10550785616215 0 0 0 0 260.35289002308855 269.36414109814086 0 269.36414109814086 229.79462033570644 0 0 0 0 254.68721393112799 343.38509923374761 0 343.38509923374761 301.90712639523008 0 0 0 0 140.20747762317842 232.46223348411877 0 232.46223348411877 281.58169982540585 0 0 0 0 205.81712010503179 317.92519587847391 0 317.92519587847391 357.99070559030952 0 0 0 0 217.96878657007983 277.70928688688082 0 277.70928688688082 372.81315966754937 0 0 0 0 101.55039196215512 256.00618824894536 0 256.00618824894536 352.40406286639154 0 0 0 0 108.96424658153273 302.86153017878314 0 302.86153017878314 416.1650119727874 0 0 0 0 181.70931239389029 260.74630065444217 0 260.74630065444217 381.57686382211341 0 0 0 0 17.33021280169487 298.81347719586483 0 298.81347719586483 446.53048689128082 0 0 0 0 32.314965793742886 216.49746750087161 0 216.49746750087161 368.32639814786035 0 0 0 0 529.29717984867239 628.06379469135163 0 628.06379469135163 397.05648874608232 0 0 0 0 453.52401937100694 282.42034623042036 0 282.42034623042036 337.37459743980253 0 0 0 0 226.66432512527581 413.20470416845376 0 413.20470416845376 426.0965333146687 0 0 0 0 -31.627052959210186 13.047885809987967 0 13.047885809987967 17.698922069166144 0 0 0 0 7.7817652573648957 -49.307114034734695 0 -49.307114034734695 122.56415893967824 0 0 0 0 -80.049547364948012 112.6098089878833 0 112.6098089878833 326.72724062261477 0 0 0 0 86.164606109843589 306.05027609398167 0 306.05027609398167 121.5083251789838 0 0 0 0 227.93603867786805 27.468505204963549 0 27.468505204963549 -44.867962043235821 0 0 0 0 -285.70498886503083 -128.92701412272072 0 -128.92701412272072 -198.61410329467344 0 0 0 0 -4.3251537600344179 0.080063561927397942 0 0.080063561927397942 3.7964118601385621 0 0 0 0 -425.97791040635457 274.78749773136383 0 274.78749773136383 210.73792259909897 0 0 0 0 -478.28004075676654 159.20342146508483 0 159.20342146508483 170.49866075635828 0 0 0 0 -25.482148205063979 10.390958860121032 0 10.390958860121032 26.443841994036834 0 0 0 0 -26.546527818205504 31.972361901674958 0 31.972361901674958 -6.0692683260222111 0 0 0 0 -31.122705449719888 89.091356237131095 0 89.091356237131095 -158.37757591020272 0 0 0 0 730.77189775163424 626.18074214226044 0 626.18074214226044 476.76203592228558 0 0 0 0 -626.65475528227034 30.99317939825778 0 30.99317939825778 -160.92414229954784 0 0 0 0 -1151.2629659408881 685.49790895751244 0 685.49790895751244 588.86755021229692 0 0 0 0 891.74021880866712 613.00578736668376 0 613.00578736668376 649.24978724562607 0 0 0 0 -16.876106394652869 2.8921721728978564 0 2.8921721728978564 28.273784402347317 0 0 0 0 -970.11740626692335 -349.16020553304043 0 -349.16020553304043 636.41947372108189 0 0 0 0 1239.4315138634956 665.89267813654078 0 665.89267813654078 560.79587706136408 0 0 0 0 834.18515888002366 769.79767261420375 0 769.79767261420375 506.46834160968319 0 0 0 0 936.05119451694009 936.08842146034294 0 936.08842146034294 1278.9608549440236 0 0 0 0 737.6770999523651 612.07402583129897 0 612.07402583129897 750.07617829934861 0 0 0 0 538.65881289371828 889.40351004682225 0 889.40351004682225 1101.0791099139133 0 0 0 0 -559.57173311199949 -748.30964556332128 0 -748.30964556332128 -166.33692021610614 0 0 0 0 -29.124117070579814 455.08077953858992 0 455.08077953858992 445.23329240329622 0 0 0 0 43.194057875713042 327.867454314925 0 327.867454314925 635.19328169921209 0 0 0 0 -335.17616084664951 109.00383748063359 0 109.00383748063359 442.98209485820371 0 0 0 0 1670.0990233789635 4078.9890191230488 0 4078.9890191230488 5191.0301619511447 0 0 0 0 -268.72631235363406 126.09877881789225 0 126.09877881789225 325.93577657373498 0 0 0 0 -112.22013738003443 174.65265800117595 0 174.65265800117595 -23.440275459844997 0 0 0 0 -166.01451446162355 260.16614929290063 0 260.16614929290063 473.8521197535847 0 0 0 0 -65.813983351359639 148.66135751645015 0 148.66135751645015 291.90939340682735 0 0 0 0 -37.148199416507396 223.19982026450327 0 223.19982026450327 399.93852441867239 0 0 0 0 -102.62819192236748 155.35661287730784 0 155.35661287730784 383.30762835254609 0 0 0 0 121.91788847705175 300.91677449587132 0 300.91677449587132 381.24049543312685 0 0 0 0 232.98833877874858 382.18193733346561 0 382.18193733346561 369.73070950688998 0 0 0 0 227.82044319680972 517.89621492265178 0 517.89621492265178 517.16819699866028 0 0 0 0 92.610937863992149 332.91848450169527 0 332.91848450169527 459.79981646447459 0 0 0 0 44.367797567421803 441.73960726608902 0 441.73960726608902 488.21379704026367 0 0 0 0 561.34791655632216 -127.93793134187854 0 -127.93793134187854 398.02671013795043 0 0 0 0 -279.48261981012729 172.9666767886165 0 172.9666767886165 659.17564101247535 0 0 0 0 725.21859155584389 -312.97620588263453 0 -312.97620588263453 558.87992988485371 0 0 0 0 631.30812939863972 54.233751746050984 0 54.233751746050984 585.43567053773813 0 0 0 0 624.94417829252779 -361.72885980441697 0 -361.72885980441697 1339.1735712617919 0 0 0 0 544.89190457385848 -454.63583172936342 0 -454.63583172936342 1320.1327335693754 0 0 0 0 356.56630895335002 -170.29128050068175 0 -170.29128050068175 1335.3505372816398 0 0 0 0 0.6789781710394891 39.010525673966185 0 39.010525673966185 501.65810885588689 0 0 0 0 -27.826583602934988 117.58494737841647 0 117.58494737841647 1179.4659144899179 0 0 0 0 -327.26022137751352 -278.21812765812138 0 -278.21812765812138 -625.1620757201199 0 0 0 0 -397.12182745591053 -209.34560871082613 0 -209.34560871082613 984.74185738237429 0 0 0 0 -754.05068761644384 516.63808281741183 0 516.63808281741183 -272.78046794187503 0 0 0 0 2.598019634142716 3.1253325554912053 0 3.1253325554912053 2.6165718996272602 0 0 0 0 -471.40321829629465 -143.56803441415832 0 -143.56803441415832 921.39098647113269 0 0 0 0 -322.07893124681777 105.31511648516562 0 105.31511648516562 649.014071644051 0 0 0 0 8.3157954170146695 454.30089750599927 0 454.30089750599927 -209.00527405373032 0 0 0 0 -277.95699454149678 294.94360908619672 0 294.94360908619672 -32.372619358984593 0 0 0 0 6.3400314072237123 7.4802813598408875 0 7.4802813598408875 6.4086348452577617 0 0 0 0 -369.44364739832008 308.96154692195978 0 308.96154692195978 -303.28257072957422 0 0 0 0 -272.02130035873051 142.48781741632138 0 142.48781741632138 -152.51124521413658 0 0 0 0 -307.57721193146062 324.75726906656018 0 324.75726906656018 3.1918696509419533 0 0 0 0 -345.09262577360641 180.70690458179615 0 180.70690458179615 351.22052208843706 0 0 0 0 -164.99375622105435 193.18520622673259 0 193.18520622673259 -6.9543318579981133 0 0 0 0 5.5806038749795732 3.6476479774640893 0 3.6476479774640893 2.3878256620386331 0 0 0 0 -175.00590869558619 40.89346834883645 0 40.89346834883645 1373.3452765339716 0 0 0 0 -191.92662748350995 -67.463367872771414 0 -67.463367872771414 683.12804262902478 0 0 0 0 301.48531620549784 -397.4179996142766 0 -397.4179996142766 -27.333536171503511 0 0 0 0 714.97334580780444 -122.75885504990174 0 -122.75885504990174 394.81892107545718 0 0 0 0 810.57899507397042 552.06201636542619 0 552.06201636542619 672.06340424024165 0 0 0 0 817.5287698796983 561.1718298660262 0 561.1718298660262 -485.36660732960399 0 0 0 0 250.60837266976614 406.07372215624264 0 406.07372215624264 489.75589338631107 0 0 0 0 870.92751044701072 122.12271575628714 0 122.12271575628714 1055.1019822742637 0 0 0 0 846.89783636524771 771.05427594214143 0 771.05427594214143 712.51655474952531 0 0 0 0 72.091936422955769 685.34644946491971 0 685.34644946491971 1361.4587443777191 0 0 0 0 -115.10424082139434 365.5120805581646 0 365.5120805581646 815.09591183005614 0 0 0 0 -224.68148185389146 505.77024172673737 0 505.77024172673737 689.77435624841053 0 0 0 0 -6.7804792747519969 698.30639726917252 0 698.30639726917252 775.67779101456222 0 0 0 0 72.106755324923142 362.49268157892971 0 362.49268157892971 69.125951141544647 0 0 0 0 -160.41203951082207 482.88020614227526 0 482.88020614227526 481.53008512167617 0 0 0 0 -257.26639189271009 538.53360456035853 0 538.53360456035853 469.74842310103941 0 0 0 0 182.89314369885142 567.82129031469822 0 567.82129031469822 415.68697848573902 0 0 0 0 613.35194679457072 296.94629815501457 0 296.94629815501457 -8.7843575089118531 0 0 0 0 -267.0508364056659 466.49920092617685 0 466.49920092617685 438.95751958550068 0 0 0 0 -313.49341312807883 293.38484125466312 0 293.38484125466312 182.33471977971612 0 0 0 0 -389.54307356286154 536.84084381344655 0 536.84084381344655 577.39716114393605 0 0 0 0 -381.38181590488239 434.3128241250397 0 434.3128241250397 553.59516477649595 0 0 0 0 -386.03318027082423 435.10421582570143 0 435.10421582570143 722.77427424561029 0 0 0 0 -325.14747285992416 578.08914261123482 0 578.08914261123482 649.75715603164326 0 0 0 0 -253.15189593694231 498.31911821569975 0 498.31911821569975 279.72051154332803 0 0 0 0 -472.60498619433565 446.25385957365779 0 446.25385957365779 530.38603227263775 0 0 0 0 -354.47525329504424 524.36932309106987 0 524.36932309106987 552.5172864585802 0 0 0 0 -297.28853563131997 591.87775273791794 0 591.87775273791794 563.64162558701173 0 0 0 0 -432.22797655793875 570.35551108637389 0 570.35551108637389 600.33212002571599 0 0 0 0 -239.44187191456876 387.69505501267759 0 387.69505501267759 391.61026824548162 0 0 0 0 -230.49427722797918 463.15426020458744 0 463.15426020458744 529.36489790760879 0 0 0 0 29.386742441466872 14.155208845950707 0 14.155208845950707 2.2319816202921547 0 0 0 0 -12.10291785379377 114.38728402925153 0 114.38728402925153 355.82920013470311 0 0 0 0 -406.72993560219038 580.82500300478614 0 580.82500300478614 248.97691127624148 0 0 0 0 2.5372674656469485 6.8133645184521843 0 6.8133645184521843 8.65356788207135 0 0 0 0 34.749537150291872 143.13424309863842 0 143.13424309863842 -206.87317270942094 0 0 0 0 -484.63452129100915 351.74916481700939 0 351.74916481700939 -271.54580603069144 0 0 0 0 -523.62738263590472 236.4110462571017 0 236.4110462571017 147.32062055593633 0 0 0 0 -177.17514108432442 513.73473491998993 0 513.73473491998993 -186.23376763652868 0 0 0 0 34.880589581936874 41.777751724352129 0 41.777751724352129 -6.141104938053104 0 0 0 0 -237.46033374221224 431.97597678657667 0 431.97597678657667 -274.42142384222763 0 0 0 0 27.042954445543707 21.911904006476117 0 21.911904006476117 11.271146096171877 0 0 0 0 7.8427525519073242 25.748878407200209 0 25.748878407200209 -3.2771418922893645 0 0 0 0 17.186651918171265 35.572853516303439 0 35.572853516303439 2.6287349862709561 0 0 0 0 17.892659484575233 19.630678544086834 0 19.630678544086834 -8.96232406602212 0 0 0 0 9.0739440473844297 29.237296167159002 0 29.237296167159002 12.992404101760258 0 0 0 0 -1.9202160107652517 14.921800624379884 0 14.921800624379884 7.483572184848061 0 0 0 0 16.72185065929807 13.693507756725012 0 13.693507756725012 -24.8655307679619 0 0 0 0 319.98456506339971 250.19338954118939 0 250.19338954118939 -352.40117676102204 0 0 0 0 58.30860901048095 176.81591717502951 0 176.81591717502951 -30.466852709076193 0 0 0 0 18.876563664346804 533.98383765965514 0 533.98383765965514 -3.5572068538431267 0 0 0 0 -47.120227781837457 335.00013932328511 0 335.00013932328511 -264.40213418001412 0 0 0 0 -322.01015357036886 325.06368970587027 0 325.06368970587027 -264.58890618177929 0 0 0 0 86.530138971891574 526.99703388103694 0 526.99703388103694 -825.51659775245162 0 0 0 0 -220.76566370417549 280.32125071080128 0 280.32125071080128 -295.45188080927085 0 0 0 0 96.993486688065332 21.51192565508677 0 21.51192565508677 -37.227988131151506 0 0 0 0 228.39941242661735 -113.05402968254725 0 -113.05402968254725 35.095720488587176 0 0 0 0 305.0246040598056 -143.25528921380314 0 -143.25528921380314 -264.41302439498781 0 0 0 0 548.04968979938576 -125.35190305409697 0 -125.35190305409697 -172.24661711251747 0 0 0 0 8.5119360364087484 28.490094075489061 0 28.490094075489061 52.627761030792954 0 0 0 0 66.974376963868508 33.811119466883611 0 33.811119466883611 33.970873875368852 0 0 0 0 27.922549461512972 35.853127293961734 0 35.853127293961734 48.273067438984071 0 0 0 0 234.51539312826435 -141.28765512632117 0 -141.28765512632117 125.42413017006675 0 0 0 0 220.65264362439757 -197.80391080588015 0 -197.80391080588015 190.33184367281501 0 0 0 0 7.3582007838318741 25.669519363049389 0 25.669519363049389 41.03759425766178 0 0 0 0 208.58074624260871 -163.52962297817794 0 -163.52962297817794 107.45007653863559 0 0 0 0 17.062325058452643 45.246746273638337 0 45.246746273638337 40.409768111032463 0 0 0 0 -10.610917875164887 27.064198584623227 0 27.064198584623227 40.883891036844261 0 0 0 0 13.453264075666084 42.637345193183137 0 42.637345193183137 38.586888726407778 0 0 0 0 110.1864638487823 71.916783956852669 0 71.916783956852669 108.66294466103363 0 0 0 0 67.742958413839915 -263.1611678045756 0 -263.1611678045756 455.39059455784627 0 0 0 0 1119.7081686300317 387.60081653162706 0 387.60081653162706 305.97145480921426 0 0 0 0 874.15820788915516 -315.84433473189165 0 -315.84433473189165 179.95268091979597 0 0 0 0 408.57680311897184 79.986009614583509 0 79.986009614583509 215.23528240487576 0 0 0 0 643.51776704545409 -7.5349022212640193 0 -7.5349022212640193 -38.117198423355063 0 0 0 0 287.55129320564629 -254.73647926011108 0 -254.73647926011108 238.90676649028501 0 0 0 0 264.86374486649402 -195.86348591878505 0 -195.86348591878505 87.817275193746354 0 0 0 0 17.870363764271588 -47.239962680154349 0 -47.239962680154349 38.326039584634259 0 0 0 0 -33.506123297867816 40.603281952739053 0 40.603281952739053 31.083645825026906 0 0 0 0 -27.912974466022206 23.443905940486729 0 23.443905940486729 14.956127499737704 0 0 0 0 -60.02476203757999 4.0189740717696623 0 4.0189740717696623 5.2978430837247288 0 0 0 0 -98.291909686823146 1.9839302554446476 0 1.9839302554446476 21.062455266388497 0 0 0 0 -45.511471725871388 43.577747265172547 0 43.577747265172547 22.232356341359264 0 0 0 0 0.3532609198576464 6.3809801519476874 0 6.3809801519476874 21.582426405665188 0 0 0 0 47.910055939256836 64.308541050717395 0 64.308541050717395 36.289991762911086 0 0 0 0 -121.38505426367209 35.143047526552436 0 35.143047526552436 28.633435103045485 0 0 0 0 -100.69597369786698 64.840274354661233 0 64.840274354661233 1.7122764145980796 0 0 0 0 -98.65951114597101 49.789671959320913 0 49.789671959320913 -20.786215457979779 0 0 0 0 -91.12591336651758 26.893344781395626 0 26.893344781395626 20.054395679893787 0 0 0 0 -46.100994977450682 55.071087805848947 0 55.071087805848947 13.449000958299393 0 0 0 0 -76.876621507392429 41.377230237189906 0 41.377230237189906 15.228852730662766 0 0 0 0 -21.061655161173803 67.03023724146442 0 67.03023724146442 -14.382913419607576 0 0 0 0 -2.8186819391598874 36.156166845182725 0 36.156166845182725 14.247047529974225 0 0 0 0 -0.73738589991216941 66.003702846494889 0 66.003702846494889 11.816602152808628 0 0 0 0 -8.8117095488569248 59.797984390046622 0 59.797984390046622 19.374468367944246 0 0 0 0 -29.023218920417094 39.761411396058065 0 39.761411396058065 14.507173083402449 0 0 0 0 -26.661898294577441 36.67905065024388 0 36.67905065024388 14.85926954124443 0 0 0 0 -28.009651030805799 43.360656646696953 0 43.360656646696953 26.530238226092479 0 0 0 0 0.67141139651357662 51.085557264781528 0 51.085557264781528 25.646737900799053 0 0 0 0 19.490863621779681 49.249734429853561 0 49.249734429853561 16.212288486363832 0 0 0 0 9.0775621230677643 66.534717908278253 0 66.534717908278253 29.551913084713306 0 0 0 0 42.55551482554074 38.469697417034695 0 38.469697417034695 55.966922241649627 0 0 0 0 45.957111000345321 38.80109072635787 0 38.80109072635787 17.821405927747037 0 0 0 0 35.209984428011921 53.540289720225701 0 53.540289720225701 27.030868363757691 0 0 0 0 21.293557022422647 55.103269025458758 0 55.103269025458758 35.203785809895635 0 0 0 0 19.386218292130252 58.473919114105229 0 58.473919114105229 39.562309120850841 0 0 0 0 13.516453991178491 56.510106364889026 0 56.510106364889026 43.151894395534327 0 0 0 0 15.474867539557636 59.954884161392329 0 59.954884161392329 47.165944634069092 0 0 0 0 16.399983705831801 56.784639256680748 0 56.784639256680748 49.591627300986147 0 0 0 0 12.305082252349166 57.529398110187685 0 57.529398110187685 62.857631864982977 0 0 0 0 12.531701242469353 56.12842680809058 0 56.12842680809058 43.788737228082027 0 0 0 0 13.948099931516481 65.355397487215669 0 65.355397487215669 42.961302639905625 0 0 0 0 19.747665126628249 59.814160761670564 0 59.814160761670564 32.994403130018327 0 0 0 0 6.552952110424485 63.488463250818313 0 63.488463250818313 35.743391598722155 0 0 0 0 -0.89094627916711033 46.412394891627628 0 46.412394891627628 35.219269678003911 0 0 0 0 -8.6295669051742152 53.907456491713674 0 53.907456491713674 30.117492959692754 0 0 0 0 7.484435167922129 57.553818752538064 0 57.553818752538064 45.135792050794407 0 0 0 0 7.0530882693213641 32.50959198307055 0 32.50959198307055 43.099545539575047 0 0 0 0 18.99568890458886 44.471538331517365 0 44.471538331517365 57.132395808992442 0 0 0 0 19.73265195264139 62.523203528186059 0 62.523203528186059 48.98305955183605 0 0 0 0 21.55102621840706 30.083355802911683 0 30.083355802911683 67.938375520241607 0 0 0 0 14.210174077919874 50.039490353941801 0 50.039490353941801 75.614181298213225 0 0 0 0 22.801050052728442 37.969148739695811 0 37.969148739695811 61.751612810869119 0 0 0 0 77.749367915671428 44.88355765626693 0 44.88355765626693 50.364526980643859 0 0 0 0 34.992895241746282 60.067287296082213 0 60.067287296082213 94.269106881823973 0 0 0 0 -0.6049016197602004 11.66964281348875 0 11.66964281348875 54.952787304233595 0 0 0 0 28.9332400340204 35.086390293206932 0 35.086390293206932 110.06569051109545 0 0 0 0 -75.914981798536701 103.19109041209958 0 103.19109041209958 27.619137633460923 0 0 0 0 24.274415277838671 46.980579492705147 0 46.980579492705147 53.084641819612443 0 0 0 0 21.920441920093253 10.914922291740368 0 10.914922291740368 31.64974089219686 0 0 0 0 20.49922096625869 25.706551742005104 0 25.706551742005104 116.62583195735715 0 0 0 0 6.0651501869947424 -21.574820066471148 0 -21.574820066471148 -30.213853990775533 0 0 0 0 -3.4398691209220722 -7.2920014852516246 0 -7.2920014852516246 0.88335741477993679 0 0 0 0 7.2903114124037671 14.85423080910158 0 14.85423080910158 62.22555807339841 0 0 0 0 3.0347535436370467 18.577314608760165 0 18.577314608760165 24.55245833750655 0 0 0 0 1.5717653533789087 7.2709215303657784 0 7.2709215303657784 26.98155745173311 0 0 0 0 47.091356523620107 1.3074362745592225 0 1.3074362745592225 15.957343431538902 0 0 0 0 -29.87706241109862 26.662472765285884 0 26.662472765285884 32.872837972579873 0 0 0 0 -23.469693483315496 15.187353508601518 0 15.187353508601518 35.920460581699444 0 0 0 0 2.8705813614633371 3.3879675438438426 0 3.3879675438438426 17.516978516374365 0 0 0 0 -1.5027277798764107 2.5977319885690626 0 2.5977319885690626 9.6838680953562388 0 0 0 0 -0.98038265592913376 40.935310894543363 0 40.935310894543363 34.302445481880568 0 0 0 0 -15.427504674081774 34.921484810204674 0 34.921484810204674 30.529778766540403 0 0 0 0 -19.298278433957421 38.867005536445504 0 38.867005536445504 39.469312747576623 0 0 0 0 -206.96496625444433 20.426466324686771 0 20.426466324686771 105.58038057174144 0 0 0 0 2.1091165232553823 8.7770857752839291 0 8.7770857752839291 40.410501029194222 0 0 0 0 -5.8808704697057692 147.11307522381503 0 147.11307522381503 46.734522244645632 0 0 0 0 24.852879096269874 2.6741973929208598 0 2.6741973929208598 85.389067754862481 0 0 0 0 39.264271544711846 8.4654875742562581 0 8.4654875742562581 49.490777583938325 0 0 0 0 46.678185466978249 20.63799783435104 0 20.63799783435104 68.054668735574523 0 0 0 0 44.704743576210944 100.79810792813805 0 100.79810792813805 242.33846126030403 0 0 0 0 155.48899123541833 77.537805495132488 0 77.537805495132488 61.507047442589737 0 0 0 0 18.210561747725478 32.810972862287599 0 32.810972862287599 75.798883860061324 0 0 0 0 49.940359035138499 59.511977607307927 0 59.511977607307927 59.86977894865413 0 0 0 0 6.1518421512073473 57.893722199034528 0 57.893722199034528 89.045975560409715 0 0 0 0 -5.6984449709325418 47.117631469072876 0 47.117631469072876 63.269022136515559 0 0 0 0 3.8259018129779179 46.487993422254021 0 46.487993422254021 59.470746482362301 0 0 0 0 -39.441518493296826 30.974462224115996 0 30.974462224115996 77.333342840218393 0 0 0 0 -5.4870815732228948 47.521030788363532 0 47.521030788363532 75.375986697123153 0 0 0 0 -4.6717303376989108 -2.9603297668075044 0 -2.9603297668075044 7.8096858218766769 0 0 0 0 81.127594664087837 965.35812980780054 0 965.35812980780054 2683.7499541601173 0 0 0 0 -165.63785663314866 416.36683048546911 0 416.36683048546911 2093.027323618222 0 0 0 0 -22.979924023985404 -113.24952674818815 0 -113.24952674818815 39.335960144563614 0 0 0 0 -19.32496241034255 -80.882280083249043 0 -80.882280083249043 314.82649968649275 0 0 0 0 -145.14121237501058 304.321686194824 0 304.321686194824 2651.1767957095362 0 0 0 0 752.31019730569415 1252.1992066193561 0 1252.1992066193561 1554.1532199854864 0 0 0 0 2.0580367333416021 627.00097611809599 0 627.00097611809599 2555.5757185620751 0 0 0 0 -56.960715626069032 -723.74219894568705 0 -723.74219894568705 1509.7346783134908 0 0 0 0 1.0908190891864982 3.5650484514830083 0 3.5650484514830083 16.321938470602547 0 0 0 0 507.62421523891499 595.38301217136177 0 595.38301217136177 880.83343260216679 0 0 0 0 661.90242047005313 398.11611595661452 0 398.11611595661452 462.64852801989764 0 0 0 0 441.68348486159266 426.88769097053955 0 426.88769097053955 1106.4159133863213 0 0 0 0 671.10399801713356 461.47273219446288 0 461.47273219446288 953.3380458309166 0 0 0 0 721.52607777738012 446.8509077855233 0 446.8509077855233 624.79805769778977 0 0 0 0 1094.0758889969438 348.2996684499758 0 348.2996684499758 158.07434147444928 0 0 0 0 1109.6127965435335 602.32957661635555 0 602.32957661635555 677.19775602409209 0 0 0 0 3.3162498776661735 -3.469026926821897 0 -3.469026926821897 4.4878752391844969 0 0 0 0 702.86732578242299 720.67270647538498 0 720.67270647538498 739.04844948159189 0 0 0 0 1361.799466064992 923.69594428880691 0 923.69594428880691 797.66398196707087 0 0 0 0 1284.6986988477656 151.20253987190699 0 151.20253987190699 1008.495186514323 0 0 0 0 14.966307395374415 -4.6159344093550345 0 -4.6159344093550345 9.2938268784647065 0 0 0 0 51.670279617757387 0.86458899479839602 0 0.86458899479839602 32.237176083432132 0 0 0 0 7.820878685416174 21.793871086373002 0 21.793871086373002 29.933624609501251 0 0 0 0 -14.188509274282296 24.848438253671702 0 24.848438253671702 51.519907312143914 0 0 0 0 74.918035006812715 323.71888884764485 0 323.71888884764485 1620.2537553168586 0 0 0 0 -32.728227669116222 2.8417897702011032 0 2.8417897702011032 39.329791925345489 0 0 0 0 -5.7979083639848099 -4.2037224948618537 0 -4.2037224948618537 16.483883042801232 0 0 0 0 3.5907518935293492 -0.85330579325016842 0 -0.85330579325016842 2.4438328925206037 0 0 0 0 821.58670281525337 973.16998526870884 0 973.16998526870884 944.71800036783679 0 0 0 0 437.1415159448552 388.7368664435744 0 388.7368664435744 1614.7858447865983 0 0 0 0 459.82114442861985 306.09843623267352 0 306.09843623267352 1417.3139851880696 0 0 0 0 387.19620527293227 230.86239877630942 0 230.86239877630942 1557.0662467544948 0 0 0 0 155.65457248936434 507.08810968574949 0 507.08810968574949 1641.8137125424946 0 0 0 0 327.21781031190403 478.4078002103779 0 478.4078002103779 1544.9300971241255 0 0 0 0 120.15567917461522 377.40848337689386 0 377.40848337689386 1868.2232738781277 0 0 0 0 28.511058352567488 183.67460299521736 0 183.67460299521736 1552.3442898090286 0 0 0 0 220.19642746727641 5.387152456529293 0 5.387152456529293 1627.4899415631917 0 0 0 0 165.43883229199054 -81.283946947346237 0 -81.283946947346237 1702.5774024084676 0 0 0 0 320.79964248188844 -70.891469600102937 0 -70.891469600102937 1352.9782040720092 0 0 0 0 369.29726298089736 175.83340433034573 0 175.83340433034573 1389.0120486941814 0 0 0 0 463.43763174373453 104.8076160425735 0 104.8076160425735 1234.0842055770518 0 0 0 0 665.68944672365978 114.19608182601223 0 114.19608182601223 884.69342109361787 0 0 0 0 735.35308668717516 40.109056205716115 0 40.109056205716115 801.36207729571834 0 0 0 0 632.97602354090486 -257.73595468369422 0 -257.73595468369422 939.53073973394567 0 0 0 0 439.08822656519078 -255.88544725677821 0 -255.88544725677821 1574.9340434086989 0 0 0 0 159.76640538764332 -161.78623639341095 0 -161.78623639341095 1556.5369433488959 0 0 0 0 325.83330741792088 -528.47632700870236 0 -528.47632700870236 2186.189683956909 0 0 0 0 -8.8779150178143027 190.77651911958492 0 190.77651911958492 2284.307683531697 0 0 0 0 194.10794677187732 413.22853015685178 0 413.22853015685178 1944.3141225135478 0 0 0 0 -66.320432273259371 2017.4071602622214 0 2017.4071602622214 1561.2438896257263 0 0 0 0 251.63843867167179 334.66269871204349 0 334.66269871204349 1391.9872050524646 0 0 0 0 82.049687138054651 125.70787550669775 0 125.70787550669775 1317.5816258863479 0 0 0 0 -104.23441184604781 175.36782604461951 0 175.36782604461951 1543.5897511860148 0 0 0 0 12.362397973634536 -19.026556121815283 0 -19.026556121815283 16.003202255276118 0 0 0 0 66.605812814897945 64.17063683143715 0 64.17063683143715 1783.1630895530507 0 0 0 0 14.605677515092793 187.27535415721832 0 187.27535415721832 1531.5245762620034 0 0 0 0 -48.03932702383463 12.957080119042075 0 12.957080119042075 1771.1616329680764 0 0 0 0 -6.1821470042759756 91.761692687648974 0 91.761692687648974 1410.6836395839637 0 0 0 0 -275.65927595416088 138.42842804993779 0 138.42842804993779 1849.4651614133113 0 0 0 0 -59.655295382521217 322.96567455737932 0 322.96567455737932 1289.4008863660229 0 0 0 0 97.163767174273744 609.88546921804664 0 609.88546921804664 1439.65954907591 0 0 0 0 4.6891457023904337 -14.175475332859563 0 -14.175475332859563 13.121411359962941 0 0 0 0 -0.99803841157790885 -79.796199977805372 0 -79.796199977805372 684.14086935549312 0 0 0 0 440.17460212600781 389.46396440841272 0 389.46396440841272 1036.8096090060426 0 0 0 0 254.80789555515912 123.10195348949492 0 123.10195348949492 1039.9357093811905 0 0 0 0 -25.265187280740065 664.15260065900293 0 664.15260065900293 912.88671689248076 0 0 0 0 -29.388958637631731 591.30927537583011 0 591.30927537583011 207.20984822026003 0 0 0 0 -530.24460374529917 133.64250028531933 0 133.64250028531933 30.249148706185224 0 0 0 0 -340.0444553665875 533.29811266596516 0 533.29811266596516 601.20465527484339 0 0 0 0 -284.07302983005593 -642.67738980750585 0 -642.67738980750585 3227.8630756965686 0 0 0 0 -264.86173139514904 1130.3247007644743 0 1130.3247007644743 -290.7801145917183 0 0 0 0 -279.22679007919078 1117.8583143614285 0 1117.8583143614285 1377.4063044698123 0 0 0 0 169.81216026833545 357.17716235172884 0 357.17716235172884 1273.2378924436816 0 0 0 0 -259.61320719226569 111.63250163029443 0 111.63250163029443 1133.5209151194667 0 0 0 0 250.37735358801456 598.25517783218675 0 598.25517783218675 1777.8904746473481 0 0 0 0 828.82052312705355 743.65058271605812 0 743.65058271605812 1807.7186933968514 0 0 0 0 622.87521153092712 -90.96535285723553 0 -90.96535285723553 2161.6195498111119 0 0 0 0 39.904609249774694 34.602235613601806 0 34.602235613601806 1673.4659221948505 0 0 0 0 327.09574369789129 578.3958047677761 0 578.3958047677761 1720.192734920427 0 0 0 0 90.655920269889066 379.5645828350498 0 379.5645828350498 1745.6298603996279 0 0 0 0 -207.59057431865176 155.58518652029306 0 155.58518652029306 2188.7006035111808 0 0 0 0 42.701460576810859 286.56168915532089 0 286.56168915532089 1474.3609552095513 0 0 0 0 -264.40189063705384 -172.89043124507953 0 -172.89043124507953 1436.9266829217349 0 0 0 0 -204.20514056684169 316.67484609408575 0 316.67484609408575 743.19546297228953 0 0 0 0 29.645636023674342 -689.41314607423737 0 -689.41314607423737 -28.334938695817982 0 0 0 0 -191.1456362365393 749.23733131156223 0 749.23733131156223 2096.3646176385009 0 0 0 0 0.33002239304745018 -5.6730438214649297 0 -5.6730438214649297 6.2270521881947545 0 0 0 0 -412.68500540418427 -318.80918216852297 0 -318.80918216852297 1129.9073637299516 0 0 0 0 -211.19473585400647 -249.79004731346868 0 -249.79004731346868 1150.9612338691513 0 0 0 0 -102.07261219521115 -382.60237507911734 0 -382.60237507911734 1079.417030542133 0 0 0 0 -22.390337293342213 314.67020282630983 0 314.67020282630983 1223.0221303614999 0 0 0 0 -179.0578574869287 42.75828652387645 0 42.75828652387645 984.44445147371243 0 0 0 0 142.47059408237055 22.102442666871866 0 22.102442666871866 982.59362718364355 0 0 0 0 12.43920259454401 13.588796761852429 0 13.588796761852429 11.187500497967179 0 0 0 0 -24.995637727139183 -214.42200831130322 0 -214.42200831130322 1586.7213000734846 0 0 0 0 -235.47628227081077 146.57350855177719 0 146.57350855177719 766.55672879666963 0 0 0 0 -103.04661824866071 -53.836235166261758 0 -53.836235166261758 740.16202399991016 0 0 0 0 -85.227495548505885 235.47983632705655 0 235.47983632705655 340.01940543512319 0 0 0 0 -75.629621667878382 -97.694642667986045 0 -97.694642667986045 604.35292663290784 0 0 0 0 -152.80116611630365 -54.994982658030494 0 -54.994982658030494 922.58946598813145 0 0 0 0 -202.61058262477172 21.741238599977805 0 21.741238599977805 923.20534249104094 0 0 0 0 -6.6528447422097088 -73.15898557348919 0 -73.15898557348919 924.66454966614765 0 0 0 0 -67.763688532660808 -176.83111680425611 0 -176.83111680425611 1008.7356382582293 0 0 0 0 14.289446877602565 13.110198029121264 0 13.110198029121264 10.199322279090438 0 0 0 0 412.32897295017028 178.90946513704512 0 178.90946513704512 -90.91989062212815 0 0 0 0 -463.59428157238563 45.377700981331145 0 45.377700981331145 1708.7568074698756 0 0 0 0 -44.141117199447308 -439.45439776537478 0 -439.45439776537478 523.20873046923953 0 0 0 0 50.55252408614308 -389.24974304600983 0 -389.24974304600983 1913.1214803447474 0 0 0 0 115.66690489940174 -51.496021732516965 0 -51.496021732516965 708.3245922502756 0 0 0 0 37.210151157623841 2.3016300977506035 0 2.3016300977506035 443.12738043379068 0 0 0 0 203.0094744640046 79.417551590300718 0 79.417551590300718 478.78500975962379 0 0 0 0 -111.15375162925739 -9.2595351038071385 0 -9.2595351038071385 624.74796292680549 0 0 0 0 49.498467713550781 110.42319852003129 0 110.42319852003129 244.77218487300706 0 0 0 0 -160.90302320814226 -55.652673474258336 0 -55.652673474258336 987.44188602593931 0 0 0 0 2.1897207142765183 180.2271391345439 0 180.2271391345439 807.03718448997824 0 0 0 0 -145.26182555013065 -8.1497301168774356 0 -8.1497301168774356 819.23210462793213 0 0 0 0 -154.70569510218957 -61.410536031824449 0 -61.410536031824449 796.60113477120467 0 0 0 0 -96.024110956971754 80.499137911895559 0 80.499137911895559 355.18791806616355 0 0 0 0 -155.37025347402323 -62.758512083608366 0 -62.758512083608366 349.45827047505009 0 0 0 0 -81.215442257228005 49.322614265055563 0 49.322614265055563 444.3096196805709 0 0 0 0 -54.626772569083187 -114.94287424160575 0 -114.94287424160575 358.0224919307729 0 0 0 0 91.535884845937289 -456.91193924934851 0 -456.91193924934851 1090.8118868580568 0 0 0 0 -201.1020650671353 -64.175942853064043 0 -64.175942853064043 1174.6499955562249 0 0 0 0 96.552078846747463 38.689498850826567 0 38.689498850826567 274.17470699845217 0 0 0 0 -207.05147922950709 -357.98444518034557 0 -357.98444518034557 -119.77968261660862 0 0 0 0 -630.88428495340304 533.03488284522246 0 533.03488284522246 20.718920951134351 0 0 0 0 -178.07226216535673 127.57271958848469 0 127.57271958848469 276.25957523048055 0 0 0 0 282.33388500958063 283.05715010598578 0 283.05715010598578 447.90896482686367 0 0 0 0 -127.28949316092439 328.7527061254641 0 328.7527061254641 760.71067935868632 0 0 0 0 559.85525412366405 401.41282171252533 0 401.41282171252533 528.13979556143568 0 0 0 0 329.87941452399764 409.4865881340661 0 409.4865881340661 576.53184687830799 0 0 0 0 561.23949151448323 313.76731690490851 0 313.76731690490851 -432.84134580184946 0 0 0 0 8.2894952998009828 4.2191229095544855 0 4.2191229095544855 3.4044927959542832 0 0 0 0 89.315670384274199 86.402916530969378 0 86.402916530969378 1344.3292845080396 0 0 0 0 116.78989425457257 -73.294876544201543 0 -73.294876544201543 537.78367050797897 0 0 0 0 833.1837290349049 -194.87983354699827 0 -194.87983354699827 496.4151952715074 0 0 0 0 445.0501606551552 496.35048734903467 0 496.35048734903467 1164.9998286762984 0 0 0 0 327.57577527149078 161.45653720309201 0 161.45653720309201 373.4422299749458 0 0 0 0 336.96962277106377 -239.6062643156647 0 -239.6062643156647 277.22541142108821 0 0 0 0 176.96512847499434 -126.52706054699411 0 -126.52706054699411 306.6191877902238 0 0 0 0 131.88572340875226 -293.96892452234988 0 -293.96892452234988 250.81032254721504 0 0 0 0 -150.8239449983339 -235.66603064700575 0 -235.66603064700575 608.97622364513518 0 0 0 0 -192.87340936670807 -126.70957717474084 0 -126.70957717474084 744.47987275789637 0 0 0 0 -62.6529499234166 -354.30922156056113 0 -354.30922156056113 652.84920771749603 0 0 0 0 -189.04750684313331 -126.69336809662764 0 -126.69336809662764 479.40903776164487 0 0 0 0 -493.70496676505081 -165.16120556305123 0 -165.16120556305123 961.21315328680066 0 0 0 0 -355.94926831143312 -338.71112213044398 0 -338.71112213044398 628.62526191681172 0 0 0 0 11.071216535335779 -22.123370726265019 0 -22.123370726265019 34.468936884097786 0 0 0 0 -201.53216542656506 97.465362739937149 0 97.465362739937149 860.48823919740971 0 0 0 0 -202.67230884337187 23.303377383806946 0 23.303377383806946 327.86592615993868 0 0 0 0 -544.31878196565958 -262.31475995979963 0 -262.31475995979963 -139.36086758386659 0 0 0 0 -543.07262912077204 -225.11431622051168 0 -225.11431622051168 -15.977655196245905 0 0 0 0 -713.04406268963703 -568.33905163478994 0 -568.33905163478994 -313.72208326937834 0 0 0 0 3.4759368974805938 -5.9772424862964293 0 -5.9772424862964293 10.361889263841846 0 0 0 0 -1076.3971282192142 1955.8041988717559 0 1955.8041988717559 2054.5899259483704 0 0 0 0 -856.24507038980664 -709.79515681382327 0 -709.79515681382327 -183.96788522027055 0 0 0 0 -697.10516963726059 -504.57659875652007 0 -504.57659875652007 -60.05423652537138 0 0 0 0 -1.3299641092343819 -29.898341277475645 0 -29.898341277475645 125.68835261587748 0 0 0 0 -904.88663149443255 -673.06644536634758 0 -673.06644536634758 548.42157042206964 0 0 0 0 261.66953800527881 1271.8029025998194 0 1271.8029025998194 132.19496982553392 0 0 0 0 -558.28541179393869 -403.34289918046488 0 -403.34289918046488 665.87879192403125 0 0 0 0 -488.90831351435918 -358.01733696791416 0 -358.01733696791416 163.63006648975352 0 0 0 0 -9.3552835058887638 -2.9813753936995653 0 -2.9813753936995653 0.90465870487720146 0 0 0 0 2555.2150335149345 -375.28742488722492 0 -375.28742488722492 467.95645744921057 0 0 0 0 -98.986404036833846 46.318265096773757 0 46.318265096773757 301.45138652036985 0 0 0 0 -32.864388824620377 -1.3305943588645306 0 -1.3305943588645306 41.086996799125465 0 0 0 0 -40.020659700210672 60.280912301090211 0 60.280912301090211 154.5584405276386 0 0 0 0 -120.73026387119808 -17.266696093659448 0 -17.266696093659448 110.92028083981859 0 0 0 0 27.214249958827466 26.179707933738335 0 26.179707933738335 63.040810082387566 0 0 0 0 -87.775244717718124 89.278432619147679 0 89.278432619147679 148.82937382270029 0 0 0 0 -664.6481327726251 127.04812900629622 0 127.04812900629622 402.27196560293669 0 0 0 0 -1042.8950306230345 -33.285447585388283 0 -33.285447585388283 335.17782084747159 0 0 0 0 -618.73181661072886 259.46493475144416 0 259.46493475144416 0.12818443690230197 0 0 0 0 -65.869584662737907 -210.27515795444458 0 -210.27515795444458 518.66825508119291 0 0 0 0 42.75617950826927 -22.254121279328501 0 -22.254121279328501 61.299749183224776 0 0 0 0 13.17423196638498 -22.565766361793507 0 -22.565766361793507 86.153069397268425 0 0 0 0 -20.64307282154914 -159.9170304874259 0 -159.9170304874259 260.88873717434427 0 0 0 0 -80.668433233317046 159.53037379843227 0 159.53037379843227 82.449479973305642 0 0 0 0 -19.143475527516649 8.6341461888622106 0 8.6341461888622106 99.332934254198364 0 0 0 0 -14.834071937768652 5.971614482800355 0 5.971614482800355 111.37676807675564 0 0 0 0 7.3985113448579796 16.455868283068412 0 16.455868283068412 141.31860315615086 0 0 0 0 -18.261322834903538 -11.354185137408908 0 -11.354185137408908 82.024194333066646 0 0 0 0 -17.873386161643793 -4.9623468705731284 0 -4.9623468705731284 107.2140367076463 0 0 0 0 -6.2502646633620316 -27.320837645620486 0 -27.320837645620486 113.50378114262037 0 0 0 0 3.4931023747199816 1.8730993606277906 0 1.8730993606277906 18.790555632022034 0 0 0 0 -55.455722019658424 46.709519625374014 0 46.709519625374014 350.32896141643687 0 0 0 0 447.65144089880869 -198.01020404808605 0 -198.01020404808605 203.70889403500041 0 0 0 0 9.4971554616586218 -33.203966000410219 0 -33.203966000410219 114.98284964584855 0 0 0 0 -22.690459983009802 17.793784597872719 0 17.793784597872719 65.947634231465742 0 0 0 0 -6.3050069484088453 -23.897598858951369 0 -23.897598858951369 115.29547392121822 0 0 0 0 14.739870011311723 -34.016260638247331 0 -34.016260638247331 113.52242096232351 0 0 0 0 -14.144504813062667 -39.381257709909278 0 -39.381257709909278 152.46271222675932 0 0 0 0 24.5324431650115 -57.255153424099717 0 -57.255153424099717 160.58278168840661 0 0 0 0 -21.427713531600602 -25.853309087214711 0 -25.853309087214711 128.88399373766424 0 0 0 0 -32.227864866194068 -42.085718625190111 0 -42.085718625190111 139.11973894264884 0 0 0 0 -7.3454728759911632 -13.075949065208874 0 -13.075949065208874 153.78025928845091 0 0 0 0 -3.9835539412215439 -17.337343743972042 0 -17.337343743972042 118.27004112562918 0 0 0 0 17.573842090372636 0.59757356774025538 0 0.59757356774025538 196.66406739794274 0 0 0 0 6.9941082185359846 -24.008255400131929 0 -24.008255400131929 141.40402580084356 0 0 0 0 38.486766529927991 -6.6037300700409105 0 -6.6037300700409105 151.80744951016095 0 0 0 0 29.861403453930961 -10.515627843633183 0 -10.515627843633183 152.27580037796997 0 0 0 0 77.019905895838747 -29.79039697326516 0 -29.79039697326516 165.17201700326586 0 0 0 0 -0.48137336896813565 0.21850181475234987 0 0.21850181475234987 27.073795023799807 0 0 0 0 -74.197296490900044 124.24378581247583 0 124.24378581247583 40.247234984773968 0 0 0 0 -2.6902406400555918 14.76807868522026 0 14.76807868522026 48.107430542630055 0 0 0 0 -10.631712336868077 -7.1013794647733448 0 -7.1013794647733448 54.316371612461808 0 0 0 0 -105.59514147552545 118.77520952101622 0 118.77520952101622 96.781742121791467 0 0 0 0 -9.4079619109483019 12.214558866735732 0 12.214558866735732 81.519895890668622 0 0 0 0 1.4597585712251941 -18.206797488155601 0 -18.206797488155601 45.878242735937903 0 0 0 0 343.52784894413617 -86.637984562430574 0 -86.637984562430574 69.731249241307523 0 0 0 0 -11.291218018078382 -17.717408710280687 0 -17.717408710280687 20.697388606378212 0 0 0 0 3.9441947947925655 -22.654904730057751 0 -22.654904730057751 87.562213283177698 0 0 0 0 -31.419869576379824 -63.780070752318352 0 -63.780070752318352 56.45333213309641 0 0 0 0 9.6653988941363522 -4.5965630411541554 0 -4.5965630411541554 10.057835527398844 0 0 0 0 -106.47971617150324 85.36654919321154 0 85.36654919321154 112.64621657755924 0 0 0 0 -102.6305039360268 30.676095528237056 0 30.676095528237056 243.09022926629405 0 0 0 0 -108.78198205660738 29.47656223665399 0 29.47656223665399 244.8808494761106 0 0 0 0 -72.505169450538233 -30.726580802085664 0 -30.726580802085664 230.72937549927565 0 0 0 0 -102.71851153413809 62.213381762012432 0 62.213381762012432 220.42524222297652 0 0 0 0 152.3321549049615 -95.320758572388513 0 -95.320758572388513 -24.875832767327665 0 0 0 0 -29.725877140537705 12.728885320815607 0 12.728885320815607 138.05286406120649 0 0 0 0 -63.189257354049914 -20.442619972924149 0 -20.442619972924149 133.60610128800681 0 0 0 0 64.522062659369112 -4.5591679886110796 0 -4.5591679886110796 139.83070335734192 0 0 0 0 -13.377525389721612 27.292535304013015 0 27.292535304013015 69.470455852794686 0 0 0 0 -69.153289868594584 64.839790711990645 0 64.839790711990645 81.563806968926656 0 0 0 0 -75.669434586659918 40.413587546972849 0 40.413587546972849 146.80985194727691 0 0 0 0 14.737245269045038 -3.2356038014804085 0 -3.2356038014804085 -1.3708016245161936 0 0 0 0 169.81140324808484 -640.35872872619439 0 -640.35872872619439 1517.1480959858745 0 0 0 0 782.02901564512194 -543.11967744454159 0 -543.11967744454159 557.73466128022301 0 0 0 0 -85.11390319592374 -251.19916567231849 0 -251.19916567231849 -353.65148130133457 0 0 0 0 -169.96384736163282 -82.49818550168311 0 -82.49818550168311 735.9176159377821 0 0 0 0 1151.02434533724 -971.02978890762097 0 -971.02978890762097 659.89752992827243 0 0 0 0 1678.7938367714032 -1427.7391020274699 0 -1427.7391020274699 1339.7661335344451 0 0 0 0 566.8361851999789 -856.47869186721891 0 -856.47869186721891 1476.4009677270224 0 0 0 0 1272.1255121974102 -1429.065459038171 0 -1429.065459038171 1573.7247519141852 0 0 0 0 -18.056880809034784 39.815290669731183 0 39.815290669731183 100.10134237197842 0 0 0 0 978.60533929754456 -943.45119598220435 0 -943.45119598220435 1303.2214557271782 0 0 0 0 -1256.4255902973646 1180.6374970331044 0 1180.6374970331044 -137.55453289263824 0 0 0 0 737.99439242029166 -1086.5604641283571 0 -1086.5604641283571 1335.3318083847334 0 0 0 0 2.4507648247316851 6.5363197975921281 0 6.5363197975921281 -0.62908495959203936 0 0 0 0 1035.0093050427649 -1325.546592904733 0 -1325.546592904733 1509.8333113138776 0 0 0 0 1019.2822807337047 -933.52917736064603 0 -933.52917736064603 929.63491066623124 0 0 0 0 778.39308197502032 -1123.1652695905818 0 -1123.1652695905818 1265.7014338443514 0 0 0 0 338.3847417351335 -952.97931730366645 0 -952.97931730366645 1501.5951960503535 0 0 0 0 264.12654604958152 -261.28470101579842 0 -261.28470101579842 421.51654149578098 0 0 0 0 632.00850357107811 -1090.6581738610482 0 -1090.6581738610482 1396.904182181851 0 0 0 0 657.64506707682403 -1033.0250462024585 0 -1033.0250462024585 1476.5663537003988 0 0 0 0 -152.74439656128925 -31.05844024322505 0 -31.05844024322505 194.42906709203544 0 0 0 0 -161.93316133493704 -69.229635966664091 0 -69.229635966664091 179.53302810392051 0 0 0 0 -160.01774870020563 -56.283767617608646 0 -56.283767617608646 219.85600959417206 0 0 0 0 510.4449928774884 -984.13517279408552 0 -984.13517279408552 1509.0566707420139 0 0 0 0 -25.551198666716125 47.990202299221785 0 47.990202299221785 136.74332532323962 0 0 0 0 109.95916692495302 0.88233777845016448 0 0.88233777845016448 144.3518506157925 0 0 0 0 -13.478250485617636 5.9749229686112386 0 5.9749229686112386 40.848789353594704 0 0 0 0 455.59052070260805 -1241.2475888404188 0 -1241.2475888404188 1512.6161959444894 0 0 0 0 517.46158263579809 -915.22686445295358 0 -915.22686445295358 2185.1103970262775 0 0 0 0 -844.22347338803002 -64.491008092842094 0 -64.491008092842094 533.20994858820268 0 0 0 0 -885.5861394384724 80.790500167066057 0 80.790500167066057 661.49136299199745 0 0 0 0 -23.710976750853799 44.839762151831977 0 44.839762151831977 115.95977409702097 0 0 0 0 -970.81912090493734 359.95127358015816 0 359.95127358015816 267.14903414261789 0 0 0 0 -534.96407549877404 70.641550498326978 0 70.641550498326978 241.03547767830332 0 0 0 0 -622.65223226191983 -293.27415879599721 0 -293.27415879599721 508.24249267407504 0 0 0 0 -756.27533903043309 -445.91985534571904 0 -445.91985534571904 390.45985539998583 0 0 0 0 -804.69595451445457 -107.56472624726484 0 -107.56472624726484 579.34700644097757 0 0 0 0 -413.18236008368831 -395.33048597468041 0 -395.33048597468041 -109.23736720858869 0 0 0 0 -628.03899711619431 -658.87409617609956 0 -658.87409617609956 277.33465593436813 0 0 0 0 -413.99451020449783 -403.91882510747564 0 -403.91882510747564 2.9397282781937975 0 0 0 0 -412.38243712996064 -311.87312131601902 0 -311.87312131601902 47.992711611594132 0 0 0 0 -688.27832064353061 1938.3030784367802 0 1938.3030784367802 5903.3048691352633 0 0 0 0 -10.568766797894689 -46.30326991396926 0 -46.30326991396926 65.415584022895644 0 0 0 0 -1233.6903762434449 -341.54249426512888 0 -341.54249426512888 1284.7211479485204 0 0 0 0 -10.653941368988541 0.70958820836753311 0 0.70958820836753311 10.833793714406804 0 0 0 0 -333.8464679894646 -557.82170170808968 0 -557.82170170808968 -705.74630758394051 0 0 0 0 2610.095609013817 3168.3971875180305 0 3168.3971875180305 5373.7035192377371 0 0 0 0 544.1684642142136 778.30071289533771 0 778.30071289533771 2257.4238972198191 0 0 0 0 258.10826074353463 878.78479007567512 0 878.78479007567512 2927.3827043155798 0 0 0 0 409.29016596552174 664.29485706807827 0 664.29485706807827 2478.1616739753445 0 0 0 0 4.5352345785859143 891.35791823810723 0 891.35791823810723 2362.9579038425582 0 0 0 0 -14.407499518631603 -15.224807199163862 0 -15.224807199163862 42.399700672275088 0 0 0 0 100.93623597255282 461.75672503661917 0 461.75672503661917 2466.2229008919203 0 0 0 0 408.68114620898632 383.53364814758788 0 383.53364814758788 2033.6872314302473 0 0 0 0 -160.03880359274626 -26.551200089976192 0 -26.551200089976192 227.20022166880608 0 0 0 0 1.2826864957669457 -65.97040446909277 0 -65.97040446909277 90.946819204422653 0 0 0 0 587.35329832136995 760.05454607543652 0 760.05454607543652 2030.8582273278364 0 0 0 0 453.96077495714417 724.33463655579544 0 724.33463655579544 2344.3598689056817 0 0 0 0 698.11396792862433 948.81960002196502 0 948.81960002196502 2189.4854555213515 0 0 0 0 1613.0842344583616 1682.443699095611 0 1682.443699095611 2417.6760905617557 0 0 0 0 -579.8129730572291 766.94388986664671 0 766.94388986664671 2661.5339864149792 0 0 0 0 740.69263936900461 666.94665214114593 0 666.94665214114593 1150.5463060260772 0 0 0 0 729.9897860539968 571.94510378478276 0 571.94510378478276 1636.9279126955262 0 0 0 0 647.05433309976888 1098.3136569469116 0 1098.3136569469116 2441.7505996537657 0 0 0 0 917.56915016415587 1183.1377020111195 0 1183.1377020111195 2464.6842974509582 0 0 0 0 1719.9745122377572 1374.5748842393705 0 1374.5748842393705 1412.6856422902456 0 0 0 0 1615.7565035833675 2247.1118380356465 0 2247.1118380356465 2665.1922418935137 0 0 0 0 -1192.2783654273262 -1582.3382245091852 0 -1582.3382245091852 416.84664422920468 0 0 0 0 -4.560464721015407 -0.28789314806700439 0 -0.28789314806700439 14.385719389061322 0 0 0 0 573.79385778773667 1822.1008968721162 0 1822.1008968721162 3575.052693767906 0 0 0 0 100.90763195196359 1057.3546877831232 0 1057.3546877831232 3771.6427444806395 0 0 0 0 1339.970752033023 -175.06905240032665 0 -175.06905240032665 1949.1333242099463 0 0 0 0 1723.3629701201353 514.90103243216799 0 514.90103243216799 2293.3141403830996 0 0 0 0 78.076200085431083 -1142.8088049822416 0 -1142.8088049822416 2569.4984215171171 0 0 0 0 221.00353918226392 -402.03338202330269 0 -402.03338202330269 2411.4392715717186 0 0 0 0 2115.1959463184594 -1257.6639728579685 0 -1257.6639728579685 2668.9023127702676 0 0 0 0 -1111.3737709640873 -913.28305343483441 0 -913.28305343483441 2235.535258284126 0 0 0 0 86.316224872472958 -178.1205897408563 0 -178.1205897408563 787.23952896911214 0 0 0 0 291.94465014167145 -544.33110156890689 0 -544.33110156890689 1052.3259363715499 0 0 0 0 1189.7763539746775 -653.79066696045265 0 -653.79066696045265 1160.6958828726124 0 0 0 0 531.64538222371266 20.267166631088912 0 20.267166631088912 2299.802489069345 0 0 0 0 588.03336868617771 -883.7690592917761 0 -883.7690592917761 2812.4262158133206 0 0 0 0 734.9077551082155 -475.84965750990523 0 -475.84965750990523 -127.54891089952434 0 0 0 0 36.064437597255164 177.32505908462554 0 177.32505908462554 3772.5663514676307 0 0 0 0 9.0239998312024525 -9.3138584078687856 0 -9.3138584078687856 8.7674544499477385 0 0 0 0 417.98516185957487 -860.8904670768934 0 -860.8904670768934 1831.3523030416291 0 0 0 0 169.59481868902003 -1222.8452820881266 0 -1222.8452820881266 2609.9667656778565 0 0 0 0 89.26839785296761 -416.32663518709342 0 -416.32663518709342 1414.5100929641085 0 0 0 0 -11.037535899879003 -490.25627883401103 0 -490.25627883401103 2522.3112922505779 0 0 0 0 -189.12442678651132 -402.80496408470754 0 -402.80496408470754 1856.4690796379573 0 0 0 0 -160.29066342745864 -786.97930603501027 0 -786.97930603501027 3480.4273800764304 0 0 0 0 6.9503363464892942 9.4460200466557822 0 9.4460200466557822 13.159737206158937 0 0 0 0 -19.622349151520211 -143.83361061520554 0 -143.83361061520554 1735.7485043906527 0 0 0 0 -166.84593475665997 337.28370238417119 0 337.28370238417119 963.43066759411522 0 0 0 0 19.769640698409077 25.993681075901947 0 25.993681075901947 29.61481722788767 0 0 0 0 543.45311307013981 423.53579095015266 0 423.53579095015266 -220.66100712522166 0 0 0 0 236.33763175193781 324.79940614975021 0 324.79940614975021 2239.710198841236 0 0 0 0 1133.8449796431705 -156.72365828499346 0 -156.72365828499346 -192.16364014166993 0 0 0 0 2771.9512351437115 -1478.0292668045176 0 -1478.0292668045176 748.44643368994457 0 0 0 0 8.6918817902164136 -16.4952568600756 0 -16.4952568600756 26.895449715918961 0 0 0 0 1008.5548686984584 -2569.7567226491237 0 -2569.7567226491237 3428.3975255068945 0 0 0 0 -6.0532932332280325 334.3065127926202 0 334.3065127926202 2720.0946156356076 0 0 0 0 1978.0479009302653 1578.3079455139268 0 1578.3079455139268 3113.1869587046676 0 0 0 0 3963.5797652171241 -187.01671323171649 0 -187.01671323171649 1949.1424430933266 0 0 0 0 211.39244516210238 -327.03488543503499 0 -327.03488543503499 1684.8218725421648 0 0 0 0 246.94467820138743 -113.54786578235871 0 -113.54786578235871 2965.2149746475634 0 0 0 0 1411.2781300366223 -1832.925164275337 0 -1832.925164275337 4707.5493581660085 0 0 0 0 
</DataArray>
<DataArray type="Float64" Name="cross_section_updated" format="ascii">
1 1 1 0.010954317338102197 1 0.010950957621249098 1 1 1 0.01036913389706808 1 0.010356497472956619 1 1 0.015315893017294011 1 1 1 1 1 1 1 1 1 1 1 1 1 1 1 0.012158532740967017 1 1 0.011833220126328302 1 1 1 1 1 1 1 1 1 1 1 1 1 0.0078805883719504071 1 0.0069981316159391654 1 1 0.010066681450035277 1 1 1 1 1 1 1 1 1 1 1 0.0099318986005661313 0.0085182635156789595 1 1 1 1 1 1 1 1 1 1 1 1 0.01070475757461143 1 1 1 1 1 1 1 0.020851374889826586 1 1 1 1 0.020213632930566727 1 1 1 1 1 1 1 0.010034892614879491 1 1 0.01015483987648319 1 1 1 1 0.010064597268967329 1 1 1 0.02453589129907946 0.0086398640857569282 1 1 1 1 1 1 1 0.010877997845167428 1 1 1 1 0.011715282703182747 1 1 1 1 1 1 0.013953961045477253 1 1 1 1 0.01189342598878558 1 0.013362788452967646 1 1 1 1 0.010247603795282176 1 1 1 1 1 1 0.01240108498067396 0.012686136914921889 1 1 1 0.01070197288392314 1 0.014283111893756676 1 1 1 1 1 1 1 1 1 1 1 1 1 0.01378991821365301 1 1 0.01176157511106804 1 1 1 1 0.013804262744472965 1 0.016125094108544707 1 1 0.011180534947454128 1 1 1 1 1 0.017064591830713266 1 1 0.012168928020160251 0.0081354149845256213 1 0.009991428914348878 1 1 1 1 1 1 0.0072497040849472125 0.012602817832749184 1 1 0.010976246368430052 1 1 1 1 1 1 1 1 1 1 1 1 1 1 1 1 1 1 1 1 1 1 1 0.0099514809279281705 1 1 1 0.0098545631694472863 1 1 1 1 1 1 1 1 1 0.012905418215105451 1 1 1 1 1 1 1 1 1 1 1 1 1 1 1 1 0.0099938200733398503 1 1 1 1 1 1 1 1 1 1 1 1 1 1 1 1 1 1 1 1 0.010084518184751149 1 0.009363418923908037 1 1 1 1 1 1 1 1 1 1 1 1 1 1 1 1 0.012359368268190795 1 1 1 0.01300511275319309 1 1 1 1 1 1 1 0.010464638452362542 1 1 0.013045245966659146 1 1 1 1 1 1 1 0.020695653389134226 1 1 0.0083840959740445267 1 1 1 1 1 0.017866257749433553 1 1 1 1 1 1 1 0.011364893648031033 1 1 1 1 1 1 1 1 1 0.0092100334474809389 1 1 1 1 0.0092990653510961873 1 1 1 0.011483161664813328 1 0.0073837031651172828 1 1 0.012532815863358721 1 1 1 1 1 1 1 1 1 1 1 1 1 0.013055419914320208 1 1 1 1 0.0084991256461592751 1 1 1 1 1 1 1 1 1 1 1 1 1 1 1 1 1 1 1 1 1 1 1 1 1 1 0.010748616299143011 1 0.0049318211035784681 1 1 0.016323507761473947 1 1 1 1 1 1 0.012564723047021567 1 1 1 1 1 1 0.0069356307323777486 1 1 1 0.010267006489774314 1 0.0056862301193045164 1 1 1 1 1 1 1 1 1 1 1 1 1 1 1 1 1 1 1 1 1 1 1 1 1 0.011056684363900379 1 1 1 1 1 1 1 1 0.011780813486406125 1 1 1 1 1 1 1 0.010724129122505748 1 1 1 1 1 1 1 0.021036603704122851 1 1 1 1 1 0.020512206421911053 1 1 1 1 0.0062920091032094699 0.010642777270572119 1 1 0.012763472144117926 1 1 1 1 1 1 1 1 1 0.010961772764169 1 1 1 1 1 1 1 1 1 1 1 1 1 1 1 0.010755391519344631 1 0.0099458307544795718 1 0.0099537412754694896 1 0.011563499892384274 1 1 1 1 1 0.0096668950322097089 1 1 1 1 1 1 1 1 1 1 1 1 0.018180651262461593 1 1 1 1 1 1 1 0.0098050304857840078 0.016478272439520818 1 1 1 1 1 1 0.010509170706222808 1 1 1 0.014151985049720046 0.01041037243231379 0.0099989762400834112 1 1 1 1 0.0098168970205607456 1 0.017421098927318295 1 1 0.013029890570189988 1 1 1 0.012417582467155318 1 1 1 1 1 1 1 1 1 1 1 1 1 1 1 1 1 1 1 0.01305423208718421 0.010821664348658125 0.010652776271482853 1 0.011661875732082203 1 1 1 0.0093398451758143555 1 0.010544631522566718 1 1 1 1 1 1 1 0.010675370482858951 1 1 1 1 1 1 1 1 0.010004794274254705 1 1 1 1 1 1 1 1 1 1 1 1 1 1 0.01001440460516018 1 1 1 1 1 1 1 1 1 1 1 1 0.0099174335245029235 1 1 1 0.011942891054752013 1 1 0.016203764243515315 0.013854540057238761 1 1 1 0.010536645181901082 0.0071205560221064244 1 1 1 1 1 1 0.0091091601748435284 1 1 0.011241361794234538 0.0099689189382165533 1 1 1 1 0.0097152916731231918 1 1 1 1 1 1 1 1 1 1 1 1 1 1 1 1 0.01135161011080852 1 1 1 1 1 0.013625732581201332 1 1 1 1 1 1 0.015295344897073494 1 1 1 1 1 1 1 1 1 1 1 1 1 1 1 1 1 0.015044610682378223 1 1 1 0.010538305833870464 1 1 1 1 1 1 1 1 1 1 1 1 1 1 1 1 1 1 1 1 1 1 1 1 1 1 1 1 1 1 1 1 1 1 1 1 1 1 1 0.01969304965732499 1 1 1 1 1 1 0.019018391084207303 1 1 1 1 1 1 1 1 1 1 1 1 1 1 1 1 1 1 1 1 0.010442230097410866 1 1 1 1 1 0.017299524885564986 1 1 1 1 1 1 1 1 1 1 1 1 1 0.011309216920121093 1 1 0.0066416794466254425 0.013183638033062432 1 1 1 1 1 1 1 1 1 1 1 1 1 1 1 1 1 1 1 1 1 1 1 1 1 1 1 1 1 1 1 1 1 1 0.0087131345485991774 1 1 1 0.010055899227748903 1 1 1 1 1 1 0.0099316551600578187 0.012102658936902204 1 0.01376845224821837 1 0.00861217353096283 1 1 1 1 1 1 1 1 0.010298063530620388 1 1 1 1 1 1 1 1 1 1 1 1 1 0.011407061695430869 1 0.011990500925273144 1 1 1 1 1 1 1 1 1 1 1 1 1 0.01066628087161123 1 1 1 1 1 1 1 1 1 0.0080656798584237376 1 1 0.0055300461714841796 1 1 0.01394212001375513 0.012140067317112452 1 1 0.0085145885237215193 1 0.01086800583144922 1 1 1 0.0053584207525484394 0.010442115474399665 1 1 1 1 1 0.0084246460494511732 1 1 1 1 1 0.019360500904902541 0.010033132718491457 1 1 1 1 1 1 1 0.0099345618366666194 1 1 0.0038094680609470615 1 1 0.013291129635445972 0.011965539813875173 1 1 1 1 1 1 1 1 1 1 1 1 0.0095869634291839718 1 1 1 1 1 1 1 1 1 1 1 1 1 1 1 1 1 1 1 1 1 1 1 1 1 1 1 1 0.013065523842025535 1 1 1 1 1 1 1 1 1 1 1 1 1 1 1 1 1 1 1 1 1 1 0.015067551136446212 1 1 0.010017300788110214 1 1 1 0.013760117307023419 1 1 1 1 1 1 1 1 1 1 1 0.011588738968339514 1 1 1 1 1 1 1 1 0.013281694857611638 1 1 1 1 1 1 1 1 1 0.018161364927141904 0.011840648476534661 1 1 1 1 1 1 1 1 1 1 1 1 1 1 1 1 1 1 1 1 1 1 1 1 1 1 1 1 1 1 1 1 1 1 0.0085996905007029237 1 1 1 1 1 1 1 1 1 1 1 1 1 1 0.01321600844844939 1 0.009816159965345914 1 1 1 1 1 1 1 1 1 1 1 1 1 1 1 1 1 1 1 1 0.010314553143515263 1 1 1 0.015532472990120068 1 0.018032806893964075 0.010011555926735779 1 1 1 1 1 1 1 1 1 1 1 1 1 1 1 1 1 1 1 1 0.018545636033920947 1 0.0089871078585779234 1 1 1 0.011508802860587506 1 1 1 1 1 1 1 1 1 0.0091802473206807605 1 1 0.01000337745596128 0.0085545226914569335 1 0.013468793624570144 1 0.011947320243975918 1 1 1 1 1 1 0.012417217705318805 1 1 1 0.01340633824920149 1 1 1 1 1 1 1 0.013076066808594272 1 1 1 1 1 0.010263348875833087 0.012512863294970009 1 1 1 1 1 1 1 1 1 1 1 1 1 1 1 1 1 1 1 1 1 1 0.0096752586039341327 1 1 1 1 1 0.0099885510039015024 0.036696839222449283 0.0090784214937697089 1 1 1 1 0.034441429446526298 1 1 1 1 1 1 1 1 1 0.011716458754461237 1 1 1 1 1 1 1 1 1 1 1 1 1 0.015111463893182067 1 1 1 1 1 1 1 1 1 1 1 1 1 0.010846698125367576 1 1 1 1 1 1 1 1 1 1 1 1 1 1 1 1 0.0098729814409535405 1 1 1 1 1 1 1 1 0.011896931572645932 1 1 1 1 1 1 1 1 0.014413371051512988 1 1 1 0.0093747310791924259 1 0.0076898841382042407 1 1 1 1 1 1 1 1 1 1 1 0.032241429970180903 1 0.034398557963098431 1 1 1 1 0.0098039751487370066 1 1 1 1 0.007677499231102944 1 1 1 1 1 1 1 1 1 1 1 1 1 1 1 1 1 1 1 1 1 1 1 1 1 1 1 1 1 1 0.012261475250151387 1 0.015439194150229341 1 1 1 1 1 1 0.015974102484166079 1 1 1 1 1 1 1 0.0097247442258279818 1 1 1 1 1 1 1 1 1 1 1 1 1 0.012322272330278626 1 1 1 1 1 1 1 1 0.010866474183247286 1 1 1 1 0.010336941513799484 1 1 0.0095966963365052161 1 1 1 1 1 1 1 1 1 1 1 1 1 1 1 1 1 1 1 1 1 1 1 1 1 1 1 1 1 1 1 0.0099215095799270233 1 1 1 1 1 1 1 1 1 1 1 1 1 1 1 1 1 1 1 1 1 1 0.0097420948489452472 0.0099612396169012213 1 0.010004597447679626 1 0.0097102162639074226 1 1 1 0.0090915166896809313 0.010236395352491372 1 1 1 1 1 1 1 1 1 1 1 0.025807869245923799 1 1 1 1 0.022062018659032817 1 1 1 1 1 1 1 1 1 1 1 1 1 1 1 1 1 0.029140057545541248 1 1 1 1 1 1 1 1 1 1 0.0096161093184377253 1 1 1 1 1 0.010040518952000095 0.010045649911570644 1 1 1 1 1 1 1 1 1 0.0096382982829865266 1 1 1 1 1 1 1 1 0.0093855250831692341 1 1 1 1 1 1 1 1 0.0098685972726191354 1 1 1 1 1 1 1 0.021398176700777798 1 1 0.0099958771259816281 0.0096744557633582258 1 1 1 1 1 1 0.010365645654238908 1 1 1 1 1 1 1 1 1 1 1 1 0.019642679994323106 1 1 1 1 0.017374755684498214 1 1 0.010389248924601401 1 1 1 0.010876665899530676 1 0.010011961183532593 1 0.01114243795140301 1 1 1 0.010466333217337562 1 1 1 1 1 1 1 1 1 1 1 1 1 1 0.010248705373549038 1 1 1 0.010114101697969901 1 0.010153352090915639 1 1 1 1 1 1 1 0.010544703923213888 1 1 1 0.01149560990318955 1 1 1 1 1 1 1 1 1 1 1 1 1 1 1 1 1 1 1 1 1 1 1 1 1 1 1 0.011108215474361666 1 1 1 0.017678175324985959 0.018949585906743817 1 1 1 1 1 1 1 1 0.010388074636476858 1 1 1 1 1 1 1 1 1 1 0.012852105680849754 1 1 1 0.013782631936363286 1 1 1 1 1 1 1 1 1 1 1 1 1 1 1 1 1 1 1 1 1 1 1 1 1 1 1 0.028414178699551661 1 1 1 1 1 1 1 1 0.010786980986027088 1 1 1 1 1 1 1 0.009968240023088536 1 1 1 1 1 1 1 1 1 1 1 0.010013152321718065 1 0.02103067156916491 1 1 0.015246215940119419 1 0.014728212990525309 0.021843007951169984 1 1 1 1 1 1 1 1 1 0.012918149921300946 1 1 1 0.01001115279103908 1 1 0.017821693760045047 1 1 1 1 1 1 0.014703583502653649 1 1 1 1 0.0097509345969963163 1 0.0123413738499174 1 1 0.014476118171888049 0.0089788853294517426 0.011108068560048916 0.01047192819651916 1 1 1 1 1 0.010809130894108206 1 1 1 1 1 0.012820241973825768 1 1 1 1 0.01126342168310053 1 0.01009718134720961 1 1 0.013970258011673019 1 1 1 1 1 1 1 0.029410123399185421 1 1 1 0.027825814342370879 1 1 1 1 0.012967134298376835 1 1 1 0.012477355863497758 1 1 1 0.025310003783675213 1 1 0.010012114883389985 0.022213134693306769 1 1 1 1 0.010057437846590635 1 1 1 1 1 1 1 1 1 1 1 1 1 1 1 1 1 1 1 1 1 1 1 1 0.012354790923377507 1 1 1 1 1 1 1 1 1 0.016018929277004122 1 1 1 1 1 1 1 0.018055230615882822 1 1 1 1 1 1 1 1 1 1 1 1 1 1 1 1 1 0.010026687714148587 1 1 1 1 1 0.0064974454433414999 0.011235552560630732 1 1 1 1 1 0.0059575297261349608 1 1 1 0.0055242216088885431 1 1 1 1 1 1 0.010872725421434946 1 1 0.011954855444087736 0.010560186183966968 1 1 1 1 1 1 0.010611869381604763 1 1 1 1 1 0.011676591412241994 1 1 0.011599280028399576 1 1 1 1 0.013499308008283268 1 0.011390205550905785 1 1 1 0.010014529273730071 1 1 0.010504683924531868 1 1 1 1 1 1 1 1 0.012343754797140127 1 1 1 1 1 0.012025305709248386 1 1 1 1 1 1 1 1 1 0.010230170298275325 1 0.010048569037307581 1 1 1 1 1 1 1 1 1 1 1 0.010827746894151081 1 1 1 1 1 1 1 1 1 1 1 1 0.0089787779036056559 1 1 0.013479521576998346 1 1 0.017712783854125835 1 1 1 0.010303735191034762 1 1 1 1 1 0.029418129721037523 1 1 0.042480576926234602 1 1 1 0.011024133406102353 1 1 1 1 0.040346023825645658 1 1 1 1 1 1 1 1 1 1 1 1 0.012302512314208765 1 1 1 0.038244114056207576 1 1 1 1 1 1 0.035995817729977841 1 1 1 1 1 1 0.010811284914322473 1 1 1 1 1 1 1 1 1 1 1 1 1 1 1 1 0.0328156917043003 1 1 1 1 1 1 0.028386930041662144 1 1 1 1 1 1 1 1 1 1 1 1 1 0.010232836453248935 1 1 1 1 1 1 1 1 0.010414437714216681 1 1 1 1 1 1 0.0094790012739218669 1 1 1 1 1 1 1 1 1 1 1 1 1 1 1 1 1 1 1 1 1 1 1 1 1 1 1 1 1 1 0.011456547688988 1 1 1 0.01345450038146674 1 1 1 0.014837795095130083 1 1 0.012722325868724575 1 1 1 1 0.014458033560692444 1 1 1 1 1 1 1 0.022384810895723719 1 1 1 1 1 1 1 1 1 1 1 1 1 1 1 1 1 1 1 1 1 1 1 1 0.030075628226057048 1 1 1 1 1 0.0091448395395752387 1 0.0075880703250231895 1 1 0.036232146731112948 1 1 1 1 1 1 0.033527971353329897 1 1 1 1 1 0.010591602126577419 1 1 1 0.0097214073167036976 1 1 1 1 1 1 1 0.012195831572236653 1 1 0.0084190772003279214 1 1 1 1 0.010810445719425799 1 1 1 1 1 0.0049704892614684786 1 1 0.0085103792312555375 1 1 1 1 1 1 1 1 1 0.03563121424688085 1 1 0.039441563655841047 0.00078655652083137705 1 1 1 1 1 1 1 1 1 1 1 1 1 1 1 1 1 1 1 1 1 1 1 1 1 1 1 1 1 0.010923628750002475 1 1 1 1 1 1 1 1 1 1 1 1 1 1 1 1 1 0.026433041795039643 1 1 0.031034299662626469 1 1 1 1 0.0095743252989893782 0.0085366646713296891 1 1 1 1 1 1 1 1 1 1 1 1 1 1 1 1 1 1 1 1 1 1 0.015021915614567378 1 1 0.022166946301782633 1 1 1 1 1 1 1 1 1 1 1 1 1 1 1 1 1 1 0.0094861618866467178 1 1 1 0.0077672498199267328 1 1 1 1 1 1 1 1 1 1 1 1 1 1 1 1 1 1 1 1 1 1 1 1 1 1 1 1 1 0.01196712749302983 1 0.017519736575975879 1 0.010814046335466013 1 1 1 1 1 0.018892239652364213 1 1 1 0.0092941024476583117 1 1 1 1 1 0.0049075792660000714 1 1 0.020552488583030815 1 1 1 1 0.014288507911433731 1 1 1 1 1 1 1 1 1 1 1 1 1 1 1 1 1 1 1 1 0.011365186161147338 1 1 1 0.013123534808752937 1 1 1 1 1 1 1 1 1 1 1 1 1 1 1 0.011759850297978755 1 1 1 1 1 1 1 1 1 1 1 1 1 1 1 1 1 1 1 1 1 1 1 1 1 1 1 1 1 1 1 1 1 1 1 1 1 1 1 1 1 1 1 1 1 1 1 0.0065323167762897554 1 1 1 1 1 0.0089526840958495616 1 1 1 1 1 1 1 1 1 1 1 1 1 1 1 1 1 1 1 1 1 1 1 1 1 1 1 1 0.0099592458700188315 1 1 1 1 0.024705797108773658 1 1 0.0029565021256255089 1 1 1 1 1 1 1 1 1 0.024684187531025723 1 1 1 0.0095273700922742337 1 1 1 1 1 1 1 0.015199229500447123 1 1 1 1 1 1 1 0.014148519306094383 1 1 1 1 1 1 1 0.0098655315722930188 1 1 1 1 0.021885452871903278 1 1 0.0095528693441408151 1 0.024721629955653024 1 1 0.0099961388128667478 1 1 1 1 1 0.024127159204741264 1 0.011917237427457457 0.010235997999353336 1 1 1 1 1 1 1 0.0084733176029498994 1 1 1 0.0093595115027977262 1 1 1 1 1 0.0096730470186400692 1 1 0.0098075154463470576 1 1 0.0098688087661842269 1 0.010040110751650805 1 1 1 1 1 1 1 1 1 1 1 1 1 1 1 1 1 1 1 1 1 1 1 0.0079310693429392159 1 1 1 1 0.0088678345244052673 1 1 1 1 1 1 0.0096317937814398777 1 1 1 1 1 1 1 1 1 1 1 1 1 1 1 1 1 1 1 1 1 1 1 1 1 1 1 1 1 1 1 1 1 1 1 1 1 1 1 1 1 1 1 1 1 1 1 1 1 1 1 1 1 1 1 1 1 1 1 1 1 1 1 1 1 1 1 0.020945732045074671 1 1 1 1 1 1 1 1 1 1 1 1 1 1 1 1 1 1 1 1 1 1 1 1 1 1 1 1 1 1 1 1 1 1 1 1 1 1 1 1 1 1 1 1 1 1 1 1 1 1 1 1 1 1 1 1 1 1 1 1 1 1 0.016762017821732506 1 1 1 1 1 1 1 1 1 1 1 1 1 0.015503773349371041 1 1 1 1 1 1 1 1 1 1 1 0.011229022315526162 1 1 1 1 1 1 1 1 1 0.005649470358254749 0.0067574696986966243 1 0.012892619661279775 1 0.011367903993024665 1 0.010609281391012569 1 1 0.0098883075256305519 1 1 1 1 1 1 1 0.011359482958787597 1 1 1 1 0.0072540243972442821 0.014835516974122828 1 1 1 1 1 1 0.011864236368741964 0.0090427825533751817 1 1 1 0.013797955718403171 1 1 1 1 1 1 1 1 1 1 1 1 1 1 1 1 1 1 1 1 1 1 0.013921507637675981 1 1 1 0.010269058009480459 1 1 1 1 0.011106038455414687 1 1 1 1 1 1 1 1 1 1 0.017072006107741455 1 1 1 1 1 1 1 1 1 1 1 1 0.011946459002558337 1 1 1 1 1 1 1 1 1 0.011109478556624086 1 1 1 1 1 1 0.015421280039238507 1 1 1 1 1 1 1 1 1 1 0.019309666501325373 0.0096951975523956093 1 1 1 0.013199904172972086 1 1 1 1 0.014072309598071184 1 1 1 1 1 1 1 1 1 1 1 1 1 0.011723097758327604 1 1 1 1 1 1 0.021784802909865286 1 1 1 1 0.015677940045269404 1 0.014990561677171997 1 1 1 1 1 1 1 1 1 1 1 1 1 1 1 1 1 1 1 1 1 1 1 1 0.011380369818319518 1 1 1 1 1 1 1 1 1 0.023976576119450657 1 1 1 1 1 1 1 1 1 1 0.012189207044999491 1 1 0.025871649635998716 1 1 1 1 1 0.0092853308287856162 1 1 0.016433085578308221 0.026121020963044916 1 1 0.013775323955915955 1 1 1 1 1 1 1 1 1 1 1 1 1 1 1 1 0.014166596133092593 1 0.0099125039258958075 1 1 1 1 1 0.011409286241653842 1 1 1 1 1 0.031352062105059142 1 1 1 1 1 1 1 1 1 0.011478528941415381 1 1 0.035487103328974187 1 0.0053746290407936572 1 1 1 0.017606073331378608 1 1 0.011505401588384114 1 1 1 1 0.012424757256084022 1 1 1 1 1 0.012349211839743583 1 1 1 1 1 1 1 1 1 1 1 1 1 1 1 1 1 1 1 1 1 1 1 1 1 1 0.0098699384489617167 1 1 1 0.014257119416494803 1 1 1 1 1 1 1 1 1 1 1 0.012606345813837565 1 1 0.015221162698436992 1 1 1 1 1 0.012620962562072305 1 1 1 1 1 1 1 1 1 1 1 1 1 1 1 1 1 1 0.012208213315443327 1 1 1 1 1 1 0.012203099115550703 1 1 1 1 1 0.010028367339902141 1 1 1 1 1 1 1 1 1 1 1 1 1 1 1 0.011908668465097617 1 1 1 1 1 1 1 1 1 1 1 1 0.010322259270881623 1 1 1 1 1 1 1 1 1 1 1 1 1 1 1 1 1 1 1 1 1 1 1 0.015955974508675794 1 1 1 1 1 0.016232829734512635 1 1 0.016875460770267726 1 0.011765684476904771 1 1 0.013426498200784454 1 1 1 1 1 1 1 1 1 1 0.013889039376719127 1 1 1 1 1 1 1 1 1 1 1 1 1 1 1 1 1 1 1 1 1 1 1 1 1 1 1 1 1 0.0097159481731429031 1 1 1 1 1 1 1 1 1 1 1 0.0091343215312142574 1 1 1 1 1 1 0.0093089192651002531 1 1 1 1 1 1 1 1 1 1 1 1 1 0.019236100977087143 1 1 0.023899288297853781 1 1 1 0.0088052402151198531 1 0.023691822089962566 1 1 1 1 1 1 0.017341666762330656 1 1 0.010573937949308965 1 0.010244814329226084 1 1 1 1 1 1 0.011620556398873924 0.0095003194828314329 1 1 0.018530574407283552 1 1 1 1 1 1 1 1 1 1 1 1 1 1 1 1 1 1 1 1 1 1 1 0.01263102881165038 1 1 1 1 0.011695367408609414 0.025833493021639453 1 1 1 1 1 1 1 1 1 0.01076870381250624 1 1 0.011339217807645151 0.020900590540213662 1 1 1 0.012706631047673035 1 1 1 1 1 1 0.010941902889496393 1 1 1 1 1 1 0.009986214492687594 1 1 1 1 1 1 1 1 0.017229800350073269 1 1 1 0.0098788659222815885 1 1 1 0.01411112183050113 1 1 0.012837420615868095 1 0.0099800839328992117 1 1 1 1 1 1 1 1 1 1 1 1 1 1 1 1 1 1 1 1 1 1 1 1 0.012669618968040107 1 1 1 1 1 1 0.0093522007053578396 1 1 1 0.012465175631883334 1 1 1 1 1 1 1 1 1 1 1 1 1 1 1 1 0.0087636538304609723 1 1 1 1 0.013510002631807159 1 1 0.018559145428738363 1 1 1 1 1 1 0.012179370896441978 1 1 1 1 1 1 0.0097309488918545066 1 1 1 1 1 1 1 1 1 1 1 1 1 1 1 0.0097604350979819746 1 0.010000717248004748 1 1 0.015786226837664341 1 1 1 1 1 1 1 1 1 1 1 1 1 0.022698524160639662 1 1 1 1 1 1 1 1 1 1 1 1 1 1 1 1 1 1 1 1 1 1 1 1 1 1 1 0.016926692569050751 1 1 0.012800529512545039 1 1 1 0.014053961567978439 1 1 0.0099817376213824152 1 1 1 1 0.0098818253529249916 1 1 1 1 0.016910640685668402 1 1 1 0.010936580700383072 1 0.01077299944217238 0.0096786410504737658 1 1 1 1 1 1 1 1 1 1 1 1 1 1 0.0095187869174205228 1 1 1 0.0098786427586148723 1 1 1 1 1 1 1 0.010944488489789718 1 1 1 1 1 1 1 1 1 0.010365715578538361 1 1 1 1 1 1 1 1 1 0.00941270213227474 1 1 1 1 1 1 1 1 1 1 0.0096817532404202492 1 1 1 1 1 1 1 1 1 1 1 1 1 0.010909670866628925 1 1 0.012372913470908763 1 1 1 1 1 1 1 1 1 1 1 1 1 1 0.0098565068301517886 1 1 1 1 0.013464530894837942 1 1 1 0.014349739241955262 0.0097264452791135173 1 1 1 1 1 1 1 1 1 1 1 1 1 1 1 1 1 1 1 1 1 1 0.010164102556025116 1 1 1 1 1 1 1 1 1 1 1 1 1 1 1 1 1 1 1 1 1 1 1 1 1 0.014422816470771281 1 1 1 1 0.015076240881395891 0.011263763898279773 1 1 1 1 1 1 1 0.013897751685652406 1 1 1 1 1 1 0.013712721880584818 1 1 1 1 1 1 1 1 0.010326075746098715 1 1 1 1 1 1 1 1 1 1 1 1 1 1 1 1 1 1 1 0.011728119678080899 1 1 1 1 1 1 1 0.013789176106430358 1 1 1 0.011609805209988396 1 1 1 1 1 1 1 1 1 1 1 0.011569106381604209 1 0.013534436392256037 1 0.013497739048315985 1 1 1 0.012452102139662163 1 1 1 1 1 1 1 1 1 0.0096012701746325067 1 1 1 1 1 1 1 1 1 1 1 1 1 1 0.015534984655728001 0.010264768996195821 1 1 0.0087554425973920876 1 1 1 1 0.010850842304042348 1 0.015874942493803314 0.010190410019374339 0.0098066949454964115 1 0.015695631994134408 0.016482266917701792 1 1 1 1 1 0.010094628037944892 1 1 0.010171162235859251 1 1 1 1 1 1 0.0093756451279083074 1 1 1 0.010010559853050724 1 1 1 0.016528351089288219 1 1 1 1 0.017101292055770247 1 0.016814229180623808 1 1 1 0.014588807280155089 0.012996900659499632 0.0096712350872828288 1 0.0092315598808284591 1 1 1 1 0.0064070400689926546 1 0.012138069288061253 1 0.020094217259286326 1 1 0.010196544391175309 0.0092794291408816315 1 0.0099381274676487753 0.022471694084411686 1 1 1 1 1 1 1 0.020387591580389004 1 1 0.020817894255681275 1 1 1 1 0.0098277787048744042 1 1 1 1 1 1 1 0.0087347300444119008 0.012712150559031236 1 1 1 0.0099682951109426529 1 1 1 0.0099145126264295457 1 0.010448756578527986 1 1 1 0.0098481796642880502 1 1 0.010614932973147985 1 1 0.010727609604945345 0.010002702192569582 1 1 1 0.010323221869343787 1 1 1 1 1 0.013794186571776154 1 1 1 1 1 1 1 1 1 1 1 1 1 1 1 1 1 1 1 1 1 1 1 1 1 1 1 1 1 1 1 1 1 1 1 1 1 1 1 0.0096702593019812773 1 1 0.010471833775197108 1 0.0095176720602848115 1 0.010620222951236619 1 1 1 0.0093062389760014286 0.010209233076025018 1 1 0.0092605399544051573 0.01422241388616758 1 1 1 1 0.013869178390467023 0.0094649488617205603 1 1 1 0.010871917137406838 1 1 1 1 1 1 1 1 1 1 1 1 0.011331177791879303 1 1 1 1 1 1 1 1 1 1 1 1 1 0.0080790200614978616 0.0097387100712521546 1 1 1 1 1 1 0.007615271258662638 0.0099959686253576676 0.010869256216561027 1 1 1 1 1 1 1 1 1 1 1 0.0099405598619356356 0.0095714526187812999 1 1 0.010582395444356824 1 0.010006283275996184 1 1 1 0.0099846465316101619 1 1 1 1 1 1 1 1 1 1 0.011529053366870469 1 1 1 1 1 1 1 1 0.011191742493917869 1 1 1 1 1 1 1 1 1 0.010376869318439369 1 1 1 1 1 1 1 0.010234430216837218 1 1 1 1 1 1 1 1 1 1 1 1 1 0.010462209905129548 1 1 1 1 1 1 0.01000829956295346 1 1 1 1 1 1 1 0.010271725222668456 1 0.010175730018772949 1 0.010147324686281808 1 1 1 0.01003831401822583 1 1 1 1 1 1 1 0.010214386262181303 1 1 0.01007493793321694 1 0.010032630044345965 1 1 1 1 1 1 0.01011021424753826 1 1 1 1 1 1 1 1 1 1 1 0.0099849146576046557 0.010214783772545956 1 0.0099987178393817766 1 1 0.01022436817884001 1 1 1 1 1 0.010396759982918127 1 1 1 1 1 1 1 1 0.0091556231715167399 1 1 0.011515703788461958 1 1 1 1 0.0098415468935389924 1 1 1 1 1 1 0.01649770987538611 1 1 1 0.010354962211429487 1 1 1 1 0.0099951336486217585 1 0.011715406034640018 0.009755148610417928 1 1 1 1 1 1 1 1 0.021250053066261564 1 1 1 1 1 1 1 1 1 1 1 1 1 0.0096563916666044594 1 1 1 1 1 1 1 1 1 1 1 1 1 0.010335569268186597 1 1 1 1 1 1 0.023776912094560849 1 1 1 1 1 1 1 1 1 0.011098607361582417 1 1 1 1 1 1 1 1 1 1 1 1 1 0.0087606976764310757 1 1 1 1 0.0095803653517337398 1 1 1 0.01003055139069569 1 1 1 0.013194435562109617 1 1 0.010049606341755753 0.013591551470791644 1 1 1 0.014891555709187532 1 1 1 1 1 1 1 1 1 1 1 1 0.012392211573992257 1 0.013121310816323419 1 1 1 1 1 0.011383065672888449 0.013544537380492697 1 1 1 1 0.009973276144380332 1 0.010348511285071894 1 0.01000913093732617 1 1 1 1 1 1 1 1 1 1 1 1 1 1 1 1 1 1 1 1 1 1 1 1 1 1 1 1 1 1 1 1 1 1 1 1 1 1 1 1 1 1 1 1 1 1 1 0.014276253649700357 1 0.0099746936323489091 1 1 1 1 0.023166602449965566 1 1 1 1 1 1 1 1 1 1 1 1 1 1 1 1 1 1 1 0.0099622671143866758 1 1 1 1 1 1 1 0.0094528405749749085 1 1 0.010197986969902817 1 1 0.01835150522470827 1 1 1 1 1 1 1 1 0.0093982792369896265 1 1 1 1 1 1 0.0080440254788578178 1 1 1 1 1 1 1 1 0.015914343708815948 1 1 1 1 1 0.017921992824265119 1 0.015504398954663113 0.0045067588453646616 1 1 1 0.011591390148918017 1 0.010759792013941394 1 1 1 1 1 1 1 1 1 1 1 1 1 1 1 1 0.024806016688412987 0.011632338213276937 1 1 1 1 1 1 1 1 1 1 1 1 0.010086383870861379 1 1 0.02523970952620579 1 1 1 1 0.013150498470065476 1 1 1 1 1 1 1 1 1 1 1 1 1 1 1 1 1 1 1 1 1 1 1 1 1 1 1 1 1 1 1 1 1 1 1 1 0.017392353182074563 1 0.021048193146212167 1 1 1 1 1 1 1 0.019091074443627759 1 1 1 1 0.019612882308883008 1 1 0.0072226405511355268 1 1 1 1 1 1 1 1 1 1 1 1 1 1 1 1 1 1 0.02301643713819021 0.014748092005794886 1 1 1 1 1 1 1 1 1 1 1 1 1 1 1 1 1 1 1 1 1 1 1 0.010981339208354032 1 1 1 1 1 1 1 1 1 1 1 1 1 1 1 1 0.011606565637260292 1 1 1 0.012004462860678262 1 1 1 0.010131891717888496 1 0.0099017556892480613 1 1 0.011905506622845735 1 1 0.006823982949982375 1 1 1 1 1 1 1 1 1 0.0052246206001275485 1 1 1 1 1 1 0.011797244429288513 0.010058989624596108 1 1 1 1 1 1 1 1 0.0099920355512075273 1 1 0.017702930580911415 1 1 1 1 1 1 1 0.0040290811167812846 1 1 1 0.010044746615535123 1 1 1 0.012077213494282323 0.010038704358194046 1 1 1 1 1 1 1 1 1 1 1 0.0099949482548925186 1 0.021461430917523575 1 1 0.010419887142480783 1 1 1 0.010156097503518426 1 1 1 1 1 1 1 0.0093542659131237976 1 1 1 0.0097755056163845323 1 1 1 0.0093824543640004671 0.0095545040908634835 1 1 1 1 0.011912600610306355 1 1 1 1 1 1 1 1 0.0098131672626782258 0.011425967092319645 1 1 1 1 0.0097164308675406295 0.013993412683101482 0.011350076225756544 1 0.010364000833419429 1 0.010402456642130586 0.014489905184814009 1 0.016300989951810473 1 1 1 0.010070539236028651 1 1 1 1 1 1 0.010155980590438055 1 0.011084823100415126 1 0.0099882121241586484 0.014222216436059329 0.010016660326186418 0.012821414886701542 1 1 1 1 0.0084428272349572446 0.0182401770926554 1 1 1 0.010076512505147669 0.009008682723099716 1 1 1 1 0.014113816483045249 1 1 0.0089137786795880237 1 1 1 1 0.010516091731128413 0.019842264700983277 1 1 1 1 0.010463225625225831 1 0.010272460743563637 1 1 1 1 0.019935243674230718 1 1 1 1 1 1 1 1 1 1 1 1 1 1 1 1 1 1 1 1 1 1 0.010226937707847368 1 1 1 1 1 1 1 1 1 1 1 1 1 1 1 1 1 1 1 1 1 1 1 1 1 0.0096282342898050318 1 1 1 1 0.0069785910344805739 1 1 0.010024224780144426 1 1 1 0.0066028203126049659 1 0.010733493423079398 1 1 1 1 1 1 1 1 0.0095646414066532272 1 1 1 0.0099999515774506758 1 1 1 1 1 1 1 0.014310963633753877 1 0.010610688093585081 1 1 0.0095969084593939165 1 0.01272489505421846 1 1 1 1 1 1 1 1 1 1 1 1 1 1 0.010178846997570356 0.013621281409478783 1 1 1 1 1 1 1 1 1 1 1 1 0.0097137079383420848 1 1 1 1 1 1 1 1 1 1 1 1 1 1 0.01351222602263343 1 0.0099563932183252633 1 1 1 1 1 1 1 1 1 0.019006130680557398 1 1 1 1 1 1 1 0.010137709411080931 1 0.019746570857727852 1 1 1 0.011789315012838742 1 0.0069051625919718347 1 1 1 1 1 0.011659677260379815 1 1 0.0077254067591912765 0.010490783294306319 1 1 1 1 0.010019252694334117 1 1 1 1 1 1 1 1 1 1 1 1 1 1 1 1 1 0.014727104181460223 0.025726089740285382 1 1 0.0074092704263383517 1 1 1 0.025225363831636687 1 1 1 1 1 1 1 0.010025563354592856 1 0.010366906339295144 1 1 1 0.011106960251383059 1 1 1 1 1 1 1 1 1 0.009151958033852289 1 1 1 0.011371469834460222 1 1 1 1 1 1 0.012828572611258394 1 1 1 1 1 1 0.0098236010681086866 1 1 1 1 1 0.018206450618683347 1 1 0.0099184363991304241 1 1 1 0.017656436962322972 1 1 1 1 1 1 1 0.0088733390007955364 0.0097537757301262816 1 1 1 1 1 1 1 1 0.015880968641760154 1 1 1 1 0.0089666974261724472 1 1 0.0096076920687162923 1 1 1 1 1 1 1 1 1 1 1 1 1 1 1 1 1 1 1 1 1 1 1 1 1 1 1 1 1 1 1 1 1 1 1 1 1 1 0.014915851519110589 1 1 1 1 1 1 1 1 1 1 1 1 1 1 1 1 1 0.013926705776440252 1 1 1 1 1 1 1 1 1 1 1 1 1 1 1 1 1 1 1 1 1 1 1 1 1 1 1 1 1 1 1 1 1 1 1 1 1 1 1 1 1 1 1 1 1 1 1 1 1 1 1 1 1 1 1 1 1 1 1 1 1 1 1 1 1 1 1 1 1 1 1 1 1 1 1 1 1 1 1 1 1 1 1 1 1 1 1 1 1 1 1 0.0080896494112819815 1 1 1 1 1 1 1 0.0091993004541070112 1 1 1 1 1 1 0.0098639947573779183 1 1 1 1 1 1 1 1 1 1 1 1 1 1 0.011263278153936339 1 0.012237437331439454 1 1 1 1 1 1 1 1 1 1 1 1 1 1 1 1 0.011482349107498123 1 1 0.010515185188981729 1 1 1 1 1 1 0.013594826688108366 1 1 1 1 1 0.015399842777463589 1 1 1 1 1 1 1 0.016597422116891806 1 0.010361278067620461 1 1 1 1 1 0.0097566020416625255 1 0.013825525506134367 1 0.010317478286839181 1 0.011482174924961496 1 1 1 1 1 1 1 1 1 1 1 1 1 1 1 1 1 1 1 1 1 1 1 1 1 1 1 1 1 0.010255792326111422 1 1 1 1 1 1 1 1 1 1 1 1 1 1 1 1 1 1 1 1 1 1 1 1 1 1 0.020458572052433642 1 1 1 0.020719155803967673 1 1 0.020702991279827769 1 1 1 1 1 1 0.022226262362577229 1 1 0.02196275783412726 1 1 0.020530620654013357 1 1 1 1 1 1 1 1 1 1 0.0091840440304773122 1 1 1 1 1 1 1 0.010010437800954749 1 1 1 1 1 1 1 1 1 0.0085383987127352762 1 1 1 1 1 1 1 1 1 1 1 1 1 1 1 1 0.011409343791269566 1 1 1 1 1 1 1 1 1 1 1 1 1 1 1 1 1 1 1 1 1 1 1 1 0.014587400772578179 1 1 1 1 1 1 1 1 1 1 0.010007703679941833 0.0098063807486397075 1 1 1 1 1 1 1 1 1 1 1 1 0.011270273412923059 1 1 1 1 0.0096602757781830521 1 1 1 1 1 1 1 1 0.0087072120785878625 1 1 1 1 1 1 1 1 0.010730141519958897 1 1 1 0.01126632923784548 1 1 1 1 1 1 1 1 1 0.016711186577328299 0.0096816848671827417 1 1 1 1 1 1 1 1 1 1 1 1 1 1 1 1 1 1 1 1 1 1 1 1 1 1 1 1 1 1 1 1 1 1 1 1 1 1 1 1 1 1 1 1 1 1 1 1 1 1 1 1 1 1 1 1 1 1 1 1 1 1 1 1 1 1 1 1 1 1 1 1 1 1 1 1 1 1 1 1 1 1 1 1 1 1 1 1 1 1 1 1 1 1 1 1 1 1 1 1 1 1 1 1 1 1 1 1 1 1 1 1 1 1 1 1 1 1 1 1 1 0.010007805847616857 1 1 0.0066572327423167973 1 0.0094132321721242512 0.0084601684725290529 1 1 1 0.0088126704881345604 1 1 0.021862633761597586 1 1 1 1 1 1 0.025486856723193368 1 1 1 1 1 1 1 1 1 1 1 1 1 1 1 1 1 1 1 1 1 1 1 1 1 1 1 1 1 1 1 1 1 1 1 1 1 1 1 1 1 1 1 1 1 1 1 1 1 1 0.012027730266114468 0.0099886656848876491 1 1 1 1 1 1 0.009810003130254815 1 1 1 1 1 0.0095057585169596726 1 1 1 1 1 0.01481845809224527 1 1 1 1 1 1 1 1 1 1 0.012027048297430495 1 0.014520569581860699 1 1 1 1 1 0.012134882615066586 1 1 1 1 1 0.011590889650824165 1 0.010440919619905752 1 1 1 1 1 0.0097720672465997551 1 1 1 1 1 1 1 1 1 1 1 1 1 1 1 1 1 1 0.010867441340814913 1 1 1 0.010876067979740426 0.010471495946375425 1 1 1 1 1 1 1 1 0.010466571821292719 1 1 1 1 1 1 1 1 1 1 1 1 1 0.01096732055408727 1 1 1 1 1 1 1 1 1 1 1 1 1 1 1 1 1 1 1 1 1 1 1 1 1 1 1 1 1 1 1 1 1 1 1 1 1 1 1 1 1 1 1 1 1 1 1 1 1 1 1 1 0.010536187717886582 1 1 1 1 1 1 1 0.010622413514202896 1 1 1 0.01031816890090775 1 1 1 1 1 1 1 1 1 1 1 1 1 1 1 0.010966738450584122 1 1 1 0.010851599561811393 1 1 1 1 1 1 1 0.010330750352106184 1 1 1 1 1 1 0.010569054735773076 1 1 0.011174860554439212 1 1 1 1 1 1 1 1 1 1 0.010122972922353708 1 1 1 0.010016084205938698 1 1 1 1 0.010286070062586632 1 1 1 1 1 1 1 1 1 1 0.010039342572053436 1 1 1 1 1 1 1 0.010080811466357354 1 1 1 1 1 1 1 1 1 1 1 1 1 0.010138376746843022 1 0.011537429634886145 1 1 1 1 1 1 0.0099461149986121711 1 0.010030598812276434 1 1 1 1 1 1 1 1 1 0.010035867100183546 1 1 1 1 1 1 1 1 1 1 1 1 1 1 1 1 1 1 1 1 1 1 1 1 1 1 1 1 1 1 1 1 1 1 1 0.0098926554276373684 1 1 1 1 1 1 0.0098711478890500977 1 1 1 1 0.010014359561596277 1 1 1 0.0099569850806396423 1 1 1 0.011267201289678348 1 1 1 1 1 1 1 1 1 1 1 1 1 1 1 1 1 1 1 1 1 0.010529292432874315 1 1 1 1 1 1 1 1 1 1 0.013775403590071879 1 1 0.011369816286889267 1 1 1 1 1 1 1 1 1 1 1 1 1 1 1 1 1 1 1 1 1 1 1 1 0.020099094852044454 0.019533770078292517 1 1 0.021087694795195719 0.016839932569184334 1 1 1 1 1 1 1 1 1 1 1 1 1 1 0.013926788293230234 1 1 1 1 0.011233931599223715 1 1 1 1 1 1 1 1 1 1 1 1 1 0.015878028294697512 1 1 1 1 1 1 1 1 1 1 0.017830250032514434 1 1 1 1 1 0.010113579822080686 1 1 1 1 1 1 1 1 1 1 1 1 1 1 1 0.0091187112181521091 1 1 1 0.0099944727586015886 0.01740660114360041 1 1 1 0.010673847968724254 0.030233878200550873 1 1 0.0058118529684541703 1 1 1 1 0.021905790634607132 1 1 1 1 1 1 1 1 0.010342887447265617 1 1 1 1 0.014940682913259486 0.013848153125709285 1 0.011190736273477815 1 1 1 1 0.022242214994681007 1 0.010115362091040331 1 1 1 1 0.0099309893757686223 1 0.031279591156348839 1 1 1 1 1 1 1 1 1 1 1 1 1 0.0099956312597322163 1 1 1 1 1 0.0099272002496822442 1 1 1 1 1 0.0097549374414607863 1 0.0089238861756388184 1 1 1 1 1 1 1 1 0.021196510026287075 1 1 1 1 1 1 1 1 1 1 1 1 1 0.013523423373240653 1 1 1 1 0.017450657193108357 1 1 1 1 1 1 1 1 1 1 1 1 0.013239657797591771 1 1 1 1 1 1 1 1 1 1 1 1 1 1 1 1 1 1 1 1 1 1 1 1 1 1 1 1 1 1 1 0.0099229237678989009 1 1 1 1 1 1 1 0.018328345445974892 1 1 1 1 0.0097700337475211257 1 1 1 1 1 0.0090160395172511273 1 1 1 1 1 1 1 1 0.0095774731134096944 1 1 1 1 1 1 1 1 1 1 1 1 1 1 1 0.011877524453962646 1 1 1 1 1 1 1 1 1 1 1 0.011678483099719063 1 1 0.013619696953273128 1 1 1 1 1 1 1 1 1 1 1 1 1 1 1 1 0.016880438641311522 1 1 1 1 1 1 1 1 1 1 1 1 1 0.010884944887518969 1 1 1 1 1 1 1 1 1 1 1 1 1 1 1 1 1 1 1 0.013118468155301828 1 1 1 1 1 0.014843844974020484 1 1 1 1 0.0097222254744426945 1 1 1 1 1 1 0.012261735233295283 0.014489188844455041 1 1 1 1 1 1 1 1 1 1 1 1 1 1 1 1 1 1 1 1 1 0.012698191495377674 1 1 1 1 1 1 1 1 1 1 1 1 1 1 1 1 1 1 1 1 1 1 1 1 1 1 1 1 1 1 1 1 1 1 1 1 1 0.011098291266797185 1 1 1 0.01036093263191798 1 1 0.010578390166110278 1 1 1 1 1 1 1 1 1 1 0.014002990078093649 1 1 1 1 0.019313199727655259 1 1 1 1 1 1 1 1 1 1 0.0099436488822163133 1 1 1 0.0097111322435845179 1 1 0.0099446252098484428 0.012182598203801048 1 1 1 1 1 1 1 1 1 1 1 1 1 1 1 1 0.015662017794822833 1 1 1 0.0096526179657423772 1 0.010212465684853671 1 1 1 1 0.012910776171838216 1 1 1 1 1 0.010062752788607764 1 1 1 1 0.015705062790083602 0.010864195591755606 1 0.0097242604543583272 1 1 0.010551840584692796 1 0.0098137438841647533 1 1 1 1 0.021354256522372675 1 1 1 1 1 1 0.010098261830921065 1 1 0.0090409749518470511 0.010987593017284322 1 1 1 1 1 1 1 1 1 1 1 1 1 1 1 1 0.018029411456134577 1 0.012388091233039984 1 0.0099932768506439118 1 1 1 1 1 1 1 1 1 1 1 1 1 1 1 1 1 1 1 1 0.0090427736425467177 1 1 1 1 1 1 0.010026875177863 1 0.009548840256149849 1 1 0.0094719871822643367 1 1 0.010862308839505889 1 1 1 1 1 1 1 0.011020826208536456 1 1 1 1 0.010484718327227041 1 1 1 1 1 1 0.010018110529181458 1 1 1 1 0.010127965047293772 1 1 1 1 1 1 1 1 1 0.010109854518112331 1 1 1 1 1 1 1 1 1 1 1 1 1 0.010655033776136365 1 1 0.012982540602364263 1 1 1 0.0090569624351548497 0.0098678104008861831 1 0.013000669450149265 1 1 1 0.01312885840358629 1 1 1 1 0.0093541392520742599 1 1 0.010447223452857871 1 0.010555281594591485 1 1 1 1 1 0.010603186001981974 0.011202857105174314 1 1 1 1 1 1 1 1 1 1 1 1 1 1 1 1 0.013927233819867713 1 1 1 1 1 1 1 1 1 1 1 1 1 1 1 1 1 1 1 1 1 1 1 1 1 1 1 1 1 1 1 1 1 1 1 1 1 1 1 1 1 1 1 1 1 1 0.012161888959434146 1 1 1 1 1 1 0.011713495594631022 1 1 1 1 1 1 1 1 0.014525445963916007 0.013921570573961629 1 1 1 1 1 1 1 1 1 1 1 1 1 1 1 1 1 1 1 1 1 1 0.013137079096490492 0.011506081864923018 1 1 1 1 1 1 1 1 1 1 1 1 1 1 1 0.012194483206573141 1 1 1 1 1 1 1 1 1 1 1 1 1 1 0.011630997231567471 1 1 1 1 1 1 1 1 1 1 1 1 1 1 1 1 1 1 1 1 1 1 1 1 1 1 1 1 1 1 1 1 1 1 1 1 1 1 1 1 1 1 1 1 1 1 1 1 1 1 1 1 1 1 1 1 1 1 1 1 1 1 1 1 1 1 1 1 1 0.01223668983517423 1 1 1 1 1 1 1 1 1 1 1 1 1 1 1 1 0.010736485389004152 1 1 1 1 0.0118623704915208 1 1 1 1 1 1 0.014073879181108515 1 1 1 1 0.0095892335296444767 1 0.0098753115200385655 1 0.010498049978025233 1 1 1 1 0.0095959054023173548 1 1 0.01346191821378339 1 0.014981328991193726 1 1 1 1 1 1 1 1 1 1 1 1 1 1 1 1 1 1 1 1 1 1 1 1 1 1 1 1 0.0073495748660631008 1 1 0.0081461093242346169 1 1 1 1 1 1 1 1 1 1 1 1 0.010018448931352347 1 1 1 1 1 1 1 1 1 1 1 1 1 1 0.019297070168561345 1 1 1 1 1 1 1 0.010263014110241759 1 0.0074934275982343704 1 1 0.0066459907977694868 1 0.016703680272962481 1 0.010768182749836069 1 1 1 1 1 1 1 1 1 1 0.011052078637984403 1 1 1 1 1 1 1 1 1 1 0.01003894049112522 1 1 1 0.016421785050368166 1 0.01000935431176048 0.013618472358160752 1 1 0.011824816506242819 1 1 1 1 0.013167343702678384 1 1 1 1 0.010504977215422392 1 1 0.0099906026477882427 1 1 1 1 1 1 1 0.0097409859034516804 1 1 1 0.0098298556049250477 1 1 1 1 1 1 1 1 1 1 1 1 1 1 0.0094638778932701634 1 1 1 0.010023186452340797 1 1 1 1 1 1 1 1 1 0.011631322362056102 1 1 1 1 0.011819629050987553 1 1 1 0.0089964358843167471 1 1 0.011177793396426066 1 1 1 1 1 1 1 1 1 1 1 1 1 1 0.010885540796073973 1 1 1 1 1 1 1 1 1 1 1 1 1 1 1 1 1 1 1 1 1 1 1 1 1 0.014389483321818265 1 1 1 1 1 1 0.012906040552928877 1 1 1 1 1 1 1 1 1 1 1 1 1 1 1 1 1 1 1 1 1 1 1 0.0097094340135175754 1 1 1 1 1 1 1 0.012844437212878687 1 1 1 1 1 1 1 0.017202133938054174 1 1 0.010067572464267135 1 1 1 1 1 1 1 1 1 1 1 1 1 1 1 1 1 1 1 1 1 1 1 1 1 1 1 1 1 1 1 1 1 1 1 1 1 1 1 1 1 1 1 1 1 0.010140157647747878 1 1 0.012475815163625992 1 1 1 1 0.012067277941394221 0.016075359253322007 1 1 1 1 1 1 0.01931433532440403 1 1 1 0.018450679186493575 1 1 1 1 0.015562544856138331 1 1 1 1 1 0.014191232537627262 1 1 1 1 1 1 0.016496080729031082 1 1 1 1 1 1 1 1 1 0.010115837888717458 1 1 1 1 1 0.011222822507684164 1 1 0.018634700289388025 0.010417141155873834 1 1 1 1 1 1 1 1 1 1 1 1 0.011010078515540818 1 1 1 1 1 1 1 1 1 1 1 1 1 1 1 1 1 1 1 1 1 1 0.010116243503984873 1 1 1 1 1 1 1 1 0.013436743853284689 1 1 1 1 0.012278511470253432 1 1 0.0097247672873281826 0.010789414950751676 1 1 1 1 1 1 1 1 1 1 1 1 1 1 1 1 1 1 1 1 1 1 1 1 1 1 1 1 1 1 1 1 1 1 1 1 1 1 1 1 1 1 1 1 0.013749196288061021 1 0.0099656080827126674 1 1 1 1 1 1 1 1 1 1 1 1 1 1 1 1 1 1 0.01456100577615615 1 1 1 0.012366522569583016 1 1 1 1 1 1 1 1 1 1 1 1 1 0.0092434926545432571 1 1 1 1 1 1 1 1 1 1 1 1 1 1 1 1 0.0093493440793543069 1 0.015401891091063422 1 1 1 1 1 1 1 1 1 1 1 0.0088680694465693675 1 1 1 0.01077212349402293 1 1 1 1 0.0107508922014796 1 1 0.011307332001234516 0.010226876609057245 1 0.013573114052033687 1 1 1 1 1 1 1 1 1 1 1 1 1 1 1 1 1 1 1 1 1 1 1 1 1 1 0.0090536702347164977 1 0.0095377588318217091 1 1 1 0.010347946374063537 1 1 1 1 1 1 0.0099234244506705479 1 1 1 1 1 1 1 0.013067107725944032 0.01023975883986878 1 1 0.0093912301682180076 0.016751175930585668 1 0.0099949634483495926 1 1 0.016250341129707344 0.010790666317473177 1 1 0.010002501611302209 1 1 0.010333505439044998 1 1 1 1 1 0.016893660468411321 1 1 1 1 0.017499965284832188 1 1 1 1 1 1 1 1 1 1 1 0.019281278920792698 1 1 1 0.014767816186395662 1 0.0085107744797584123 0.0083386558767431229 1 1 1 1 0.0085011282484444804 1 1 1 0.030241422329989651 1 1 1 0.011537342876313333 1 1 1 1 1 1 0.0099856033292204244 1 1 1 1 1 1 1 1 1 0.010611793257918009 0.010599778759235429 1 1 1 1 1 1 1 1 1 1 1 1 1 1 1 1 1 0.014691701842918733 1 1 1 1 1 1 1 1 1 1 1 1 1 1 0.025341891694120818 1 1 1 0.023083856416130623 1 1 1 1 1 1 1 1 1 1 1 1 1 1 1 1 1 1 0.014938769007978131 1 1 1 1 1 1 0.012004548805549967 1 1 1 1 1 1 1 0.016260988145883032 1 1 1 1 1 1 1 1 1 1 1 1 0.011920454353951131 1 1 1 1 1 1 1 0.010040296672183846 1 1 1 1 1 1 1 1 1 1 1 1 1 1 1 1 1 1 1 1 1 1 1 1 1 1 1 1 1 1 1 1 1 1 0.017135600896823155 1 1 1 0.016105683098135825 1 1 1 1 1 1 1 1 1 1 1 0.010134801596621695 1 1 1 1 0.010046429077695216 1 1 1 1 1 1 1 1 1 0.0088415269476120623 0.011866337877490168 1 0.010021134156240948 1 1 1 1 1 1 1 1 1 1 0.015955391215054206 1 1 1 1 1 0.0099929793166053486 1 0.019668944407030077 1 1 1 1 1 1 1 1 1 1 1 1 1 1 0.01014002357211795 1 1 1 1 1 1 1 1 1 0.015478124774267349 1 1 1 1 1 0.014183005779089758 1 1 1 1 1 0.015388657868891422 0.011748467803244978 1 1 0.010539881746400703 1 1 1 0.011616956870587706 0.010112283621918121 0.015583862894613498 1 1 1 0.017101435682258984 1 0.010028435810247482 1 1 1 1 1 1 1 1 0.017777421905431502 1 1 1 0.0098513371760141737 1 1 0.013984200257606903 0.01128637091007835 1 1 1 1 1 1 1 1 1 1 1 1 1 1 1 1 1 1 1 1 0.0083113961662275079 1 1 1 1 1 1 1 1 0.0050059325679797373 1 1 0.010108812566931958 1 1 0.016218865989368607 0.0086144713898671822 0.01603155065859602 1 1 1 1 1 1 1 1 1 1 1 1 1 1 1 1 0.011337184240452901 1 0.0151381056557088 1 0.014550092153524465 1 1 0.010231178937454637 1 1 1 0.014865725102084681 1 0.0091573962416296433 1 0.017201765718757814 1 1 1 1 1 1 1 8.6736173798840355e-18 1 1 1 1 1 1 1 1 1 1 1 1 1 1 1 1 1 1 1 1 1 1 1 1 1 1 1 1 1 1 1 1 1 0.0029067771910088061 1 0.0058533092306614328 1 1 1 1 1 1 1 1 1 1 1 1 1 1 1 1 1 1 1 1 1 1 0.018653441291307485 0.0086591131043868303 1 1 1 0.016793575041784033 0.0069354557139374752 1 1 0.011820636853211717 1 1 1 0.0070152576176707396 1 0.0093757797311014579 1 1 1 1 0.0094591347290889898 1 0.0092368164569503076 1 1 0.020258410138630473 0.0093299034125663097 1 1 1 1 1 1 1 1 1 1 0.0085631608846805998 1 1 1 1 1 1 1 1 1 1 1 1 1 1 1 0.01829272214805519 1 1 1 1 1 1 0.021686650731278644 1 1 1 1 1 1 1 1 0.0099005372559867362 1 1 0.0086025228777127302 0.0096666988765064035 0.011208285031536001 1 1 1 1 0.011142444011789019 0.0096120202764173931 1 1 0.0097035359311185912 1 1 1 1 1 1 1 0.0096356980395182062 1 1 1 1 1 0.0091616203817645459 0.010031960024646507 1 1 1 0.011227690792175175 1 1 1 0.0097326511484089103 1 0.0099922367792682366 1 1 1 1 1 1 1 1 1 1 1 1 1 1 1 1 1 1 1 1 1 1 1 1 0.0095380259834207705 1 1 1 1 1 1 1 1 0.01992562376394616 1 1 1 1 1 0.019681656878691001 1 0.0098312534093993598 1 0.022586854980401284 1 1 1 1 0.013818252109270545 1 1 1 1 1 0.01736418441139264 1 1 0.015755389210286349 1 0.011158734493678856 1 1 1 1 0.011358664239712539 0.018425804876047551 1 1 1 1 0.019239067580096345 1 1 1 1 0.013906847105078527 1 1 0.011223645381118247 1 1 0.011160195808678702 1 1 1 0.015934394083234257 1 0.014120397790988656 1 1 1 0.012635009265792545 1 1 0.010082257169283345 1 1 1 0.013537402801692661 1 1 1 1 1 1 1 1 1 1 1 1 1 1 1 0.010400562287063004 1 1 1 1 1 0.019089549974686183 1 1 0.0095518115322465805 1 1 1 0.0072050329932642487 1 1 1 1 1 1 0.0085578992972494116 1 1 1 1 1 1 1 1 1 1 1 1 1 1 1 1 1 1 1 1 1 1 1 1 1 1 1 1 1 0.01093206051032704 1 1 1 1 0.0098095599705839281 1 1 1 1 1 1 1 1 1 1 1 1 0.0095814879168126948 1 1 0.01093464213292996 1 1 1 0.010231236010180736 1 1 0.0099794327022027958 1 1 1 0.010712338236632315 1 1 0.009659179215563838 1 1 0.01205988341594065 1 0.0087875597888202421 1 1 1 0.0099697977280760498 0.012501615158397712 1 1 1 1 1 1 1 0.014009818189622455 1 0.019857071045934777 0.012292638221484357 1 1 0.0088727745882629626 1 0.01351155351948178 1 1 1 1 1 1 1 0.012863317066986499 1 1 0.01026930277875256 0.011144847943399948 1 1 1 1 1 0.010380937724618462 1 1 1 1 1 1 1 1 1 1 1 1 1 1 1 1 1 0.01032184801466279 1 1 1 1 0.0091946523238019603 1 1 1 0.011000601313522731 1 0.011678595351443799 0.012497487277033405 1 1 1 1 1 1 1 1 1 1 0.014951754720146922 1 1 0.009773501665998172 1 1 1 1 1 1 0.016092887301134173 1 1 1 1 1 1 1 1 1 1 1 1 1 1 1 1 1 0.0096183989168090248 1 1 1 0.01002886063289651 1 0.010364690186030463 1 1 1 1 1 1 1 1 0.0094915620715088425 1 1 1 0.010013889452265985 1 0.013480562747334571 1 1 1 0.011721371195544481 1 1 1 1 1 1 1 1 1 0.011125955174563419 1 1 1 1 0.011135031963805053 1 1 1 1 1 1 1 0.007429488447309009 1 0.0101625870489493 1 0.010042647496667839 1 1 1 1 1 1 1 1 1 1 1 1 1 1 1 1 1 0.0097741269576450147 1 0.015209748072582224 1 1 1 0.012059712463725182 1 1 1 1 1 1 1 0.011605715559844148 0.011395840146468765 1 1 1 0.01353168847540709 1 0.012174755355665041 1 0.0096631386236649235 1 1 1 0.01006854321003901 1 1 1 0.0169372066441697 1 1 1 0.016580488110425808 1 1 1 1 1 0.011409827081713113 1 1 1 1 0.015877380312566212 1 1 1 1 0.012600947687103785 1 1 1 1 1 1 1 1 0.015419419800855252 1 1 1 1 0.011188865806860192 1 1 1 1 1 1 1 0.013647907230834228 1 1 1 1 1 1 1 1 1 1 1 0.010857008879260369 0.01061933003464303 1 1 1 1 1 1 1 0.012420664629082624 1 1 1 1 1 1 1 1 0.010082584777431245 1 1 1 1 1 1 1 1 1 1 1 0.010691099627096729 1 1 1 1 0.012098826107447697 1 0.011128582952534653 0.010507467870212495 1 1 1 0.01110814456310041 1 1 1 1 1 1 0.011699491100493864 1 1 1 1 1 1 1 1 1 0.013269415657418536 0.01373586029275143 1 0.014576113358388425 1 1 0.010087492583721824 1 1 1 0.010320327146962962 1 0.010937082043056063 0.010726834866751522 0.013473095606938322 1 0.010155963408404117 1 0.010056115040372961 1 1 1 1 0.010467991544362322 0.0099667172925465303 0.0089532291396812441 0.016535049078111402 1 0.0095926948725575788 1 1 1 1 0.010142985588245501 1 1 1 1 0.012564009191874885 1 0.015750894585581689 1 1 1 1 1 1 1 1 0.010688257359676868 1 1 0.01182650093867516 1 1 1 0.0097693070579622163 1 1 1 1 1 1 1 1 1 1 1 1 0.013254159594754553 1 1 1 1 1 0.017744900158865325 1 0.013504885573218696 0.019918108490409016 1 0.018475130857696209 1 1 1 1 1 1 1 1 0.024566362219918876 1 1 0.029194790812830412 1 1 1 0.0099040390917350257 1 1 1 1 1 1 1 1 1 1 1 1 1 1 1 1 1 1 1 1 1 1 1 0.010995517427811401 0.011257381616512373 1 1 1 1 1 0.013411671664542435 1 1 1 1 1 1 0.014771721673386119 1 1 1 1 1 1 1 1 1 1 1 1 1 1 1 0.011925950462045455 1 1 1 1 0.010967274344494175 1 1 1 1 1 1 1 1 0.012634683987364601 1 1 1 0.012133319315647963 0.01125961966290364 1 1 1 0.0098820046862595542 1 1 1 1 1 1 1 0.010146107363026149 1 1 1 1 1 1 1 1 1 1 1 1 0.010930433034234063 1 1 1 1 1 1 0.0082903705569673282 1 1 1 1 0.01014611240824319 1 1 1 1 1 0.009363188158741681 1 1 1 1 0.0068859720198790105 1 1 1 1 1 1 1 1 1 1 1 1 1 1 1 1 0.03237094711894966 1 0.035409486934559385 1 1 1 0.0054277754448839102 1 0.036758243069781003 1 1 1 1 1 1 0.0095596218431269996 1 1 1 1 1 1 1 1 1 1 1 1 1 1 1 1 1 1 1 1 1 1 1 1 1 1 1 1 1 1 1 1 1 1 1 1 0.011300713731308797 1 1 0.012084384810854387 1 1 1 1 1 1 1 1 0.012255704351011925 1 1 1 1 1 1 1 1 1 1 1 1 1 1 0.010135991901027723 1 0.01054022848646656 1 1 1 1 1 1 0.0098634150499907151 1 1 1 1 1 1 1 1 1 1 1 1 1 1 0.010027375374008834 1 1 0.012658944109915537 1 1 1 1 1 1 0.038505656374092243 0.0101412010154973 1 0.040784318167021806 1 1 1 1 1 0.041565375050962937 1 1 1 1 0.010989719093453795 1 1 1 1 1 0.011293876105317818 1 1 1 1 1 1 1 0.012969938747770526 1 1 1 1 1 1 1 1 1 1 1 1 1 1 0.010726429545644092 1 0.014063442884744768 1 1 1 1 1 1 0.016537543696043946 1 1 1 1 1 1 1 1 1 1 1 0.0091343922179108437 1 1 1 1 1 1 1 0.0072172793669161078 1 1 1 1 1 1 1 0.0051166682372898644 1 1 0.041752115599265685 1 1 0.009751013042756048 0.041074325859275701 1 1 1 1 1 1 1 1 1 1 1 1 1 1 1 0.037292040935766477 1 1 1 1 1 1 0.032999042582966098 1 0.02817942845080508 1 1 1 1 1 1 1 1 1 1 0.022345414982959298 1 1 1 1 1 1 1 1 1 1 1 1 1 1 1 1 1 1 1 1 1 0.014217944109544403 1 1 1 1 1 1 0.010053855345984151 1 1 1 1 1 0.010281077697334235 1 1 1 1 1 0.01506121539249574 1 1 0.011872097387856113 1 1 1 1 1 1 1 1 0.01090291099853955 1 1 1 0.011143837634902133 1 1 1 1 1 1 1 1 1 1 0.010468104213956175 1 1 1 1 1 1 1 1 1 1 1 1 1 1 1 1 1 1 1 1 1 1 1 1 0.017460905722975553 1 0.01949547457930275 1 1 1 1 1 1 1 1 1 0.014053220496062398 1 0.017805191134636099 1 1 1 1 0.0099841415298860415 1 1 1 0.0099697279900161206 1 0.0078891821837195758 1 1 0.021326152073639283 1 1 1 1 1 1 1 1 0.011173863743521736 1 1 1 1 0.01532339611258534 1 1 1 0.011957132710986411 1 1 1 0.012219517380534502 1 1 1 1 1 1 1 1 0.014889007088069455 1 1 1 1 1 1 1 1 1 1 1 1 1 1 0.014655969994484602 1 1 1 0.01194635410815563 1 1 0.017874240414940797 1 1 1 1 1 1 0.010427147533204409 1 1 1 1 1 1 1 1 1 1 1 1 1 1 1 1 1 1 1 1 1 1 0.01554834639841822 1 1 1 1 1 1 1 1 1 1 1 1 1 1 1 1 1 1 1 1 1 0.014432546985468371 1 0.011621379273632111 1 1 1 1 1 1 1 1 1 1 1 1 1 1 1 1 1 0.010538913076338342 1 1 1 1 1 1 1 1 1 1 1 1 0.012619799334398975 1 1 1 1 1 1 1 1 1 1 0.011445935590877233 1 1 1 0.010529532669447804 1 1 1 1 1 0.01109938874027893 1 1 1 1 1 6.9388939039072284e-18 1 1 1 1 1 1 0.040023331095910768 1 1 0.0096386058798049561 1 1 1 1 1 0.042311982558246898 1 1 1 1 1 1 1 1 1 1 1 1 1 1 1 1 1 1 1 1 1 1 1 1 0.0044988303438936051 1 1 1 1 1 1 0.012493756962417318 1 1 0.0078277331675826924 0.010659529788786615 1 1 1 1 1 1 1 1 1 1 1 1 1 1 1 1 1 1 1 0.031108760977925615 1 1 0.0098206951415070048 1 1 0.0095278720299984757 1 1 1 1 1 1 1 1 0.01618098925496405 0.020563490139636882 1 1 1 1 1 1 0.012807042053609011 1 1 1 1 1 0.014244250533096907 1 1 1 1 1 1 1 1 1 1 1 1 1 1 1 1 1 1 1 1 1 1 1 1 1 1 1 1 1 1 1 1 1 1 1 1 1 1 1 1 1 1 1 1 1 1 1 1 1 1 1 1 1 1 1 1 1 1 1 1 1 1 0.014217468112360979 1 1 1 1 1 1 1 0.013653332732899669 1 1 1 1 1 1 1 1 1 1 0.02008701261618466 1 1 1 1 0.025445402168193649 1 1 1 1 0.011901570607029194 1 1 1 1 1 1 0.0093540088298103442 1 1 1 1 1 1 1 1 1 1 0.012582633895382306 1 1 1 1 1 1 1 0.011035276272449488 1 1 1 1 1 1 1 1 0.029533083707433884 1 1 0.0097821919788317595 1 1 1 1 1 1 1 1 0.026796055703353309 1 1 1 1 1 0.0095728060080246518 1 0.025583898788736237 1 1 1 1 1 0.022933552030911034 1 1 1 0.007253777296651583 1 1 1 1 1 1 1 1 1 0.0091997653166553291 1 1 1 1 0.010489931098361945 1 1 1 1 1 1 1 1 1 1 1 1 1 0.012385469998268454 1 1 1 1 1 1 1 1 1 0.011271664277705214 1 1 1 1 1 1 1 1 1 1 1 1 1 1 1 1 1 1 0.0075126264855882577 0.0093926666454889479 1 1 1 1 1 1 1 1 1 1 1 1 0.0097233057333332186 1 1 1 1 1 1 1 1 1 1 1 1 1 1 1 0.0089109668333922955 1 1 1 1 1 0.0099147218476202253 1 1 0.0099494746596769691 1 1 1 1 1 1 0.011062138177732148 1 1 1 1 1 1 1 1 1 1 1 1 1 1 1 1 1 1 1 1 1 1 1 1 1 1 1 1 1 1 1 1 1 1 0.010560104141926988 1 1 1 1 0.01135362299496084 1 1 1 1 1 0.010793518853033854 1 1 1 1 1 1 1 1 1 1 1 1 1 1 1 1 1 1 1 1 1 1 1 1 1 1 1 1 1 1 1 0.013538731845576184 1 1 0.0098251949355183995 1 1 1 1 1 1 0.01409655637466525 1 1 1 1 0.0087833860699272764 1 1 1 1 1 1 1 1 1 1 1 1 0.016052256198958715 1 1 1 1 0.014830734536764881 1 1 1 1 1 1 1 1 1 1 1 1 1 1 1 1 1 1 0.01221345034617873 1 1 1 1 1 1 1 1 1 1 1 1 1 1 1 1 1 1 1 1 1 1 1 1 1 1 1 1 1 1 1 1 1 1 1 1 1 1 1 1 1 0.015725009810257602 1 1 1 1 1 1 0.010018936336088895 0.011266646537712628 0.01300991766902895 0.012760793875303019 1 1 1 1 0.010000125216507016 1 1 1 1 0.01422367753428247 1 1 1 1 1 1 1 1 1 1 1 1 1 0.010172477833901834 1 1 1 1 1 1 1 1 0.011707293309558863 1 1 1 1 1 1 1 0.010683000706281833 1 1 1 0.011750159125693225 1 0.013627296896260105 1 1 1 0.010463418850939097 0.010220287741876983 1 1 1 1 1 1 1 1 1 1 1 1 1 1 1 1 1 1 1 1 1 1 1 1 1 0.012596601927960801 1 1 1 1 1 1 1 0.011561060369745864 1 1 1 1 1 1 1 1 1 1 1 1 1 1 1 1 1 1 1 1 1 1 1 1 0.010504755072981027 1 1 1 1 1 1 0.012262830164754199 1 1 1 1 1 1 1 1 1 0.01236044446312626 1 1 1 1 1 1 1 1 1 1 1 1 1 1 1 1 1 1 1 1 1 1 1 1 1 1 1 1 0.011064934852459333 1 1 1 1 1 1 1 1 1 1 1 1 1 1 0.014572480884938791 1 1 1 1 1 0.011314239425716443 1 1 1 0.023141859521470902 1 1 1 1 0.0090378801274701749 1 1 0.0067181745790767106 1 1 0.017140545599565946 1 1 1 1 1 1 0.019251043433718699 1 1 0.014905485812176439 0.019677198185015812 1 0.0080871398844068881 1 1 0.010371182562363458 1 1 1 0.013966608374452629 1 1 1 1 1 1 1 1 1 1 1 1 1 0.01001518903143188 1 0.010256994547058487 1 1 0.014852062513384617 0.014392322160774412 1 0.0087073995614146034 1 1 0.010836393681662886 1 1 1 1 1 1 1 1 1 0.015556663098836399 1 1 0.011348159976501362 1 1 1 1 1 1 1 1 0.018092802006464018 1 1 1 0.010307987614170178 1 1 1 1 1 1 1 1 1 1 1 0.020371057655915379 1 0.0095653617535190871 1 1 1 1 0.019107113871987387 1 1 1 1 1 1 1 1 1 1 0.015046110466863202 1 0.0095175942039128492 1 1 1 1 1 1 0.0098814842966037392 1 1 1 0.01833037616258644 1 1 1 1 1 1 1 1 1 1 1 1 0.010839110333161404 1 1 1 1 1 1 1 1 1 1 1 1 1 1 1 0.011540296631195976 1 1 1 1 1 1 0.011951800543205437 1 1 0.015071261558671153 1 1 1 1 0.013466327501853875 1 1 1 1 1 1 1 
</DataArray>
</CellData>
</Piece>
</UnstructuredGrid>
</VTKFile>
