<?xml version="1.0"?>
<VTKFile type="UnstructuredGrid" version="0.1" byte_order="LittleEndian">
<UnstructuredGrid>
<Piece NumberOfPoints="31075" NumberOfCells="10926">
<Points>
<DataArray type="Float64" NumberOfComponents="3" format="ascii">
-0.5 -0.5 0 -0.46478849858267879 -0.48029546533301359 0 -0.48124738561962921 -0.46059093066602769 0 -0.5 -0.5 0 -0.48124738561962921 -0.46059093066602769 0 -0.5 -0.42244535479085848 0 -0.5 -0.5 0 -0.46478849858267879 -0.48029546533301359 0 -0.44832961154572859 -0.49999999999999972 0 -0.46478849858267879 -0.48029546533301359 0 -0.48124738561962921 -0.46059093066602769 0 -0.46478849858267879 -0.48029546533301359 0 -0.44832961154572859 -0.49999999999999972 0 -0.46478849858267879 -0.48029546533301359 0 -0.44535130389491062 -0.47853172436621549 0 -0.46067732825288349 -0.46348175307598122 0 -0.44535130389491062 -0.47853172436621549 0 -0.44443704180765742 -0.45590736441548141 0 -0.42307890318373031 -0.473572027379907 0 -0.46478849858267879 -0.48029546533301359 0 -0.44535130389491062 -0.47853172436621549 0 -0.44832961154572859 -0.49999999999999972 0 -0.44535130389491062 -0.47853172436621549 0 -0.44832961154572859 -0.49999999999999972 0 -0.430380828267454 -0.49999999999999878 0 -0.44443704180765742 -0.45590736441548141 0 -0.44708531535375418 -0.42997983299009429 0 -0.43139419831578929 -0.44722679763787831 0 -0.44443704180765742 -0.45590736441548141 0 -0.46756241135954141 -0.44208328059916802 0 -0.44708531535375418 -0.42997983299009429 0 -0.44535130389491062 -0.47853172436621549 0 -0.44443704180765742 -0.45590736441548141 0 -0.46067732825288349 -0.46348175307598122 0 -0.44443704180765742 -0.45590736441548141 0 -0.46067732825288349 -0.46348175307598122 0 -0.46756241135954141 -0.44208328059916802 0 -0.46756241135954141 -0.44208328059916802 0 -0.48124738561962921 -0.46059093066602769 0 -0.5 -0.42244535479085848 0 -0.46067732825288349 -0.46348175307598122 0 -0.46756241135954141 -0.44208328059916802 0 -0.48124738561962921 -0.46059093066602769 0 -0.46478849858267879 -0.48029546533301359 0 -0.46067732825288349 -0.46348175307598122 0 -0.48124738561962921 -0.46059093066602769 0 -0.46756241135954141 -0.44208328059916802 0 -0.5 -0.42244535479085848 0 -0.46844407965533402 -0.41963348841677101 0 -0.5 -0.42244535479085848 0 -0.47555615765866971 -0.39800780987525308 0 -0.46844407965533402 -0.41963348841677101 0 -0.5 -0.42244535479085848 0 -0.47555615765866971 -0.39800780987525308 0 -0.5 -0.36520886151232462 0 -0.47555615765866971 -0.39800780987525308 0 -0.45281283076783679 -0.37775023980159539 0 -0.5 -0.36520886151232462 0 -0.47555615765866971 -0.39800780987525308 0 -0.45201651390470449 -0.40565116382848071 0 -0.45281283076783679 -0.37775023980159539 0 -0.45201651390470449 -0.40565116382848071 0 -0.45281283076783679 -0.37775023980159539 0 -0.42634448118781521 -0.39812460784788101 0 -0.46756241135954141 -0.44208328059916802 0 -0.46844407965533402 -0.41963348841677101 0 -0.44708531535375418 -0.42997983299009429 0 -0.47555615765866971 -0.39800780987525308 0 -0.45201651390470449 -0.40565116382848071 0 -0.46844407965533402 -0.41963348841677101 0 -0.45201651390470449 -0.40565116382848071 0 -0.46844407965533402 -0.41963348841677101 0 -0.44708531535375418 -0.42997983299009429 0 -0.45201651390470449 -0.40565116382848071 0 -0.43533333332180579 -0.41550925812196149 0 -0.42634448118781521 -0.39812460784788101 0 -0.45201651390470449 -0.40565116382848071 0 -0.44708531535375418 -0.42997983299009429 0 -0.43533333332180579 -0.41550925812196149 0 -0.44708531535375418 -0.42997983299009429 0 -0.42659275313379807 -0.42953070864409348 0 -0.43533333332180579 -0.41550925812196149 0 -0.44708531535375418 -0.42997983299009429 0 -0.42659275313379807 -0.42953070864409348 0 -0.43139419831578929 -0.44722679763787831 0 -0.43533333332180579 -0.41550925812196149 0 -0.42118944325041852 -0.41843323430936408 0 -0.42634448118781521 -0.39812460784788101 0 -0.42659275313379807 -0.42953070864409348 0 -0.43533333332180579 -0.41550925812196149 0 -0.42118944325041852 -0.41843323430936408 0 -0.42118944325041852 -0.41843323430936408 0 -0.41256173106579558 -0.41031314367328198 0 -0.42634448118781521 -0.39812460784788101 0 -0.42118944325041852 -0.41843323430936408 0 -0.41256173106579558 -0.41031314367328198 0 -0.40847505301628217 -0.42071608213972339 0 -0.41256173106579558 -0.41031314367328198 0 -0.40487780687519931 -0.39974874561310081 0 -0.402228697171087 -0.41324305137620249 0 -0.41256173106579558 -0.41031314367328198 0 -0.40847505301628217 -0.42071608213972339 0 -0.402228697171087 -0.41324305137620249 0 -0.40847505301628217 -0.42071608213972339 0 -0.40825284199016981 -0.436777392362038 0 -0.40286962690642031 -0.42604562528292977 0 -0.42659275313379807 -0.42953070864409348 0 -0.40847505301628217 -0.42071608213972339 0 -0.41577697810000619 -0.44714405475981528 0 -0.42659275313379807 -0.42953070864409348 0 -0.42118944325041852 -0.41843323430936408 0 -0.40847505301628217 -0.42071608213972339 0 -0.40847505301628217 -0.42071608213972339 0 -0.41577697810000619 -0.44714405475981528 0 -0.40847505301628217 -0.42071608213972339 0 -0.40825284199016981 -0.436777392362038 0 -0.41577697810000619 -0.44714405475981528 0 -0.45281283076783679 -0.37775023980159539 0 -0.42434083462006589 -0.37509154756030549 0 -0.42634448118781521 -0.39812460784788101 0 -0.41256173106579558 -0.41031314367328198 0 -0.42634448118781521 -0.39812460784788101 0 -0.40487780687519931 -0.39974874561310081 0 -0.42634448118781521 -0.39812460784788101 0 -0.40287028915620737 -0.38302311380434312 0 -0.40487780687519931 -0.39974874561310081 0 -0.42434083462006589 -0.37509154756030549 0 -0.42634448118781521 -0.39812460784788101 0 -0.40287028915620737 -0.38302311380434312 0 -0.40287028915620737 -0.38302311380434312 0 -0.40487780687519931 -0.39974874561310081 0 -0.38968513972249619 -0.40049045806159789 0 -0.40487780687519931 -0.39974874561310081 0 -0.38968513972249619 -0.40049045806159789 0 -0.402228697171087 -0.41324305137620249 0 -0.37563926782329998 -0.38492387898446812 0 -0.37516237494338939 -0.4134389712799994 0 -0.38968513972249619 -0.40049045806159789 0 -0.37563926782329998 -0.38492387898446812 0 -0.37516237494338939 -0.4134389712799994 0 -0.40287028915620737 -0.38302311380434312 0 -0.38968513972249619 -0.40049045806159789 0 -0.37563926782329998 -0.38492387898446812 0 -0.40287028915620737 -0.38302311380434312 0 -0.37563926782329998 -0.38492387898446812 0 -0.3924123979290069 -0.36739161731746339 0 -0.40825284199016981 -0.436777392362038 0 -0.39252191544814202 -0.433445975253755 0 -0.40286962690642031 -0.42604562528292977 0 -0.39252191544814202 -0.433445975253755 0 -0.402228697171087 -0.41324305137620249 0 -0.38873790698377902 -0.41919455213025292 0 -0.39252191544814202 -0.433445975253755 0 -0.40286962690642031 -0.42604562528292977 0 -0.402228697171087 -0.41324305137620249 0 -0.39252191544814202 -0.433445975253755 0 -0.402228697171087 -0.41324305137620249 0 -0.38968513972249619 -0.40049045806159789 0 -0.402228697171087 -0.41324305137620249 0 -0.38873790698377902 -0.41919455213025292 0 -0.40847505301628217 -0.42071608213972339 0 -0.40286962690642031 -0.42604562528292977 0 -0.402228697171087 -0.41324305137620249 0 -0.38968513972249619 -0.40049045806159789 0 -0.38873790698377902 -0.41919455213025292 0 -0.37516237494338939 -0.4134389712799994 0 -0.38873790698377902 -0.41919455213025292 0 -0.37516237494338939 -0.4134389712799994 0 -0.37468548206347879 -0.44195406357553069 0 -0.39252191544814202 -0.433445975253755 0 -0.38873790698377902 -0.41919455213025292 0 -0.37468548206347879 -0.44195406357553069 0 -0.39252191544814202 -0.433445975253755 0 -0.38281513372519721 -0.45364889913130729 0 -0.37468548206347879 -0.44195406357553069 0 -0.39252191544814202 -0.433445975253755 0 -0.39123599304095408 -0.45566556674564351 0 -0.38281513372519721 -0.45364889913130729 0 -0.39252191544814202 -0.433445975253755 0 -0.38281513372519721 -0.45364889913130729 0 -0.40825284199016981 -0.436777392362038 0 -0.40396034120465468 -0.45350838365143409 0 -0.39123599304095408 -0.45566556674564351 0 -0.40825284199016981 -0.436777392362038 0 -0.39252191544814202 -0.433445975253755 0 -0.39123599304095408 -0.45566556674564351 0 -0.40825284199016981 -0.436777392362038 0 -0.39123599304095408 -0.45566556674564351 0 -0.39686305440617808 -0.46414604114774211 0 -0.40200301902166752 -0.47682017803278232 0 -0.40767283848596508 -0.46380886324193138 0 -0.40396034120465468 -0.45350838365143409 0 -0.39686305440617808 -0.46414604114774211 0 -0.40767283848596508 -0.46380886324193138 0 -0.40396034120465468 -0.45350838365143409 0 -0.39123599304095408 -0.45566556674564351 0 -0.39686305440617808 -0.46414604114774211 0 -0.39123599304095408 -0.45566556674564351 0 -0.39686305440617808 -0.46414604114774211 0 -0.38837926254712041 -0.46690874324589232 0 -0.39686305440617808 -0.46414604114774211 0 -0.38837926254712041 -0.46690874324589232 0 -0.39119885864961118 -0.47326962396093458 0 -0.38281513372519721 -0.45364889913130729 0 -0.37420858918356842 -0.47046915587106197 0 -0.37468548206347879 -0.44195406357553069 0 -0.39123599304095408 -0.45566556674564351 0 -0.38281513372519721 -0.45364889913130729 0 -0.37421914409173829 -0.47455374112924897 0 -0.39123599304095408 -0.45566556674564351 0 -0.37421914409173829 -0.47455374112924897 0 -0.39123599304095408 -0.45566556674564351 0 -0.38837926254712041 -0.46690874324589232 0 -0.37421914409173829 -0.47455374112924897 0 -0.38281513372519721 -0.45364889913130729 0 -0.37421914409173829 -0.47455374112924897 0 -0.38281513372519721 -0.45364889913130729 0 -0.37420858918356842 -0.47046915587106197 0 -0.37421914409173829 -0.47455374112924897 0 -0.38837926254712041 -0.46690874324589232 0 -0.39119885864961118 -0.47326962396093458 0 -0.37421914409173829 -0.47455374112924897 0 -0.39435361721583428 -0.48727687056463198 0 -0.37421914409173829 -0.47455374112924897 0 -0.39435361721583428 -0.48727687056463198 0 -0.39119885864961118 -0.47326962396093458 0 -0.37421914409173829 -0.47455374112924897 0 -0.38193967427763958 -0.48462899096667661 0 -0.39435361721583428 -0.48727687056463198 0 -0.37421914409173829 -0.47455374112924897 0 -0.37639870021594612 -0.48039150671122011 0 -0.38193967427763958 -0.48462899096667661 0 -0.37381966240987041 -0.48414241096890182 0 -0.37639870021594612 -0.48039150671122011 0 -0.38193967427763958 -0.48462899096667661 0 -0.37421914409173829 -0.47455374112924897 0 -0.38193967427763958 -0.48462899096667661 0 -0.37322388179364202 -0.49139696819120832 0 -0.37381966240987041 -0.48414241096890182 0 -0.38193967427763958 -0.48462899096667661 0 -0.3862133510039743 -0.5 0 -0.37322388179364202 -0.49139696819120832 0 -0.38193967427763958 -0.48462899096667661 0 -0.3862133510039743 -0.5 0 -0.39435361721583428 -0.48727687056463198 0 -0.3862133510039743 -0.5 0 -0.39435361721583428 -0.48727687056463198 0 -0.41448809033993422 -0.50000000000000888 0 -0.39435361721583428 -0.48727687056463198 0 -0.41448809033993422 -0.50000000000000888 0 -0.39435361721583428 -0.48727687056463198 0 -0.40200301902166752 -0.47682017803278232 0 -0.41346394938997061 -0.48642060710610452 0 -0.39686305440617808 -0.46414604114774211 0 -0.39119885864961118 -0.47326962396093458 0 -0.40200301902166752 -0.47682017803278232 0 -0.39435361721583428 -0.48727687056463198 0 -0.39119885864961118 -0.47326962396093458 0 -0.40200301902166752 -0.47682017803278232 0 -0.40200301902166752 -0.47682017803278232 0 -0.42307890318373031 -0.473572027379907 0 -0.40767283848596508 -0.46380886324193138 0 -0.40200301902166752 -0.47682017803278232 0 -0.41346394938997061 -0.48642060710610452 0 -0.42307890318373031 -0.473572027379907 0 -0.41346394938997061 -0.48642060710610452 0 -0.41448809033993422 -0.50000000000000888 0 -0.430380828267454 -0.49999999999999878 0 -0.39435361721583428 -0.48727687056463198 0 -0.41346394938997061 -0.48642060710610452 0 -0.41448809033993422 -0.50000000000000888 0 -0.430380828267454 -0.49999999999999878 0 -0.42307890318373031 -0.473572027379907 0 -0.41346394938997061 -0.48642060710610452 0 -0.430380828267454 -0.49999999999999878 0 -0.42307890318373031 -0.473572027379907 0 -0.44535130389491062 -0.47853172436621549 0 -0.430380828267454 -0.49999999999999878 0 -0.42307890318373031 -0.473572027379907 0 -0.44443704180765742 -0.45590736441548141 0 -0.42307890318373031 -0.473572027379907 0 -0.43139419831578929 -0.44722679763787831 0 -0.42307890318373031 -0.473572027379907 0 -0.43139419831578929 -0.44722679763787831 0 -0.41577697810000619 -0.44714405475981528 0 -0.42659275313379807 -0.42953070864409348 0 -0.43139419831578929 -0.44722679763787831 0 -0.41577697810000619 -0.44714405475981528 0 -0.40825284199016981 -0.436777392362038 0 -0.40396034120465468 -0.45350838365143409 0 -0.41577697810000619 -0.44714405475981528 0 -0.40396034120465468 -0.45350838365143409 0 -0.41577697810000619 -0.44714405475981528 0 -0.40767283848596508 -0.46380886324193138 0 -0.42307890318373031 -0.473572027379907 0 -0.41577697810000619 -0.44714405475981528 0 -0.42307890318373031 -0.473572027379907 0 -0.41577697810000619 -0.44714405475981528 0 -0.40767283848596508 -0.46380886324193138 0 -0.4517060328297729 -0.25742115279182293 0 -0.42782778756187212 -0.27049475279747198 0 -0.43720463103343432 -0.24532999276255929 0 -0.45188519170791208 -0.2775948083423383 0 -0.42782778756187212 -0.27049475279747198 0 -0.4517060328297729 -0.25742115279182293 0 -0.45188519170791208 -0.2775948083423383 0 -0.42782778756187212 -0.27049475279747198 0 -0.4517060328297729 -0.25742115279182293 0 -0.45188519170791208 -0.2775948083423383 0 -0.47801028507236171 -0.26303348017155709 0 -0.45188519170791208 -0.2775948083423383 0 -0.47801028507236171 -0.26303348017155709 0 -0.47594259585395221 -0.28469486388720461 0 -0.45188519170791208 -0.2775948083423383 0 -0.47594259585395221 -0.28469486388720461 0 -0.4517060328297729 -0.25742115279182293 0 -0.47801028507236171 -0.26303348017155709 0 -0.47108645465469129 -0.24279908680053611 0 -0.47801028507236171 -0.26303348017155709 0 -0.5 -0.2635743895537338 0 -0.5 -0.23535385967539879 0 -0.47801028507236171 -0.26303348017155709 0 -0.5 -0.2635743895537338 0 -0.47594259585395221 -0.28469486388720461 0 -0.5 -0.2635743895537338 0 -0.47594259585395221 -0.28469486388720461 0 -0.49999999999999267 -0.29179491943206892 0 -0.47594259585395221 -0.28469486388720461 0 -0.49999999999999267 -0.29179491943206892 0 -0.47773506997171211 -0.31869924483644257 0 -0.47594259585395221 -0.28469486388720461 0 -0.45511715101202499 -0.31095119391339149 0 -0.47773506997171211 -0.31869924483644257 0 -0.47594259585395221 -0.28469486388720461 0 -0.49999999999999267 -0.29179491943206892 0 -0.45188519170791208 -0.2775948083423383 0 -0.45511715101202499 -0.31095119391339149 0 -0.43856226479945842 -0.29572045825563681 0 -0.45188519170791208 -0.2775948083423383 0 -0.47594259585395221 -0.28469486388720461 0 -0.45511715101202499 -0.31095119391339149 0 -0.45511715101202499 -0.31095119391339149 0 -0.43856226479945842 -0.29572045825563681 0 -0.42518276535044852 -0.32753129974171641 0 -0.45188519170791208 -0.2775948083423383 0 -0.43856226479945842 -0.29572045825563681 0 -0.42782778756187212 -0.27049475279747198 0 -0.49999999999999267 -0.29179491943206892 0 -0.47773506997171211 -0.31869924483644257 0 -0.5 -0.36520886151232462 0 -0.45511715101202499 -0.31095119391339149 0 -0.45761560299259108 -0.34084638543722168 0 -0.42518276535044852 -0.32753129974171641 0 -0.45761560299259108 -0.34084638543722168 0 -0.43395812472395168 -0.35553464953327979 0 -0.42518276535044852 -0.32753129974171641 0 -0.45511715101202499 -0.31095119391339149 0 -0.45761560299259108 -0.34084638543722168 0 -0.47773506997171211 -0.31869924483644257 0 -0.45761560299259108 -0.34084638543722168 0 -0.47773506997171211 -0.31869924483644257 0 -0.5 -0.36520886151232462 0 -0.45281283076783679 -0.37775023980159539 0 -0.45761560299259108 -0.34084638543722168 0 -0.5 -0.36520886151232462 0 -0.45281283076783679 -0.37775023980159539 0 -0.45761560299259108 -0.34084638543722168 0 -0.43395812472395168 -0.35553464953327979 0 -0.42434083462006589 -0.37509154756030549 0 -0.43395812472395168 -0.35553464953327979 0 -0.40983858988881611 -0.35645377512556042 0 -0.45281283076783679 -0.37775023980159539 0 -0.42434083462006589 -0.37509154756030549 0 -0.43395812472395168 -0.35553464953327979 0 -0.43395812472395168 -0.35553464953327979 0 -0.40983858988881611 -0.35645377512556042 0 -0.42518276535044852 -0.32753129974171641 0 -0.42434083462006589 -0.37509154756030549 0 -0.40287028915620737 -0.38302311380434312 0 -0.40983858988881611 -0.35645377512556042 0 -0.40287028915620737 -0.38302311380434312 0 -0.40983858988881611 -0.35645377512556042 0 -0.3924123979290069 -0.36739161731746339 0 -0.37563926782329998 -0.38492387898446812 0 -0.37611616070321052 -0.35640878668893677 0 -0.37563926782329998 -0.38492387898446812 0 -0.3924123979290069 -0.36739161731746339 0 -0.37611616070321052 -0.35640878668893677 0 -0.3924123979290069 -0.36739161731746339 0 -0.37611616070321052 -0.35640878668893677 0 -0.39515635275952021 -0.34112831949423178 0 -0.37611616070321052 -0.35640878668893677 0 -0.39515635275952021 -0.34112831949423178 0 -0.37675157074558968 -0.33496260167900782 0 -0.40983858988881611 -0.35645377512556042 0 -0.3924123979290069 -0.36739161731746339 0 -0.39515635275952021 -0.34112831949423178 0 -0.39515635275952021 -0.34112831949423178 0 -0.39800852433974898 -0.32063229121785769 0 -0.42518276535044852 -0.32753129974171641 0 -0.39515635275952021 -0.34112831949423178 0 -0.37675157074558968 -0.33496260167900782 0 -0.39800852433974898 -0.32063229121785769 0 -0.37913031170999723 -0.32070086936311482 0 -0.39800852433974898 -0.32063229121785769 0 -0.38509159994575548 -0.30858244265622481 0 -0.37913031170999723 -0.32070086936311482 0 -0.38509159994575548 -0.30858244265622481 0 -0.36807931511281572 -0.31236012476619113 0 -0.37675157074558968 -0.33496260167900782 0 -0.37913031170999723 -0.32070086936311482 0 -0.39800852433974898 -0.32063229121785769 0 -0.39800852433974898 -0.32063229121785769 0 -0.42518276535044852 -0.32753129974171641 0 -0.41708394324090642 -0.29707325886565561 0 -0.40983858988881611 -0.35645377512556042 0 -0.39515635275952021 -0.34112831949423178 0 -0.42518276535044852 -0.32753129974171641 0 -0.43856226479945842 -0.29572045825563681 0 -0.42518276535044852 -0.32753129974171641 0 -0.41708394324090642 -0.29707325886565561 0 -0.43856226479945842 -0.29572045825563681 0 -0.41708394324090642 -0.29707325886565561 0 -0.42782778756187212 -0.27049475279747198 0 -0.41708394324090642 -0.29707325886565561 0 -0.39869282917400972 -0.29462836426946393 0 -0.40917188449201908 -0.27954612669420642 0 -0.41708394324090642 -0.29707325886565561 0 -0.40917188449201908 -0.27954612669420642 0 -0.42782778756187212 -0.27049475279747198 0 -0.39800852433974898 -0.32063229121785769 0 -0.41708394324090642 -0.29707325886565561 0 -0.39869282917400972 -0.29462836426946393 0 -0.39800852433974898 -0.32063229121785769 0 -0.38509159994575548 -0.30858244265622481 0 -0.39869282917400972 -0.29462836426946393 0 -0.38509159994575548 -0.30858244265622481 0 -0.38270709327458541 -0.29361280731990652 0 -0.36807931511281572 -0.31236012476619113 0 -0.38270709327458541 -0.29361280731990652 0 -0.36807931511281572 -0.31236012476619113 0 -0.38509159994575548 -0.30858244265622481 0 -0.38270709327458541 -0.29361280731990652 0 -0.39869282917400972 -0.29462836426946393 0 -0.38270709327458541 -0.29361280731990652 0 -0.39733487143635499 -0.2748654898736218 0 -0.37814083965415318 -0.27584309158926779 0 -0.38270709327458541 -0.29361280731990652 0 -0.39733487143635499 -0.2748654898736218 0 -0.38270709327458541 -0.29361280731990652 0 -0.37814083965415318 -0.27584309158926779 0 -0.37037583265406149 -0.28676986979911789 0 -0.39869282917400972 -0.29462836426946393 0 -0.39733487143635499 -0.2748654898736218 0 -0.40917188449201908 -0.27954612669420642 0 -0.38270709327458541 -0.29361280731990652 0 -0.39869282917400972 -0.29462836426946393 0 -0.39733487143635499 -0.2748654898736218 0 -0.39733487143635499 -0.2748654898736218 0 -0.4037703834158321 -0.26339469725260573 0 -0.40917188449201908 -0.27954612669420642 0 -0.39733487143635499 -0.2748654898736218 0 -0.37814083965415318 -0.27584309158926779 0 -0.37971297926979208 -0.25629464170773941 0 -0.37971297926979208 -0.25629464170773941 0 -0.4037703834158321 -0.26339469725260573 0 -0.37971297926979208 -0.25629464170773941 0 -0.4037703834158321 -0.26339469725260573 0 -0.39895324178003361 -0.24710746596356351 0 -0.39733487143635499 -0.2748654898736218 0 -0.37971297926979208 -0.25629464170773941 0 -0.4037703834158321 -0.26339469725260573 0 -0.4037703834158321 -0.26339469725260573 0 -0.41880099419671729 -0.25193098532517139 0 -0.42782778756187212 -0.27049475279747198 0 -0.4037703834158321 -0.26339469725260573 0 -0.41880099419671729 -0.25193098532517139 0 -0.39895324178003361 -0.24710746596356351 0 -0.4037703834158321 -0.26339469725260573 0 -0.42782778756187212 -0.27049475279747198 0 -0.4037703834158321 -0.26339469725260573 0 -0.40917188449201908 -0.27954612669420642 0 -0.42782778756187212 -0.27049475279747198 0 -0.41880099419671729 -0.25193098532517139 0 -0.42782778756187212 -0.27049475279747198 0 -0.43720463103343432 -0.24532999276255929 0 -0.31955021384196908 -0.25465610241978293 0 -0.32455329444836528 -0.27055975534205612 0 -0.33258965804886009 -0.26217542219288958 0 -0.31955021384196908 -0.25465610241978293 0 -0.3130810632097224 -0.266588991848489 0 -0.32455329444836528 -0.27055975534205612 0 -0.31955021384196908 -0.25465610241978293 0 -0.3130810632097224 -0.266588991848489 0 -0.30493877401889841 -0.2577176602661187 0 -0.3130810632097224 -0.266588991848489 0 -0.3159928134352134 -0.27679644605737819 0 -0.32455329444836528 -0.27055975534205612 0 -0.3159928134352134 -0.27679644605737819 0 -0.32455329444836528 -0.27055975534205612 0 -0.32661217087960692 -0.28164576066575381 0 -0.32455329444836528 -0.27055975534205612 0 -0.34054507434425019 -0.27892723375737472 0 -0.32661217087960692 -0.28164576066575381 0 -0.32455329444836528 -0.27055975534205612 0 -0.34054507434425019 -0.27892723375737472 0 -0.33258965804886009 -0.26217542219288958 0 -0.34054507434425019 -0.27892723375737472 0 -0.33258965804886009 -0.26217542219288958 0 -0.34605509987574118 -0.26472625058024002 0 -0.31955021384196908 -0.25465610241978293 0 -0.33258965804886009 -0.26217542219288958 0 -0.33369744999331669 -0.24271409029803229 0 -0.33258965804886009 -0.26217542219288958 0 -0.34605509987574118 -0.26472625058024002 0 -0.33369744999331669 -0.24271409029803229 0 -0.34605509987574118 -0.26472625058024002 0 -0.35565557512375162 -0.2491945861628749 0 -0.33369744999331669 -0.24271409029803229 0 -0.3567688166846078 -0.27711533607942479 0 -0.35565557512375162 -0.2491945861628749 0 -0.34605509987574118 -0.26472625058024002 0 -0.3567688166846078 -0.27711533607942479 0 -0.35565557512375162 -0.2491945861628749 0 -0.37971297926979208 -0.25629464170773941 0 -0.35565557512375162 -0.2491945861628749 0 -0.37971297926979208 -0.25629464170773941 0 -0.3567688166846078 -0.27711533607942479 0 -0.35565557512375162 -0.2491945861628749 0 -0.37814083965415318 -0.27584309158926779 0 -0.3567688166846078 -0.27711533607942479 0 -0.37037583265406149 -0.28676986979911789 0 -0.37814083965415318 -0.27584309158926779 0 -0.37971297926979208 -0.25629464170773941 0 -0.3567688166846078 -0.27711533607942479 0 -0.34054507434425019 -0.27892723375737472 0 -0.34605509987574118 -0.26472625058024002 0 -0.3567688166846078 -0.27711533607942479 0 -0.3567688166846078 -0.27711533607942479 0 -0.34931238225875849 -0.30044388803875599 0 -0.34136650435184812 -0.2930122589682857 0 -0.34054507434425019 -0.27892723375737472 0 -0.3567688166846078 -0.27711533607942479 0 -0.34136650435184812 -0.2930122589682857 0 -0.3567688166846078 -0.27711533607942479 0 -0.3578820582454646 -0.30503608599597498 0 -0.3567688166846078 -0.27711533607942479 0 -0.36253815662029087 -0.29849405918663541 0 -0.3578820582454646 -0.30503608599597498 0 -0.3567688166846078 -0.27711533607942479 0 -0.3578820582454646 -0.30503608599597498 0 -0.34931238225875849 -0.30044388803875599 0 -0.3567688166846078 -0.27711533607942479 0 -0.37037583265406149 -0.28676986979911789 0 -0.36253815662029087 -0.29849405918663541 0 -0.38270709327458541 -0.29361280731990652 0 -0.37037583265406149 -0.28676986979911789 0 -0.36253815662029087 -0.29849405918663541 0 -0.38270709327458541 -0.29361280731990652 0 -0.36253815662029087 -0.29849405918663541 0 -0.36807931511281572 -0.31236012476619113 0 -0.36253815662029087 -0.29849405918663541 0 -0.35799484678566917 -0.31480075069955588 0 -0.36253815662029087 -0.29849405918663541 0 -0.3578820582454646 -0.30503608599597498 0 -0.35799484678566917 -0.31480075069955588 0 -0.36253815662029087 -0.29849405918663541 0 -0.36807931511281572 -0.31236012476619113 0 -0.35799484678566917 -0.31480075069955588 0 -0.3578820582454646 -0.30503608599597498 0 -0.35191182475278798 -0.30998803001066921 0 -0.35799484678566917 -0.31480075069955588 0 -0.3578820582454646 -0.30503608599597498 0 -0.35191182475278798 -0.30998803001066921 0 -0.34931238225875849 -0.30044388803875599 0 -0.34931238225875849 -0.30044388803875599 0 -0.34275495320500698 -0.30634958732048828 0 -0.34136650435184812 -0.2930122589682857 0 -0.35191182475278798 -0.30998803001066921 0 -0.34931238225875849 -0.30044388803875599 0 -0.34275495320500698 -0.30634958732048828 0 -0.34275495320500698 -0.30634958732048828 0 -0.33002411743105842 -0.31074236029271041 0 -0.33573259532603572 -0.30153762490127278 0 -0.33002411743105842 -0.31074236029271041 0 -0.33573259532603572 -0.30153762490127278 0 -0.32878480631622958 -0.29604629302360691 0 -0.34275495320500698 -0.30634958732048828 0 -0.33573259532603572 -0.30153762490127278 0 -0.34136650435184812 -0.2930122589682857 0 -0.34054507434425019 -0.27892723375737472 0 -0.34136650435184812 -0.2930122589682857 0 -0.33359499545321758 -0.28770151100930058 0 -0.34054507434425019 -0.27892723375737472 0 -0.33359499545321758 -0.28770151100930058 0 -0.32661217087960692 -0.28164576066575381 0 -0.33359499545321758 -0.28770151100930058 0 -0.32661217087960692 -0.28164576066575381 0 -0.32551048539622829 -0.28836359510754972 0 -0.33359499545321758 -0.28770151100930058 0 -0.32878480631622958 -0.29604629302360691 0 -0.32551048539622829 -0.28836359510754972 0 -0.33573259532603572 -0.30153762490127278 0 -0.34136650435184812 -0.2930122589682857 0 -0.32878480631622958 -0.29604629302360691 0 -0.34136650435184812 -0.2930122589682857 0 -0.33359499545321758 -0.28770151100930058 0 -0.32878480631622958 -0.29604629302360691 0 -0.32878480631622958 -0.29604629302360691 0 -0.32034053516511479 -0.29196899580146968 0 -0.32551048539622829 -0.28836359510754972 0 -0.32878480631622958 -0.29604629302360691 0 -0.32034053516511479 -0.29196899580146968 0 -0.31466565495850929 -0.2974090456543183 0 -0.32661217087960692 -0.28164576066575381 0 -0.32551048539622829 -0.28836359510754972 0 -0.31736914112743059 -0.28634151259894669 0 -0.32034053516511479 -0.29196899580146968 0 -0.32551048539622829 -0.28836359510754972 0 -0.31736914112743059 -0.28634151259894669 0 -0.31736914112743059 -0.28634151259894669 0 -0.31500625676850219 -0.29109275302077142 0 -0.30764969582295432 -0.28865145802835079 0 -0.3159928134352134 -0.27679644605737819 0 -0.31736914112743059 -0.28634151259894669 0 -0.30827396028889797 -0.28246554331183521 0 -0.3159928134352134 -0.27679644605737819 0 -0.32661217087960692 -0.28164576066575381 0 -0.31736914112743059 -0.28634151259894669 0 -0.32034053516511479 -0.29196899580146968 0 -0.31500625676850219 -0.29109275302077142 0 -0.31466565495850929 -0.2974090456543183 0 -0.32034053516511479 -0.29196899580146968 0 -0.31736914112743059 -0.28634151259894669 0 -0.31500625676850219 -0.29109275302077142 0 -0.33002411743105842 -0.31074236029271041 0 -0.31466565495850929 -0.2974090456543183 0 -0.31063857588596733 -0.29958800090163717 0 -0.33002411743105842 -0.31074236029271041 0 -0.31495477517251641 -0.31313886456682077 0 -0.31063857588596733 -0.29958800090163717 0 -0.33002411743105842 -0.31074236029271041 0 -0.31063857588596733 -0.29958800090163717 0 -0.33002411743105842 -0.31074236029271041 0 -0.32878480631622958 -0.29604629302360691 0 -0.31466565495850929 -0.2974090456543183 0 -0.33002411743105842 -0.31074236029271041 0 -0.32291467161018089 -0.32664930718677099 0 -0.31495477517251641 -0.31313886456682077 0 -0.32291467161018089 -0.32664930718677099 0 -0.31495477517251641 -0.31313886456682077 0 -0.30721375527201811 -0.32184777315592672 0 -0.32291467161018089 -0.32664930718677099 0 -0.31175980601858128 -0.34019638230809079 0 -0.30721375527201811 -0.32184777315592672 0 -0.32291467161018089 -0.32664930718677099 0 -0.3251081952613652 -0.34153234091611018 0 -0.31175980601858128 -0.34019638230809079 0 -0.32291467161018089 -0.32664930718677099 0 -0.3251081952613652 -0.34153234091611018 0 -0.33346072588489101 -0.33449977003857428 0 -0.33346072588489101 -0.33449977003857428 0 -0.34165122610453669 -0.33242535186189848 0 -0.33681624893332152 -0.35242763327838472 0 -0.3251081952613652 -0.34153234091611018 0 -0.33346072588489101 -0.33449977003857428 0 -0.33681624893332152 -0.35242763327838472 0 -0.32291467161018089 -0.32664930718677099 0 -0.33346072588489101 -0.33449977003857428 0 -0.33549208000136332 -0.32524270181274761 0 -0.33346072588489101 -0.33449977003857428 0 -0.34165122610453669 -0.33242535186189848 0 -0.33549208000136332 -0.32524270181274761 0 -0.33002411743105842 -0.31074236029271041 0 -0.34940965897614951 -0.32189671968378369 0 -0.33002411743105842 -0.31074236029271041 0 -0.32291467161018089 -0.32664930718677099 0 -0.33549208000136332 -0.32524270181274761 0 -0.34165122610453669 -0.33242535186189848 0 -0.33549208000136332 -0.32524270181274761 0 -0.34940965897614951 -0.32189671968378369 0 -0.33002411743105842 -0.31074236029271041 0 -0.33549208000136332 -0.32524270181274761 0 -0.34940965897614951 -0.32189671968378369 0 -0.34275495320500698 -0.30634958732048828 0 -0.33002411743105842 -0.31074236029271041 0 -0.34940965897614951 -0.32189671968378369 0 -0.34940965897614951 -0.32189671968378369 0 -0.35799484678566917 -0.31480075069955588 0 -0.3534515369510467 -0.33110744221247618 0 -0.35191182475278798 -0.30998803001066921 0 -0.34275495320500698 -0.30634958732048828 0 -0.34940965897614951 -0.32189671968378369 0 -0.35799484678566917 -0.31480075069955588 0 -0.3534515369510467 -0.33110744221247618 0 -0.35191182475278798 -0.30998803001066921 0 -0.34940965897614951 -0.32189671968378369 0 -0.35799484678566917 -0.31480075069955588 0 -0.36807931511281572 -0.31236012476619113 0 -0.35799484678566917 -0.31480075069955588 0 -0.3534515369510467 -0.33110744221247618 0 -0.36807931511281572 -0.31236012476619113 0 -0.36772054840607588 -0.32696688649629291 0 -0.3534515369510467 -0.33110744221247618 0 -0.36807931511281572 -0.31236012476619113 0 -0.3534515369510467 -0.33110744221247618 0 -0.37675157074558968 -0.33496260167900782 0 -0.37913031170999723 -0.32070086936311482 0 -0.36772054840607588 -0.32696688649629291 0 -0.37913031170999723 -0.32070086936311482 0 -0.36807931511281572 -0.31236012476619113 0 -0.36772054840607588 -0.32696688649629291 0 -0.37675157074558968 -0.33496260167900782 0 -0.36400108140264131 -0.33505134348596632 0 -0.36256610829087521 -0.34574473831889152 0 -0.37675157074558968 -0.33496260167900782 0 -0.36772054840607588 -0.32696688649629291 0 -0.36400108140264131 -0.33505134348596632 0 -0.36772054840607588 -0.32696688649629291 0 -0.36400108140264131 -0.33505134348596632 0 -0.3534515369510467 -0.33110744221247618 0 -0.36400108140264131 -0.33505134348596632 0 -0.3534515369510467 -0.33110744221247618 0 -0.36256610829087521 -0.34574473831889152 0 -0.34165122610453669 -0.33242535186189848 0 -0.3534515369510467 -0.33110744221247618 0 -0.33681624893332152 -0.35242763327838472 0 -0.3534515369510467 -0.33110744221247618 0 -0.34719584397654191 -0.3535601604394959 0 -0.36256610829087521 -0.34574473831889152 0 -0.3534515369510467 -0.33110744221247618 0 -0.33681624893332152 -0.35242763327838472 0 -0.3534515369510467 -0.33110744221247618 0 -0.34719584397654191 -0.3535601604394959 0 -0.34165122610453669 -0.33242535186189848 0 -0.34940965897614951 -0.32189671968378369 0 -0.3534515369510467 -0.33110744221247618 0 -0.3534515369510467 -0.33110744221247618 0 -0.34719584397654191 -0.3535601604394959 0 -0.33681624893332152 -0.35242763327838472 0 -0.34719584397654191 -0.3535601604394959 0 -0.36256610829087521 -0.34574473831889152 0 -0.3602465147127849 -0.36929411794308148 0 -0.37611616070321052 -0.35640878668893677 0 -0.37675157074558968 -0.33496260167900782 0 -0.36256610829087521 -0.34574473831889152 0 -0.37611616070321052 -0.35640878668893677 0 -0.36256610829087521 -0.34574473831889152 0 -0.3602465147127849 -0.36929411794308148 0 -0.37563926782329998 -0.38492387898446812 0 -0.37611616070321052 -0.35640878668893677 0 -0.3602465147127849 -0.36929411794308148 0 -0.34719584397654191 -0.3535601604394959 0 -0.34094015100203628 -0.37601287866651539 0 -0.34719584397654191 -0.3535601604394959 0 -0.3602465147127849 -0.36929411794308148 0 -0.34094015100203628 -0.37601287866651539 0 -0.34719584397654191 -0.3535601604394959 0 -0.33104643945140239 -0.36446501815213461 0 -0.34094015100203628 -0.37601287866651539 0 -0.33104643945140239 -0.36446501815213461 0 -0.34094015100203628 -0.37601287866651539 0 -0.324275152004534 -0.38298704724794808 0 -0.34719584397654191 -0.3535601604394959 0 -0.33104643945140239 -0.36446501815213461 0 -0.33681624893332152 -0.35242763327838472 0 -0.33104643945140239 -0.36446501815213461 0 -0.33681624893332152 -0.35242763327838472 0 -0.32058952385985118 -0.35388861176873038 0 -0.32058952385985118 -0.35388861176873038 0 -0.30540694851791839 -0.36078642842739372 0 -0.31175980601858128 -0.34019638230809079 0 -0.3251081952613652 -0.34153234091611018 0 -0.33681624893332152 -0.35242763327838472 0 -0.32058952385985118 -0.35388861176873038 0 -0.3251081952613652 -0.34153234091611018 0 -0.32058952385985118 -0.35388861176873038 0 -0.31175980601858128 -0.34019638230809079 0 -0.33104643945140239 -0.36446501815213461 0 -0.31646171693212999 -0.36791377751173321 0 -0.324275152004534 -0.38298704724794808 0 -0.32058952385985118 -0.35388861176873038 0 -0.31646171693212999 -0.36791377751173321 0 -0.30540694851791839 -0.36078642842739372 0 -0.33104643945140239 -0.36446501815213461 0 -0.32058952385985118 -0.35388861176873038 0 -0.31646171693212999 -0.36791377751173321 0 -0.31646171693212999 -0.36791377751173321 0 -0.30540694851791839 -0.36078642842739372 0 -0.30509416676471951 -0.38035487576632621 0 -0.30540694851791839 -0.36078642842739372 0 -0.28820621045501149 -0.37243698815395382 0 -0.30509416676471951 -0.38035487576632621 0 -0.30540694851791839 -0.36078642842739372 0 -0.29033026707721699 -0.34992793505552761 0 -0.31175980601858128 -0.34019638230809079 0 -0.30540694851791839 -0.36078642842739372 0 -0.29033026707721699 -0.34992793505552761 0 -0.28820621045501149 -0.37243698815395382 0 -0.29033026707721699 -0.34992793505552761 0 -0.28820621045501149 -0.37243698815395382 0 -0.27291059931952732 -0.36251293801855861 0 -0.28820621045501149 -0.37243698815395382 0 -0.27291059931952732 -0.36251293801855861 0 -0.27563161656916879 -0.38444197320118279 0 -0.27291059931952732 -0.36251293801855861 0 -0.27563161656916879 -0.38444197320118279 0 -0.25799796589382717 -0.37580106798200941 0 -0.27291059931952732 -0.36251293801855861 0 -0.25941438816316292 -0.35605377812029432 0 -0.25799796589382717 -0.37580106798200941 0 -0.25941438816316292 -0.35605377812029432 0 -0.25799796589382717 -0.37580106798200941 0 -0.2440942507316548 -0.3627173211519682 0 -0.25941438816316292 -0.35605377812029432 0 -0.2526560430109932 -0.33946468702546317 0 -0.2440942507316548 -0.3627173211519682 0 -0.25941438816316292 -0.35605377812029432 0 -0.26941308185981172 -0.33977287642347209 0 -0.2526560430109932 -0.33946468702546317 0 -0.29033026707721699 -0.34992793505552761 0 -0.27291059931952732 -0.36251293801855861 0 -0.26941308185981172 -0.33977287642347209 0 -0.27291059931952732 -0.36251293801855861 0 -0.25941438816316292 -0.35605377812029432 0 -0.26941308185981172 -0.33977287642347209 0 -0.26941308185981172 -0.33977287642347209 0 -0.27032855052393001 -0.31932189721490251 0 -0.29104417827125573 -0.32975913976149668 0 -0.26941308185981172 -0.33977287642347209 0 -0.2526560430109932 -0.33946468702546317 0 -0.25369446209554852 -0.32391991884343901 0 -0.26941308185981172 -0.33977287642347209 0 -0.25369446209554852 -0.32391991884343901 0 -0.27032855052393001 -0.31932189721490251 0 -0.27032855052393001 -0.31932189721490251 0 -0.24961292277660421 -0.30888465466830839 0 -0.25369446209554852 -0.32391991884343901 0 -0.27032855052393001 -0.31932189721490251 0 -0.24961292277660421 -0.30888465466830839 0 -0.27032855052393001 -0.31932189721490251 0 -0.29104417827125573 -0.32975913976149668 0 -0.27032855052393001 -0.31932189721490251 0 -0.29104417827125573 -0.32975913976149668 0 -0.28928403284679383 -0.3104234145876813 0 -0.29104417827125573 -0.32975913976149668 0 -0.29768417632379318 -0.3178619954984907 0 -0.28928403284679383 -0.3104234145876813 0 -0.29768417632379318 -0.3178619954984907 0 -0.3031947389051054 -0.30941765448885838 0 -0.28928403284679383 -0.3104234145876813 0 -0.29033026707721699 -0.34992793505552761 0 -0.26941308185981172 -0.33977287642347209 0 -0.29104417827125573 -0.32975913976149668 0 -0.29104417827125573 -0.32975913976149668 0 -0.31175980601858128 -0.34019638230809079 0 -0.29033026707721699 -0.34992793505552761 0 -0.29104417827125573 -0.32975913976149668 0 -0.31175980601858128 -0.34019638230809079 0 -0.29104417827125573 -0.32975913976149668 0 -0.31175980601858128 -0.34019638230809079 0 -0.30721375527201811 -0.32184777315592672 0 -0.29104417827125573 -0.32975913976149668 0 -0.30721375527201811 -0.32184777315592672 0 -0.29768417632379318 -0.3178619954984907 0 -0.31495477517251641 -0.31313886456682077 0 -0.30721375527201811 -0.32184777315592672 0 -0.3031947389051054 -0.30941765448885838 0 -0.30721375527201811 -0.32184777315592672 0 -0.29768417632379318 -0.3178619954984907 0 -0.3031947389051054 -0.30941765448885838 0 -0.3031947389051054 -0.30941765448885838 0 -0.31063857588596733 -0.29958800090163717 0 -0.29639794938686909 -0.30117581179586073 0 -0.31495477517251641 -0.31313886456682077 0 -0.3031947389051054 -0.30941765448885838 0 -0.31063857588596733 -0.29958800090163717 0 -0.31063857588596733 -0.29958800090163717 0 -0.29125303434087652 -0.28843364151056361 0 -0.30764969582295432 -0.28865145802835079 0 -0.30138264113133362 -0.28233104881848642 0 -0.29125303434087652 -0.28843364151056361 0 -0.31063857588596733 -0.29958800090163717 0 -0.29125303434087652 -0.28843364151056361 0 -0.29639794938686909 -0.30117581179586073 0 -0.31466565495850929 -0.2974090456543183 0 -0.30764969582295432 -0.28865145802835079 0 -0.29125303434087652 -0.28843364151056361 0 -0.31466565495850929 -0.2974090456543183 0 -0.31063857588596733 -0.29958800090163717 0 -0.29125303434087652 -0.28843364151056361 0 -0.31466565495850929 -0.2974090456543183 0 -0.29125303434087652 -0.28843364151056361 0 -0.31500625676850219 -0.29109275302077142 0 -0.31466565495850929 -0.2974090456543183 0 -0.30764969582295432 -0.28865145802835079 0 -0.31736914112743059 -0.28634151259894669 0 -0.30764969582295432 -0.28865145802835079 0 -0.30827396028889797 -0.28246554331183521 0 -0.30764969582295432 -0.28865145802835079 0 -0.30827396028889797 -0.28246554331183521 0 -0.30138264113133362 -0.28233104881848642 0 -0.29125303434087652 -0.28843364151056361 0 -0.28322388665475751 -0.28381370356935881 0 -0.27206312355763679 -0.28107704493066321 0 -0.29125303434087652 -0.28843364151056361 0 -0.27206312355763679 -0.28107704493066321 0 -0.29125303434087652 -0.28843364151056361 0 -0.28718806244084438 -0.29888693612293682 0 -0.29639794938686909 -0.30117581179586073 0 -0.30138264113133362 -0.28233104881848642 0 -0.29125303434087652 -0.28843364151056361 0 -0.29366926454668207 -0.27892748866449379 0 -0.29125303434087652 -0.28843364151056361 0 -0.28859689564597601 -0.28169193885522131 0 -0.29366926454668207 -0.27892748866449379 0 -0.29125303434087652 -0.28843364151056361 0 -0.28322388665475751 -0.28381370356935881 0 -0.29125303434087652 -0.28843364151056361 0 -0.28859689564597601 -0.28169193885522131 0 -0.28322388665475751 -0.28381370356935881 0 -0.28859689564597601 -0.28169193885522131 0 -0.28322388665475751 -0.28381370356935881 0 -0.28387722226910261 -0.27836090383026341 0 -0.29125303434087652 -0.28843364151056361 0 -0.28718806244084438 -0.29888693612293682 0 -0.27808265267008198 -0.29093779703761419 0 -0.28718806244084438 -0.29888693612293682 0 -0.28928403284679383 -0.3104234145876813 0 -0.27599111050925051 -0.29953780649612882 0 -0.28718806244084438 -0.29888693612293682 0 -0.29639794938686909 -0.30117581179586073 0 -0.28928403284679383 -0.3104234145876813 0 -0.3031947389051054 -0.30941765448885838 0 -0.29639794938686909 -0.30117581179586073 0 -0.28928403284679383 -0.3104234145876813 0 -0.27032855052393001 -0.31932189721490251 0 -0.27599111050925051 -0.29953780649612882 0 -0.26297816128042789 -0.30652936428722521 0 -0.27032855052393001 -0.31932189721490251 0 -0.28928403284679383 -0.3104234145876813 0 -0.27599111050925051 -0.29953780649612882 0 -0.27599111050925051 -0.29953780649612882 0 -0.26297816128042789 -0.30652936428722521 0 -0.26378851188932928 -0.29668079980425383 0 -0.27032855052393001 -0.31932189721490251 0 -0.26297816128042789 -0.30652936428722521 0 -0.24961292277660421 -0.30888465466830839 0 -0.26297816128042789 -0.30652936428722521 0 -0.25701652882273351 -0.29828319366394679 0 -0.26378851188932928 -0.29668079980425383 0 -0.26297816128042789 -0.30652936428722521 0 -0.25701652882273351 -0.29828319366394679 0 -0.25334040355741511 -0.30360199425325679 0 -0.25701652882273351 -0.29828319366394679 0 -0.25334040355741511 -0.30360199425325679 0 -0.25080396598643939 -0.29595923645909822 0 -0.25334040355741511 -0.30360199425325679 0 -0.25080396598643939 -0.29595923645909822 0 -0.2471461391624904 -0.30215923705505032 0 -0.25334040355741511 -0.30360199425325679 0 -0.2471461391624904 -0.30215923705505032 0 -0.24961292277660421 -0.30888465466830839 0 -0.26297816128042789 -0.30652936428722521 0 -0.25334040355741511 -0.30360199425325679 0 -0.24961292277660421 -0.30888465466830839 0 -0.25334040355741511 -0.30360199425325679 0 -0.24961292277660421 -0.30888465466830839 0 -0.25417160140005551 -0.28864457351590012 0 -0.26391793250180162 -0.28675355612777897 0 -0.25287321277439723 -0.27372044835076298 0 -0.25701652882273351 -0.29828319366394679 0 -0.25417160140005551 -0.28864457351590012 0 -0.25080396598643939 -0.29595923645909822 0 -0.25701652882273351 -0.29828319366394679 0 -0.25417160140005551 -0.28864457351590012 0 -0.26378851188932928 -0.29668079980425383 0 -0.25417160140005551 -0.28864457351590012 0 -0.26378851188932928 -0.29668079980425383 0 -0.26391793250180162 -0.28675355612777897 0 -0.29125303434087652 -0.28843364151056361 0 -0.27808265267008198 -0.29093779703761419 0 -0.27206312355763679 -0.28107704493066321 0 -0.26391793250180162 -0.28675355612777897 0 -0.27808265267008198 -0.29093779703761419 0 -0.27206312355763679 -0.28107704493066321 0 -0.27599111050925051 -0.29953780649612882 0 -0.26391793250180162 -0.28675355612777897 0 -0.27808265267008198 -0.29093779703761419 0 -0.27599111050925051 -0.29953780649612882 0 -0.26378851188932928 -0.29668079980425383 0 -0.26391793250180162 -0.28675355612777897 0 -0.28718806244084438 -0.29888693612293682 0 -0.27599111050925051 -0.29953780649612882 0 -0.27808265267008198 -0.29093779703761419 0 -0.27579622653959968 -0.26224597648920028 0 -0.28387722226910261 -0.27836090383026341 0 -0.27491878772327433 -0.27305288167517472 0 -0.27579622653959968 -0.26224597648920028 0 -0.28387722226910261 -0.27836090383026341 0 -0.27491878772327433 -0.27305288167517472 0 -0.27206312355763679 -0.28107704493066321 0 -0.28387722226910261 -0.27836090383026341 0 -0.28322388665475751 -0.28381370356935881 0 -0.27206312355763679 -0.28107704493066321 0 -0.28387722226910261 -0.27836090383026341 0 -0.27491878772327433 -0.27305288167517472 0 -0.26793857852675801 -0.27052760145057198 0 -0.27579622653959968 -0.26224597648920028 0 -0.27491878772327433 -0.27305288167517472 0 -0.26793857852675801 -0.27052760145057198 0 -0.27206312355763679 -0.28107704493066321 0 -0.26391793250180162 -0.28675355612777897 0 -0.27206312355763679 -0.28107704493066321 0 -0.25287321277439723 -0.27372044835076298 0 -0.27206312355763679 -0.28107704493066321 0 -0.25287321277439723 -0.27372044835076298 0 -0.26793857852675801 -0.27052760145057198 0 -0.27206312355763679 -0.28107704493066321 0 -0.25287321277439723 -0.27372044835076298 0 -0.26793857852675801 -0.27052760145057198 0 -0.25287321277439723 -0.27372044835076298 0 -0.26227794933149973 -0.26147693171565539 0 -0.25287321277439723 -0.27372044835076298 0 -0.25142328947476522 -0.26295063516029488 0 -0.26227794933149973 -0.26147693171565539 0 -0.25722652137655938 -0.25156229858660373 0 -0.25380271698037138 -0.25700138034771891 0 -0.26227794933149973 -0.26147693171565539 0 -0.25380271698037138 -0.25700138034771891 0 -0.24732520214061929 -0.25772363101875601 0 -0.24962427814893129 -0.249267442217251 0 -0.25722652137655938 -0.25156229858660373 0 -0.25380271698037138 -0.25700138034771891 0 -0.24962427814893129 -0.249267442217251 0 -0.25380271698037138 -0.25700138034771891 0 -0.25142328947476522 -0.26295063516029488 0 -0.26227794933149973 -0.26147693171565539 0 -0.25380271698037138 -0.25700138034771891 0 -0.25142328947476522 -0.26295063516029488 0 -0.24732520214061929 -0.25772363101875601 0 -0.25722652137655938 -0.25156229858660373 0 -0.26227794933149973 -0.26147693171565539 0 -0.26381250405875373 -0.24902775701919841 0 -0.27579622653959968 -0.26224597648920028 0 -0.26771523081009702 -0.24613104914813719 0 -0.26381250405875373 -0.24902775701919841 0 -0.27579622653959968 -0.26224597648920028 0 -0.26771523081009702 -0.24613104914813719 0 -0.26227794933149973 -0.26147693171565539 0 -0.27579622653959968 -0.26224597648920028 0 -0.26381250405875373 -0.24902775701919841 0 -0.27579622653959968 -0.26224597648920028 0 -0.28330269037410288 -0.25159757207075412 0 -0.26771523081009702 -0.24613104914813719 0 -0.26793857852675801 -0.27052760145057198 0 -0.26227794933149973 -0.26147693171565539 0 -0.27579622653959968 -0.26224597648920028 0 -0.28330269037410288 -0.25159757207075412 0 -0.29325557616829279 -0.25850649293211397 0 -0.29557820019815922 -0.24692677995950271 0 -0.29325557616829279 -0.25850649293211397 0 -0.2861738961398877 -0.26712560034400401 0 -0.2962843201104155 -0.26916485202019053 0 -0.28330269037410288 -0.25159757207075412 0 -0.29325557616829279 -0.25850649293211397 0 -0.2861738961398877 -0.26712560034400401 0 -0.27579622653959968 -0.26224597648920028 0 -0.28330269037410288 -0.25159757207075412 0 -0.2861738961398877 -0.26712560034400401 0 -0.2861738961398877 -0.26712560034400401 0 -0.28387722226910261 -0.27836090383026341 0 -0.28906688223882709 -0.27356936248350228 0 -0.27579622653959968 -0.26224597648920028 0 -0.2861738961398877 -0.26712560034400401 0 -0.28387722226910261 -0.27836090383026341 0 -0.28859689564597601 -0.28169193885522131 0 -0.28387722226910261 -0.27836090383026341 0 -0.28906688223882709 -0.27356936248350228 0 -0.29366926454668207 -0.27892748866449379 0 -0.28906688223882709 -0.27356936248350228 0 -0.2962843201104155 -0.26916485202019053 0 -0.28859689564597601 -0.28169193885522131 0 -0.29366926454668207 -0.27892748866449379 0 -0.28906688223882709 -0.27356936248350228 0 -0.2861738961398877 -0.26712560034400401 0 -0.28906688223882709 -0.27356936248350228 0 -0.2962843201104155 -0.26916485202019053 0 -0.2962843201104155 -0.26916485202019053 0 -0.30560661353420249 -0.27326833722039301 0 -0.30493877401889841 -0.2577176602661187 0 -0.29366926454668207 -0.27892748866449379 0 -0.2962843201104155 -0.26916485202019053 0 -0.30560661353420249 -0.27326833722039301 0 -0.30138264113133362 -0.28233104881848642 0 -0.29366926454668207 -0.27892748866449379 0 -0.30560661353420249 -0.27326833722039301 0 -0.30827396028889797 -0.28246554331183521 0 -0.30138264113133362 -0.28233104881848642 0 -0.30560661353420249 -0.27326833722039301 0 -0.3159928134352134 -0.27679644605737819 0 -0.30827396028889797 -0.28246554331183521 0 -0.30560661353420249 -0.27326833722039301 0 -0.3130810632097224 -0.266588991848489 0 -0.30560661353420249 -0.27326833722039301 0 -0.30493877401889841 -0.2577176602661187 0 -0.3130810632097224 -0.266588991848489 0 -0.3159928134352134 -0.27679644605737819 0 -0.30560661353420249 -0.27326833722039301 0 -0.29325557616829279 -0.25850649293211397 0 -0.30493877401889841 -0.2577176602661187 0 -0.29557820019815922 -0.24692677995950271 0 -0.29325557616829279 -0.25850649293211397 0 -0.2962843201104155 -0.26916485202019053 0 -0.30493877401889841 -0.2577176602661187 0 -0.32988258233185558 -0.44653712452775612 0 -0.35149546716705832 -0.46019447376830952 0 -0.32988258233185558 -0.44653712452775612 0 -0.33182942840753382 -0.47428340630655641 0 -0.35149546716705832 -0.46019447376830952 0 -0.32988258233185558 -0.44653712452775612 0 -0.30826969749665312 -0.43287977528720262 0 -0.32988258233185558 -0.44653712452775612 0 -0.30826969749665312 -0.43287977528720262 0 -0.30871875766539142 -0.4604543527894408 0 -0.32988258233185558 -0.44653712452775612 0 -0.33182942840753382 -0.47428340630655641 0 -0.30871875766539142 -0.4604543527894408 0 -0.33182942840753382 -0.47428340630655641 0 -0.30871875766539142 -0.4604543527894408 0 -0.30831285976237022 -0.4857068019043505 0 -0.32966387233205452 -0.50000000000000078 0 -0.33182942840753382 -0.47428340630655641 0 -0.30831285976237022 -0.4857068019043505 0 -0.32966387233205452 -0.50000000000000078 0 -0.3031920390651841 -0.5 0 -0.30831285976237022 -0.4857068019043505 0 -0.32966387233205452 -0.50000000000000078 0 -0.30831285976237022 -0.4857068019043505 0 -0.32966387233205452 -0.50000000000000078 0 -0.33182942840753382 -0.47428340630655641 0 -0.34600896103530371 -0.48910549716678342 0 -0.33182942840753382 -0.47428340630655641 0 -0.35399614569873528 -0.47715222382091371 0 -0.35149546716705832 -0.46019447376830952 0 -0.33182942840753382 -0.47428340630655641 0 -0.35399614569873528 -0.47715222382091371 0 -0.34600896103530371 -0.48910549716678342 0 -0.32966387233205452 -0.50000000000000078 0 -0.34600896103530371 -0.48910549716678342 0 -0.35793861166801461 -0.5 0 -0.35399614569873528 -0.47715222382091371 0 -0.34600896103530371 -0.48910549716678342 0 -0.35661674707018032 -0.49409185570644698 0 -0.34600896103530371 -0.48910549716678342 0 -0.35793861166801461 -0.5 0 -0.35661674707018032 -0.49409185570644698 0 -0.35661674707018032 -0.49409185570644698 0 -0.37111642342747142 -0.47799766480426031 0 -0.35661674707018032 -0.49409185570644698 0 -0.36620810960871081 -0.4882134390204626 0 -0.37111642342747142 -0.47799766480426031 0 -0.3862133510039743 -0.5 0 -0.35793861166801461 -0.5 0 -0.37322388179364202 -0.49139696819120832 0 -0.35793861166801461 -0.5 0 -0.35661674707018032 -0.49409185570644698 0 -0.36620810960871081 -0.4882134390204626 0 -0.35793861166801461 -0.5 0 -0.36620810960871081 -0.4882134390204626 0 -0.37322388179364202 -0.49139696819120832 0 -0.36620810960871081 -0.4882134390204626 0 -0.37322388179364202 -0.49139696819120832 0 -0.37381966240987041 -0.48414241096890182 0 -0.35399614569873528 -0.47715222382091371 0 -0.37421914409173829 -0.47455374112924897 0 -0.35149546716705832 -0.46019447376830952 0 -0.35399614569873528 -0.47715222382091371 0 -0.35661674707018032 -0.49409185570644698 0 -0.37111642342747142 -0.47799766480426031 0 -0.35399614569873528 -0.47715222382091371 0 -0.37111642342747142 -0.47799766480426031 0 -0.37421914409173829 -0.47455374112924897 0 -0.36620810960871081 -0.4882134390204626 0 -0.37111642342747142 -0.47799766480426031 0 -0.36620810960871081 -0.4882134390204626 0 -0.37381966240987041 -0.48414241096890182 0 -0.37111642342747142 -0.47799766480426031 0 -0.37381966240987041 -0.48414241096890182 0 -0.37388848253625662 -0.47927133090340779 0 -0.37111642342747142 -0.47799766480426031 0 -0.37639870021594612 -0.48039150671122011 0 -0.37381966240987041 -0.48414241096890182 0 -0.37388848253625662 -0.47927133090340779 0 -0.37388848253625662 -0.47927133090340779 0 -0.37111642342747142 -0.47799766480426031 0 -0.37421914409173829 -0.47455374112924897 0 -0.37639870021594612 -0.48039150671122011 0 -0.37388848253625662 -0.47927133090340779 0 -0.37421914409173829 -0.47455374112924897 0 -0.37111642342747142 -0.47799766480426031 0 -0.37421914409173829 -0.47455374112924897 0 -0.37420858918356842 -0.47046915587106197 0 -0.36461591012889538 -0.45367916410644471 0 -0.37468548206347879 -0.44195406357553069 0 -0.37421914409173829 -0.47455374112924897 0 -0.35149546716705832 -0.46019447376830952 0 -0.37420858918356842 -0.47046915587106197 0 -0.37468548206347879 -0.44195406357553069 0 -0.37420858918356842 -0.47046915587106197 0 -0.37421914409173829 -0.47455374112924897 0 -0.35149546716705832 -0.46019447376830952 0 -0.37420858918356842 -0.47046915587106197 0 -0.36461591012889538 -0.45367916410644471 0 -0.35149546716705832 -0.46019447376830952 0 -0.36461591012889538 -0.45367916410644471 0 -0.35149546716705832 -0.46019447376830952 0 -0.35624336511554772 -0.44279362475169348 0 -0.32988258233185558 -0.44653712452775612 0 -0.35624336511554772 -0.44279362475169348 0 -0.35051788445781279 -0.42577505133792048 0 -0.32988258233185558 -0.44653712452775612 0 -0.35149546716705832 -0.46019447376830952 0 -0.35624336511554772 -0.44279362475169348 0 -0.35624336511554772 -0.44279362475169348 0 -0.37468548206347879 -0.44195406357553069 0 -0.36415227664505723 -0.43099042773628599 0 -0.36461591012889538 -0.45367916410644471 0 -0.35624336511554772 -0.44279362475169348 0 -0.37468548206347879 -0.44195406357553069 0 -0.37516237494338939 -0.4134389712799994 0 -0.37468548206347879 -0.44195406357553069 0 -0.37516237494338939 -0.4134389712799994 0 -0.37468548206347879 -0.44195406357553069 0 -0.36415227664505723 -0.43099042773628599 0 -0.37516237494338939 -0.4134389712799994 0 -0.36415227664505723 -0.43099042773628599 0 -0.35051788445781279 -0.42577505133792048 0 -0.37516237494338939 -0.4134389712799994 0 -0.35051788445781279 -0.42577505133792048 0 -0.34191273716771298 -0.40116891745173949 0 -0.35624336511554772 -0.44279362475169348 0 -0.36415227664505723 -0.43099042773628599 0 -0.35051788445781279 -0.42577505133792048 0 -0.37516237494338939 -0.4134389712799994 0 -0.35784251889029028 -0.38833351078814321 0 -0.34191273716771298 -0.40116891745173949 0 -0.37563926782329998 -0.38492387898446812 0 -0.3602465147127849 -0.36929411794308148 0 -0.35784251889029028 -0.38833351078814321 0 -0.37563926782329998 -0.38492387898446812 0 -0.37516237494338939 -0.4134389712799994 0 -0.35784251889029028 -0.38833351078814321 0 -0.3602465147127849 -0.36929411794308148 0 -0.35784251889029028 -0.38833351078814321 0 -0.34094015100203628 -0.37601287866651539 0 -0.35784251889029028 -0.38833351078814321 0 -0.34094015100203628 -0.37601287866651539 0 -0.34191273716771298 -0.40116891745173949 0 -0.34094015100203628 -0.37601287866651539 0 -0.34191273716771298 -0.40116891745173949 0 -0.324275152004534 -0.38298704724794808 0 -0.34191273716771298 -0.40116891745173949 0 -0.31862443198152018 -0.40099120937543098 0 -0.324275152004534 -0.38298704724794808 0 -0.31646171693212999 -0.36791377751173321 0 -0.324275152004534 -0.38298704724794808 0 -0.30509416676471951 -0.38035487576632621 0 -0.31862443198152018 -0.40099120937543098 0 -0.324275152004534 -0.38298704724794808 0 -0.30509416676471951 -0.38035487576632621 0 -0.32988258233185558 -0.44653712452775612 0 -0.35051788445781279 -0.42577505133792048 0 -0.32645551636310471 -0.42078542637000887 0 -0.35051788445781279 -0.42577505133792048 0 -0.34191273716771298 -0.40116891745173949 0 -0.32645551636310471 -0.42078542637000887 0 -0.34191273716771298 -0.40116891745173949 0 -0.31862443198152018 -0.40099120937543098 0 -0.32645551636310471 -0.42078542637000887 0 -0.31862443198152018 -0.40099120937543098 0 -0.32645551636310471 -0.42078542637000887 0 -0.30547320772972059 -0.41396379215526058 0 -0.32645551636310471 -0.42078542637000887 0 -0.30826969749665312 -0.43287977528720262 0 -0.30547320772972059 -0.41396379215526058 0 -0.32988258233185558 -0.44653712452775612 0 -0.32645551636310471 -0.42078542637000887 0 -0.30826969749665312 -0.43287977528720262 0 -0.30826969749665312 -0.43287977528720262 0 -0.30547320772972059 -0.41396379215526058 0 -0.28665681266145049 -0.41922242604664922 0 -0.30826969749665312 -0.43287977528720262 0 -0.28665681266145049 -0.41922242604664922 0 -0.30547320772972059 -0.41396379215526058 0 -0.28665681266145049 -0.41922242604664922 0 -0.29509296185472028 -0.39691691528967971 0 -0.30826969749665312 -0.43287977528720262 0 -0.28665681266145049 -0.41922242604664922 0 -0.28797057360089251 -0.44681323427319769 0 -0.28665681266145049 -0.41922242604664922 0 -0.2698735733824621 -0.43696122524874559 0 -0.28797057360089251 -0.44681323427319769 0 -0.31862443198152018 -0.40099120937543098 0 -0.30547320772972059 -0.41396379215526058 0 -0.29509296185472028 -0.39691691528967971 0 -0.31862443198152018 -0.40099120937543098 0 -0.30509416676471951 -0.38035487576632621 0 -0.29509296185472028 -0.39691691528967971 0 -0.28665681266145049 -0.41922242604664922 0 -0.29509296185472028 -0.39691691528967971 0 -0.27687180257843791 -0.40258034852602997 0 -0.29509296185472028 -0.39691691528967971 0 -0.27563161656916879 -0.38444197320118279 0 -0.27687180257843791 -0.40258034852602997 0 -0.28820621045501149 -0.37243698815395382 0 -0.30509416676471951 -0.38035487576632621 0 -0.29509296185472028 -0.39691691528967971 0 -0.28820621045501149 -0.37243698815395382 0 -0.29509296185472028 -0.39691691528967971 0 -0.27563161656916879 -0.38444197320118279 0 -0.27563161656916879 -0.38444197320118279 0 -0.27687180257843791 -0.40258034852602997 0 -0.26271015931348918 -0.39640358123686592 0 -0.27687180257843791 -0.40258034852602997 0 -0.26271015931348918 -0.39640358123686592 0 -0.26344634059265332 -0.41738434660608792 0 -0.25381845132695718 -0.40570678155870032 0 -0.26271015931348918 -0.39640358123686592 0 -0.2483850395406228 -0.39677103774543709 0 -0.27563161656916879 -0.38444197320118279 0 -0.26271015931348918 -0.39640358123686592 0 -0.25799796589382717 -0.37580106798200941 0 -0.26271015931348918 -0.39640358123686592 0 -0.25799796589382717 -0.37580106798200941 0 -0.2483850395406228 -0.39677103774543709 0 -0.28665681266145049 -0.41922242604664922 0 -0.2698735733824621 -0.43696122524874559 0 -0.26344634059265332 -0.41738434660608792 0 -0.28665681266145049 -0.41922242604664922 0 -0.27687180257843791 -0.40258034852602997 0 -0.26344634059265332 -0.41738434660608792 0 -0.25381845132695718 -0.40570678155870032 0 -0.26344634059265332 -0.41738434660608792 0 -0.24073226586106369 -0.41226816064641059 0 -0.25381845132695718 -0.40570678155870032 0 -0.26271015931348918 -0.39640358123686592 0 -0.26344634059265332 -0.41738434660608792 0 -0.26344634059265332 -0.41738434660608792 0 -0.24593207326981181 -0.43856636601434817 0 -0.24073226586106369 -0.41226816064641059 0 -0.2698735733824621 -0.43696122524874559 0 -0.26344634059265332 -0.41738434660608792 0 -0.24593207326981181 -0.43856636601434817 0 -0.2698735733824621 -0.43696122524874559 0 -0.2656108346230025 -0.45712040571304879 0 -0.24593207326981181 -0.43856636601434817 0 -0.2656108346230025 -0.45712040571304879 0 -0.25113188067855979 -0.46486457138228587 0 -0.26591829474559819 -0.47463076961417522 0 -0.2656108346230025 -0.45712040571304879 0 -0.25113188067855979 -0.46486457138228587 0 -0.24593207326981181 -0.43856636601434817 0 -0.2656108346230025 -0.45712040571304879 0 -0.28797057360089251 -0.44681323427319769 0 -0.28696184719268641 -0.47141360380869968 0 -0.2656108346230025 -0.45712040571304879 0 -0.28696184719268641 -0.47141360380869968 0 -0.26591829474559819 -0.47463076961417522 0 -0.2656108346230025 -0.45712040571304879 0 -0.28696184719268641 -0.47141360380869968 0 -0.2698735733824621 -0.43696122524874559 0 -0.2656108346230025 -0.45712040571304879 0 -0.28797057360089251 -0.44681323427319769 0 -0.28797057360089251 -0.44681323427319769 0 -0.30871875766539142 -0.4604543527894408 0 -0.28696184719268641 -0.47141360380869968 0 -0.30826969749665312 -0.43287977528720262 0 -0.28797057360089251 -0.44681323427319769 0 -0.30871875766539142 -0.4604543527894408 0 -0.3031920390651841 -0.5 0 -0.30831285976237022 -0.4857068019043505 0 -0.29019313802062369 -0.48845731123615049 0 -0.30871875766539142 -0.4604543527894408 0 -0.30831285976237022 -0.4857068019043505 0 -0.28696184719268641 -0.47141360380869968 0 -0.30831285976237022 -0.4857068019043505 0 -0.28696184719268641 -0.47141360380869968 0 -0.30831285976237022 -0.4857068019043505 0 -0.28696184719268641 -0.47141360380869968 0 -0.29019313802062369 -0.48845731123615049 0 -0.28696184719268641 -0.47141360380869968 0 -0.29019313802062369 -0.48845731123615049 0 -0.27522503476890597 -0.4851328922818498 0 -0.3031920390651841 -0.5 0 -0.29019313802062369 -0.48845731123615049 0 -0.27672020579831369 -0.5 0 -0.27672020579831369 -0.5 0 -0.27522503476890597 -0.4851328922818498 0 -0.25633168808730777 -0.49116277675022368 0 -0.29019313802062369 -0.48845731123615049 0 -0.27672020579831369 -0.5 0 -0.27522503476890597 -0.4851328922818498 0 -0.27522503476890597 -0.4851328922818498 0 -0.26591829474559819 -0.47463076961417522 0 -0.25633168808730777 -0.49116277675022368 0 -0.28696184719268641 -0.47141360380869968 0 -0.27522503476890597 -0.4851328922818498 0 -0.26591829474559819 -0.47463076961417522 0 -0.25113188067855979 -0.46486457138228587 0 -0.25633168808730777 -0.49116277675022368 0 -0.25113188067855979 -0.46486457138228587 0 -0.26591829474559819 -0.47463076961417522 0 -0.25633168808730777 -0.49116277675022368 0 -0.25113188067855979 -0.46486457138228587 0 -0.25633168808730777 -0.49116277675022368 0 -0.24462939296018549 -0.48913875954654479 0 -0.27672020579831369 -0.5 0 -0.25633168808730777 -0.49116277675022368 0 -0.25024837253144339 -0.5 0 -0.25633168808730777 -0.49116277675022368 0 -0.25024837253144339 -0.5 0 -0.24462939296018549 -0.48913875954654479 0 -0.25024837253144339 -0.5 0 -0.24462939296018549 -0.48913875954654479 0 -0.22377653926457311 -0.5 0 -0.24462939296018549 -0.48913875954654479 0 -0.23530980873527341 -0.482988007772084 0 -0.22377653926457311 -0.5 0 -0.25113188067855979 -0.46486457138228587 0 -0.24462939296018549 -0.48913875954654479 0 -0.23530980873527341 -0.482988007772084 0 -0.25113188067855979 -0.46486457138228587 0 -0.23530980873527341 -0.482988007772084 0 -0.2355750297610246 -0.46613566839865878 0 -0.23530980873527341 -0.482988007772084 0 -0.22182106042337649 -0.46981597033153077 0 -0.21057564326432679 -0.48458856899312719 0 -0.23530980873527341 -0.482988007772084 0 -0.22182106042337649 -0.46981597033153077 0 -0.2355750297610246 -0.46613566839865878 0 -0.23530980873527341 -0.482988007772084 0 -0.22377653926457311 -0.5 0 -0.21057564326432679 -0.48458856899312719 0 -0.24593207326981181 -0.43856636601434817 0 -0.22623700788273901 -0.45001322027868212 0 -0.23270584624616819 -0.42730533856508091 0 -0.25113188067855979 -0.46486457138228587 0 -0.24593207326981181 -0.43856636601434817 0 -0.24593207326981181 -0.43856636601434817 0 -0.2397189978980338 -0.45489495651849382 0 -0.22623700788273901 -0.45001322027868212 0 -0.25113188067855979 -0.46486457138228587 0 -0.24593207326981181 -0.43856636601434817 0 -0.2397189978980338 -0.45489495651849382 0 -0.25113188067855979 -0.46486457138228587 0 -0.2397189978980338 -0.45489495651849382 0 -0.2355750297610246 -0.46613566839865878 0 -0.22182106042337649 -0.46981597033153077 0 -0.22623700788273901 -0.45001322027868212 0 -0.21459898147763859 -0.45838425426728768 0 -0.22182106042337649 -0.46981597033153077 0 -0.2355750297610246 -0.46613566839865878 0 -0.22623700788273901 -0.45001322027868212 0 -0.2397189978980338 -0.45489495651849382 0 -0.2355750297610246 -0.46613566839865878 0 -0.22623700788273901 -0.45001322027868212 0 -0.22623700788273901 -0.45001322027868212 0 -0.2067650594155637 -0.44633636461588772 0 -0.21836881630969451 -0.43021604752807152 0 -0.22623700788273901 -0.45001322027868212 0 -0.2067650594155637 -0.44633636461588772 0 -0.21459898147763859 -0.45838425426728768 0 -0.2067650594155637 -0.44633636461588772 0 -0.19767672386055371 -0.43573229091467619 0 -0.20605001365878381 -0.43097216445049041 0 -0.2067650594155637 -0.44633636461588772 0 -0.20357279818887519 -0.46737146184305028 0 -0.21459898147763859 -0.45838425426728768 0 -0.22182106042337649 -0.46981597033153077 0 -0.20357279818887519 -0.46737146184305028 0 -0.21459898147763859 -0.45838425426728768 0 -0.20357279818887519 -0.46737146184305028 0 -0.1935682390765954 -0.45723686757952142 0 -0.18687447335381599 -0.47742627581825209 0 -0.1935682390765954 -0.45723686757952142 0 -0.18687447335381599 -0.47742627581825209 0 -0.18217109391214489 -0.45887260602029051 0 -0.2067650594155637 -0.44633636461588772 0 -0.20357279818887519 -0.46737146184305028 0 -0.1935682390765954 -0.45723686757952142 0 -0.1935682390765954 -0.45723686757952142 0 -0.18217109391214489 -0.45887260602029051 0 -0.1874885540795703 -0.44855744547175569 0 -0.2067650594155637 -0.44633636461588772 0 -0.1935682390765954 -0.45723686757952142 0 -0.1945374555096025 -0.4448570517078923 0 -0.1935682390765954 -0.45723686757952142 0 -0.1945374555096025 -0.4448570517078923 0 -0.1874885540795703 -0.44855744547175569 0 -0.1945374555096025 -0.4448570517078923 0 -0.18688322382571421 -0.43986627843166892 0 -0.1874885540795703 -0.44855744547175569 0 -0.1945374555096025 -0.4448570517078923 0 -0.18688322382571421 -0.43986627843166892 0 -0.19767672386055371 -0.43573229091467619 0 -0.2067650594155637 -0.44633636461588772 0 -0.1945374555096025 -0.4448570517078923 0 -0.19767672386055371 -0.43573229091467619 0 -0.22377653926457311 -0.5 0 -0.21057564326432679 -0.48458856899312719 0 -0.1973047059977027 -0.5 0 -0.22182106042337649 -0.46981597033153077 0 -0.20357279818887519 -0.46737146184305028 0 -0.21057564326432679 -0.48458856899312719 0 -0.20357279818887519 -0.46737146184305028 0 -0.21057564326432679 -0.48458856899312719 0 -0.18687447335381599 -0.47742627581825209 0 -0.21057564326432679 -0.48458856899312719 0 -0.1973047059977027 -0.5 0 -0.18687447335381599 -0.47742627581825209 0 -0.1973047059977027 -0.5 0 -0.1708328727308322 -0.5 0 -0.18687447335381599 -0.47742627581825209 0 -0.1708328727308322 -0.5 0 -0.15790454739405579 -0.46978252980790652 0 -0.14620357217370339 -0.48364883761756527 0 -0.1708328727308322 -0.5 0 -0.15790454739405579 -0.46978252980790652 0 -0.173798779415861 -0.4715743357374621 0 -0.1708328727308322 -0.5 0 -0.18687447335381599 -0.47742627581825209 0 -0.173798779415861 -0.4715743357374621 0 -0.18687447335381599 -0.47742627581825209 0 -0.173798779415861 -0.4715743357374621 0 -0.18217109391214489 -0.45887260602029051 0 -0.18687447335381599 -0.47742627581825209 0 -0.18217109391214489 -0.45887260602029051 0 -0.173798779415861 -0.4715743357374621 0 -0.18217109391214489 -0.45887260602029051 0 -0.16803706018234271 -0.45400753360486301 0 -0.18217109391214489 -0.45887260602029051 0 -0.18016386091494629 -0.44304891382654032 0 -0.1774677144704748 -0.44031893622232848 0 -0.18217109391214489 -0.45887260602029051 0 -0.18016386091494629 -0.44304891382654032 0 -0.1874885540795703 -0.44855744547175569 0 -0.18217109391214489 -0.45887260602029051 0 -0.1774677144704748 -0.44031893622232848 0 -0.18217109391214489 -0.45887260602029051 0 -0.1774677144704748 -0.44031893622232848 0 -0.16803706018234271 -0.45400753360486301 0 -0.18688322382571421 -0.43986627843166892 0 -0.18016386091494629 -0.44304891382654032 0 -0.1874885540795703 -0.44855744547175569 0 -0.18688322382571421 -0.43986627843166892 0 -0.18016386091494629 -0.44304891382654032 0 -0.1774677144704748 -0.44031893622232848 0 -0.18016386091494629 -0.44304891382654032 0 -0.1774677144704748 -0.44031893622232848 0 -0.15217964003084289 -0.44696905433028511 0 -0.1654547784624941 -0.42815526227580381 0 -0.16578479828653869 -0.44236269660832001 0 -0.15217964003084289 -0.44696905433028511 0 -0.1654547784624941 -0.42815526227580381 0 -0.16578479828653869 -0.44236269660832001 0 -0.16803706018234271 -0.45400753360486301 0 -0.15217964003084289 -0.44696905433028511 0 -0.1774677144704748 -0.44031893622232848 0 -0.16578479828653869 -0.44236269660832001 0 -0.16803706018234271 -0.45400753360486301 0 -0.15790454739405579 -0.46978252980790652 0 -0.173798779415861 -0.4715743357374621 0 -0.16803706018234271 -0.45400753360486301 0 -0.15790454739405579 -0.46978252980790652 0 -0.16803706018234271 -0.45400753360486301 0 -0.15217964003084289 -0.44696905433028511 0 -0.15790454739405579 -0.46978252980790652 0 -0.15217964003084289 -0.44696905433028511 0 -0.13890450159919129 -0.46578284638476608 0 -0.15217964003084289 -0.44696905433028511 0 -0.13890450159919129 -0.46578284638476608 0 -0.15217964003084289 -0.44696905433028511 0 -0.1326752624444559 -0.44952647105154431 0 -0.13890450159919129 -0.46578284638476608 0 -0.15217964003084289 -0.44696905433028511 0 -0.1326752624444559 -0.44952647105154431 0 -0.14562072192549941 -0.43117111919182671 0 -0.1326752624444559 -0.44952647105154431 0 -0.14562072192549941 -0.43117111919182671 0 -0.12496787136215361 -0.4339165613104235 0 -0.1326752624444559 -0.44952647105154431 0 -0.13890450159919129 -0.46578284638476608 0 -0.1166621345051833 -0.46349723396995829 0 -0.13890450159919129 -0.46578284638476608 0 -0.12562936316753959 -0.48459663843924727 0 -0.13890450159919129 -0.46578284638476608 0 -0.12562936316753959 -0.48459663843924727 0 -0.14620357217370339 -0.48364883761756527 0 -0.13890450159919129 -0.46578284638476608 0 -0.12562936316753959 -0.48459663843924727 0 -0.1166621345051833 -0.46349723396995829 0 -0.12562936316753959 -0.48459663843924727 0 -0.1443610394639617 -0.5 0 -0.1178892061970912 -0.49999999999999001 0 -0.12562936316753959 -0.48459663843924727 0 -0.1443610394639617 -0.5 0 -0.14620357217370339 -0.48364883761756527 0 -0.1708328727308322 -0.5 0 -0.1443610394639617 -0.5 0 -0.14620357217370339 -0.48364883761756527 0 -0.15790454739405579 -0.46978252980790652 0 -0.13890450159919129 -0.46578284638476608 0 -0.14620357217370339 -0.48364883761756527 0 -0.13443090869063479 -0.39674210597383047 0 -0.14994284357656451 -0.41244868412481722 0 -0.15308611904745459 -0.39715272614777569 0 -0.14199408616524031 -0.38727169524546828 0 -0.13443090869063479 -0.39674210597383047 0 -0.15308611904745459 -0.39715272614777569 0 -0.13443090869063479 -0.39674210597383047 0 -0.14994284357656451 -0.41244868412481722 0 -0.15308611904745459 -0.39715272614777569 0 -0.15152968734136399 -0.38480684922074659 0 -0.16320077543217859 -0.38403938675648058 0 -0.15308611904745459 -0.39715272614777569 0 -0.15152968734136399 -0.38480684922074659 0 -0.14199408616524031 -0.38727169524546828 0 -0.15152968734136399 -0.38480684922074659 0 -0.1541125811890855 -0.37614695852486463 0 -0.14294847837633951 -0.37726615828070181 0 -0.15152968734136399 -0.38480684922074659 0 -0.14294847837633951 -0.37726615828070181 0 -0.14199408616524031 -0.38727169524546828 0 -0.14199408616524031 -0.38727169524546828 0 -0.13259445116056631 -0.37838894091975223 0 -0.13443090869063479 -0.39674210597383047 0 -0.13443090869063479 -0.39674210597383047 0 -0.1189189738047052 -0.38103552782284372 0 -0.13259445116056631 -0.37838894091975223 0 -0.13443090869063479 -0.39674210597383047 0 -0.1189189738047052 -0.38103552782284372 0 -0.14294847837633951 -0.37726615828070181 0 -0.13259445116056631 -0.37838894091975223 0 -0.13784862147681989 -0.36989818520166051 0 -0.14294847837633951 -0.37726615828070181 0 -0.14199408616524031 -0.38727169524546828 0 -0.13259445116056631 -0.37838894091975223 0 -0.13443090869063479 -0.39674210597383047 0 -0.13518438902224669 -0.41795404086700849 0 -0.14994284357656451 -0.41244868412481722 0 -0.13443090869063479 -0.39674210597383047 0 -0.13518438902224669 -0.41795404086700849 0 -0.120959599556381 -0.41549173373414472 0 -0.13518438902224669 -0.41795404086700849 0 -0.12496787136215361 -0.4339165613104235 0 -0.120959599556381 -0.41549173373414472 0 -0.13518438902224669 -0.41795404086700849 0 -0.14562072192549941 -0.43117111919182671 0 -0.12496787136215361 -0.4339165613104235 0 -0.15217964003084289 -0.44696905433028511 0 -0.14562072192549941 -0.43117111919182671 0 -0.1654547784624941 -0.42815526227580381 0 -0.14562072192549941 -0.43117111919182671 0 -0.14994284357656451 -0.41244868412481722 0 -0.1654547784624941 -0.42815526227580381 0 -0.13518438902224669 -0.41795404086700849 0 -0.14562072192549941 -0.43117111919182671 0 -0.14994284357656451 -0.41244868412481722 0 -0.15308611904745459 -0.39715272614777569 0 -0.14994284357656451 -0.41244868412481722 0 -0.16200377182453371 -0.41212466982304902 0 -0.1759088424236491 -0.40884935337513861 0 -0.17202407502671621 -0.41884512361775278 0 -0.16761242522944689 -0.40144225518711679 0 -0.14994284357656451 -0.41244868412481722 0 -0.1654547784624941 -0.42815526227580381 0 -0.16200377182453371 -0.41212466982304902 0 -0.1654547784624941 -0.42815526227580381 0 -0.17202407502671621 -0.41884512361775278 0 -0.17202407502671621 -0.41884512361775278 0 -0.16761242522944689 -0.40144225518711679 0 -0.16200377182453371 -0.41212466982304902 0 -0.17202407502671621 -0.41884512361775278 0 -0.16761242522944689 -0.40144225518711679 0 -0.14994284357656451 -0.41244868412481722 0 -0.16200377182453371 -0.41212466982304902 0 -0.1654547784624941 -0.42815526227580381 0 -0.1774677144704748 -0.44031893622232848 0 -0.1654547784624941 -0.42815526227580381 0 -0.17202407502671621 -0.41884512361775278 0 -0.1654547784624941 -0.42815526227580381 0 -0.17202407502671621 -0.41884512361775278 0 -0.1774677144704748 -0.44031893622232848 0 -0.1654547784624941 -0.42815526227580381 0 -0.1774677144704748 -0.44031893622232848 0 -0.16578479828653869 -0.44236269660832001 0 -0.1654547784624941 -0.42815526227580381 0 -0.1774677144704748 -0.44031893622232848 0 -0.17202407502671621 -0.41884512361775278 0 -0.1774677144704748 -0.44031893622232848 0 -0.18258405952874379 -0.42604011971629713 0 -0.17202407502671621 -0.41884512361775278 0 -0.18258405952874379 -0.42604011971629713 0 -0.18869252968221531 -0.43157192333605737 0 -0.18994168199323719 -0.42277072049553838 0 -0.1774677144704748 -0.44031893622232848 0 -0.18258405952874379 -0.42604011971629713 0 -0.18869252968221531 -0.43157192333605737 0 -0.18688322382571421 -0.43986627843166892 0 -0.1774677144704748 -0.44031893622232848 0 -0.18869252968221531 -0.43157192333605737 0 -0.17202407502671621 -0.41884512361775278 0 -0.18464119415635319 -0.40096388969663471 0 -0.1759088424236491 -0.40884935337513861 0 -0.17202407502671621 -0.41884512361775278 0 -0.18464119415635319 -0.40096388969663471 0 -0.17202407502671621 -0.41884512361775278 0 -0.18536882681276531 -0.41529317951474998 0 -0.18464119415635319 -0.40096388969663471 0 -0.18258405952874379 -0.42604011971629713 0 -0.17202407502671621 -0.41884512361775278 0 -0.18536882681276531 -0.41529317951474998 0 -0.18258405952874379 -0.42604011971629713 0 -0.18536882681276531 -0.41529317951474998 0 -0.18994168199323719 -0.42277072049553838 0 -0.18536882681276531 -0.41529317951474998 0 -0.18464119415635319 -0.40096388969663471 0 -0.1923851856351623 -0.4072418103365214 0 -0.1759088424236491 -0.40884935337513861 0 -0.18464119415635319 -0.40096388969663471 0 -0.17902971109084359 -0.39564984876477538 0 -0.18464119415635319 -0.40096388969663471 0 -0.17902971109084359 -0.39564984876477538 0 -0.18425085992393009 -0.38514811224615619 0 -0.1759088424236491 -0.40884935337513861 0 -0.17902971109084359 -0.39564984876477538 0 -0.17131794785944179 -0.38763803974117222 0 -0.1759088424236491 -0.40884935337513861 0 -0.17131794785944179 -0.38763803974117222 0 -0.16761242522944689 -0.40144225518711679 0 -0.16320077543217859 -0.38403938675648058 0 -0.15308611904745459 -0.39715272614777569 0 -0.16761242522944689 -0.40144225518711679 0 -0.16320077543217859 -0.38403938675648058 0 -0.16761242522944689 -0.40144225518711679 0 -0.16320077543217859 -0.38403938675648058 0 -0.17131794785944179 -0.38763803974117222 0 -0.1759088424236491 -0.40884935337513861 0 -0.16761242522944689 -0.40144225518711679 0 -0.17131794785944179 -0.38763803974117222 0 -0.15308611904745459 -0.39715272614777569 0 -0.16200377182453371 -0.41212466982304902 0 -0.16761242522944689 -0.40144225518711679 0 -0.17131794785944179 -0.38763803974117222 0 -0.1667270532952346 -0.36642672610720578 0 -0.17131794785944179 -0.38763803974117222 0 -0.17549827427177839 -0.37584047805472792 0 -0.1667270532952346 -0.36642672610720578 0 -0.16265291029837989 -0.37673207977072037 0 -0.17131794785944179 -0.38763803974117222 0 -0.1667270532952346 -0.36642672610720578 0 -0.15152968734136399 -0.38480684922074659 0 -0.1541125811890855 -0.37614695852486463 0 -0.16320077543217859 -0.38403938675648058 0 -0.1541125811890855 -0.37614695852486463 0 -0.16265291029837989 -0.37673207977072037 0 -0.16320077543217859 -0.38403938675648058 0 -0.16265291029837989 -0.37673207977072037 0 -0.16320077543217859 -0.38403938675648058 0 -0.17131794785944179 -0.38763803974117222 0 -0.17549827427177839 -0.37584047805472792 0 -0.18425085992393009 -0.38514811224615619 0 -0.17969723600850701 -0.3641490341243776 0 -0.18425085992393009 -0.38514811224615619 0 -0.19725831328598789 -0.38308265577551481 0 -0.17969723600850701 -0.3641490341243776 0 -0.17902971109084359 -0.39564984876477538 0 -0.17131794785944179 -0.38763803974117222 0 -0.18425085992393009 -0.38514811224615619 0 -0.17131794785944179 -0.38763803974117222 0 -0.17549827427177839 -0.37584047805472792 0 -0.18425085992393009 -0.38514811224615619 0 -0.18464119415635319 -0.40096388969663471 0 -0.18425085992393009 -0.38514811224615619 0 -0.19725831328598789 -0.38308265577551481 0 -0.18464119415635319 -0.40096388969663471 0 -0.19725831328598789 -0.38308265577551481 0 -0.19707271713142319 -0.39885176369171049 0 -0.18464119415635319 -0.40096388969663471 0 -0.19725831328598789 -0.38308265577551481 0 -0.19725831328598789 -0.38308265577551481 0 -0.19707271713142319 -0.39885176369171049 0 -0.2123526336361162 -0.39935672291129859 0 -0.18464119415635319 -0.40096388969663471 0 -0.19707271713142319 -0.39885176369171049 0 -0.1923851856351623 -0.4072418103365214 0 -0.19707271713142319 -0.39885176369171049 0 -0.1923851856351623 -0.4072418103365214 0 -0.20096536963236911 -0.40740494361103791 0 -0.19725831328598789 -0.38308265577551481 0 -0.2123526336361162 -0.39935672291129859 0 -0.19707271713142319 -0.39885176369171049 0 -0.2123526336361162 -0.39935672291129859 0 -0.20096536963236911 -0.40740494361103791 0 -0.19725831328598789 -0.38308265577551481 0 -0.21650158932078131 -0.38025414339718899 0 -0.21198362135204529 -0.36221365427174201 0 -0.19725831328598789 -0.38308265577551481 0 -0.2123526336361162 -0.39935672291129859 0 -0.21650158932078131 -0.38025414339718899 0 -0.19767672386055371 -0.43573229091467619 0 -0.1983141060141165 -0.42548355383860248 0 -0.20605001365878381 -0.43097216445049041 0 -0.19767672386055371 -0.43573229091467619 0 -0.18869252968221531 -0.43157192333605737 0 -0.1983141060141165 -0.42548355383860248 0 -0.18688322382571421 -0.43986627843166892 0 -0.19767672386055371 -0.43573229091467619 0 -0.18869252968221531 -0.43157192333605737 0 -0.18869252968221531 -0.43157192333605737 0 -0.18994168199323719 -0.42277072049553838 0 -0.1983141060141165 -0.42548355383860248 0 -0.1983141060141165 -0.42548355383860248 0 -0.19499737578733689 -0.41559087710470149 0 -0.20912536269399071 -0.41709256535521388 0 -0.18536882681276531 -0.41529317951474998 0 -0.18994168199323719 -0.42277072049553838 0 -0.19499737578733689 -0.41559087710470149 0 -0.18994168199323719 -0.42277072049553838 0 -0.1983141060141165 -0.42548355383860248 0 -0.19499737578733689 -0.41559087710470149 0 -0.18536882681276531 -0.41529317951474998 0 -0.19499737578733689 -0.41559087710470149 0 -0.1923851856351623 -0.4072418103365214 0 -0.19499737578733689 -0.41559087710470149 0 -0.20096536963236911 -0.40740494361103791 0 -0.20912536269399071 -0.41709256535521388 0 -0.19499737578733689 -0.41559087710470149 0 -0.1923851856351623 -0.4072418103365214 0 -0.20096536963236911 -0.40740494361103791 0 -0.2123526336361162 -0.39935672291129859 0 -0.20912536269399071 -0.41709256535521388 0 -0.22591250159935131 -0.41209641685528342 0 -0.20912536269399071 -0.41709256535521388 0 -0.21836881630969451 -0.43021604752807152 0 -0.22591250159935131 -0.41209641685528342 0 -0.2123526336361162 -0.39935672291129859 0 -0.20096536963236911 -0.40740494361103791 0 -0.20912536269399071 -0.41709256535521388 0 -0.2067650594155637 -0.44633636461588772 0 -0.21836881630969451 -0.43021604752807152 0 -0.20605001365878381 -0.43097216445049041 0 -0.1983141060141165 -0.42548355383860248 0 -0.20912536269399071 -0.41709256535521388 0 -0.20605001365878381 -0.43097216445049041 0 -0.20912536269399071 -0.41709256535521388 0 -0.21836881630969451 -0.43021604752807152 0 -0.20605001365878381 -0.43097216445049041 0 -0.21836881630969451 -0.43021604752807152 0 -0.23270584624616819 -0.42730533856508091 0 -0.22591250159935131 -0.41209641685528342 0 -0.22623700788273901 -0.45001322027868212 0 -0.21836881630969451 -0.43021604752807152 0 -0.23270584624616819 -0.42730533856508091 0 -0.23270584624616819 -0.42730533856508091 0 -0.22591250159935131 -0.41209641685528342 0 -0.24073226586106369 -0.41226816064641059 0 -0.24593207326981181 -0.43856636601434817 0 -0.24073226586106369 -0.41226816064641059 0 -0.24593207326981181 -0.43856636601434817 0 -0.23270584624616819 -0.42730533856508091 0 -0.24073226586106369 -0.41226816064641059 0 -0.21650158932078131 -0.38025414339718899 0 -0.2355324584523161 -0.38596995527847289 0 -0.2311206939352082 -0.36365730402322027 0 -0.2123526336361162 -0.39935672291129859 0 -0.21650158932078131 -0.38025414339718899 0 -0.2355324584523161 -0.38596995527847289 0 -0.22591250159935131 -0.41209641685528342 0 -0.24073226586106369 -0.41226816064641059 0 -0.2355324584523161 -0.38596995527847289 0 -0.2123526336361162 -0.39935672291129859 0 -0.22591250159935131 -0.41209641685528342 0 -0.2355324584523161 -0.38596995527847289 0 -0.22591250159935131 -0.41209641685528342 0 -0.2355324584523161 -0.38596995527847289 0 -0.24073226586106369 -0.41226816064641059 0 -0.2483850395406228 -0.39677103774543709 0 -0.2355324584523161 -0.38596995527847289 0 -0.24073226586106369 -0.41226816064641059 0 -0.2355324584523161 -0.38596995527847289 0 -0.25381845132695718 -0.40570678155870032 0 -0.24073226586106369 -0.41226816064641059 0 -0.2483850395406228 -0.39677103774543709 0 -0.25799796589382717 -0.37580106798200941 0 -0.2483850395406228 -0.39677103774543709 0 -0.2355324584523161 -0.38596995527847289 0 -0.2355324584523161 -0.38596995527847289 0 -0.2440942507316548 -0.3627173211519682 0 -0.2311206939352082 -0.36365730402322027 0 -0.2355324584523161 -0.38596995527847289 0 -0.2440942507316548 -0.3627173211519682 0 -0.25799796589382717 -0.37580106798200941 0 -0.2355324584523161 -0.38596995527847289 0 -0.2440942507316548 -0.3627173211519682 0 -0.2355324584523161 -0.38596995527847289 0 -0.2311206939352082 -0.36365730402322027 0 -0.21650158932078131 -0.38025414339718899 0 -0.2311206939352082 -0.36365730402322027 0 -0.21198362135204529 -0.36221365427174201 0 -0.2311206939352082 -0.36365730402322027 0 -0.226708929418101 -0.34134465276796783 0 -0.2311206939352082 -0.36365730402322027 0 -0.226708929418101 -0.34134465276796783 0 -0.21198362135204529 -0.36221365427174201 0 -0.2311206939352082 -0.36365730402322027 0 -0.2387962610664319 -0.34906583993236878 0 -0.226708929418101 -0.34134465276796783 0 -0.226708929418101 -0.34134465276796783 0 -0.21198362135204529 -0.36221365427174201 0 -0.2526560430109932 -0.33946468702546317 0 -0.2440942507316548 -0.3627173211519682 0 -0.2526560430109932 -0.33946468702546317 0 -0.2440942507316548 -0.3627173211519682 0 -0.2387962610664319 -0.34906583993236878 0 -0.2440942507316548 -0.3627173211519682 0 -0.2311206939352082 -0.36365730402322027 0 -0.2387962610664319 -0.34906583993236878 0 -0.2526560430109932 -0.33946468702546317 0 -0.2387962610664319 -0.34906583993236878 0 -0.239401388236202 -0.33814523469322438 0 -0.239401388236202 -0.33814523469322438 0 -0.23816092609735329 -0.32511465371813858 0 -0.226708929418101 -0.34134465276796783 0 -0.25369446209554852 -0.32391991884343901 0 -0.239401388236202 -0.33814523469322438 0 -0.23816092609735329 -0.32511465371813858 0 -0.2526560430109932 -0.33946468702546317 0 -0.25369446209554852 -0.32391991884343901 0 -0.239401388236202 -0.33814523469322438 0 -0.2387962610664319 -0.34906583993236878 0 -0.239401388236202 -0.33814523469322438 0 -0.226708929418101 -0.34134465276796783 0 -0.23816092609735329 -0.32511465371813858 0 -0.24008677595869629 -0.31123809350909248 0 -0.23170028542827789 -0.30745465263148652 0 -0.23816092609735329 -0.32511465371813858 0 -0.24961292277660421 -0.30888465466830839 0 -0.23816092609735329 -0.32511465371813858 0 -0.24961292277660421 -0.30888465466830839 0 -0.24008677595869629 -0.31123809350909248 0 -0.25369446209554852 -0.32391991884343901 0 -0.23816092609735329 -0.32511465371813858 0 -0.24961292277660421 -0.30888465466830839 0 -0.23816092609735329 -0.32511465371813858 0 -0.22190682906741879 -0.31705786456746321 0 -0.226708929418101 -0.34134465276796783 0 -0.23816092609735329 -0.32511465371813858 0 -0.22190682906741879 -0.31705786456746321 0 -0.23170028542827789 -0.30745465263148652 0 -0.22190682906741879 -0.31705786456746321 0 -0.226708929418101 -0.34134465276796783 0 -0.20779016000858611 -0.32952983220594018 0 -0.22190682906741879 -0.31705786456746321 0 -0.226708929418101 -0.34134465276796783 0 -0.23816092609735329 -0.32511465371813858 0 -0.226708929418101 -0.34134465276796783 0 -0.226708929418101 -0.34134465276796783 0 -0.20779016000858611 -0.32952983220594018 0 -0.2079422223924613 -0.34500469081357649 0 -0.20779016000858611 -0.32952983220594018 0 -0.19631397311823551 -0.34073754469885698 0 -0.2079422223924613 -0.34500469081357649 0 -0.22190682906741879 -0.31705786456746321 0 -0.20779016000858611 -0.32952983220594018 0 -0.20893244203842459 -0.31377494782851412 0 -0.20779016000858611 -0.32952983220594018 0 -0.20893244203842459 -0.31377494782851412 0 -0.19885890759314651 -0.31972722297849038 0 -0.20893244203842459 -0.31377494782851412 0 -0.19885890759314651 -0.31972722297849038 0 -0.1980674361735229 -0.30643090183365801 0 -0.20779016000858611 -0.32952983220594018 0 -0.19885890759314651 -0.31972722297849038 0 -0.19251100860520581 -0.32972265176546062 0 -0.19885890759314651 -0.31972722297849038 0 -0.19251100860520581 -0.32972265176546062 0 -0.18652641682363699 -0.3174988606638488 0 -0.19885890759314651 -0.31972722297849038 0 -0.1980674361735229 -0.30643090183365801 0 -0.18652641682363699 -0.3174988606638488 0 -0.20779016000858611 -0.32952983220594018 0 -0.19631397311823551 -0.34073754469885698 0 -0.19251100860520581 -0.32972265176546062 0 -0.19631397311823551 -0.34073754469885698 0 -0.18803299890046479 -0.34949396446895092 0 -0.18451804220975571 -0.33885855651754287 0 -0.19631397311823551 -0.34073754469885698 0 -0.19251100860520581 -0.32972265176546062 0 -0.18451804220975571 -0.33885855651754287 0 -0.19631397311823551 -0.34073754469885698 0 -0.18803299890046479 -0.34949396446895092 0 -0.19905190516589219 -0.351846267704088 0 -0.19905190516589219 -0.351846267704088 0 -0.1949117072121595 -0.36184287483214678 0 -0.21198362135204529 -0.36221365427174201 0 -0.19631397311823551 -0.34073754469885698 0 -0.19905190516589219 -0.351846267704088 0 -0.2079422223924613 -0.34500469081357649 0 -0.18803299890046479 -0.34949396446895092 0 -0.1949117072121595 -0.36184287483214678 0 -0.18429943246876171 -0.35583650861236438 0 -0.18803299890046479 -0.34949396446895092 0 -0.19905190516589219 -0.351846267704088 0 -0.1949117072121595 -0.36184287483214678 0 -0.19725831328598789 -0.38308265577551481 0 -0.1949117072121595 -0.36184287483214678 0 -0.21198362135204529 -0.36221365427174201 0 -0.19725831328598789 -0.38308265577551481 0 -0.17969723600850701 -0.3641490341243776 0 -0.19725831328598789 -0.38308265577551481 0 -0.1949117072121595 -0.36184287483214678 0 -0.17969723600850701 -0.3641490341243776 0 -0.19725831328598789 -0.38308265577551481 0 -0.21198362135204529 -0.36221365427174201 0 -0.226708929418101 -0.34134465276796783 0 -0.21198362135204529 -0.36221365427174201 0 -0.2079422223924613 -0.34500469081357649 0 -0.19905190516589219 -0.351846267704088 0 -0.21198362135204529 -0.36221365427174201 0 -0.2079422223924613 -0.34500469081357649 0 -0.22213085402192559 -0.26193513398369161 0 -0.21588868556076199 -0.24385107089599919 0 -0.22213085402192559 -0.26193513398369161 0 -0.22986248486316421 -0.25346112034917878 0 -0.21588868556076199 -0.24385107089599919 0 -0.22213085402192559 -0.26193513398369161 0 -0.21636264336652611 -0.25972384706011292 0 -0.22213085402192559 -0.26193513398369161 0 -0.22327400621076229 -0.2688117771235855 0 -0.2181643797777974 -0.26407587195304982 0 -0.22213085402192559 -0.26193513398369161 0 -0.2181643797777974 -0.26407587195304982 0 -0.21636264336652611 -0.25972384706011292 0 -0.22213085402192559 -0.26193513398369161 0 -0.22986248486316421 -0.25346112034917878 0 -0.23368330199115839 -0.26636385177086058 0 -0.22213085402192559 -0.26193513398369161 0 -0.23368330199115839 -0.26636385177086058 0 -0.22986248486316421 -0.25346112034917878 0 -0.23368330199115839 -0.26636385177086058 0 -0.22986248486316421 -0.25346112034917878 0 -0.2418545889394263 -0.26170832003528799 0 -0.22986248486316421 -0.25346112034917878 0 -0.24365410585685729 -0.25271518056377179 0 -0.2418545889394263 -0.26170832003528799 0 -0.22986248486316421 -0.25346112034917878 0 -0.24365410585685729 -0.25271518056377179 0 -0.2397414864642112 -0.24651558165772669 0 -0.24365410585685729 -0.25271518056377179 0 -0.24732520214061929 -0.25772363101875601 0 -0.2418545889394263 -0.26170832003528799 0 -0.24365410585685729 -0.25271518056377179 0 -0.24732520214061929 -0.25772363101875601 0 -0.24962427814893129 -0.249267442217251 0 -0.25142328947476522 -0.26295063516029488 0 -0.24732520214061929 -0.25772363101875601 0 -0.2418545889394263 -0.26170832003528799 0 -0.22986248486316421 -0.25346112034917878 0 -0.2418545889394263 -0.26170832003528799 0 -0.23368330199115839 -0.26636385177086058 0 -0.23368330199115839 -0.26636385177086058 0 -0.23851572438307439 -0.28268272968368829 0 -0.25287321277439723 -0.27372044835076298 0 -0.2418545889394263 -0.26170832003528799 0 -0.23368330199115839 -0.26636385177086058 0 -0.25287321277439723 -0.27372044835076298 0 -0.23368330199115839 -0.26636385177086058 0 -0.25287321277439723 -0.27372044835076298 0 -0.23368330199115839 -0.26636385177086058 0 -0.23851572438307439 -0.28268272968368829 0 -0.25287321277439723 -0.27372044835076298 0 -0.25142328947476522 -0.26295063516029488 0 -0.2418545889394263 -0.26170832003528799 0 -0.23368330199115839 -0.26636385177086058 0 -0.2263969395688312 -0.27869271695990899 0 -0.23851572438307439 -0.28268272968368829 0 -0.23368330199115839 -0.26636385177086058 0 -0.22327400621076229 -0.2688117771235855 0 -0.2263969395688312 -0.27869271695990899 0 -0.22327400621076229 -0.2688117771235855 0 -0.2263969395688312 -0.27869271695990899 0 -0.21230262836605501 -0.26848428816645392 0 -0.22213085402192559 -0.26193513398369161 0 -0.23368330199115839 -0.26636385177086058 0 -0.22327400621076229 -0.2688117771235855 0 -0.2263969395688312 -0.27869271695990899 0 -0.2329123755027418 -0.29510395987896682 0 -0.23851572438307439 -0.28268272968368829 0 -0.2263969395688312 -0.27869271695990899 0 -0.2329123755027418 -0.29510395987896682 0 -0.21710472871673689 -0.29277107636695848 0 -0.25417160140005551 -0.28864457351590012 0 -0.25080396598643939 -0.29595923645909822 0 -0.23851572438307439 -0.28268272968368829 0 -0.25080396598643939 -0.29595923645909822 0 -0.23851572438307439 -0.28268272968368829 0 -0.243348146774989 -0.29900160759651628 0 -0.23851572438307439 -0.28268272968368829 0 -0.243348146774989 -0.29900160759651628 0 -0.2329123755027418 -0.29510395987896682 0 -0.23851572438307439 -0.28268272968368829 0 -0.243348146774989 -0.29900160759651628 0 -0.25417160140005551 -0.28864457351590012 0 -0.25287321277439723 -0.27372044835076298 0 -0.23851572438307439 -0.28268272968368829 0 -0.2329123755027418 -0.29510395987896682 0 -0.23862525671700421 -0.30334869229807149 0 -0.243348146774989 -0.29900160759651628 0 -0.2329123755027418 -0.29510395987896682 0 -0.23862525671700421 -0.30334869229807149 0 -0.23170028542827789 -0.30745465263148652 0 -0.23862525671700421 -0.30334869229807149 0 -0.243348146774989 -0.29900160759651628 0 -0.2471461391624904 -0.30215923705505032 0 -0.25080396598643939 -0.29595923645909822 0 -0.243348146774989 -0.29900160759651628 0 -0.2471461391624904 -0.30215923705505032 0 -0.23862525671700421 -0.30334869229807149 0 -0.24961292277660421 -0.30888465466830839 0 -0.23862525671700421 -0.30334869229807149 0 -0.24961292277660421 -0.30888465466830839 0 -0.24008677595869629 -0.31123809350909248 0 -0.23862525671700421 -0.30334869229807149 0 -0.2471461391624904 -0.30215923705505032 0 -0.24961292277660421 -0.30888465466830839 0 -0.23862525671700421 -0.30334869229807149 0 -0.24008677595869629 -0.31123809350909248 0 -0.23170028542827789 -0.30745465263148652 0 -0.22190682906741879 -0.31705786456746321 0 -0.21710472871673689 -0.29277107636695848 0 -0.2329123755027418 -0.29510395987896682 0 -0.23170028542827789 -0.30745465263148652 0 -0.21710472871673689 -0.29277107636695848 0 -0.22190682906741879 -0.31705786456746321 0 -0.23170028542827789 -0.30745465263148652 0 -0.21710472871673689 -0.29277107636695848 0 -0.20893244203842459 -0.31377494782851412 0 -0.1980674361735229 -0.30643090183365801 0 -0.21710472871673689 -0.29277107636695848 0 -0.22190682906741879 -0.31705786456746321 0 -0.20893244203842459 -0.31377494782851412 0 -0.21710472871673689 -0.29277107636695848 0 -0.1980674361735229 -0.30643090183365801 0 -0.19952085048696369 -0.29069074863582489 0 -0.18752559525942131 -0.29439512046333188 0 -0.1980674361735229 -0.30643090183365801 0 -0.1860411713637504 -0.30585758867999813 0 -0.18652641682363699 -0.3174988606638488 0 -0.1980674361735229 -0.30643090183365801 0 -0.18752559525942131 -0.29439512046333188 0 -0.1860411713637504 -0.30585758867999813 0 -0.19952085048696369 -0.29069074863582489 0 -0.18752559525942131 -0.29439512046333188 0 -0.19109528116756891 -0.28137828013613908 0 -0.19952085048696369 -0.29069074863582489 0 -0.19109528116756891 -0.28137828013613908 0 -0.20381121111756839 -0.27847836437903711 0 -0.19952085048696369 -0.29069074863582489 0 -0.21710472871673689 -0.29277107636695848 0 -0.20381121111756839 -0.27847836437903711 0 -0.1980674361735229 -0.30643090183365801 0 -0.19952085048696369 -0.29069074863582489 0 -0.21710472871673689 -0.29277107636695848 0 -0.2263969395688312 -0.27869271695990899 0 -0.21710472871673689 -0.29277107636695848 0 -0.21230262836605501 -0.26848428816645392 0 -0.21710472871673689 -0.29277107636695848 0 -0.21230262836605501 -0.26848428816645392 0 -0.21710472871673689 -0.29277107636695848 0 -0.21230262836605501 -0.26848428816645392 0 -0.20381121111756839 -0.27847836437903711 0 -0.22327400621076229 -0.2688117771235855 0 -0.21230262836605501 -0.26848428816645392 0 -0.2181643797777974 -0.26407587195304982 0 -0.21230262836605501 -0.26848428816645392 0 -0.20508461512495421 -0.26799458234579049 0 -0.20381121111756839 -0.27847836437903711 0 -0.21230262836605501 -0.26848428816645392 0 -0.20508461512495421 -0.26799458234579049 0 -0.21271211070318191 -0.26335303734083437 0 -0.19109528116756891 -0.28137828013613908 0 -0.20381121111756839 -0.27847836437903711 0 -0.19685767793420181 -0.26696861138753669 0 -0.19109528116756891 -0.28137828013613908 0 -0.19685767793420181 -0.26696861138753669 0 -0.18458928599434149 -0.27224563950889807 0 -0.20508461512495421 -0.26799458234579049 0 -0.20381121111756839 -0.27847836437903711 0 -0.19685767793420181 -0.26696861138753669 0 -0.19685767793420181 -0.26696861138753669 0 -0.1955574188947195 -0.25150403585599412 0 -0.20745460676017191 -0.26091645399822111 0 -0.19685767793420181 -0.26696861138753669 0 -0.1955574188947195 -0.25150403585599412 0 -0.17742027820487319 -0.26066594327904569 0 -0.1955574188947195 -0.25150403585599412 0 -0.20979158283334889 -0.25166750724865389 0 -0.20745460676017191 -0.26091645399822111 0 -0.22213085402192559 -0.26193513398369161 0 -0.21636264336652611 -0.25972384706011292 0 -0.21588868556076199 -0.24385107089599919 0 -0.20979158283334889 -0.25166750724865389 0 -0.21636264336652611 -0.25972384706011292 0 -0.21588868556076199 -0.24385107089599919 0 -0.20508461512495421 -0.26799458234579049 0 -0.19685767793420181 -0.26696861138753669 0 -0.20745460676017191 -0.26091645399822111 0 -0.20508461512495421 -0.26799458234579049 0 -0.20745460676017191 -0.26091645399822111 0 -0.21271211070318191 -0.26335303734083437 0 -0.20745460676017191 -0.26091645399822111 0 -0.21271211070318191 -0.26335303734083437 0 -0.21636264336652611 -0.25972384706011292 0 -0.21230262836605501 -0.26848428816645392 0 -0.21271211070318191 -0.26335303734083437 0 -0.2181643797777974 -0.26407587195304982 0 -0.21271211070318191 -0.26335303734083437 0 -0.2181643797777974 -0.26407587195304982 0 -0.21636264336652611 -0.25972384706011292 0 -0.20979158283334889 -0.25166750724865389 0 -0.20745460676017191 -0.26091645399822111 0 -0.21636264336652611 -0.25972384706011292 0 -0.17742027820487319 -0.26066594327904569 0 -0.15928313751502701 -0.26982785070209742 0 -0.17742027820487319 -0.26066594327904569 0 -0.15574900656767399 -0.25088930115713548 0 -0.17666510664643789 -0.24498908886430759 0 -0.17742027820487319 -0.26066594327904569 0 -0.15928313751502701 -0.26982785070209742 0 -0.15574900656767399 -0.25088930115713548 0 -0.1955574188947195 -0.25150403585599412 0 -0.17742027820487319 -0.26066594327904569 0 -0.17666510664643789 -0.24498908886430759 0 -0.1955574188947195 -0.25150403585599412 0 -0.17742027820487319 -0.26066594327904569 0 -0.19109528116756891 -0.28137828013613908 0 -0.18458928599434149 -0.27224563950889807 0 -0.17240478923424549 -0.28265991626114151 0 -0.17742027820487319 -0.26066594327904569 0 -0.18458928599434149 -0.27224563950889807 0 -0.17240478923424549 -0.28265991626114151 0 -0.19685767793420181 -0.26696861138753669 0 -0.17742027820487319 -0.26066594327904569 0 -0.18458928599434149 -0.27224563950889807 0 -0.17742027820487319 -0.26066594327904569 0 -0.15928313751502701 -0.26982785070209742 0 -0.17240478923424549 -0.28265991626114151 0 -0.15928313751502701 -0.26982785070209742 0 -0.17240478923424549 -0.28265991626114151 0 -0.1516229873611927 -0.27858892562180509 0 -0.17240478923424549 -0.28265991626114151 0 -0.17564652210804019 -0.30080358444860927 0 -0.16265120035035599 -0.30042923072353372 0 -0.17240478923424549 -0.28265991626114151 0 -0.16265120035035599 -0.30042923072353372 0 -0.1546208614672489 -0.29040374949457498 0 -0.17240478923424549 -0.28265991626114151 0 -0.1546208614672489 -0.29040374949457498 0 -0.1516229873611927 -0.27858892562180509 0 -0.18752559525942131 -0.29439512046333188 0 -0.19109528116756891 -0.28137828013613908 0 -0.17240478923424549 -0.28265991626114151 0 -0.18752559525942131 -0.29439512046333188 0 -0.17240478923424549 -0.28265991626114151 0 -0.17564652210804019 -0.30080358444860927 0 -0.18752559525942131 -0.29439512046333188 0 -0.17564652210804019 -0.30080358444860927 0 -0.1860411713637504 -0.30585758867999813 0 -0.17564652210804019 -0.30080358444860927 0 -0.1860411713637504 -0.30585758867999813 0 -0.17096826438893839 -0.31637425003199088 0 -0.17564652210804019 -0.30080358444860927 0 -0.16265120035035599 -0.30042923072353372 0 -0.17096826438893839 -0.31637425003199088 0 -0.16265120035035599 -0.30042923072353372 0 -0.15562016476114679 -0.31051674053100697 0 -0.17096826438893839 -0.31637425003199088 0 -0.16265120035035599 -0.30042923072353372 0 -0.14664660014251599 -0.30181714357387879 0 -0.1546208614672489 -0.29040374949457498 0 -0.16265120035035599 -0.30042923072353372 0 -0.15562016476114679 -0.31051674053100697 0 -0.14664660014251599 -0.30181714357387879 0 -0.15562016476114679 -0.31051674053100697 0 -0.14664660014251599 -0.30181714357387879 0 -0.1435683407151975 -0.3164286612724666 0 -0.14664660014251599 -0.30181714357387879 0 -0.13099392355644121 -0.30367664027166857 0 -0.1435683407151975 -0.3164286612724666 0 -0.14664660014251599 -0.30181714357387879 0 -0.13099392355644121 -0.30367664027166857 0 -0.1424250276466337 -0.2881105703596113 0 -0.13099392355644121 -0.30367664027166857 0 -0.13198023569989131 -0.27855636264241612 0 -0.1159048695342965 -0.28483319257883533 0 -0.13099392355644121 -0.30367664027166857 0 -0.13198023569989131 -0.27855636264241612 0 -0.13099392355644121 -0.30367664027166857 0 -0.1424250276466337 -0.2881105703596113 0 -0.13198023569989131 -0.27855636264241612 0 -0.14664660014251599 -0.30181714357387879 0 -0.1424250276466337 -0.2881105703596113 0 -0.1546208614672489 -0.29040374949457498 0 -0.1424250276466337 -0.2881105703596113 0 -0.1546208614672489 -0.29040374949457498 0 -0.1516229873611927 -0.27858892562180509 0 -0.15928313751502701 -0.26982785070209742 0 -0.1516229873611927 -0.27858892562180509 0 -0.14712430540488669 -0.2628482920456463 0 -0.1516229873611927 -0.27858892562180509 0 -0.1404781565643585 -0.27523824201424818 0 -0.14712430540488669 -0.2628482920456463 0 -0.1424250276466337 -0.2881105703596113 0 -0.1516229873611927 -0.27858892562180509 0 -0.1404781565643585 -0.27523824201424818 0 -0.13198023569989131 -0.27855636264241612 0 -0.132934929276076 -0.25424137489347087 0 -0.1424250276466337 -0.2881105703596113 0 -0.1404781565643585 -0.27523824201424818 0 -0.13198023569989131 -0.27855636264241612 0 -0.1404781565643585 -0.27523824201424818 0 -0.13198023569989131 -0.27855636264241612 0 -0.1404781565643585 -0.27523824201424818 0 -0.13198023569989131 -0.27855636264241612 0 -0.132934929276076 -0.25424137489347087 0 -0.1404781565643585 -0.27523824201424818 0 -0.132934929276076 -0.25424137489347087 0 -0.14712430540488669 -0.2628482920456463 0 -0.13198023569989131 -0.27855636264241612 0 -0.132934929276076 -0.25424137489347087 0 -0.1177478821021377 -0.26249760784366838 0 -0.132934929276076 -0.25424137489347087 0 -0.14712430540488669 -0.2628482920456463 0 -0.15574900656767399 -0.25088930115713548 0 -0.15928313751502701 -0.26982785070209742 0 -0.14712430540488669 -0.2628482920456463 0 -0.15574900656767399 -0.25088930115713548 0 -0.1621361587310268 -0.34521541247323961 0 -0.1667270532952346 -0.36642672610720578 0 -0.17969723600850701 -0.3641490341243776 0 -0.1621361587310268 -0.34521541247323961 0 -0.15887147207408051 -0.35590241508444792 0 -0.1667270532952346 -0.36642672610720578 0 -0.1621361587310268 -0.34521541247323961 0 -0.17969723600850701 -0.3641490341243776 0 -0.1621361587310268 -0.34521541247323961 0 -0.1667270532952346 -0.36642672610720578 0 -0.1621361587310268 -0.34521541247323961 0 -0.17455578775391559 -0.34786016102398221 0 -0.1694236585335637 -0.34184149103757328 0 -0.1621361587310268 -0.34521541247323961 0 -0.15796661323017969 -0.34979707817834971 0 -0.15887147207408051 -0.35590241508444792 0 -0.1621361587310268 -0.34521541247323961 0 -0.15796661323017969 -0.34979707817834971 0 -0.15547361729827491 -0.34609322862277753 0 -0.1621361587310268 -0.34521541247323961 0 -0.15578127135224931 -0.34111844581315343 0 -0.15547361729827491 -0.34609322862277753 0 -0.15796661323017969 -0.34979707817834971 0 -0.15887147207408051 -0.35590241508444792 0 -0.15458549865421661 -0.3513795090345227 0 -0.1572845753745867 -0.3702469702046961 0 -0.1667270532952346 -0.36642672610720578 0 -0.15514138661661081 -0.36260953239490179 0 -0.15887147207408051 -0.35590241508444792 0 -0.1667270532952346 -0.36642672610720578 0 -0.15514138661661081 -0.36260953239490179 0 -0.16265291029837989 -0.37673207977072037 0 -0.1572845753745867 -0.3702469702046961 0 -0.1667270532952346 -0.36642672610720578 0 -0.1541125811890855 -0.37614695852486463 0 -0.16265291029837989 -0.37673207977072037 0 -0.1572845753745867 -0.3702469702046961 0 -0.17549827427177839 -0.37584047805472792 0 -0.1667270532952346 -0.36642672610720578 0 -0.17969723600850701 -0.3641490341243776 0 -0.1949117072121595 -0.36184287483214678 0 -0.17969723600850701 -0.3641490341243776 0 -0.18429943246876171 -0.35583650861236438 0 -0.17969723600850701 -0.3641490341243776 0 -0.18429943246876171 -0.35583650861236438 0 -0.17455578775391559 -0.34786016102398221 0 -0.1621361587310268 -0.34521541247323961 0 -0.17969723600850701 -0.3641490341243776 0 -0.17455578775391559 -0.34786016102398221 0 -0.18803299890046479 -0.34949396446895092 0 -0.17455578775391559 -0.34786016102398221 0 -0.18451804220975571 -0.33885855651754287 0 -0.18803299890046479 -0.34949396446895092 0 -0.18429943246876171 -0.35583650861236438 0 -0.17455578775391559 -0.34786016102398221 0 -0.19251100860520581 -0.32972265176546062 0 -0.18451804220975571 -0.33885855651754287 0 -0.17945721572018761 -0.3279710712415046 0 -0.18451804220975571 -0.33885855651754287 0 -0.17429192662531659 -0.33711506791355789 0 -0.17945721572018761 -0.3279710712415046 0 -0.17429192662531659 -0.33711506791355789 0 -0.17945721572018761 -0.3279710712415046 0 -0.1679276356682726 -0.32825704055662691 0 -0.17455578775391559 -0.34786016102398221 0 -0.18451804220975571 -0.33885855651754287 0 -0.17429192662531659 -0.33711506791355789 0 -0.17455578775391559 -0.34786016102398221 0 -0.17429192662531659 -0.33711506791355789 0 -0.1694236585335637 -0.34184149103757328 0 -0.1860411713637504 -0.30585758867999813 0 -0.18652641682363699 -0.3174988606638488 0 -0.17096826438893839 -0.31637425003199088 0 -0.19251100860520581 -0.32972265176546062 0 -0.18652641682363699 -0.3174988606638488 0 -0.17945721572018761 -0.3279710712415046 0 -0.18652641682363699 -0.3174988606638488 0 -0.17945721572018761 -0.3279710712415046 0 -0.17096826438893839 -0.31637425003199088 0 -0.17945721572018761 -0.3279710712415046 0 -0.17096826438893839 -0.31637425003199088 0 -0.1679276356682726 -0.32825704055662691 0 -0.17096826438893839 -0.31637425003199088 0 -0.1679276356682726 -0.32825704055662691 0 -0.1558172779156248 -0.32353211747081922 0 -0.1679276356682726 -0.32825704055662691 0 -0.15922097822777859 -0.331746401784968 0 -0.1558172779156248 -0.32353211747081922 0 -0.15562016476114679 -0.31051674053100697 0 -0.17096826438893839 -0.31637425003199088 0 -0.1558172779156248 -0.32353211747081922 0 -0.1621361587310268 -0.34521541247323961 0 -0.16671076102399579 -0.33717532273951328 0 -0.1694236585335637 -0.34184149103757328 0 -0.17429192662531659 -0.33711506791355789 0 -0.16671076102399579 -0.33717532273951328 0 -0.1694236585335637 -0.34184149103757328 0 -0.16671076102399579 -0.33717532273951328 0 -0.1679276356682726 -0.32825704055662691 0 -0.15922097822777859 -0.331746401784968 0 -0.17429192662531659 -0.33711506791355789 0 -0.16671076102399579 -0.33717532273951328 0 -0.1679276356682726 -0.32825704055662691 0 -0.1621361587310268 -0.34521541247323961 0 -0.16671076102399579 -0.33717532273951328 0 -0.15922097822777859 -0.331746401784968 0 -0.1621361587310268 -0.34521541247323961 0 -0.15922097822777859 -0.331746401784968 0 -0.1621361587310268 -0.34521541247323961 0 -0.15922097822777859 -0.331746401784968 0 -0.15595321510555399 -0.33854922033449669 0 -0.1621361587310268 -0.34521541247323961 0 -0.15578127135224931 -0.34111844581315343 0 -0.15595321510555399 -0.33854922033449669 0 -0.1621361587310268 -0.34521541247323961 0 -0.15595321510555399 -0.33854922033449669 0 -0.15578127135224931 -0.34111844581315343 0 -0.1529171235935822 -0.33789026118577181 0 -0.14762815925373221 -0.33928243770807948 0 -0.15578127135224931 -0.34111844581315343 0 -0.14762815925373221 -0.33928243770807948 0 -0.13964495779747621 -0.34175481655480078 0 -0.15578127135224931 -0.34111844581315343 0 -0.15274537535572749 -0.34373000088996741 0 -0.15547361729827491 -0.34609322862277753 0 -0.1529171235935822 -0.33789026118577181 0 -0.152376268265837 -0.33312668589006672 0 -0.14762815925373221 -0.33928243770807948 0 -0.1529171235935822 -0.33789026118577181 0 -0.15595321510555399 -0.33854922033449669 0 -0.152376268265837 -0.33312668589006672 0 -0.15578127135224931 -0.34111844581315343 0 -0.1529171235935822 -0.33789026118577181 0 -0.15595321510555399 -0.33854922033449669 0 -0.15922097822777859 -0.331746401784968 0 -0.15595321510555399 -0.33854922033449669 0 -0.152376268265837 -0.33312668589006672 0 -0.15922097822777859 -0.331746401784968 0 -0.152376268265837 -0.33312668589006672 0 -0.1558172779156248 -0.32353211747081922 0 -0.152376268265837 -0.33312668589006672 0 -0.1441170654143116 -0.32985004934742929 0 -0.1558172779156248 -0.32353211747081922 0 -0.152376268265837 -0.33312668589006672 0 -0.1441170654143116 -0.32985004934742929 0 -0.14762815925373221 -0.33928243770807948 0 -0.1441170654143116 -0.32985004934742929 0 -0.14762815925373221 -0.33928243770807948 0 -0.13964495779747621 -0.34175481655480078 0 -0.15562016476114679 -0.31051674053100697 0 -0.1558172779156248 -0.32353211747081922 0 -0.1435683407151975 -0.3164286612724666 0 -0.1441170654143116 -0.32985004934742929 0 -0.1558172779156248 -0.32353211747081922 0 -0.1435683407151975 -0.3164286612724666 0 -0.13099392355644121 -0.30367664027166857 0 -0.13000761141299119 -0.32879691790092103 0 -0.1190051583195855 -0.31292309157300169 0 -0.13099392355644121 -0.30367664027166857 0 -0.1435683407151975 -0.3164286612724666 0 -0.13000761141299119 -0.32879691790092103 0 -0.13099392355644121 -0.30367664027166857 0 -0.13000761141299119 -0.32879691790092103 0 -0.1441170654143116 -0.32985004934742929 0 -0.1435683407151975 -0.3164286612724666 0 -0.13000761141299119 -0.32879691790092103 0 -0.13964495779747621 -0.34175481655480078 0 -0.13000761141299119 -0.32879691790092103 0 -0.12902129926954051 -0.35391719553017342 0 -0.13000761141299119 -0.32879691790092103 0 -0.12902129926954051 -0.35391719553017342 0 -0.1224934279712397 -0.34298238217264698 0 -0.13000761141299119 -0.32879691790092103 0 -0.12902129926954051 -0.35391719553017342 0 -0.1441170654143116 -0.32985004934742929 0 -0.13964495779747621 -0.34175481655480078 0 -0.13000761141299119 -0.32879691790092103 0 -0.12902129926954051 -0.35391719553017342 0 -0.12972527330292219 -0.35576029710962881 0 -0.12610854449418191 -0.35987770875781339 0 -0.13114813769202449 -0.35504649195112492 0 -0.12902129926954051 -0.35391719553017342 0 -0.13337811204372091 -0.35435131679074611 0 -0.13114813769202449 -0.35504649195112492 0 -0.12902129926954051 -0.35391719553017342 0 -0.12972527330292219 -0.35576029710962881 0 -0.13137210708112931 -0.35726384753010798 0 -0.1319681188915719 -0.36068072735786372 0 -0.12610854449418191 -0.35987770875781339 0 -0.12972527330292219 -0.35576029710962881 0 -0.13137210708112931 -0.35726384753010798 0 -0.12610854449418191 -0.35987770875781339 0 -0.13114813769202449 -0.35504649195112492 0 -0.12972527330292219 -0.35576029710962881 0 -0.13137210708112931 -0.35726384753010798 0 -0.13114813769202449 -0.35504649195112492 0 -0.13137210708112931 -0.35726384753010798 0 -0.13337811204372091 -0.35435131679074611 0 -0.13137210708112931 -0.35726384753010798 0 -0.1342270525071102 -0.35837792879021302 0 -0.1319681188915719 -0.36068072735786372 0 -0.12902129926954051 -0.35391719553017342 0 -0.13337811204372091 -0.35435131679074611 0 -0.1376657007217415 -0.34978275434696848 0 -0.12902129926954051 -0.35391719553017342 0 -0.1376657007217415 -0.34978275434696848 0 -0.1342270525071102 -0.35837792879021302 0 -0.13771148425206731 -0.35737665512119521 0 -0.13657035363216349 -0.36231032800252938 0 -0.13137210708112931 -0.35726384753010798 0 -0.1352781756889786 -0.35549757337289739 0 -0.13337811204372091 -0.35435131679074611 0 -0.13137210708112931 -0.35726384753010798 0 -0.1342270525071102 -0.35837792879021302 0 -0.1352781756889786 -0.35549757337289739 0 -0.1342270525071102 -0.35837792879021302 0 -0.1352781756889786 -0.35549757337289739 0 -0.13771148425206731 -0.35737665512119521 0 -0.13337811204372091 -0.35435131679074611 0 -0.13537585097698321 -0.35303200901343329 0 -0.1376657007217415 -0.34978275434696848 0 -0.1352781756889786 -0.35549757337289739 0 -0.13537585097698321 -0.35303200901343329 0 -0.13739800160433049 -0.35466724894401352 0 -0.1352781756889786 -0.35549757337289739 0 -0.13337811204372091 -0.35435131679074611 0 -0.13537585097698321 -0.35303200901343329 0 -0.13537585097698321 -0.35303200901343329 0 -0.1376268229556607 -0.35182929785280792 0 -0.13739800160433049 -0.35466724894401352 0 -0.1376268229556607 -0.35182929785280792 0 -0.14001997480939041 -0.35266394350974001 0 -0.1395220644569142 -0.35506142396433321 0 -0.1376268229556607 -0.35182929785280792 0 -0.14001997480939041 -0.35266394350974001 0 -0.13970771913161401 -0.35053004584710568 0 -0.14001997480939041 -0.35266394350974001 0 -0.1395220644569142 -0.35506142396433321 0 -0.1420810346748681 -0.3538283589040121 0 -0.1376268229556607 -0.35182929785280792 0 -0.1395220644569142 -0.35506142396433321 0 -0.13739800160433049 -0.35466724894401352 0 -0.1352781756889786 -0.35549757337289739 0 -0.13739800160433049 -0.35466724894401352 0 -0.13771148425206731 -0.35737665512119521 0 -0.1395220644569142 -0.35506142396433321 0 -0.13739800160433049 -0.35466724894401352 0 -0.13771148425206731 -0.35737665512119521 0 -0.1395220644569142 -0.35506142396433321 0 -0.13771148425206731 -0.35737665512119521 0 -0.14160033967505961 -0.3586644038237784 0 -0.13964495779747621 -0.34175481655480078 0 -0.12902129926954051 -0.35391719553017342 0 -0.1376657007217415 -0.34978275434696848 0 -0.1376268229556607 -0.35182929785280792 0 -0.1376657007217415 -0.34978275434696848 0 -0.13970771913161401 -0.35053004584710568 0 -0.13537585097698321 -0.35303200901343329 0 -0.1376268229556607 -0.35182929785280792 0 -0.1376657007217415 -0.34978275434696848 0 -0.14001997480939041 -0.35266394350974001 0 -0.13970771913161401 -0.35053004584710568 0 -0.14128233062050871 -0.34986552581656682 0 -0.1376657007217415 -0.34978275434696848 0 -0.13970771913161401 -0.35053004584710568 0 -0.14128233062050871 -0.34986552581656682 0 -0.15578127135224931 -0.34111844581315343 0 -0.13964495779747621 -0.34175481655480078 0 -0.1376657007217415 -0.34978275434696848 0 -0.15578127135224931 -0.34111844581315343 0 -0.1376657007217415 -0.34978275434696848 0 -0.1448616908812147 -0.34755388941876009 0 -0.15578127135224931 -0.34111844581315343 0 -0.1376657007217415 -0.34978275434696848 0 -0.1448616908812147 -0.34755388941876009 0 -0.1481863274187849 -0.34936669613735838 0 -0.14905042486474271 -0.34684892566093961 0 -0.1481863274187849 -0.34936669613735838 0 -0.1468230025556326 -0.35159030667526409 0 -0.14992616692153149 -0.35232291935184601 0 -0.1481863274187849 -0.34936669613735838 0 -0.14586159523759459 -0.34965254192947193 0 -0.1468230025556326 -0.35159030667526409 0 -0.1448616908812147 -0.34755388941876009 0 -0.1481863274187849 -0.34936669613735838 0 -0.14586159523759459 -0.34965254192947193 0 -0.1448616908812147 -0.34755388941876009 0 -0.14586159523759459 -0.34965254192947193 0 -0.1443696979686836 -0.34958894224628362 0 -0.14586159523759459 -0.34965254192947193 0 -0.1440154819879671 -0.35150025843575422 0 -0.1443696979686836 -0.34958894224628362 0 -0.14586159523759459 -0.34965254192947193 0 -0.1440154819879671 -0.35150025843575422 0 -0.1468230025556326 -0.35159030667526409 0 -0.1376657007217415 -0.34978275434696848 0 -0.1448616908812147 -0.34755388941876009 0 -0.14128233062050871 -0.34986552581656682 0 -0.14001997480939041 -0.35266394350974001 0 -0.1440154819879671 -0.35150025843575422 0 -0.142740023767958 -0.34964907920114791 0 -0.1440154819879671 -0.35150025843575422 0 -0.142740023767958 -0.34964907920114791 0 -0.1443696979686836 -0.34958894224628362 0 -0.1448616908812147 -0.34755388941876009 0 -0.142740023767958 -0.34964907920114791 0 -0.14128233062050871 -0.34986552581656682 0 -0.1448616908812147 -0.34755388941876009 0 -0.142740023767958 -0.34964907920114791 0 -0.1443696979686836 -0.34958894224628362 0 -0.14001997480939041 -0.35266394350974001 0 -0.142740023767958 -0.34964907920114791 0 -0.14128233062050871 -0.34986552581656682 0 -0.14001997480939041 -0.35266394350974001 0 -0.1440154819879671 -0.35150025843575422 0 -0.1420810346748681 -0.3538283589040121 0 -0.1440154819879671 -0.35150025843575422 0 -0.1420810346748681 -0.3538283589040121 0 -0.14612544121228471 -0.35510911752189001 0 -0.1395220644569142 -0.35506142396433321 0 -0.1420810346748681 -0.3538283589040121 0 -0.14160033967505961 -0.3586644038237784 0 -0.1420810346748681 -0.3538283589040121 0 -0.14160033967505961 -0.3586644038237784 0 -0.14612544121228471 -0.35510911752189001 0 -0.14160033967505961 -0.3586644038237784 0 -0.14612544121228471 -0.35510911752189001 0 -0.1473970005220919 -0.36125123905653062 0 -0.1440154819879671 -0.35150025843575422 0 -0.14612544121228471 -0.35510911752189001 0 -0.1468230025556326 -0.35159030667526409 0 -0.14612544121228471 -0.35510911752189001 0 -0.1468230025556326 -0.35159030667526409 0 -0.14992616692153149 -0.35232291935184601 0 -0.14612544121228471 -0.35510911752189001 0 -0.14992616692153149 -0.35232291935184601 0 -0.15206581441764111 -0.3565432067276183 0 -0.14992616692153149 -0.35232291935184601 0 -0.15206581441764111 -0.3565432067276183 0 -0.15458549865421661 -0.3513795090345227 0 -0.14612544121228471 -0.35510911752189001 0 -0.15206581441764111 -0.3565432067276183 0 -0.1473970005220919 -0.36125123905653062 0 -0.15887147207408051 -0.35590241508444792 0 -0.15206581441764111 -0.3565432067276183 0 -0.15514138661661081 -0.36260953239490179 0 -0.15887147207408051 -0.35590241508444792 0 -0.15206581441764111 -0.3565432067276183 0 -0.15458549865421661 -0.3513795090345227 0 -0.15796661323017969 -0.34979707817834971 0 -0.15458549865421661 -0.3513795090345227 0 -0.15547361729827491 -0.34609322862277753 0 -0.15274537535572749 -0.34373000088996741 0 -0.1448616908812147 -0.34755388941876009 0 -0.14905042486474271 -0.34684892566093961 0 -0.15578127135224931 -0.34111844581315343 0 -0.15274537535572749 -0.34373000088996741 0 -0.1448616908812147 -0.34755388941876009 0 -0.15458549865421661 -0.3513795090345227 0 -0.15547361729827491 -0.34609322862277753 0 -0.15175917181769419 -0.34817837433063242 0 -0.15547361729827491 -0.34609322862277753 0 -0.1515364649904074 -0.34574513411968189 0 -0.15175917181769419 -0.34817837433063242 0 -0.15274537535572749 -0.34373000088996741 0 -0.15547361729827491 -0.34609322862277753 0 -0.1515364649904074 -0.34574513411968189 0 -0.1515364649904074 -0.34574513411968189 0 -0.14905042486474271 -0.34684892566093961 0 -0.15175917181769419 -0.34817837433063242 0 -0.15274537535572749 -0.34373000088996741 0 -0.1515364649904074 -0.34574513411968189 0 -0.14905042486474271 -0.34684892566093961 0 -0.1481863274187849 -0.34936669613735838 0 -0.14905042486474271 -0.34684892566093961 0 -0.15175917181769419 -0.34817837433063242 0 -0.1481863274187849 -0.34936669613735838 0 -0.14992616692153149 -0.35232291935184601 0 -0.15175917181769419 -0.34817837433063242 0 -0.14992616692153149 -0.35232291935184601 0 -0.15458549865421661 -0.3513795090345227 0 -0.15175917181769419 -0.34817837433063242 0 -0.1541125811890855 -0.37614695852486463 0 -0.1572845753745867 -0.3702469702046961 0 -0.1477889454736229 -0.36931955422578783 0 -0.1572845753745867 -0.3702469702046961 0 -0.15514138661661081 -0.36260953239490179 0 -0.1477889454736229 -0.36931955422578783 0 -0.15514138661661081 -0.36260953239490179 0 -0.1473970005220919 -0.36125123905653062 0 -0.1477889454736229 -0.36931955422578783 0 -0.15206581441764111 -0.3565432067276183 0 -0.15514138661661081 -0.36260953239490179 0 -0.1473970005220919 -0.36125123905653062 0 -0.1473970005220919 -0.36125123905653062 0 -0.14204386305691091 -0.36467955401953311 0 -0.1477889454736229 -0.36931955422578783 0 -0.14160033967505961 -0.3586644038237784 0 -0.1473970005220919 -0.36125123905653062 0 -0.14204386305691091 -0.36467955401953311 0 -0.14294847837633951 -0.37726615828070181 0 -0.1477889454736229 -0.36931955422578783 0 -0.13784862147681989 -0.36989818520166051 0 -0.14204386305691091 -0.36467955401953311 0 -0.1477889454736229 -0.36931955422578783 0 -0.13784862147681989 -0.36989818520166051 0 -0.1541125811890855 -0.37614695852486463 0 -0.14294847837633951 -0.37726615828070181 0 -0.1477889454736229 -0.36931955422578783 0 -0.13259445116056631 -0.37838894091975223 0 -0.13784862147681989 -0.36989818520166051 0 -0.13020009083666051 -0.36632516002983551 0 -0.14160033967505961 -0.3586644038237784 0 -0.14204386305691091 -0.36467955401953311 0 -0.13657035363216349 -0.36231032800252938 0 -0.13771148425206731 -0.35737665512119521 0 -0.14160033967505961 -0.3586644038237784 0 -0.13657035363216349 -0.36231032800252938 0 -0.14204386305691091 -0.36467955401953311 0 -0.13784862147681989 -0.36989818520166051 0 -0.13657035363216349 -0.36231032800252938 0 -0.13784862147681989 -0.36989818520166051 0 -0.13657035363216349 -0.36231032800252938 0 -0.13020009083666051 -0.36632516002983551 0 -0.1342270525071102 -0.35837792879021302 0 -0.13657035363216349 -0.36231032800252938 0 -0.1319681188915719 -0.36068072735786372 0 -0.13657035363216349 -0.36231032800252938 0 -0.1319681188915719 -0.36068072735786372 0 -0.13020009083666051 -0.36632516002983551 0 -0.13020009083666051 -0.36632516002983551 0 -0.12610854449418191 -0.35987770875781339 0 -0.1226461809765368 -0.36988971825261441 0 -0.1319681188915719 -0.36068072735786372 0 -0.13020009083666051 -0.36632516002983551 0 -0.12610854449418191 -0.35987770875781339 0 -0.13259445116056631 -0.37838894091975223 0 -0.13020009083666051 -0.36632516002983551 0 -0.1226461809765368 -0.36988971825261441 0 -0.1081794879070465 -0.36388540948994019 0 -0.1189189738047052 -0.38103552782284372 0 -0.1012111920376392 -0.37765999489378638 0 -0.1226461809765368 -0.36988971825261441 0 -0.1081794879070465 -0.36388540948994019 0 -0.1189189738047052 -0.38103552782284372 0 -0.12610854449418191 -0.35987770875781339 0 -0.1226461809765368 -0.36988971825261441 0 -0.1081794879070465 -0.36388540948994019 0 -0.1081794879070465 -0.36388540948994019 0 -0.087337676544553003 -0.37385362344970829 0 -0.1012111920376392 -0.37765999489378638 0 -0.1081794879070465 -0.36388540948994019 0 -0.095303316024341514 -0.35786820884273163 0 -0.087337676544553003 -0.37385362344970829 0 -0.1081794879070465 -0.36388540948994019 0 -0.087337676544553003 -0.37385362344970829 0 -0.099694394704777589 -0.34715528081891278 0 -0.095303316024341514 -0.35786820884273163 0 -0.086480070187833311 -0.34581112914121043 0 -0.099694394704777589 -0.34715528081891278 0 -0.095303316024341514 -0.35786820884273163 0 -0.1065942088213626 -0.35293923270371602 0 -0.1081794879070465 -0.36388540948994019 0 -0.095303316024341514 -0.35786820884273163 0 -0.1065942088213626 -0.35293923270371602 0 -0.099694394704777589 -0.34715528081891278 0 -0.1065942088213626 -0.35293923270371602 0 -0.11182276420213701 -0.34459338402472228 0 -0.12902129926954051 -0.35391719553017342 0 -0.1081794879070465 -0.36388540948994019 0 -0.12902129926954051 -0.35391719553017342 0 -0.1081794879070465 -0.36388540948994019 0 -0.11797108126851021 -0.35119388034227322 0 -0.12902129926954051 -0.35391719553017342 0 -0.12610854449418191 -0.35987770875781339 0 -0.1081794879070465 -0.36388540948994019 0 -0.1065942088213626 -0.35293923270371602 0 -0.11182276420213701 -0.34459338402472228 0 -0.11797108126851021 -0.35119388034227322 0 -0.11182276420213701 -0.34459338402472228 0 -0.11797108126851021 -0.35119388034227322 0 -0.11703748721654619 -0.3435226923868625 0 -0.1081794879070465 -0.36388540948994019 0 -0.1065942088213626 -0.35293923270371602 0 -0.11797108126851021 -0.35119388034227322 0 -0.11797108126851021 -0.35119388034227322 0 -0.1224934279712397 -0.34298238217264698 0 -0.11703748721654619 -0.3435226923868625 0 -0.12902129926954051 -0.35391719553017342 0 -0.11797108126851021 -0.35119388034227322 0 -0.1224934279712397 -0.34298238217264698 0 -0.1224934279712397 -0.34298238217264698 0 -0.11586267542429809 -0.33532112300780759 0 -0.11703748721654619 -0.3435226923868625 0 -0.13000761141299119 -0.32879691790092103 0 -0.1224934279712397 -0.34298238217264698 0 -0.11586267542429809 -0.33532112300780759 0 -0.13000761141299119 -0.32879691790092103 0 -0.11586267542429809 -0.33532112300780759 0 -0.1149226004017536 -0.32242890604509639 0 -0.11182276420213701 -0.34459338402472228 0 -0.11586267542429809 -0.33532112300780759 0 -0.11703748721654619 -0.3435226923868625 0 -0.11182276420213701 -0.34459338402472228 0 -0.11586267542429809 -0.33532112300780759 0 -0.10526102349789659 -0.33605168543744868 0 -0.13000761141299119 -0.32879691790092103 0 -0.1190051583195855 -0.31292309157300169 0 -0.1149226004017536 -0.32242890604509639 0 -0.1190051583195855 -0.31292309157300169 0 -0.1149226004017536 -0.32242890604509639 0 -0.1031890200735321 -0.30873780675300211 0 -0.11586267542429809 -0.33532112300780759 0 -0.1149226004017536 -0.32242890604509639 0 -0.106548536778361 -0.3263655909907498 0 -0.106548536778361 -0.3263655909907498 0 -0.1011050781260623 -0.32238163819826199 0 -0.1031890200735321 -0.30873780675300211 0 -0.1149226004017536 -0.32242890604509639 0 -0.106548536778361 -0.3263655909907498 0 -0.1031890200735321 -0.30873780675300211 0 -0.106548536778361 -0.3263655909907498 0 -0.1031890200735321 -0.30873780675300211 0 -0.106548536778361 -0.3263655909907498 0 -0.1011050781260623 -0.32238163819826199 0 -0.1000583246901636 -0.32952266659527052 0 -0.094306549673946874 -0.32451874362100808 0 -0.1011050781260623 -0.32238163819826199 0 -0.1000583246901636 -0.32952266659527052 0 -0.1011050781260623 -0.32238163819826199 0 -0.089426017071905728 -0.31105703524182943 0 -0.094306549673946874 -0.32451874362100808 0 -0.1011050781260623 -0.32238163819826199 0 -0.089426017071905728 -0.31105703524182943 0 -0.1011050781260623 -0.32238163819826199 0 -0.1031890200735321 -0.30873780675300211 0 -0.089426017071905728 -0.31105703524182943 0 -0.099694394704777589 -0.34715528081891278 0 -0.11182276420213701 -0.34459338402472228 0 -0.10526102349789659 -0.33605168543744868 0 -0.11586267542429809 -0.33532112300780759 0 -0.106548536778361 -0.3263655909907498 0 -0.10526102349789659 -0.33605168543744868 0 -0.106548536778361 -0.3263655909907498 0 -0.10526102349789659 -0.33605168543744868 0 -0.1000583246901636 -0.32952266659527052 0 -0.094306549673946874 -0.32451874362100808 0 -0.094182304261268973 -0.33486212682340938 0 -0.1000583246901636 -0.32952266659527052 0 -0.10526102349789659 -0.33605168543744868 0 -0.094182304261268973 -0.33486212682340938 0 -0.1000583246901636 -0.32952266659527052 0 -0.099694394704777589 -0.34715528081891278 0 -0.10526102349789659 -0.33605168543744868 0 -0.094182304261268973 -0.33486212682340938 0 -0.094182304261268973 -0.33486212682340938 0 -0.08407271745418865 -0.33416399560864102 0 -0.086480070187833311 -0.34581112914121043 0 -0.099694394704777589 -0.34715528081891278 0 -0.094182304261268973 -0.33486212682340938 0 -0.086480070187833311 -0.34581112914121043 0 -0.094182304261268973 -0.33486212682340938 0 -0.08407271745418865 -0.33416399560864102 0 -0.086761024220333771 -0.32477025124626918 0 -0.08407271745418865 -0.33416399560864102 0 -0.086761024220333771 -0.32477025124626918 0 -0.07858204801972743 -0.32631738752588779 0 -0.08407271745418865 -0.33416399560864102 0 -0.07858204801972743 -0.32631738752588779 0 -0.07273125475583779 -0.33736018686339309 0 -0.08407271745418865 -0.33416399560864102 0 -0.07273125475583779 -0.33736018686339309 0 -0.086480070187833311 -0.34581112914121043 0 -0.07273125475583779 -0.33736018686339309 0 -0.086480070187833311 -0.34581112914121043 0 -0.094306549673946874 -0.32451874362100808 0 -0.086761024220333771 -0.32477025124626918 0 -0.089426017071905728 -0.31105703524182943 0 -0.094306549673946874 -0.32451874362100808 0 -0.094182304261268973 -0.33486212682340938 0 -0.086761024220333771 -0.32477025124626918 0 -0.086761024220333771 -0.32477025124626918 0 -0.07858204801972743 -0.32631738752588779 0 -0.081625355014615208 -0.31689463889199992 0 -0.081625355014615208 -0.31689463889199992 0 -0.089426017071905728 -0.31105703524182943 0 -0.074673414540133681 -0.31006833179754578 0 -0.086761024220333771 -0.32477025124626918 0 -0.081625355014615208 -0.31689463889199992 0 -0.089426017071905728 -0.31105703524182943 0 -0.066906445740690809 -0.31754841679761819 0 -0.07273125475583779 -0.33736018686339309 0 -0.055564942521545452 -0.32680862229170438 0 -0.066906445740690809 -0.31754841679761819 0 -0.07273125475583779 -0.33736018686339309 0 -0.07858204801972743 -0.32631738752588779 0 -0.066906445740690809 -0.31754841679761819 0 -0.07273125475583779 -0.33736018686339309 0 -0.081625355014615208 -0.31689463889199992 0 -0.066906445740690809 -0.31754841679761819 0 -0.074673414540133681 -0.31006833179754578 0 -0.07858204801972743 -0.32631738752588779 0 -0.081625355014615208 -0.31689463889199992 0 -0.066906445740690809 -0.31754841679761819 0 -0.07273125475583779 -0.33736018686339309 0 -0.063489668512105094 -0.3461790763238804 0 -0.055564942521545452 -0.32680862229170438 0 -0.07273125475583779 -0.33736018686339309 0 -0.055564942521545452 -0.32680862229170438 0 -0.063489668512105094 -0.3461790763238804 0 -0.079999488855277232 -0.36208144079426119 0 -0.058327050410461968 -0.36005531690615239 0 -0.07273125475583779 -0.33736018686339309 0 -0.079999488855277232 -0.36208144079426119 0 -0.07273125475583779 -0.33736018686339309 0 -0.063489668512105094 -0.3461790763238804 0 -0.079999488855277232 -0.36208144079426119 0 -0.067656658472595166 -0.3700164497304046 0 -0.079999488855277232 -0.36208144079426119 0 -0.058327050410461968 -0.36005531690615239 0 -0.067656658472595166 -0.3700164497304046 0 -0.07537242226362123 -0.37244333784596267 0 -0.079999488855277232 -0.36208144079426119 0 -0.095303316024341514 -0.35786820884273163 0 -0.079999488855277232 -0.36208144079426119 0 -0.087337676544553003 -0.37385362344970829 0 -0.07537242226362123 -0.37244333784596267 0 -0.079999488855277232 -0.36208144079426119 0 -0.087337676544553003 -0.37385362344970829 0 -0.07273125475583779 -0.33736018686339309 0 -0.079999488855277232 -0.36208144079426119 0 -0.086480070187833311 -0.34581112914121043 0 -0.095303316024341514 -0.35786820884273163 0 -0.079999488855277232 -0.36208144079426119 0 -0.086480070187833311 -0.34581112914121043 0 -0.094502101882266515 -0.26315651247145028 0 -0.1177478821021377 -0.26249760784366838 0 -0.107407660529706 -0.24900371388762341 0 -0.1177478821021377 -0.26249760784366838 0 -0.1237574956905899 -0.24519449058821441 0 -0.107407660529706 -0.24900371388762341 0 -0.132934929276076 -0.25424137489347087 0 -0.1177478821021377 -0.26249760784366838 0 -0.1237574956905899 -0.24519449058821441 0 -0.094502101882266515 -0.26315651247145028 0 -0.1177478821021377 -0.26249760784366838 0 -0.1159048695342965 -0.28483319257883533 0 -0.13198023569989131 -0.27855636264241612 0 -0.1177478821021377 -0.26249760784366838 0 -0.1159048695342965 -0.28483319257883533 0 -0.094502101882266515 -0.26315651247145028 0 -0.09982950336870193 -0.29111002251525481 0 -0.094502101882266515 -0.26315651247145028 0 -0.09982950336870193 -0.29111002251525481 0 -0.1159048695342965 -0.28483319257883533 0 -0.09982950336870193 -0.29111002251525481 0 -0.1159048695342965 -0.28483319257883533 0 -0.13198023569989131 -0.27855636264241612 0 -0.1159048695342965 -0.28483319257883533 0 -0.13099392355644121 -0.30367664027166857 0 -0.1159048695342965 -0.28483319257883533 0 -0.11378449497051139 -0.30025615073835249 0 -0.09982950336870193 -0.29111002251525481 0 -0.1159048695342965 -0.28483319257883533 0 -0.11378449497051139 -0.30025615073835249 0 -0.1190051583195855 -0.31292309157300169 0 -0.11378449497051139 -0.30025615073835249 0 -0.1031890200735321 -0.30873780675300211 0 -0.13099392355644121 -0.30367664027166857 0 -0.1190051583195855 -0.31292309157300169 0 -0.11378449497051139 -0.30025615073835249 0 -0.09982950336870193 -0.29111002251525481 0 -0.1031890200735321 -0.30873780675300211 0 -0.09982950336870193 -0.29111002251525481 0 -0.1031890200735321 -0.30873780675300211 0 -0.092547874132972011 -0.30265932419887109 0 -0.09982950336870193 -0.29111002251525481 0 -0.11378449497051139 -0.30025615073835249 0 -0.1031890200735321 -0.30873780675300211 0 -0.1031890200735321 -0.30873780675300211 0 -0.089426017071905728 -0.31105703524182943 0 -0.092547874132972011 -0.30265932419887109 0 -0.09982950336870193 -0.29111002251525481 0 -0.092547874132972011 -0.30265932419887109 0 -0.077746956017748226 -0.2997324322853977 0 -0.089426017071905728 -0.31105703524182943 0 -0.092547874132972011 -0.30265932419887109 0 -0.077746956017748226 -0.2997324322853977 0 -0.089426017071905728 -0.31105703524182943 0 -0.077746956017748226 -0.2997324322853977 0 -0.089426017071905728 -0.31105703524182943 0 -0.074673414540133681 -0.31006833179754578 0 -0.077746956017748226 -0.2997324322853977 0 -0.066906445740690809 -0.31754841679761819 0 -0.061081636725542593 -0.29773664673184369 0 -0.066906445740690809 -0.31754841679761819 0 -0.065409317443406251 -0.3045498192332548 0 -0.061081636725542593 -0.29773664673184369 0 -0.065409317443406251 -0.3045498192332548 0 -0.077746956017748226 -0.2997324322853977 0 -0.061081636725542593 -0.29773664673184369 0 -0.074673414540133681 -0.31006833179754578 0 -0.065409317443406251 -0.3045498192332548 0 -0.077746956017748226 -0.2997324322853977 0 -0.066906445740690809 -0.31754841679761819 0 -0.074673414540133681 -0.31006833179754578 0 -0.065409317443406251 -0.3045498192332548 0 -0.065409317443406251 -0.3045498192332548 0 -0.077746956017748226 -0.2997324322853977 0 -0.077746956017748226 -0.2997324322853977 0 -0.066501891864071155 -0.28882865447573342 0 -0.077746956017748226 -0.2997324322853977 0 -0.066501891864071155 -0.28882865447573342 0 -0.061081636725542593 -0.29773664673184369 0 -0.077746956017748226 -0.2997324322853977 0 -0.066501891864071155 -0.28882865447573342 0 -0.08092741423592073 -0.28088707665617618 0 -0.066501891864071155 -0.28882865447573342 0 -0.068491005739117192 -0.2772455486395381 0 -0.055256827710393717 -0.27792487666606952 0 -0.066501891864071155 -0.28882865447573342 0 -0.08092741423592073 -0.28088707665617618 0 -0.068491005739117192 -0.2772455486395381 0 -0.09982950336870193 -0.29111002251525481 0 -0.077746956017748226 -0.2997324322853977 0 -0.09982950336870193 -0.29111002251525481 0 -0.077746956017748226 -0.2997324322853977 0 -0.08092741423592073 -0.28088707665617618 0 -0.094502101882266515 -0.26315651247145028 0 -0.08092741423592073 -0.28088707665617618 0 -0.071277889146082518 -0.26134158676017372 0 -0.094502101882266515 -0.26315651247145028 0 -0.09982950336870193 -0.29111002251525481 0 -0.08092741423592073 -0.28088707665617618 0 -0.08092741423592073 -0.28088707665617618 0 -0.068491005739117192 -0.2772455486395381 0 -0.071277889146082518 -0.26134158676017372 0 -0.068491005739117192 -0.2772455486395381 0 -0.071277889146082518 -0.26134158676017372 0 -0.055256827710393717 -0.27792487666606952 0 -0.094502101882266515 -0.26315651247145028 0 -0.071277889146082518 -0.26134158676017372 0 -0.089174700395829837 -0.23520300242764619 0 -0.034819165871760809 -0.25810749540512018 0 -0.049272097018900882 -0.25756916919873429 0 -0.043287366327405707 -0.23721346173139979 0 -0.034819165871760809 -0.25810749540512018 0 -0.049272097018900882 -0.25756916919873429 0 -0.055256827710393717 -0.27792487666606952 0 -0.071277889146082518 -0.26134158676017372 0 -0.049272097018900882 -0.25756916919873429 0 -0.061564392766095571 -0.238872662007338 0 -0.071277889146082518 -0.26134158676017372 0 -0.049272097018900882 -0.25756916919873429 0 -0.055256827710393717 -0.27792487666606952 0 -0.055256827710393717 -0.27792487666606952 0 -0.038644503226762862 -0.27460979483356251 0 -0.050249198119850277 -0.28843925212624533 0 -0.049272097018900882 -0.25756916919873429 0 -0.055256827710393717 -0.27792487666606952 0 -0.034819165871760809 -0.25810749540512018 0 -0.055256827710393717 -0.27792487666606952 0 -0.038644503226762862 -0.27460979483356251 0 -0.034819165871760809 -0.25810749540512018 0 -0.055256827710393717 -0.27792487666606952 0 -0.034819165871760809 -0.25810749540512018 0 -0.038644503226762862 -0.27460979483356251 0 -0.02440930474754667 -0.28379228994997618 0 -0.04017690721236112 -0.29023569669289911 0 -0.035569414057395249 -0.30261210190399979 0 -0.02440930474754667 -0.28379228994997618 0 -0.038644503226762862 -0.27460979483356251 0 -0.04017690721236112 -0.29023569669289911 0 -0.050249198119850277 -0.28843925212624533 0 -0.038644503226762862 -0.27460979483356251 0 -0.04017690721236112 -0.29023569669289911 0 -0.02440930474754667 -0.28379228994997618 0 -0.04017690721236112 -0.29023569669289911 0 -0.050249198119850277 -0.28843925212624533 0 -0.04838693031610633 -0.29846421320493011 0 -0.066501891864071155 -0.28882865447573342 0 -0.055256827710393717 -0.27792487666606952 0 -0.061081636725542593 -0.29773664673184369 0 -0.055256827710393717 -0.27792487666606952 0 -0.050249198119850277 -0.28843925212624533 0 -0.061081636725542593 -0.29773664673184369 0 -0.055256827710393717 -0.27792487666606952 0 -0.061081636725542593 -0.29773664673184369 0 -0.066501891864071155 -0.28882865447573342 0 -0.055256827710393717 -0.27792487666606952 0 -0.050249198119850277 -0.28843925212624533 0 -0.04838693031610633 -0.29846421320493011 0 -0.061081636725542593 -0.29773664673184369 0 -0.066906445740690809 -0.31754841679761819 0 -0.061081636725542593 -0.29773664673184369 0 -0.051103674624797042 -0.31030395455797549 0 -0.04838693031610633 -0.29846421320493011 0 -0.061081636725542593 -0.29773664673184369 0 -0.051103674624797042 -0.31030395455797549 0 -0.051103674624797042 -0.31030395455797549 0 -0.035569414057395249 -0.30261210190399979 0 -0.038398630287253988 -0.31625705772001422 0 -0.035569414057395249 -0.30261210190399979 0 -0.02123231805296245 -0.3057054931483239 0 -0.038398630287253988 -0.31625705772001422 0 -0.04017690721236112 -0.29023569669289911 0 -0.04838693031610633 -0.29846421320493011 0 -0.035569414057395249 -0.30261210190399979 0 -0.04838693031610633 -0.29846421320493011 0 -0.051103674624797042 -0.31030395455797549 0 -0.035569414057395249 -0.30261210190399979 0 -0.02123231805296245 -0.3057054931483239 0 -0.013999443623337099 -0.30947708449483408 0 -0.02440930474754667 -0.28379228994997618 0 -0.02123231805296245 -0.3057054931483239 0 -0.038398630287253988 -0.31625705772001422 0 -0.021463444260520732 -0.31496985678859368 0 -0.035569414057395249 -0.30261210190399979 0 -0.02123231805296245 -0.3057054931483239 0 -0.02440930474754667 -0.28379228994997618 0 -0.02123231805296245 -0.3057054931483239 0 -0.038398630287253988 -0.31625705772001422 0 -0.02123231805296245 -0.3057054931483239 0 -0.013999443623337099 -0.30947708449483408 0 -0.021463444260520732 -0.31496985678859368 0 -0.013999443623337099 -0.30947708449483408 0 -0.0013654571246994251 -0.31111872375839289 0 -0.0082087295746136272 -0.29798166905644968 0 -0.013999443623337099 -0.30947708449483408 0 -0.0082087295746136272 -0.29798166905644968 0 -0.02440930474754667 -0.28379228994997618 0 -0.0013654571246994251 -0.31111872375839289 0 -0.0082087295746136272 -0.29798166905644968 0 0.0026705155070595862 -0.29676827545427142 0 -0.0082087295746136272 -0.29798166905644968 0 -0.006215011638951249 -0.28769528714327802 0 -0.02440930474754667 -0.28379228994997618 0 -0.006215011638951249 -0.28769528714327802 0 -0.02440930474754667 -0.28379228994997618 0 -0.0093086213395125531 -0.27843855962818609 0 -0.006215011638951249 -0.28769528714327802 0 0.0026705155070595862 -0.29676827545427142 0 0.0034228775624346531 -0.27956024016697489 0 -0.0082087295746136272 -0.29798166905644968 0 -0.006215011638951249 -0.28769528714327802 0 0.0026705155070595862 -0.29676827545427142 0 -0.006215011638951249 -0.28769528714327802 0 -0.0093086213395125531 -0.27843855962818609 0 0.0034228775624346531 -0.27956024016697489 0 -0.013999443623337099 -0.30947708449483408 0 -0.02440930474754667 -0.28379228994997618 0 -0.02440930474754667 -0.28379228994997618 0 -0.011802110750199671 -0.26657742365907278 0 -0.021472490143373411 -0.26027912567447598 0 -0.034819165871760809 -0.25810749540512018 0 -0.02440930474754667 -0.28379228994997618 0 -0.034819165871760809 -0.25810749540512018 0 -0.02440930474754667 -0.28379228994997618 0 -0.021472490143373411 -0.26027912567447598 0 -0.02440930474754667 -0.28379228994997618 0 -0.0093086213395125531 -0.27843855962818609 0 -0.011802110750199671 -0.26657742365907278 0 -0.011802110750199671 -0.26657742365907278 0 0.0034228775624346531 -0.27956024016697489 0 0.0072434275396657533 -0.26156772277052542 0 -0.0093086213395125531 -0.27843855962818609 0 -0.011802110750199671 -0.26657742365907278 0 0.0034228775624346531 -0.27956024016697489 0 -0.011802110750199671 -0.26657742365907278 0 -0.0080584849696134705 -0.24565963204858729 0 0.0072434275396657533 -0.26156772277052542 0 -0.011802110750199671 -0.26657742365907278 0 -0.021472490143373411 -0.26027912567447598 0 -0.0080584849696134705 -0.24565963204858729 0 -0.021472490143373411 -0.26027912567447598 0 -0.02462776661780653 -0.24822540389223649 0 -0.0080584849696134705 -0.24565963204858729 0 -0.034819165871760809 -0.25810749540512018 0 -0.021472490143373411 -0.26027912567447598 0 -0.02462776661780653 -0.24822540389223649 0 -0.034819165871760809 -0.25810749540512018 0 -0.02462776661780653 -0.24822540389223649 0 -0.036760449572486642 -0.35571020618982169 0 -0.05082560601740304 -0.34458981476389089 0 -0.039093241642939001 -0.33398512849921957 0 -0.036760449572486642 -0.35571020618982169 0 -0.03211568556297692 -0.37024402044158311 0 -0.047737070441530971 -0.37627678173299262 0 -0.036760449572486642 -0.35571020618982169 0 -0.047737070441530971 -0.37627678173299262 0 -0.067656658472595166 -0.3700164497304046 0 -0.058327050410461968 -0.36005531690615239 0 -0.059251390368185823 -0.37677745555530068 0 -0.058327050410461968 -0.36005531690615239 0 -0.059251390368185823 -0.37677745555530068 0 -0.047737070441530971 -0.37627678173299262 0 -0.036760449572486642 -0.35571020618982169 0 -0.058327050410461968 -0.36005531690615239 0 -0.047737070441530971 -0.37627678173299262 0 -0.036760449572486642 -0.35571020618982169 0 -0.058327050410461968 -0.36005531690615239 0 -0.05082560601740304 -0.34458981476389089 0 -0.063489668512105094 -0.3461790763238804 0 -0.058327050410461968 -0.36005531690615239 0 -0.05082560601740304 -0.34458981476389089 0 -0.063489668512105094 -0.3461790763238804 0 -0.05082560601740304 -0.34458981476389089 0 -0.055564942521545452 -0.32680862229170438 0 -0.05082560601740304 -0.34458981476389089 0 -0.055564942521545452 -0.32680862229170438 0 -0.039093241642939001 -0.33398512849921957 0 -0.051103674624797042 -0.31030395455797549 0 -0.055564942521545452 -0.32680862229170438 0 -0.038398630287253988 -0.31625705772001422 0 -0.066906445740690809 -0.31754841679761819 0 -0.051103674624797042 -0.31030395455797549 0 -0.055564942521545452 -0.32680862229170438 0 -0.055564942521545452 -0.32680862229170438 0 -0.038398630287253988 -0.31625705772001422 0 -0.055564942521545452 -0.32680862229170438 0 -0.038398630287253988 -0.31625705772001422 0 -0.039093241642939001 -0.33398512849921957 0 -0.038398630287253988 -0.31625705772001422 0 -0.039093241642939001 -0.33398512849921957 0 -0.02512263517614503 -0.32528662643712231 0 -0.036760449572486642 -0.35571020618982169 0 -0.039093241642939001 -0.33398512849921957 0 -0.025687554717212891 -0.33774287594088642 0 -0.039093241642939001 -0.33398512849921957 0 -0.025687554717212891 -0.33774287594088642 0 -0.02512263517614503 -0.32528662643712231 0 -0.025687554717212891 -0.33774287594088642 0 -0.02512263517614503 -0.32528662643712231 0 -0.01437203890237411 -0.33004659242487888 0 -0.025687554717212891 -0.33774287594088642 0 -0.014600756030723409 -0.33908421892508328 0 -0.01437203890237411 -0.33004659242487888 0 -0.025687554717212891 -0.33774287594088642 0 -0.014600756030723409 -0.33908421892508328 0 -0.020190764027993208 -0.34930051442133808 0 -0.038398630287253988 -0.31625705772001422 0 -0.02512263517614503 -0.32528662643712231 0 -0.021463444260520732 -0.31496985678859368 0 -0.02512263517614503 -0.32528662643712231 0 -0.01302843633573701 -0.31903014118438389 0 -0.01437203890237411 -0.33004659242487888 0 -0.013999443623337099 -0.30947708449483408 0 -0.021463444260520732 -0.31496985678859368 0 -0.01302843633573701 -0.31903014118438389 0 -0.02512263517614503 -0.32528662643712231 0 -0.021463444260520732 -0.31496985678859368 0 -0.01302843633573701 -0.31903014118438389 0 -0.013999443623337099 -0.30947708449483408 0 -0.0013654571246994251 -0.31111872375839289 0 -0.01302843633573701 -0.31903014118438389 0 -0.01302843633573701 -0.31903014118438389 0 -0.0029681218629519289 -0.32401569713955758 0 -0.01437203890237411 -0.33004659242487888 0 -0.0013654571246994251 -0.31111872375839289 0 -0.01302843633573701 -0.31903014118438389 0 -0.0029681218629519289 -0.32401569713955758 0 -0.014600756030723409 -0.33908421892508328 0 -0.0048247292914743766 -0.33511999492224048 0 -0.0074677708566662547 -0.34708780542305662 0 -0.014600756030723409 -0.33908421892508328 0 -0.01437203890237411 -0.33004659242487888 0 -0.0048247292914743766 -0.33511999492224048 0 -0.0029681218629519289 -0.32401569713955758 0 -0.01437203890237411 -0.33004659242487888 0 -0.0048247292914743766 -0.33511999492224048 0 -0.0029681218629519289 -0.32401569713955758 0 -0.0048247292914743766 -0.33511999492224048 0 0.0074847136339209579 -0.3318227770583429 0 -0.0048247292914743766 -0.33511999492224048 0 -0.0074677708566662547 -0.34708780542305662 0 0.0024151645633119778 -0.34330519641580892 0 -0.0074677708566662547 -0.34708780542305662 0 0.0018820081491096379 -0.35215421146137971 0 0.0024151645633119778 -0.34330519641580892 0 -0.0074677708566662547 -0.34708780542305662 0 -0.0047139885971552876 -0.3557667637078577 0 0.0018820081491096379 -0.35215421146137971 0 -0.0047139885971552876 -0.3557667637078577 0 -0.003767562224240786 -0.36135824039844699 0 0.0003366517691050342 -0.35702385607026987 0 -0.0047139885971552876 -0.3557667637078577 0 0.0018820081491096379 -0.35215421146137971 0 0.0003366517691050342 -0.35702385607026987 0 -0.0047139885971552876 -0.3557667637078577 0 -0.012934505191078289 -0.35615743223727392 0 -0.010348379002517319 -0.36170725625561823 0 -0.0074677708566662547 -0.34708780542305662 0 -0.0047139885971552876 -0.3557667637078577 0 -0.012934505191078289 -0.35615743223727392 0 -0.014600756030723409 -0.33908421892508328 0 -0.0074677708566662547 -0.34708780542305662 0 -0.020190764027993208 -0.34930051442133808 0 -0.0074677708566662547 -0.34708780542305662 0 -0.012934505191078289 -0.35615743223727392 0 -0.020190764027993208 -0.34930051442133808 0 -0.036760449572486642 -0.35571020618982169 0 -0.025687554717212891 -0.33774287594088642 0 -0.020190764027993208 -0.34930051442133808 0 -0.036760449572486642 -0.35571020618982169 0 -0.020190764027993208 -0.34930051442133808 0 -0.02254846578652479 -0.36098583851197541 0 -0.012934505191078289 -0.35615743223727392 0 -0.020190764027993208 -0.34930051442133808 0 -0.02254846578652479 -0.36098583851197541 0 -0.03211568556297692 -0.37024402044158311 0 -0.02254846578652479 -0.36098583851197541 0 -0.01548317485501724 -0.3724594618934205 0 -0.036760449572486642 -0.35571020618982169 0 -0.03211568556297692 -0.37024402044158311 0 -0.02254846578652479 -0.36098583851197541 0 -0.02254846578652479 -0.36098583851197541 0 -0.01548317485501724 -0.3724594618934205 0 -0.014842664145095 -0.36279438304109191 0 -0.012934505191078289 -0.35615743223727392 0 -0.02254846578652479 -0.36098583851197541 0 -0.014842664145095 -0.36279438304109191 0 -0.01548317485501724 -0.3724594618934205 0 -0.003064502032246555 -0.36850324202368318 0 -0.0094763514183901533 -0.37975693847908037 0 -0.01548317485501724 -0.3724594618934205 0 -0.003064502032246555 -0.36850324202368318 0 0.0070829174492904861 -0.35913110990713598 0 -0.003064502032246555 -0.36850324202368318 0 -0.0094763514183901533 -0.37975693847908037 0 0.0056186006951306896 -0.36266545781509602 0 -0.0094763514183901533 -0.37975693847908037 0 0.0056186006951306896 -0.36266545781509602 0 0.00313882802842756 -0.37205462437991083 0 -0.01548317485501724 -0.3724594618934205 0 0.0070829174492904861 -0.35913110990713598 0 -0.0094763514183901533 -0.37975693847908037 0 0.0056186006951306896 -0.36266545781509602 0 -0.01548317485501724 -0.3724594618934205 0 -0.003767562224240786 -0.36135824039844699 0 0.0070829174492904861 -0.35913110990713598 0 -0.01548317485501724 -0.3724594618934205 0 -0.010348379002517319 -0.36170725625561823 0 -0.003767562224240786 -0.36135824039844699 0 -0.01548317485501724 -0.3724594618934205 0 -0.014842664145095 -0.36279438304109191 0 -0.010348379002517319 -0.36170725625561823 0 -0.012934505191078289 -0.35615743223727392 0 -0.014842664145095 -0.36279438304109191 0 -0.010348379002517319 -0.36170725625561823 0 -0.0047139885971552876 -0.3557667637078577 0 -0.010348379002517319 -0.36170725625561823 0 -0.003767562224240786 -0.36135824039844699 0 -0.0094763514183901533 -0.37975693847908037 0 0.001028188193644269 -0.37902956558509743 0 0.00313882802842756 -0.37205462437991083 0 -0.0039971830888542031 -0.38487249821840858 0 -0.0094763514183901533 -0.37975693847908037 0 0.001028188193644269 -0.37902956558509743 0 -0.0039971830888542031 -0.38487249821840858 0 -0.0157364202992284 -0.39991105634779761 0 0.0081934150469744164 -0.38588221288854552 0 -0.0039971830888542031 -0.38487249821840858 0 -0.013445314584595931 -0.39034722804708782 0 -0.0094763514183901533 -0.37975693847908037 0 -0.0157364202992284 -0.39991105634779761 0 0.0081934150469744164 -0.38588221288854552 0 -0.0157364202992284 -0.39991105634779761 0 -0.01043253583862286 -0.41002966921832468 0 0.01098146097070357 -0.39210035529239229 0 -0.0039971830888542031 -0.38487249821840858 0 -0.013445314584595931 -0.39034722804708782 0 -0.0157364202992284 -0.39991105634779761 0 -0.0157364202992284 -0.39991105634779761 0 -0.024571303531910959 -0.39684841914306468 0 -0.039666255645431463 -0.41393989980704921 0 -0.013445314584595931 -0.39034722804708782 0 -0.0157364202992284 -0.39991105634779761 0 -0.024571303531910959 -0.39684841914306468 0 -0.03057240676890649 -0.39101674137770159 0 -0.024571303531910959 -0.39684841914306468 0 -0.023007915864094119 -0.38454873450823618 0 -0.03057240676890649 -0.39101674137770159 0 -0.024571303531910959 -0.39684841914306468 0 -0.038347351467088307 -0.39989317356934539 0 -0.03211568556297692 -0.37024402044158311 0 -0.01548317485501724 -0.3724594618934205 0 -0.038049267159324968 -0.38578781387970501 0 -0.0094763514183901533 -0.37975693847908037 0 -0.024571303531910959 -0.39684841914306468 0 -0.01548317485501724 -0.3724594618934205 0 -0.023007915864094119 -0.38454873450823618 0 -0.038049267159324968 -0.38578781387970501 0 -0.01548317485501724 -0.3724594618934205 0 -0.038049267159324968 -0.38578781387970501 0 -0.0094763514183901533 -0.37975693847908037 0 -0.024571303531910959 -0.39684841914306468 0 -0.023007915864094119 -0.38454873450823618 0 -0.013445314584595931 -0.39034722804708782 0 -0.0094763514183901533 -0.37975693847908037 0 -0.024571303531910959 -0.39684841914306468 0 -0.01548317485501724 -0.3724594618934205 0 -0.0094763514183901533 -0.37975693847908037 0 -0.023007915864094119 -0.38454873450823618 0 -0.03057240676890649 -0.39101674137770159 0 -0.023007915864094119 -0.38454873450823618 0 -0.038049267159324968 -0.38578781387970501 0 -0.038049267159324968 -0.38578781387970501 0 -0.046292298034279637 -0.39245465129159762 0 -0.047737070441530971 -0.37627678173299262 0 -0.03211568556297692 -0.37024402044158311 0 -0.038049267159324968 -0.38578781387970501 0 -0.047737070441530971 -0.37627678173299262 0 -0.024571303531910959 -0.39684841914306468 0 -0.038347351467088307 -0.39989317356934539 0 -0.039666255645431463 -0.41393989980704921 0 -0.024571303531910959 -0.39684841914306468 0 -0.039666255645431463 -0.41393989980704921 0 -0.03057240676890649 -0.39101674137770159 0 -0.038049267159324968 -0.38578781387970501 0 -0.038347351467088307 -0.39989317356934539 0 -0.038347351467088307 -0.39989317356934539 0 -0.046292298034279637 -0.39245465129159762 0 -0.048136481236561522 -0.40319612354495199 0 -0.038347351467088307 -0.39989317356934539 0 -0.048136481236561522 -0.40319612354495199 0 -0.039666255645431463 -0.41393989980704921 0 -0.038049267159324968 -0.38578781387970501 0 -0.038347351467088307 -0.39989317356934539 0 -0.046292298034279637 -0.39245465129159762 0 -0.046292298034279637 -0.39245465129159762 0 -0.048136481236561522 -0.40319612354495199 0 -0.058713691310575258 -0.39684335727616332 0 -0.048136481236561522 -0.40319612354495199 0 -0.058713691310575258 -0.39684335727616332 0 -0.055370192655110312 -0.41152470479742131 0 -0.058713691310575258 -0.39684335727616332 0 -0.047737070441530971 -0.37627678173299262 0 -0.058713691310575258 -0.39684335727616332 0 -0.059251390368185823 -0.37677745555530068 0 -0.047737070441530971 -0.37627678173299262 0 -0.046292298034279637 -0.39245465129159762 0 -0.058713691310575258 -0.39684335727616332 0 -0.047737070441530971 -0.37627678173299262 0 -0.058713691310575258 -0.39684335727616332 0 -0.059251390368185823 -0.37677745555530068 0 -0.066495865182059535 -0.38382183740947651 0 -0.058503964085629023 -0.4352691711514089 0 -0.039666255645431463 -0.41393989980704921 0 -0.050144050585040643 -0.43336632724210788 0 -0.058503964085629023 -0.4352691711514089 0 -0.039666255645431463 -0.41393989980704921 0 -0.058503964085629023 -0.4352691711514089 0 -0.060166594347046617 -0.42595820408477802 0 -0.039666255645431463 -0.41393989980704921 0 -0.058713691310575258 -0.39684335727616332 0 -0.055370192655110312 -0.41152470479742131 0 -0.069690312179619504 -0.41740993281933392 0 -0.060166594347046617 -0.42595820408477802 0 -0.055370192655110312 -0.41152470479742131 0 -0.039666255645431463 -0.41393989980704921 0 -0.060166594347046617 -0.42595820408477802 0 -0.039666255645431463 -0.41393989980704921 0 -0.060166594347046617 -0.42595820408477802 0 -0.055370192655110312 -0.41152470479742131 0 -0.069690312179619504 -0.41740993281933392 0 -0.048136481236561522 -0.40319612354495199 0 -0.055370192655110312 -0.41152470479742131 0 -0.039666255645431463 -0.41393989980704921 0 -0.050144050585040643 -0.43336632724210788 0 -0.031846532647949233 -0.42795898314425701 0 -0.053260529457278827 -0.44588829707018551 0 -0.031846532647949233 -0.42795898314425701 0 -0.053260529457278827 -0.44588829707018551 0 -0.050144050585040643 -0.43336632724210788 0 -0.039666255645431463 -0.41393989980704921 0 -0.031846532647949233 -0.42795898314425701 0 -0.031846532647949233 -0.42795898314425701 0 -0.01043253583862286 -0.41002966921832468 0 -0.016932733515437049 -0.44027422084603107 0 -0.0157364202992284 -0.39991105634779761 0 -0.039666255645431463 -0.41393989980704921 0 -0.0157364202992284 -0.39991105634779761 0 -0.039666255645431463 -0.41393989980704921 0 -0.01043253583862286 -0.41002966921832468 0 -0.031846532647949233 -0.42795898314425701 0 -0.01043253583862286 -0.41002966921832468 0 -0.039666255645431463 -0.41393989980704921 0 -0.031846532647949233 -0.42795898314425701 0 -0.01043253583862286 -0.41002966921832468 0 -0.01043253583862286 -0.41002966921832468 0 -0.016932733515437049 -0.44027422084603107 0 0.0026279632142770931 -0.4332866246474078 0 -0.004486613093427164 -0.45108458905496601 0 -0.016932733515437049 -0.44027422084603107 0 0.0026279632142770931 -0.4332866246474078 0 -0.004486613093427164 -0.45108458905496601 0 -0.020113276315870621 -0.4639254145806313 0 -0.016932733515437049 -0.44027422084603107 0 -0.004486613093427164 -0.45108458905496601 0 -0.00036192100802574963 -0.46814403673081412 0 -0.020113276315870621 -0.4639254145806313 0 -0.020113276315870621 -0.4639254145806313 0 -0.016932733515437049 -0.44027422084603107 0 -0.037345406411029479 -0.45536004443060007 0 -0.031846532647949233 -0.42795898314425701 0 -0.016932733515437049 -0.44027422084603107 0 -0.037345406411029479 -0.45536004443060007 0 -0.003546631538578648 -0.48872452402083028 0 -0.024507351803935821 -0.49208241556736487 0 -0.003546631538578648 -0.48872452402083028 0 -0.015025095015522251 -0.4787728528365327 0 -0.024507351803935821 -0.49208241556736487 0 -0.0078526267646957248 -0.5 0 -0.003546631538578648 -0.48872452402083028 0 -0.024507351803935821 -0.49208241556736487 0 -0.00036192100802574963 -0.46814403673081412 0 -0.020113276315870621 -0.4639254145806313 0 -0.015025095015522251 -0.4787728528365327 0 -0.00036192100802574963 -0.46814403673081412 0 -0.003546631538578648 -0.48872452402083028 0 -0.015025095015522251 -0.4787728528365327 0 -0.020113276315870621 -0.4639254145806313 0 -0.026596294411200431 -0.48098787328302289 0 -0.03806616542500052 -0.47387834525183892 0 -0.020113276315870621 -0.4639254145806313 0 -0.015025095015522251 -0.4787728528365327 0 -0.026596294411200431 -0.48098787328302289 0 -0.015025095015522251 -0.4787728528365327 0 -0.026596294411200431 -0.48098787328302289 0 -0.024507351803935821 -0.49208241556736487 0 -0.0078526267646957248 -0.5 0 -0.024507351803935821 -0.49208241556736487 0 -0.037290262237261403 -0.5 0 -0.026596294411200431 -0.48098787328302289 0 -0.024507351803935821 -0.49208241556736487 0 -0.036576518428636483 -0.48503233981828719 0 -0.024507351803935821 -0.49208241556736487 0 -0.037290262237261403 -0.5 0 -0.045468072069292993 -0.49544030711389953 0 -0.024507351803935821 -0.49208241556736487 0 -0.045468072069292993 -0.49544030711389953 0 -0.036576518428636483 -0.48503233981828719 0 -0.024507351803935821 -0.49208241556736487 0 -0.045468072069292993 -0.49544030711389953 0 -0.045468072069292993 -0.49544030711389953 0 -0.036576518428636483 -0.48503233981828719 0 -0.048244708433752628 -0.48277275787530982 0 -0.036576518428636483 -0.48503233981828719 0 -0.03806616542500052 -0.47387834525183892 0 -0.048244708433752628 -0.48277275787530982 0 -0.026596294411200431 -0.48098787328302289 0 -0.036576518428636483 -0.48503233981828719 0 -0.03806616542500052 -0.47387834525183892 0 -0.03806616542500052 -0.47387834525183892 0 -0.0598446608959671 -0.47234324786530918 0 -0.048244708433752628 -0.48277275787530982 0 -0.0598446608959671 -0.47234324786530918 0 -0.048244708433752628 -0.48277275787530982 0 -0.066428792334650127 -0.49879819866043429 0 -0.045468072069292993 -0.49544030711389953 0 -0.048244708433752628 -0.48277275787530982 0 -0.066428792334650127 -0.49879819866043429 0 -0.045468072069292993 -0.49544030711389953 0 -0.066428792334650127 -0.49879819866043429 0 -0.037290262237261403 -0.5 0 -0.045468072069292993 -0.49544030711389953 0 -0.066428792334650127 -0.49879819866043429 0 -0.031846532647949233 -0.42795898314425701 0 -0.037345406411029479 -0.45536004443060007 0 -0.053260529457278827 -0.44588829707018551 0 -0.020113276315870621 -0.4639254145806313 0 -0.03806616542500052 -0.47387834525183892 0 -0.037345406411029479 -0.45536004443060007 0 -0.03806616542500052 -0.47387834525183892 0 -0.0598446608959671 -0.47234324786530918 0 -0.037345406411029479 -0.45536004443060007 0 -0.0598446608959671 -0.47234324786530918 0 -0.053260529457278827 -0.44588829707018551 0 -0.0598446608959671 -0.47234324786530918 0 -0.037345406411029479 -0.45536004443060007 0 -0.053260529457278827 -0.44588829707018551 0 -0.050144050585040643 -0.43336632724210788 0 -0.058503964085629023 -0.4352691711514089 0 -0.053260529457278827 -0.44588829707018551 0 -0.050144050585040643 -0.43336632724210788 0 -0.053260529457278827 -0.44588829707018551 0 -0.058503964085629023 -0.4352691711514089 0 -0.053260529457278827 -0.44588829707018551 0 -0.077341672525826799 -0.45659844249576842 0 -0.058503964085629023 -0.4352691711514089 0 -0.077341672525826799 -0.45659844249576842 0 -0.058503964085629023 -0.4352691711514089 0 -0.071000407410356847 -0.44125052352622568 0 -0.077341672525826799 -0.45659844249576842 0 -0.071000407410356847 -0.44125052352622568 0 -0.07557030077326353 -0.44219637511993731 0 -0.080666933048662653 -0.43797650836250518 0 -0.071000407410356847 -0.44125052352622568 0 -0.07557030077326353 -0.44219637511993731 0 -0.078567728628522307 -0.44899582324112353 0 -0.071000407410356847 -0.44125052352622568 0 -0.077341672525826799 -0.45659844249576842 0 -0.078567728628522307 -0.44899582324112353 0 -0.077341672525826799 -0.45659844249576842 0 -0.078567728628522307 -0.44899582324112353 0 -0.053260529457278827 -0.44588829707018551 0 -0.075998663451462861 -0.46492627237678702 0 -0.077341672525826799 -0.45659844249576842 0 -0.053260529457278827 -0.44588829707018551 0 -0.075998663451462861 -0.46492627237678702 0 -0.0598446608959671 -0.47234324786530918 0 -0.053260529457278827 -0.44588829707018551 0 -0.075998663451462861 -0.46492627237678702 0 -0.075998663451462861 -0.46492627237678702 0 -0.077341672525826799 -0.45659844249576842 0 -0.077341672525826799 -0.45659844249576842 0 -0.088362841176097981 -0.45556513432898732 0 -0.078567728628522307 -0.44899582324112353 0 -0.077341672525826799 -0.45659844249576842 0 -0.088362841176097981 -0.45556513432898732 0 -0.088461346142124878 -0.46918885584544429 0 -0.075998663451462861 -0.46492627237678702 0 -0.077341672525826799 -0.45659844249576842 0 -0.088461346142124878 -0.46918885584544429 0 -0.077341672525826799 -0.45659844249576842 0 -0.088461346142124878 -0.46918885584544429 0 -0.088362841176097981 -0.45556513432898732 0 -0.088461346142124878 -0.46918885584544429 0 -0.1002293458837365 -0.46568478661365492 0 -0.080666933048662653 -0.43797650836250518 0 -0.081912879388849558 -0.44031100181307409 0 -0.098510386344841036 -0.44843721607081471 0 -0.081912879388849558 -0.44031100181307409 0 -0.085593191645152028 -0.44762116043122258 0 -0.098510386344841036 -0.44843721607081471 0 -0.080666933048662653 -0.43797650836250518 0 -0.098510386344841036 -0.44843721607081471 0 -0.095000465178971288 -0.43397562269992362 0 -0.088362841176097981 -0.45556513432898732 0 -0.085593191645152028 -0.44762116043122258 0 -0.098510386344841036 -0.44843721607081471 0 -0.080666933048662653 -0.43797650836250518 0 -0.098510386344841036 -0.44843721607081471 0 -0.081912879388849558 -0.44031100181307409 0 -0.080486324288986957 -0.44453870797720058 0 -0.085593191645152028 -0.44762116043122258 0 -0.07557030077326353 -0.44219637511993731 0 -0.080666933048662653 -0.43797650836250518 0 -0.07969055897455625 -0.44132012799940762 0 -0.080666933048662653 -0.43797650836250518 0 -0.081912879388849558 -0.44031100181307409 0 -0.080666933048662653 -0.43797650836250518 0 -0.081912879388849558 -0.44031100181307409 0 -0.07969055897455625 -0.44132012799940762 0 -0.07557030077326353 -0.44219637511993731 0 -0.080486324288986957 -0.44453870797720058 0 -0.078567728628522307 -0.44899582324112353 0 -0.07557030077326353 -0.44219637511993731 0 -0.07969055897455625 -0.44132012799940762 0 -0.080486324288986957 -0.44453870797720058 0 -0.081912879388849558 -0.44031100181307409 0 -0.07969055897455625 -0.44132012799940762 0 -0.080486324288986957 -0.44453870797720058 0 -0.080486324288986957 -0.44453870797720058 0 -0.078567728628522307 -0.44899582324112353 0 -0.085593191645152028 -0.44762116043122258 0 -0.088362841176097981 -0.45556513432898732 0 -0.078567728628522307 -0.44899582324112353 0 -0.085593191645152028 -0.44762116043122258 0 -0.070432776729382557 -0.499439633934667 0 -0.073215720090428676 -0.4821829531557279 0 -0.073930708743824014 -0.5 0 -0.073215720090428676 -0.4821829531557279 0 -0.085000080282246926 -0.49116152233602889 0 -0.073930708743824014 -0.5 0 -0.070432776729382557 -0.499439633934667 0 -0.073215720090428676 -0.4821829531557279 0 -0.0598446608959671 -0.47234324786530918 0 -0.066428792334650127 -0.49879819866043429 0 -0.0598446608959671 -0.47234324786530918 0 -0.066428792334650127 -0.49879819866043429 0 -0.073215720090428676 -0.4821829531557279 0 -0.070432776729382557 -0.499439633934667 0 -0.066428792334650127 -0.49879819866043429 0 -0.073215720090428676 -0.4821829531557279 0 -0.073930708743824014 -0.5 0 -0.070432776729382557 -0.499439633934667 0 -0.070432776729382557 -0.499439633934667 0 -0.066428792334650127 -0.49879819866043429 0 -0.075998663451462861 -0.46492627237678702 0 -0.073215720090428676 -0.4821829531557279 0 -0.0598446608959671 -0.47234324786530918 0 -0.075998663451462861 -0.46492627237678702 0 -0.073215720090428676 -0.4821829531557279 0 -0.075998663451462861 -0.46492627237678702 0 -0.073215720090428676 -0.4821829531557279 0 -0.096943934824277433 -0.48246313618838799 0 -0.075998663451462861 -0.46492627237678702 0 -0.088461346142124878 -0.46918885584544429 0 -0.096943934824277433 -0.48246313618838799 0 -0.075998663451462861 -0.46492627237678702 0 -0.096943934824277433 -0.48246313618838799 0 -0.073930708743824014 -0.5 0 -0.085000080282246926 -0.49116152233602889 0 -0.095909957470457607 -0.5 0 -0.073215720090428676 -0.4821829531557279 0 -0.085000080282246926 -0.49116152233602889 0 -0.096943934824277433 -0.48246313618838799 0 -0.085000080282246926 -0.49116152233602889 0 -0.095909957470457607 -0.5 0 -0.096943934824277433 -0.48246313618838799 0 -0.095909957470457607 -0.5 0 -0.096943934824277433 -0.48246313618838799 0 -0.1178892061970912 -0.49999999999999001 0 -0.096943934824277433 -0.48246313618838799 0 -0.1105411129606247 -0.48577809737254268 0 -0.1178892061970912 -0.49999999999999001 0 -0.096943934824277433 -0.48246313618838799 0 -0.1178892061970912 -0.49999999999999001 0 -0.099581019758423525 -0.48177926919511982 0 -0.1105285952551015 -0.47626720511810461 0 -0.1002293458837365 -0.46568478661365492 0 -0.088461346142124878 -0.46918885584544429 0 -0.099581019758423525 -0.48177926919511982 0 -0.1002293458837365 -0.46568478661365492 0 -0.096943934824277433 -0.48246313618838799 0 -0.099581019758423525 -0.48177926919511982 0 -0.1105411129606247 -0.48577809737254268 0 -0.099581019758423525 -0.48177926919511982 0 -0.1105285952551015 -0.47626720511810461 0 -0.1105411129606247 -0.48577809737254268 0 -0.088461346142124878 -0.46918885584544429 0 -0.096943934824277433 -0.48246313618838799 0 -0.099581019758423525 -0.48177926919511982 0 -0.088461346142124878 -0.46918885584544429 0 -0.099581019758423525 -0.48177926919511982 0 -0.12562936316753959 -0.48459663843924727 0 -0.1105285952551015 -0.47626720511810461 0 -0.1166621345051833 -0.46349723396995829 0 -0.12562936316753959 -0.48459663843924727 0 -0.1105285952551015 -0.47626720511810461 0 -0.1105411129606247 -0.48577809737254268 0 -0.12562936316753959 -0.48459663843924727 0 -0.1105411129606247 -0.48577809737254268 0 -0.1178892061970912 -0.49999999999999001 0 -0.1060296717450919 -0.43895550059384891 0 -0.098510386344841036 -0.44843721607081471 0 -0.11535549550408281 -0.44776612092937312 0 -0.1060296717450919 -0.43895550059384891 0 -0.098510386344841036 -0.44843721607081471 0 -0.095000465178971288 -0.43397562269992362 0 -0.098510386344841036 -0.44843721607081471 0 -0.1002293458837365 -0.46568478661365492 0 -0.1166621345051833 -0.46349723396995829 0 -0.088362841176097981 -0.45556513432898732 0 -0.098510386344841036 -0.44843721607081471 0 -0.1002293458837365 -0.46568478661365492 0 -0.1105285952551015 -0.47626720511810461 0 -0.1002293458837365 -0.46568478661365492 0 -0.1166621345051833 -0.46349723396995829 0 -0.1326752624444559 -0.44952647105154431 0 -0.1166621345051833 -0.46349723396995829 0 -0.11535549550408281 -0.44776612092937312 0 -0.098510386344841036 -0.44843721607081471 0 -0.1166621345051833 -0.46349723396995829 0 -0.11535549550408281 -0.44776612092937312 0 -0.1060296717450919 -0.43895550059384891 0 -0.11535549550408281 -0.44776612092937312 0 -0.12496787136215361 -0.4339165613104235 0 -0.1326752624444559 -0.44952647105154431 0 -0.11535549550408281 -0.44776612092937312 0 -0.12496787136215361 -0.4339165613104235 0 -0.12496787136215361 -0.4339165613104235 0 -0.108778842176733 -0.42631167000050862 0 -0.120959599556381 -0.41549173373414472 0 -0.1060296717450919 -0.43895550059384891 0 -0.12496787136215361 -0.4339165613104235 0 -0.108778842176733 -0.42631167000050862 0 -0.1060296717450919 -0.43895550059384891 0 -0.108778842176733 -0.42631167000050862 0 -0.095000465178971288 -0.43397562269992362 0 -0.108778842176733 -0.42631167000050862 0 -0.096301996708054394 -0.42197581891676761 0 -0.095000465178971288 -0.43397562269992362 0 -0.1066341615202806 -0.41245009760813017 0 -0.1000100163209541 -0.40191465924179581 0 -0.092898509508980737 -0.41072513746391232 0 -0.096301996708054394 -0.42197581891676761 0 -0.1066341615202806 -0.41245009760813017 0 -0.092898509508980737 -0.41072513746391232 0 -0.108778842176733 -0.42631167000050862 0 -0.096301996708054394 -0.42197581891676761 0 -0.1066341615202806 -0.41245009760813017 0 -0.1066341615202806 -0.41245009760813017 0 -0.120959599556381 -0.41549173373414472 0 -0.1136871912988944 -0.3994087876033266 0 -0.108778842176733 -0.42631167000050862 0 -0.1066341615202806 -0.41245009760813017 0 -0.120959599556381 -0.41549173373414472 0 -0.13443090869063479 -0.39674210597383047 0 -0.1136871912988944 -0.3994087876033266 0 -0.1189189738047052 -0.38103552782284372 0 -0.13443090869063479 -0.39674210597383047 0 -0.120959599556381 -0.41549173373414472 0 -0.1136871912988944 -0.3994087876033266 0 -0.1136871912988944 -0.3994087876033266 0 -0.1189189738047052 -0.38103552782284372 0 -0.1011663199564594 -0.38954342192769559 0 -0.13259445116056631 -0.37838894091975223 0 -0.1226461809765368 -0.36988971825261441 0 -0.1189189738047052 -0.38103552782284372 0 -0.1189189738047052 -0.38103552782284372 0 -0.1011663199564594 -0.38954342192769559 0 -0.1012111920376392 -0.37765999489378638 0 -0.1011663199564594 -0.38954342192769559 0 -0.1012111920376392 -0.37765999489378638 0 -0.090919329725029238 -0.38409929392679398 0 -0.1066341615202806 -0.41245009760813017 0 -0.1136871912988944 -0.3994087876033266 0 -0.1000100163209541 -0.40191465924179581 0 -0.1136871912988944 -0.3994087876033266 0 -0.1011663199564594 -0.38954342192769559 0 -0.1000100163209541 -0.40191465924179581 0 -0.1011663199564594 -0.38954342192769559 0 -0.1000100163209541 -0.40191465924179581 0 -0.085663899320155446 -0.39744585160591389 0 -0.1000100163209541 -0.40191465924179581 0 -0.085663899320155446 -0.39744585160591389 0 -0.092898509508980737 -0.41072513746391232 0 -0.085663899320155446 -0.39744585160591389 0 -0.080514072995979638 -0.38655709002360372 0 -0.072153594208100927 -0.39356484372612549 0 -0.085663899320155446 -0.39744585160591389 0 -0.073404285492539564 -0.4034580385923982 0 -0.080799930444246701 -0.41202620753445429 0 -0.087337676544553003 -0.37385362344970829 0 -0.1012111920376392 -0.37765999489378638 0 -0.090919329725029238 -0.38409929392679398 0 -0.087337676544553003 -0.37385362344970829 0 -0.090919329725029238 -0.38409929392679398 0 -0.080514072995979638 -0.38655709002360372 0 -0.1011663199564594 -0.38954342192769559 0 -0.085663899320155446 -0.39744585160591389 0 -0.090919329725029238 -0.38409929392679398 0 -0.085663899320155446 -0.39744585160591389 0 -0.090919329725029238 -0.38409929392679398 0 -0.080514072995979638 -0.38655709002360372 0 -0.087337676544553003 -0.37385362344970829 0 -0.080514072995979638 -0.38655709002360372 0 -0.066495865182059535 -0.38382183740947651 0 -0.07537242226362123 -0.37244333784596267 0 -0.087337676544553003 -0.37385362344970829 0 -0.066495865182059535 -0.38382183740947651 0 -0.087337676544553003 -0.37385362344970829 0 -0.066495865182059535 -0.38382183740947651 0 -0.080514072995979638 -0.38655709002360372 0 -0.066495865182059535 -0.38382183740947651 0 -0.072153594208100927 -0.39356484372612549 0 -0.067656658472595166 -0.3700164497304046 0 -0.059251390368185823 -0.37677745555530068 0 -0.066495865182059535 -0.38382183740947651 0 -0.067656658472595166 -0.3700164497304046 0 -0.07537242226362123 -0.37244333784596267 0 -0.066495865182059535 -0.38382183740947651 0 -0.058713691310575258 -0.39684335727616332 0 -0.073404285492539564 -0.4034580385923982 0 -0.069690312179619504 -0.41740993281933392 0 -0.085663899320155446 -0.39744585160591389 0 -0.073404285492539564 -0.4034580385923982 0 -0.072153594208100927 -0.39356484372612549 0 -0.058713691310575258 -0.39684335727616332 0 -0.066495865182059535 -0.38382183740947651 0 -0.072153594208100927 -0.39356484372612549 0 -0.058713691310575258 -0.39684335727616332 0 -0.073404285492539564 -0.4034580385923982 0 -0.072153594208100927 -0.39356484372612549 0 -0.058713691310575258 -0.39684335727616332 0 -0.069690312179619504 -0.41740993281933392 0 -0.073404285492539564 -0.4034580385923982 0 -0.069690312179619504 -0.41740993281933392 0 -0.080799930444246701 -0.41202620753445429 0 -0.069690312179619504 -0.41740993281933392 0 -0.081027478553660867 -0.42300325077828788 0 -0.080799930444246701 -0.41202620753445429 0 -0.080666933048662653 -0.43797650836250518 0 -0.069690312179619504 -0.41740993281933392 0 -0.060166594347046617 -0.42595820408477802 0 -0.080666933048662653 -0.43797650836250518 0 -0.060166594347046617 -0.42595820408477802 0 -0.080666933048662653 -0.43797650836250518 0 -0.069690312179619504 -0.41740993281933392 0 -0.080666933048662653 -0.43797650836250518 0 -0.069690312179619504 -0.41740993281933392 0 -0.081027478553660867 -0.42300325077828788 0 -0.060166594347046617 -0.42595820408477802 0 -0.071000407410356847 -0.44125052352622568 0 -0.080666933048662653 -0.43797650836250518 0 -0.058503964085629023 -0.4352691711514089 0 -0.060166594347046617 -0.42595820408477802 0 -0.071000407410356847 -0.44125052352622568 0 -0.081027478553660867 -0.42300325077828788 0 -0.087426454920050564 -0.42857114003059849 0 -0.087073546943310223 -0.41982124569753282 0 -0.080666933048662653 -0.43797650836250518 0 -0.081027478553660867 -0.42300325077828788 0 -0.087426454920050564 -0.42857114003059849 0 -0.080666933048662653 -0.43797650836250518 0 -0.095000465178971288 -0.43397562269992362 0 -0.087426454920050564 -0.42857114003059849 0 -0.096301996708054394 -0.42197581891676761 0 -0.087426454920050564 -0.42857114003059849 0 -0.087073546943310223 -0.41982124569753282 0 -0.096301996708054394 -0.42197581891676761 0 -0.095000465178971288 -0.43397562269992362 0 -0.087426454920050564 -0.42857114003059849 0 -0.096301996708054394 -0.42197581891676761 0 -0.087073546943310223 -0.41982124569753282 0 -0.092898509508980737 -0.41072513746391232 0 -0.087073546943310223 -0.41982124569753282 0 -0.092898509508980737 -0.41072513746391232 0 -0.080799930444246701 -0.41202620753445429 0 -0.085663899320155446 -0.39744585160591389 0 -0.092898509508980737 -0.41072513746391232 0 -0.080799930444246701 -0.41202620753445429 0 -0.081027478553660867 -0.42300325077828788 0 -0.087073546943310223 -0.41982124569753282 0 -0.080799930444246701 -0.41202620753445429 0 -0.085121348651617634 -0.093515325546903338 0 -0.084093252474648203 -0.07677281374373951 0 -0.1018736046674497 -0.092660573180311734 0 -0.084093252474648203 -0.07677281374373951 0 -0.081712930634359277 -0.071149165493217842 0 -0.10595996810019789 -0.069921147488086727 0 -0.081712930634359277 -0.071149165493217842 0 -0.093785621827228008 -0.063523245436259798 0 -0.085671122193315075 -0.061797578057771987 0 -0.081712930634359277 -0.071149165493217842 0 -0.085671122193315075 -0.061797578057771987 0 -0.077404331827614942 -0.061622854483345632 0 -0.084093252474648203 -0.07677281374373951 0 -0.081712930634359277 -0.071149165493217842 0 -0.062226536849098422 -0.083624479999391904 0 -0.081712930634359277 -0.071149165493217842 0 -0.057465893168520597 -0.07237718349834929 0 -0.081712930634359277 -0.071149165493217842 0 -0.062226536849098422 -0.083624479999391904 0 -0.057465893168520597 -0.07237718349834929 0 -0.081712930634359277 -0.071149165493217842 0 -0.070511756588334931 -0.066111828836122377 0 -0.057465893168520597 -0.07237718349834929 0 -0.081712930634359277 -0.071149165493217842 0 -0.070511756588334931 -0.066111828836122377 0 -0.077404331827614942 -0.061622854483345632 0 -0.070511756588334931 -0.066111828836122377 0 -0.064273762546583915 -0.064507423999310975 0 -0.057465893168520597 -0.07237718349834929 0 -0.070511756588334931 -0.066111828836122377 0 -0.064273762546583915 -0.064507423999310975 0 -0.068996332285565926 -0.059708601041779212 0 -0.085121348651617634 -0.093515325546903338 0 -0.071805168552596221 -0.1040637374611532 0 -0.062226536849098422 -0.083624479999391904 0 -0.084093252474648203 -0.07677281374373951 0 -0.062226536849098422 -0.083624479999391904 0 -0.085121348651617634 -0.093515325546903338 0 -0.084093252474648203 -0.07677281374373951 0 -0.062226536849098422 -0.083624479999391904 0 -0.071805168552596221 -0.1040637374611532 0 -0.062226536849098422 -0.083624479999391904 0 -0.054812213804794813 -0.1009967674702433 0 -0.071805168552596221 -0.1040637374611532 0 -0.061648602097330342 -0.12488921655819051 0 -0.054812213804794813 -0.1009967674702433 0 -0.071805168552596221 -0.1040637374611532 0 -0.092549977507218814 -0.1156652458811276 0 -0.061648602097330342 -0.12488921655819051 0 -0.085121348651617634 -0.093515325546903338 0 -0.092549977507218814 -0.1156652458811276 0 -0.1018736046674497 -0.092660573180311734 0 -0.085121348651617634 -0.093515325546903338 0 -0.071805168552596221 -0.1040637374611532 0 -0.092549977507218814 -0.1156652458811276 0 -0.092549977507218814 -0.1156652458811276 0 -0.1148487973200176 -0.099993361684772644 0 -0.1018736046674497 -0.092660573180311734 0 -0.092549977507218814 -0.1156652458811276 0 -0.1018736046674497 -0.092660573180311734 0 -0.092549977507218814 -0.1156652458811276 0 -0.1197664355065898 -0.1134613506783357 0 -0.1107012318907423 -0.12666355278782451 0 -0.092549977507218814 -0.1156652458811276 0 -0.1197664355065898 -0.1134613506783357 0 -0.1148487973200176 -0.099993361684772644 0 -0.1148487973200176 -0.099993361684772644 0 -0.1193594422888926 -0.089956040382980662 0 -0.1018736046674497 -0.092660573180311734 0 -0.1197664355065898 -0.1134613506783357 0 -0.1148487973200176 -0.099993361684772644 0 -0.12926418829970049 -0.099954548558512615 0 -0.1148487973200176 -0.099993361684772644 0 -0.1193594422888926 -0.089956040382980662 0 -0.12926418829970049 -0.099954548558512615 0 -0.1185069668054889 -0.079191918244455234 0 -0.1018736046674497 -0.092660573180311734 0 -0.1111972318276819 -0.069655900479496297 0 -0.1193594422888926 -0.089956040382980662 0 -0.1185069668054889 -0.079191918244455234 0 -0.1018736046674497 -0.092660573180311734 0 -0.1193594422888926 -0.089956040382980662 0 -0.1185069668054889 -0.079191918244455234 0 -0.13151349030026979 -0.080911988378094352 0 -0.1018736046674497 -0.092660573180311734 0 -0.1111972318276819 -0.069655900479496297 0 -0.084093252474648203 -0.07677281374373951 0 -0.1018736046674497 -0.092660573180311734 0 -0.10595996810019789 -0.069921147488086727 0 -0.081712930634359277 -0.071149165493217842 0 -0.093785621827228008 -0.063523245436259798 0 -0.10595996810019789 -0.069921147488086727 0 -0.081712930634359277 -0.071149165493217842 0 -0.10595996810019789 -0.069921147488086727 0 -0.1018736046674497 -0.092660573180311734 0 -0.10595996810019789 -0.069921147488086727 0 -0.1111972318276819 -0.069655900479496297 0 -0.084093252474648203 -0.07677281374373951 0 -0.10595996810019789 -0.069921147488086727 0 -0.093785621827228008 -0.063523245436259798 0 -0.10595996810019789 -0.069921147488086727 0 -0.10372281895516459 -0.05751000839004719 0 -0.10595996810019789 -0.069921147488086727 0 -0.1118359392641856 -0.068079984231890905 0 -0.10595996810019789 -0.069921147488086727 0 -0.1111972318276819 -0.069655900479496297 0 -0.10595996810019789 -0.069921147488086727 0 -0.1118359392641856 -0.068079984231890905 0 -0.10372281895516459 -0.05751000839004719 0 -0.1185069668054889 -0.079191918244455234 0 -0.1111972318276819 -0.069655900479496297 0 -0.12685500174418551 -0.068862895420435014 0 -0.1111972318276819 -0.069655900479496297 0 -0.1118359392641856 -0.068079984231890905 0 -0.12685500174418551 -0.068862895420435014 0 -0.1118359392641856 -0.068079984231890905 0 -0.12685500174418551 -0.068862895420435014 0 -0.1314094142815225 -0.061946876700850903 0 -0.1111972318276819 -0.069655900479496297 0 -0.12685500174418551 -0.068862895420435014 0 -0.1118359392641856 -0.068079984231890905 0 -0.1314094142815225 -0.061946876700850903 0 -0.10595996810019789 -0.069921147488086727 0 -0.1111972318276819 -0.069655900479496297 0 -0.1118359392641856 -0.068079984231890905 0 -0.1111972318276819 -0.069655900479496297 0 -0.1118359392641856 -0.068079984231890905 0 -0.1118359392641856 -0.068079984231890905 0 -0.1180762524873999 -0.052682933193331519 0 -0.1314094142815225 -0.061946876700850903 0 -0.1118359392641856 -0.068079984231890905 0 -0.1180762524873999 -0.052682933193331519 0 -0.1118359392641856 -0.068079984231890905 0 -0.1180762524873999 -0.052682933193331519 0 -0.10372281895516459 -0.05751000839004719 0 -0.1180762524873999 -0.052682933193331519 0 -0.1100228299656686 -0.045268843154629507 0 -0.10372281895516459 -0.05751000839004719 0 -0.1180762524873999 -0.052682933193331519 0 -0.1158801847687379 -0.036021262923754571 0 -0.1100228299656686 -0.045268843154629507 0 -0.1180762524873999 -0.052682933193331519 0 -0.1243165657106118 -0.037285882154771167 0 -0.1158801847687379 -0.036021262923754571 0 -0.1180762524873999 -0.052682933193331519 0 -0.1243165657106118 -0.037285882154771167 0 -0.1180762524873999 -0.052682933193331519 0 -0.1243165657106118 -0.037285882154771167 0 -0.1305707563616865 -0.050120171825992307 0 -0.1243165657106118 -0.037285882154771167 0 -0.1152946405117177 -0.033074726812632571 0 -0.1243165657106118 -0.037285882154771167 0 -0.1152946405117177 -0.033074726812632571 0 -0.129661637862758 -0.024097706211081479 0 -0.1243165657106118 -0.037285882154771167 0 -0.1152946405117177 -0.033074726812632571 0 -0.1158801847687379 -0.036021262923754571 0 -0.1152946405117177 -0.033074726812632571 0 -0.1158801847687379 -0.036021262923754571 0 -0.1067915648780151 -0.034790456911272853 0 -0.1158801847687379 -0.036021262923754571 0 -0.1100228299656686 -0.045268843154629507 0 -0.1067915648780151 -0.034790456911272853 0 -0.1152946405117177 -0.033074726812632571 0 -0.1158801847687379 -0.036021262923754571 0 -0.1100228299656686 -0.045268843154629507 0 -0.099729918399412087 -0.036905052636477829 0 -0.094105773240575924 -0.047080786473775789 0 -0.1100228299656686 -0.045268843154629507 0 -0.1067915648780151 -0.034790456911272853 0 -0.099729918399412087 -0.036905052636477829 0 -0.1067915648780151 -0.034790456911272853 0 -0.099729918399412087 -0.036905052636477829 0 -0.09303025074453905 -0.02268239902886977 0 -0.099729918399412087 -0.036905052636477829 0 -0.09303025074453905 -0.02268239902886977 0 -0.091209952172701725 -0.0344874428119432 0 -0.099729918399412087 -0.036905052636477829 0 -0.094105773240575924 -0.047080786473775789 0 -0.091209952172701725 -0.0344874428119432 0 -0.094105773240575924 -0.047080786473775789 0 -0.10372281895516459 -0.05751000839004719 0 -0.091878487187036229 -0.055987258686672203 0 -0.1100228299656686 -0.045268843154629507 0 -0.094105773240575924 -0.047080786473775789 0 -0.10372281895516459 -0.05751000839004719 0 -0.093785621827228008 -0.063523245436259798 0 -0.10372281895516459 -0.05751000839004719 0 -0.091878487187036229 -0.055987258686672203 0 -0.11237639501065511 -0.018389729655040189 0 -0.10731828618425041 0.0070633426487658807 0 -0.115421237406118 0.0038974226475877302 0 -0.13388815263487219 -0.013669405365648301 0 -0.115421237406118 0.0038974226475877302 0 -0.1229760097893568 -0.015317431265900249 0 -0.13388815263487219 -0.013669405365648301 0 -0.115421237406118 0.0038974226475877302 0 -0.1229760097893568 -0.015317431265900249 0 -0.11237639501065511 -0.018389729655040189 0 -0.115421237406118 0.0038974226475877302 0 -0.11237639501065511 -0.018389729655040189 0 -0.10731828618425041 0.0070633426487658807 0 -0.11237639501065511 -0.018389729655040189 0 -0.129661637862758 -0.024097706211081479 0 -0.1152946405117177 -0.033074726812632571 0 -0.11237639501065511 -0.018389729655040189 0 -0.129661637862758 -0.024097706211081479 0 -0.1229760097893568 -0.015317431265900249 0 -0.11237639501065511 -0.018389729655040189 0 -0.129661637862758 -0.024097706211081479 0 -0.1152946405117177 -0.033074726812632571 0 -0.11237639501065511 -0.018389729655040189 0 -0.11237639501065511 -0.018389729655040189 0 -0.091478143864519551 -0.01148865637392279 0 -0.09303025074453905 -0.02268239902886977 0 -0.1152946405117177 -0.033074726812632571 0 -0.11237639501065511 -0.018389729655040189 0 -0.09303025074453905 -0.02268239902886977 0 -0.1152946405117177 -0.033074726812632571 0 -0.1067915648780151 -0.034790456911272853 0 -0.09303025074453905 -0.02268239902886977 0 -0.1152946405117177 -0.033074726812632571 0 -0.09303025074453905 -0.02268239902886977 0 -0.091478143864519551 -0.01148865637392279 0 -0.10731828618425041 0.0070633426487658807 0 -0.084050593584032163 0.001111998914709314 0 -0.11237639501065511 -0.018389729655040189 0 -0.091478143864519551 -0.01148865637392279 0 -0.11237639501065511 -0.018389729655040189 0 -0.091478143864519551 -0.01148865637392279 0 -0.10731828618425041 0.0070633426487658807 0 -0.091478143864519551 -0.01148865637392279 0 -0.070579892718384968 -0.0045875830928024802 0 -0.084050593584032163 0.001111998914709314 0 -0.091478143864519551 -0.01148865637392279 0 -0.09303025074453905 -0.02268239902886977 0 -0.070765860977360595 -0.01229007124510661 0 -0.091478143864519551 -0.01148865637392279 0 -0.070579892718384968 -0.0045875830928024802 0 -0.09303025074453905 -0.02268239902886977 0 -0.075836862530712354 -0.02187803746272721 0 -0.070765860977360595 -0.01229007124510661 0 -0.09303025074453905 -0.02268239902886977 0 -0.070765860977360595 -0.01229007124510661 0 -0.09303025074453905 -0.02268239902886977 0 -0.083922905148109669 -0.029218330690795231 0 -0.075836862530712354 -0.02187803746272721 0 -0.09303025074453905 -0.02268239902886977 0 -0.083922905148109669 -0.029218330690795231 0 -0.091209952172701725 -0.0344874428119432 0 -0.083922905148109669 -0.029218330690795231 0 -0.076216276141672396 -0.028975386116667719 0 -0.075836862530712354 -0.02187803746272721 0 -0.076216276141672396 -0.028975386116667719 0 -0.066006548112949329 -0.02409954294808047 0 -0.075836862530712354 -0.02187803746272721 0 -0.076216276141672396 -0.028975386116667719 0 -0.066006548112949329 -0.02409954294808047 0 -0.067817524913031654 -0.034383574657083957 0 -0.066006548112949329 -0.02409954294808047 0 -0.067817524913031654 -0.034383574657083957 0 -0.060563186342001918 -0.030678451849418229 0 -0.063833509810142547 -0.01579514946321546 0 -0.075836862530712354 -0.02187803746272721 0 -0.070765860977360595 -0.01229007124510661 0 -0.066006548112949329 -0.02409954294808047 0 -0.063833509810142547 -0.01579514946321546 0 -0.075836862530712354 -0.02187803746272721 0 -0.091478143864519551 -0.01148865637392279 0 -0.070765860977360595 -0.01229007124510661 0 -0.070579892718384968 -0.0045875830928024802 0 -0.063833509810142547 -0.01579514946321546 0 -0.070579892718384968 -0.0045875830928024802 0 -0.055597394141078033 -0.012098423177702921 0 -0.063833509810142547 -0.01579514946321546 0 -0.070765860977360595 -0.01229007124510661 0 -0.070579892718384968 -0.0045875830928024802 0 -0.084073992507387021 -0.048891523862600282 0 -0.07761660528501986 -0.043888577427313218 0 -0.074609913906252615 -0.051681130710448962 0 -0.084073992507387021 -0.048891523862600282 0 -0.083179378876476764 -0.056679506123679772 0 -0.074609913906252615 -0.051681130710448962 0 -0.083179378876476764 -0.056679506123679772 0 -0.074609913906252615 -0.051681130710448962 0 -0.077404331827614942 -0.061622854483345632 0 -0.085671122193315075 -0.061797578057771987 0 -0.083179378876476764 -0.056679506123679772 0 -0.077404331827614942 -0.061622854483345632 0 -0.085671122193315075 -0.061797578057771987 0 -0.083179378876476764 -0.056679506123679772 0 -0.091878487187036229 -0.055987258686672203 0 -0.093785621827228008 -0.063523245436259798 0 -0.085671122193315075 -0.061797578057771987 0 -0.091878487187036229 -0.055987258686672203 0 -0.094105773240575924 -0.047080786473775789 0 -0.084073992507387021 -0.048891523862600282 0 -0.091878487187036229 -0.055987258686672203 0 -0.084073992507387021 -0.048891523862600282 0 -0.083179378876476764 -0.056679506123679772 0 -0.091878487187036229 -0.055987258686672203 0 -0.094105773240575924 -0.047080786473775789 0 -0.091209952172701725 -0.0344874428119432 0 -0.083321184150922781 -0.038068388033768247 0 -0.094105773240575924 -0.047080786473775789 0 -0.084073992507387021 -0.048891523862600282 0 -0.083321184150922781 -0.038068388033768247 0 -0.083922905148109669 -0.029218330690795231 0 -0.091209952172701725 -0.0344874428119432 0 -0.083321184150922781 -0.038068388033768247 0 -0.076216276141672396 -0.028975386116667719 0 -0.083321184150922781 -0.038068388033768247 0 -0.075168205100816704 -0.037510236122552137 0 -0.083922905148109669 -0.029218330690795231 0 -0.076216276141672396 -0.028975386116667719 0 -0.083321184150922781 -0.038068388033768247 0 -0.084073992507387021 -0.048891523862600282 0 -0.083321184150922781 -0.038068388033768247 0 -0.07761660528501986 -0.043888577427313218 0 -0.083321184150922781 -0.038068388033768247 0 -0.07761660528501986 -0.043888577427313218 0 -0.075168205100816704 -0.037510236122552137 0 -0.07761660528501986 -0.043888577427313218 0 -0.070909730759720166 -0.043291608407196487 0 -0.074609913906252615 -0.051681130710448962 0 -0.07761660528501986 -0.043888577427313218 0 -0.070909730759720166 -0.043291608407196487 0 -0.075168205100816704 -0.037510236122552137 0 -0.076216276141672396 -0.028975386116667719 0 -0.075168205100816704 -0.037510236122552137 0 -0.067817524913031654 -0.034383574657083957 0 -0.070909730759720166 -0.043291608407196487 0 -0.075168205100816704 -0.037510236122552137 0 -0.067817524913031654 -0.034383574657083957 0 -0.067817524913031654 -0.034383574657083957 0 -0.059439833618373031 -0.037270958092453142 0 -0.060563186342001918 -0.030678451849418229 0 -0.067817524913031654 -0.034383574657083957 0 -0.063055382618229558 -0.044101688489750213 0 -0.059439833618373031 -0.037270958092453142 0 -0.070909730759720166 -0.043291608407196487 0 -0.063055382618229558 -0.044101688489750213 0 -0.065988567129932812 -0.051509679174690577 0 -0.070909730759720166 -0.043291608407196487 0 -0.067817524913031654 -0.034383574657083957 0 -0.063055382618229558 -0.044101688489750213 0 -0.065988567129932812 -0.051509679174690577 0 -0.074609913906252615 -0.051681130710448962 0 -0.068996332285565926 -0.059708601041779212 0 -0.063055382618229558 -0.044101688489750213 0 -0.065988567129932812 -0.051509679174690577 0 -0.058802627665712412 -0.050691696208102377 0 -0.070909730759720166 -0.043291608407196487 0 -0.065988567129932812 -0.051509679174690577 0 -0.074609913906252615 -0.051681130710448962 0 -0.074609913906252615 -0.051681130710448962 0 -0.077404331827614942 -0.061622854483345632 0 -0.068996332285565926 -0.059708601041779212 0 -0.070511756588334931 -0.066111828836122377 0 -0.077404331827614942 -0.061622854483345632 0 -0.068996332285565926 -0.059708601041779212 0 -0.064273762546583915 -0.064507423999310975 0 -0.068996332285565926 -0.059708601041779212 0 -0.059557415544116317 -0.059583350190866233 0 -0.065988567129932812 -0.051509679174690577 0 -0.068996332285565926 -0.059708601041779212 0 -0.059557415544116317 -0.059583350190866233 0 -0.059557415544116317 -0.059583350190866233 0 -0.051241005727689651 -0.05398436161734247 0 -0.058802627665712412 -0.050691696208102377 0 -0.059557415544116317 -0.059583350190866233 0 -0.051241005727689651 -0.05398436161734247 0 -0.048858990635499207 -0.063557812587392709 0 -0.051241005727689651 -0.05398436161734247 0 -0.041575393360239042 -0.057917819222277282 0 -0.048858990635499207 -0.063557812587392709 0 -0.051241005727689651 -0.05398436161734247 0 -0.053316177819090912 -0.043788990979819101 0 -0.045335429341480042 -0.048366500515597162 0 -0.051241005727689651 -0.05398436161734247 0 -0.058802627665712412 -0.050691696208102377 0 -0.053316177819090912 -0.043788990979819101 0 -0.065988567129932812 -0.051509679174690577 0 -0.059557415544116317 -0.059583350190866233 0 -0.058802627665712412 -0.050691696208102377 0 -0.063055382618229558 -0.044101688489750213 0 -0.058802627665712412 -0.050691696208102377 0 -0.053316177819090912 -0.043788990979819101 0 -0.063055382618229558 -0.044101688489750213 0 -0.059439833618373031 -0.037270958092453142 0 -0.053316177819090912 -0.043788990979819101 0 -0.059439833618373031 -0.037270958092453142 0 -0.052460492140788843 -0.033681733577358333 0 -0.053316177819090912 -0.043788990979819101 0 -0.059439833618373031 -0.037270958092453142 0 -0.052460492140788843 -0.033681733577358333 0 -0.060563186342001918 -0.030678451849418229 0 -0.052460492140788843 -0.033681733577358333 0 -0.053316177819090912 -0.043788990979819101 0 -0.043133115080469998 -0.0378512130611032 0 -0.053316177819090912 -0.043788990979819101 0 -0.043133115080469998 -0.0378512130611032 0 -0.045335429341480042 -0.048366500515597162 0 -0.043133115080469998 -0.0378512130611032 0 -0.036771226277611702 -0.048794884003420698 0 -0.045335429341480042 -0.048366500515597162 0 -0.043133115080469998 -0.0378512130611032 0 -0.035318741583163081 -0.033418396560087507 0 -0.04404298669544808 -0.025477361607211889 0 -0.052460492140788843 -0.033681733577358333 0 -0.043133115080469998 -0.0378512130611032 0 -0.04404298669544808 -0.025477361607211889 0 -0.043133115080469998 -0.0378512130611032 0 -0.035318741583163081 -0.033418396560087507 0 -0.032009442176318362 -0.041180919834756149 0 -0.035318741583163081 -0.033418396560087507 0 -0.032009442176318362 -0.041180919834756149 0 -0.02650779185117209 -0.034712317325755228 0 -0.043133115080469998 -0.0378512130611032 0 -0.032009442176318362 -0.041180919834756149 0 -0.036771226277611702 -0.048794884003420698 0 -0.032009442176318362 -0.041180919834756149 0 -0.036771226277611702 -0.048794884003420698 0 -0.028072631711523539 -0.050235024755243607 0 -0.036771226277611702 -0.048794884003420698 0 -0.032835778826248913 -0.057768631337160752 0 -0.028072631711523539 -0.050235024755243607 0 -0.036771226277611702 -0.048794884003420698 0 -0.032835778826248913 -0.057768631337160752 0 -0.041575393360239042 -0.057917819222277282 0 -0.051241005727689651 -0.05398436161734247 0 -0.041575393360239042 -0.057917819222277282 0 -0.045335429341480042 -0.048366500515597162 0 -0.036771226277611702 -0.048794884003420698 0 -0.041575393360239042 -0.057917819222277282 0 -0.045335429341480042 -0.048366500515597162 0 -0.055597394141078033 -0.012098423177702921 0 -0.040652470999425649 -0.013773316754344929 0 -0.049681641572250398 0.0023134901883178609 0 -0.070579892718384968 -0.0045875830928024802 0 -0.055597394141078033 -0.012098423177702921 0 -0.049681641572250398 0.0023134901883178609 0 -0.070579892718384968 -0.0045875830928024802 0 -0.049681641572250398 0.0023134901883178609 0 -0.070579892718384968 -0.0045875830928024802 0 -0.055871588299595161 0.001039935613227596 0 -0.049681641572250398 0.0023134901883178609 0 -0.055597394141078033 -0.012098423177702921 0 -0.056045301882545237 -0.024504376994546329 0 -0.04404298669544808 -0.025477361607211889 0 -0.066006548112949329 -0.02409954294808047 0 -0.063833509810142547 -0.01579514946321546 0 -0.056045301882545237 -0.024504376994546329 0 -0.063833509810142547 -0.01579514946321546 0 -0.055597394141078033 -0.012098423177702921 0 -0.056045301882545237 -0.024504376994546329 0 -0.066006548112949329 -0.02409954294808047 0 -0.056045301882545237 -0.024504376994546329 0 -0.060563186342001918 -0.030678451849418229 0 -0.052460492140788843 -0.033681733577358333 0 -0.056045301882545237 -0.024504376994546329 0 -0.060563186342001918 -0.030678451849418229 0 -0.052460492140788843 -0.033681733577358333 0 -0.056045301882545237 -0.024504376994546329 0 -0.04404298669544808 -0.025477361607211889 0 -0.035318741583163081 -0.033418396560087507 0 -0.0319247489672356 -0.025267797813468829 0 -0.02650779185117209 -0.034712317325755228 0 -0.035318741583163081 -0.033418396560087507 0 -0.04404298669544808 -0.025477361607211889 0 -0.0319247489672356 -0.025267797813468829 0 -0.0319247489672356 -0.025267797813468829 0 -0.040652470999425649 -0.013773316754344929 0 -0.03028449254791489 -0.01520108695392809 0 -0.04404298669544808 -0.025477361607211889 0 -0.0319247489672356 -0.025267797813468829 0 -0.040652470999425649 -0.013773316754344929 0 -0.055597394141078033 -0.012098423177702921 0 -0.04404298669544808 -0.025477361607211889 0 -0.040652470999425649 -0.013773316754344929 0 -0.040652470999425649 -0.013773316754344929 0 -0.033170396118065902 -0.0054912752601619817 0 -0.049681641572250398 0.0023134901883178609 0 -0.040652470999425649 -0.013773316754344929 0 -0.033170396118065902 -0.0054912752601619817 0 -0.03028449254791489 -0.01520108695392809 0 -0.01822927046639845 -0.00031441950359401032 0 -0.020819304095042519 -0.0051932248197874868 0 -0.01430842160679568 -0.0054777922160815307 0 -0.020819304095042519 -0.0051932248197874868 0 -0.017054753229641562 -0.01010374054850853 0 -0.01430842160679568 -0.0054777922160815307 0 -0.01822927046639845 -0.00031441950359401032 0 -0.020819304095042519 -0.0051932248197874868 0 -0.025697331113898651 -0.001019181671247186 0 -0.020819304095042519 -0.0051932248197874868 0 -0.025697331113898651 -0.001019181671247186 0 -0.025232460446407031 -0.0095735253431606486 0 -0.033170396118065902 -0.0054912752601619817 0 -0.025697331113898651 -0.001019181671247186 0 -0.025232460446407031 -0.0095735253431606486 0 -0.025232460446407031 -0.0095735253431606486 0 -0.03028449254791489 -0.01520108695392809 0 -0.02140711668778425 -0.018503829519432191 0 -0.033170396118065902 -0.0054912752601619817 0 -0.025232460446407031 -0.0095735253431606486 0 -0.03028449254791489 -0.01520108695392809 0 -0.020819304095042519 -0.0051932248197874868 0 -0.025232460446407031 -0.0095735253431606486 0 -0.017054753229641562 -0.01010374054850853 0 -0.017054753229641562 -0.01010374054850853 0 -0.02140711668778425 -0.018503829519432191 0 -0.01103242181635896 -0.016431797918988949 0 -0.025232460446407031 -0.0095735253431606486 0 -0.017054753229641562 -0.01010374054850853 0 -0.02140711668778425 -0.018503829519432191 0 -0.02140711668778425 -0.018503829519432191 0 -0.02041827482114723 -0.027929427222219569 0 -0.01438503022545649 -0.023321585796214801 0 -0.0319247489672356 -0.025267797813468829 0 -0.03028449254791489 -0.01520108695392809 0 -0.02140711668778425 -0.018503829519432191 0 -0.0319247489672356 -0.025267797813468829 0 -0.02140711668778425 -0.018503829519432191 0 -0.02041827482114723 -0.027929427222219569 0 -0.0319247489672356 -0.025267797813468829 0 -0.02041827482114723 -0.027929427222219569 0 -0.02650779185117209 -0.034712317325755228 0 -0.02041827482114723 -0.027929427222219569 0 -0.01194976394671118 -0.03043769928127029 0 -0.01438503022545649 -0.023321585796214801 0 -0.01194976394671118 -0.03043769928127029 0 -0.0070757350787885101 -0.02576754167518976 0 -0.01438503022545649 -0.023321585796214801 0 -0.01194976394671118 -0.03043769928127029 0 -0.0070757350787885101 -0.02576754167518976 0 -0.0037506427981634418 -0.031297219054649952 0 -0.0070757350787885101 -0.02576754167518976 0 -0.0037506427981634418 -0.031297219054649952 0 5.7915888156767563e-05 -0.026155355212212461 0 -0.0037506427981634418 -0.031297219054649952 0 5.7915888156767563e-05 -0.026155355212212461 0 0.0019358410081795571 -0.032695467817506943 0 -0.0070757350787885101 -0.02576754167518976 0 -0.0035256653559218852 -0.01963818636738987 0 5.7915888156767563e-05 -0.026155355212212461 0 -0.0070757350787885101 -0.02576754167518976 0 -0.0035256653559218852 -0.01963818636738987 0 -0.01103242181635896 -0.016431797918988949 0 -0.0035256653559218852 -0.01963818636738987 0 -0.0041712514997064359 -0.01348727575066128 0 0.0042919125402528166 -0.018312964280429781 0 -0.0035256653559218852 -0.01963818636738987 0 -0.01103242181635896 -0.016431797918988949 0 -0.0041712514997064359 -0.01348727575066128 0 -0.02140711668778425 -0.018503829519432191 0 -0.01103242181635896 -0.016431797918988949 0 -0.01438503022545649 -0.023321585796214801 0 -0.0070757350787885101 -0.02576754167518976 0 -0.01103242181635896 -0.016431797918988949 0 -0.01438503022545649 -0.023321585796214801 0 -0.01103242181635896 -0.016431797918988949 0 -0.0085380144725274738 -0.0085964930674775376 0 -0.0041712514997064359 -0.01348727575066128 0 -0.017054753229641562 -0.01010374054850853 0 -0.0085380144725274738 -0.0085964930674775376 0 -0.01430842160679568 -0.0054777922160815307 0 -0.017054753229641562 -0.01010374054850853 0 -0.01103242181635896 -0.016431797918988949 0 -0.0085380144725274738 -0.0085964930674775376 0 -0.0085380144725274738 -0.0085964930674775376 0 -0.0041712514997064359 -0.01348727575066128 0 0.001191863774382809 -0.0090902042722187295 0 -0.0085380144725274738 -0.0085964930674775376 0 -0.0034533735751615269 -0.0031200744777948779 0 -0.01066505372454833 -0.001757425859714128 0 -0.0085380144725274738 -0.0085964930674775376 0 -0.0034533735751615269 -0.0031200744777948779 0 0.001191863774382809 -0.0090902042722187295 0 -0.0034533735751615269 -0.0031200744777948779 0 -0.01066505372454833 -0.001757425859714128 0 -0.0062888108209585569 0.0031791802248136341 0 -0.0085380144725274738 -0.0085964930674775376 0 -0.01066505372454833 -0.001757425859714128 0 -0.01430842160679568 -0.0054777922160815307 0 -0.01822927046639845 -0.00031441950359401032 0 -0.01066505372454833 -0.001757425859714128 0 -0.01430842160679568 -0.0054777922160815307 0 -0.019165685720290551 -0.051170256914350537 0 -0.028072631711523539 -0.050235024755243607 0 -0.022812841827356881 -0.042945024342257068 0 -0.019165685720290551 -0.051170256914350537 0 -0.02484081544131489 -0.059550432099516513 0 -0.01562021385551344 -0.059032194811479401 0 -0.02484081544131489 -0.059550432099516513 0 -0.01562021385551344 -0.059032194811479401 0 -0.020233984782169871 -0.066353129958941201 0 -0.032835778826248913 -0.057768631337160752 0 -0.02484081544131489 -0.059550432099516513 0 -0.028072631711523539 -0.050235024755243607 0 -0.019165685720290551 -0.051170256914350537 0 -0.02484081544131489 -0.059550432099516513 0 -0.028072631711523539 -0.050235024755243607 0 -0.032009442176318362 -0.041180919834756149 0 -0.02650779185117209 -0.034712317325755228 0 -0.022812841827356881 -0.042945024342257068 0 -0.032009442176318362 -0.041180919834756149 0 -0.028072631711523539 -0.050235024755243607 0 -0.022812841827356881 -0.042945024342257068 0 -0.02041827482114723 -0.027929427222219569 0 -0.01194976394671118 -0.03043769928127029 0 -0.0171822232213804 -0.036733759566935663 0 -0.02650779185117209 -0.034712317325755228 0 -0.0171822232213804 -0.036733759566935663 0 -0.022812841827356881 -0.042945024342257068 0 -0.02041827482114723 -0.027929427222219569 0 -0.02650779185117209 -0.034712317325755228 0 -0.0171822232213804 -0.036733759566935663 0 -0.0171822232213804 -0.036733759566935663 0 -0.022812841827356881 -0.042945024342257068 0 -0.0140415342339952 -0.044499714340058463 0 -0.019165685720290551 -0.051170256914350537 0 -0.022812841827356881 -0.042945024342257068 0 -0.0140415342339952 -0.044499714340058463 0 -0.0140415342339952 -0.044499714340058463 0 -0.0089955885354296664 -0.037740803160019223 0 -0.0057778322456747506 -0.045595879282600241 0 -0.0171822232213804 -0.036733759566935663 0 -0.0140415342339952 -0.044499714340058463 0 -0.0089955885354296664 -0.037740803160019223 0 -0.01194976394671118 -0.03043769928127029 0 -0.0171822232213804 -0.036733759566935663 0 -0.0089955885354296664 -0.037740803160019223 0 -0.01194976394671118 -0.03043769928127029 0 -0.0089955885354296664 -0.037740803160019223 0 -0.0037506427981634418 -0.031297219054649952 0 -0.0089955885354296664 -0.037740803160019223 0 -0.0011134606268889721 -0.038751911902321259 0 -0.0037506427981634418 -0.031297219054649952 0 -0.0011134606268889721 -0.038751911902321259 0 -0.0037506427981634418 -0.031297219054649952 0 0.0019358410081795571 -0.032695467817506943 0 -0.0089955885354296664 -0.037740803160019223 0 -0.0011134606268889721 -0.038751911902321259 0 -0.0057778322456747506 -0.045595879282600241 0 -0.0011134606268889721 -0.038751911902321259 0 -0.0057778322456747506 -0.045595879282600241 0 0.0023695236378624179 -0.046215750652769019 0 -0.0057778322456747506 -0.045595879282600241 0 -0.0026109280900245349 -0.053392068635790643 0 -0.010817080933450541 -0.052312421448159292 0 -0.0057778322456747506 -0.045595879282600241 0 -0.0026109280900245349 -0.053392068635790643 0 0.0023695236378624179 -0.046215750652769019 0 -0.0140415342339952 -0.044499714340058463 0 -0.0057778322456747506 -0.045595879282600241 0 -0.010817080933450541 -0.052312421448159292 0 -0.019165685720290551 -0.051170256914350537 0 -0.0140415342339952 -0.044499714340058463 0 -0.010817080933450541 -0.052312421448159292 0 -0.019165685720290551 -0.051170256914350537 0 -0.010817080933450541 -0.052312421448159292 0 -0.01562021385551344 -0.059032194811479401 0 -0.01562021385551344 -0.059032194811479401 0 -0.007626355421953215 -0.060223827877410957 0 -0.01152889299361355 -0.065774934690106979 0 -0.010817080933450541 -0.052312421448159292 0 -0.01562021385551344 -0.059032194811479401 0 -0.007626355421953215 -0.060223827877410957 0 -0.0026109280900245349 -0.053392068635790643 0 -0.010817080933450541 -0.052312421448159292 0 -0.007626355421953215 -0.060223827877410957 0 -0.007626355421953215 -0.060223827877410957 0 -0.0050778254206319791 -0.066061630188663956 0 9.7351971471751713e-05 -0.060723252509624827 0 -0.0026109280900245349 -0.053392068635790643 0 -0.007626355421953215 -0.060223827877410957 0 9.7351971471751713e-05 -0.060723252509624827 0 -0.0050778254206319791 -0.066061630188663956 0 0.0024170205478812878 -0.068542929743318284 0 9.7351971471751713e-05 -0.060723252509624827 0 -0.0050778254206319791 -0.066061630188663956 0 -0.0089718182368431348 -0.0748332195086122 0 0.0024170205478812878 -0.068542929743318284 0 -0.0089718182368431348 -0.0748332195086122 0 -0.010720750878320459 -0.0767770934561227 0 0.0090880749120619449 -0.079712998134601809 0 -0.0089718182368431348 -0.0748332195086122 0 -0.010720750878320459 -0.0767770934561227 0 -0.018476802160215331 -0.079228087899066227 0 -0.0050778254206319791 -0.066061630188663956 0 -0.0089718182368431348 -0.0748332195086122 0 -0.01152889299361355 -0.065774934690106979 0 -0.0089718182368431348 -0.0748332195086122 0 -0.01152889299361355 -0.065774934690106979 0 -0.020233984782169871 -0.066353129958941201 0 -0.007626355421953215 -0.060223827877410957 0 -0.0050778254206319791 -0.066061630188663956 0 -0.01152889299361355 -0.065774934690106979 0 -0.010720750878320459 -0.0767770934561227 0 -0.0047025153429677627 -0.088520405322652831 0 0.0090880749120619449 -0.079712998134601809 0 -0.010720750878320459 -0.0767770934561227 0 0.0090880749120619449 -0.079712998134601809 0 -0.0047025153429677627 -0.088520405322652831 0 -0.0048344039766217871 -0.096875899798362419 0 0.0048874746098515869 -0.094744987113775284 0 -0.010720750878320459 -0.0767770934561227 0 -0.0047025153429677627 -0.088520405322652831 0 -0.014809947977283361 -0.085581527107333577 0 -0.010720750878320459 -0.0767770934561227 0 -0.014809947977283361 -0.085581527107333577 0 -0.018476802160215331 -0.079228087899066227 0 -0.0047025153429677627 -0.088520405322652831 0 -0.014809947977283361 -0.085581527107333577 0 -0.01849310559799984 -0.097327812510700107 0 -0.0047025153429677627 -0.088520405322652831 0 -0.01849310559799984 -0.097327812510700107 0 -0.024662638005947809 -0.085343397919781919 0 -0.040359821223548573 -0.09047614625504434 0 -0.01849310559799984 -0.097327812510700107 0 -0.014809947977283361 -0.085581527107333577 0 -0.024662638005947809 -0.085343397919781919 0 -0.01849310559799984 -0.097327812510700107 0 -0.014809947977283361 -0.085581527107333577 0 -0.018476802160215331 -0.079228087899066227 0 -0.024662638005947809 -0.085343397919781919 0 -0.018476802160215331 -0.079228087899066227 0 -0.024662638005947809 -0.085343397919781919 0 -0.033218855702681897 -0.073605201503480752 0 -0.0089718182368431348 -0.0748332195086122 0 -0.020233984782169871 -0.066353129958941201 0 -0.033218855702681897 -0.073605201503480752 0 -0.032835778826248913 -0.057768631337160752 0 -0.02484081544131489 -0.059550432099516513 0 -0.033218855702681897 -0.073605201503480752 0 -0.0089718182368431348 -0.0748332195086122 0 -0.033218855702681897 -0.073605201503480752 0 -0.0089718182368431348 -0.0748332195086122 0 -0.018476802160215331 -0.079228087899066227 0 -0.033218855702681897 -0.073605201503480752 0 -0.01562021385551344 -0.059032194811479401 0 -0.01152889299361355 -0.065774934690106979 0 -0.020233984782169871 -0.066353129958941201 0 -0.02484081544131489 -0.059550432099516513 0 -0.020233984782169871 -0.066353129958941201 0 -0.033218855702681897 -0.073605201503480752 0 -0.032835778826248913 -0.057768631337160752 0 -0.041575393360239042 -0.057917819222277282 0 -0.033218855702681897 -0.073605201503480752 0 -0.041575393360239042 -0.057917819222277282 0 -0.033218855702681897 -0.073605201503480752 0 -0.048858990635499207 -0.063557812587392709 0 -0.033218855702681897 -0.073605201503480752 0 -0.057465893168520597 -0.07237718349834929 0 -0.048858990635499207 -0.063557812587392709 0 -0.033218855702681897 -0.073605201503480752 0 -0.057465893168520597 -0.07237718349834929 0 -0.024662638005947809 -0.085343397919781919 0 -0.033218855702681897 -0.073605201503480752 0 -0.040359821223548573 -0.09047614625504434 0 -0.033218855702681897 -0.073605201503480752 0 -0.040359821223548573 -0.09047614625504434 0 -0.057465893168520597 -0.07237718349834929 0 -0.040359821223548573 -0.09047614625504434 0 -0.062226536849098422 -0.083624479999391904 0 -0.054812213804794813 -0.1009967674702433 0 -0.040359821223548573 -0.09047614625504434 0 -0.062226536849098422 -0.083624479999391904 0 -0.057465893168520597 -0.07237718349834929 0 -0.040359821223548573 -0.09047614625504434 0 -0.062226536849098422 -0.083624479999391904 0 -0.059557415544116317 -0.059583350190866233 0 -0.057465893168520597 -0.07237718349834929 0 -0.048858990635499207 -0.063557812587392709 0 -0.064273762546583915 -0.064507423999310975 0 -0.059557415544116317 -0.059583350190866233 0 -0.057465893168520597 -0.07237718349834929 0 -0.061648602097330342 -0.12488921655819051 0 -0.054812213804794813 -0.1009967674702433 0 -0.040070853847663623 -0.1111085145344476 0 -0.061648602097330342 -0.12488921655819051 0 -0.040070853847663623 -0.1111085145344476 0 -0.040359821223548573 -0.09047614625504434 0 -0.040070853847663623 -0.1111085145344476 0 -0.01849310559799984 -0.097327812510700107 0 -0.040359821223548573 -0.09047614625504434 0 -0.054812213804794813 -0.1009967674702433 0 -0.040070853847663623 -0.1111085145344476 0 -0.040070853847663623 -0.1111085145344476 0 -0.021302745473944139 -0.1221285195561479 0 -0.036551960956931938 -0.12961581465213409 0 -0.061648602097330342 -0.12488921655819051 0 -0.040070853847663623 -0.1111085145344476 0 -0.036551960956931938 -0.12961581465213409 0 -0.040070853847663623 -0.1111085145344476 0 -0.021302745473944139 -0.1221285195561479 0 -0.016006024131288359 -0.1075834508430742 0 -0.040359821223548573 -0.09047614625504434 0 -0.01849310559799984 -0.097327812510700107 0 -0.040070853847663623 -0.1111085145344476 0 -0.016006024131288359 -0.1075834508430742 0 -0.01849310559799984 -0.097327812510700107 0 -0.040070853847663623 -0.1111085145344476 0 -0.01849310559799984 -0.097327812510700107 0 -0.016006024131288359 -0.1075834508430742 0 -0.016396964594694641 -0.09798461249956418 0 -0.01849310559799984 -0.097327812510700107 0 -0.016396964594694641 -0.09798461249956418 0 -0.01849310559799984 -0.097327812510700107 0 -0.0047025153429677627 -0.088520405322652831 0 -0.016396964594694641 -0.09798461249956418 0 -0.01849310559799984 -0.097327812510700107 0 -0.0047025153429677627 -0.088520405322652831 0 -0.016396964594694641 -0.09798461249956418 0 -0.0048344039766217871 -0.096875899798362419 0 -0.016396964594694641 -0.09798461249956418 0 -0.0095977003698107573 -0.1016426878803921 0 -0.0048344039766217871 -0.096875899798362419 0 -0.016006024131288359 -0.1075834508430742 0 -0.0095977003698107573 -0.1016426878803921 0 -0.0016877313628738909 -0.1047126534159272 0 -0.016006024131288359 -0.1075834508430742 0 -0.016396964594694641 -0.09798461249956418 0 -0.0095977003698107573 -0.1016426878803921 0 -0.0095977003698107573 -0.1016426878803921 0 -0.0016877313628738909 -0.1047126534159272 0 -0.0048344039766217871 -0.096875899798362419 0 -0.0016877313628738909 -0.1047126534159272 0 -0.0048344039766217871 -0.096875899798362419 0 0.0048874746098515869 -0.094744987113775284 0 -0.021302745473944139 -0.1221285195561479 0 -0.016006024131288359 -0.1075834508430742 0 -0.0057508377372143876 -0.11936735290759071 0 -0.016006024131288359 -0.1075834508430742 0 -0.0016877313628738909 -0.1047126534159272 0 -0.0057508377372143876 -0.11936735290759071 0 -0.0057508377372143876 -0.11936735290759071 0 -0.01528711659965298 -0.14104631972715459 0 0.0043993043058308066 -0.13131490851844729 0 -0.01528711659965298 -0.14104631972715459 0 0.0098073080996340274 -0.14722946158528771 0 0.0043993043058308066 -0.13131490851844729 0 -0.021302745473944139 -0.1221285195561479 0 -0.0057508377372143876 -0.11936735290759071 0 -0.01528711659965298 -0.14104631972715459 0 -0.021302745473944139 -0.1221285195561479 0 -0.01528711659965298 -0.14104631972715459 0 -0.036551960956931938 -0.12961581465213409 0 -0.01528711659965298 -0.14104631972715459 0 -0.01255754642986588 -0.15834031010668909 0 -0.030366792315963211 -0.16343297580536539 0 -0.01528711659965298 -0.14104631972715459 0 -0.030366792315963211 -0.16343297580536539 0 -0.044450486766068609 -0.1489065028847299 0 -0.01528711659965298 -0.14104631972715459 0 0.0098073080996340274 -0.14722946158528771 0 -0.01528711659965298 -0.14104631972715459 0 -0.01255754642986588 -0.15834031010668909 0 0.0098073080996340274 -0.14722946158528771 0 -0.00079089347172151003 -0.17130482069219971 0 -0.01255754642986588 -0.15834031010668909 0 0.0098073080996340274 -0.14722946158528771 0 -0.00079089347172151003 -0.17130482069219971 0 -0.01255754642986588 -0.15834031010668909 0 -0.01765995498169318 -0.1819694500909646 0 -0.00079089347172151003 -0.17130482069219971 0 -0.01765995498169318 -0.1819694500909646 0 -0.001470390448203369 -0.1912506934557355 0 -0.01765995498169318 -0.1819694500909646 0 -0.001470390448203369 -0.1912506934557355 0 -0.01765995498169318 -0.1819694500909646 0 -0.040896302328555359 -0.180928263384871 0 -0.033624134264436237 -0.19109790163980581 0 -0.01765995498169318 -0.1819694500909646 0 -0.030366792315963211 -0.16343297580536539 0 -0.040896302328555359 -0.180928263384871 0 -0.01255754642986588 -0.15834031010668909 0 -0.01765995498169318 -0.1819694500909646 0 -0.030366792315963211 -0.16343297580536539 0 -0.030366792315963211 -0.16343297580536539 0 -0.054030513855998982 -0.1660499566631092 0 -0.044450486766068609 -0.1489065028847299 0 -0.030366792315963211 -0.16343297580536539 0 -0.040896302328555359 -0.180928263384871 0 -0.054030513855998982 -0.1660499566631092 0 -0.040896302328555359 -0.180928263384871 0 -0.045353846935564393 -0.19756986268797161 0 -0.06516045108838224 -0.18324485624813841 0 -0.040896302328555359 -0.180928263384871 0 -0.054030513855998982 -0.1660499566631092 0 -0.06516045108838224 -0.18324485624813841 0 -0.054030513855998982 -0.1660499566631092 0 -0.044450486766068609 -0.1489065028847299 0 -0.063685418917211842 -0.1452911684593074 0 -0.061648602097330342 -0.12488921655819051 0 -0.036551960956931938 -0.12961581465213409 0 -0.044450486766068609 -0.1489065028847299 0 -0.061648602097330342 -0.12488921655819051 0 -0.044450486766068609 -0.1489065028847299 0 -0.063685418917211842 -0.1452911684593074 0 -0.01528711659965298 -0.14104631972715459 0 -0.036551960956931938 -0.12961581465213409 0 -0.044450486766068609 -0.1489065028847299 0 -0.02462776661780653 -0.24822540389223649 0 -0.0080584849696134705 -0.24565963204858729 0 -0.019232123022700789 -0.22828590635995949 0 -0.030029772957513329 -0.23606383531020159 0 -0.02462776661780653 -0.24822540389223649 0 -0.019232123022700789 -0.22828590635995949 0 -0.0080584849696134705 -0.24565963204858729 0 -0.0047526477166800109 -0.2198201769135828 0 0.01235453191993083 -0.22826922062572069 0 -0.0047526477166800109 -0.2198201769135828 0 -0.019232123022700789 -0.22828590635995949 0 -0.022048818161468631 -0.21503323305902089 0 -0.0080584849696134705 -0.24565963204858729 0 -0.0047526477166800109 -0.2198201769135828 0 -0.019232123022700789 -0.22828590635995949 0 -0.030029772957513329 -0.23606383531020159 0 -0.019232123022700789 -0.22828590635995949 0 -0.038395382063003858 -0.22057448401389851 0 -0.019232123022700789 -0.22828590635995949 0 -0.022048818161468631 -0.21503323305902089 0 -0.038395382063003858 -0.22057448401389851 0 -0.022048818161468631 -0.21503323305902089 0 -0.0093921118566575659 -0.20223372155845001 0 -0.033503397798601432 -0.20393550629639731 0 -0.0047526477166800109 -0.2198201769135828 0 -0.022048818161468631 -0.21503323305902089 0 -0.0093921118566575659 -0.20223372155845001 0 -0.01765995498169318 -0.1819694500909646 0 -0.001470390448203369 -0.1912506934557355 0 -0.022867441817550509 -0.19592752390310639 0 -0.0093921118566575659 -0.20223372155845001 0 -0.001470390448203369 -0.1912506934557355 0 -0.022867441817550509 -0.19592752390310639 0 -0.0093921118566575659 -0.20223372155845001 0 -0.022867441817550509 -0.19592752390310639 0 -0.033503397798601432 -0.20393550629639731 0 -0.0093921118566575659 -0.20223372155845001 0 -0.033503397798601432 -0.20393550629639731 0 -0.01765995498169318 -0.1819694500909646 0 -0.022867441817550509 -0.19592752390310639 0 -0.033624134264436237 -0.19109790163980581 0 -0.022867441817550509 -0.19592752390310639 0 -0.031323996760426832 -0.1973529100144179 0 -0.033503397798601432 -0.20393550629639731 0 -0.022867441817550509 -0.19592752390310639 0 -0.033624134264436237 -0.19109790163980581 0 -0.031323996760426832 -0.1973529100144179 0 -0.045353846935564393 -0.19756986268797161 0 -0.056127501459082497 -0.20553232508123701 0 -0.033503397798601432 -0.20393550629639731 0 -0.040896302328555359 -0.180928263384871 0 -0.033624134264436237 -0.19109790163980581 0 -0.045353846935564393 -0.19756986268797161 0 -0.033624134264436237 -0.19109790163980581 0 -0.031323996760426832 -0.1973529100144179 0 -0.035380696474372773 -0.19872173298091331 0 -0.035380696474372773 -0.19872173298091331 0 -0.045353846935564393 -0.19756986268797161 0 -0.033503397798601432 -0.20393550629639731 0 -0.033624134264436237 -0.19109790163980581 0 -0.035380696474372773 -0.19872173298091331 0 -0.045353846935564393 -0.19756986268797161 0 -0.031323996760426832 -0.1973529100144179 0 -0.035380696474372773 -0.19872173298091331 0 -0.033503397798601432 -0.20393550629639731 0 -0.045353846935564393 -0.19756986268797161 0 -0.056127501459082497 -0.20553232508123701 0 -0.06516045108838224 -0.18324485624813841 0 -0.056127501459082497 -0.20553232508123701 0 -0.06516045108838224 -0.18324485624813841 0 -0.056127501459082497 -0.20553232508123701 0 -0.049707433893241552 -0.22137289340631741 0 -0.066772004093066925 -0.22160131663852919 0 -0.056127501459082497 -0.20553232508123701 0 -0.049707433893241552 -0.22137289340631741 0 -0.056127501459082497 -0.20553232508123701 0 -0.038395382063003858 -0.22057448401389851 0 -0.049707433893241552 -0.22137289340631741 0 -0.022048818161468631 -0.21503323305902089 0 -0.033503397798601432 -0.20393550629639731 0 -0.038395382063003858 -0.22057448401389851 0 -0.056127501459082497 -0.20553232508123701 0 -0.033503397798601432 -0.20393550629639731 0 -0.056127501459082497 -0.20553232508123701 0 -0.033503397798601432 -0.20393550629639731 0 -0.038395382063003858 -0.22057448401389851 0 -0.033503397798601432 -0.20393550629639731 0 -0.038395382063003858 -0.22057448401389851 0 -0.049707433893241552 -0.22137289340631741 0 -0.043287366327405707 -0.23721346173139979 0 -0.038395382063003858 -0.22057448401389851 0 -0.049707433893241552 -0.22137289340631741 0 -0.043287366327405707 -0.23721346173139979 0 -0.038395382063003858 -0.22057448401389851 0 -0.043287366327405707 -0.23721346173139979 0 -0.030029772957513329 -0.23606383531020159 0 -0.038395382063003858 -0.22057448401389851 0 -0.043287366327405707 -0.23721346173139979 0 -0.049707433893241552 -0.22137289340631741 0 -0.061564392766095571 -0.238872662007338 0 -0.066772004093066925 -0.22160131663852919 0 -0.049707433893241552 -0.22137289340631741 0 -0.061564392766095571 -0.238872662007338 0 -0.043287366327405707 -0.23721346173139979 0 -0.049272097018900882 -0.25756916919873429 0 -0.061564392766095571 -0.238872662007338 0 -0.043287366327405707 -0.23721346173139979 0 -0.034819165871760809 -0.25810749540512018 0 -0.02462776661780653 -0.24822540389223649 0 -0.043287366327405707 -0.23721346173139979 0 -0.034819165871760809 -0.25810749540512018 0 -0.043287366327405707 -0.23721346173139979 0 -0.049272097018900882 -0.25756916919873429 0 -0.043287366327405707 -0.23721346173139979 0 -0.030029772957513329 -0.23606383531020159 0 -0.02462776661780653 -0.24822540389223649 0 -0.043287366327405707 -0.23721346173139979 0 -0.094502101882266515 -0.26315651247145028 0 -0.089174700395829837 -0.23520300242764619 0 -0.071277889146082518 -0.26134158676017372 0 -0.061564392766095571 -0.238872662007338 0 -0.089174700395829837 -0.23520300242764619 0 -0.089174700395829837 -0.23520300242764619 0 -0.066772004093066925 -0.22160131663852919 0 -0.077285991951088193 -0.20702570027010869 0 -0.061564392766095571 -0.238872662007338 0 -0.089174700395829837 -0.23520300242764619 0 -0.066772004093066925 -0.22160131663852919 0 -0.089174700395829837 -0.23520300242764619 0 -0.077285991951088193 -0.20702570027010869 0 -0.094873786843647195 -0.20778729232703499 0 -0.056127501459082497 -0.20553232508123701 0 -0.077285991951088193 -0.20702570027010869 0 -0.056127501459082497 -0.20553232508123701 0 -0.066772004093066925 -0.22160131663852919 0 -0.077285991951088193 -0.20702570027010869 0 -0.056127501459082497 -0.20553232508123701 0 -0.077285991951088193 -0.20702570027010869 0 -0.06516045108838224 -0.18324485624813841 0 -0.077285991951088193 -0.20702570027010869 0 -0.082707250451185016 -0.18861175503218469 0 -0.06516045108838224 -0.18324485624813841 0 -0.077285991951088193 -0.20702570027010869 0 -0.082707250451185016 -0.18861175503218469 0 -0.094873786843647195 -0.20778729232703499 0 -0.082707250451185016 -0.18861175503218469 0 -0.0980197315064745 -0.1926362629304216 0 -0.094873786843647195 -0.20778729232703499 0 -0.0980197315064745 -0.1926362629304216 0 -0.11632656491481121 -0.20180975640345439 0 -0.094873786843647195 -0.20778729232703499 0 -0.0980197315064745 -0.1926362629304216 0 -0.11632656491481121 -0.20180975640345439 0 -0.0980197315064745 -0.1926362629304216 0 -0.11167036283650129 -0.18824826529074681 0 -0.11632656491481121 -0.20180975640345439 0 -0.11167036283650129 -0.18824826529074681 0 -0.11632656491481121 -0.20180975640345439 0 -0.13551857231928671 -0.18843884881555209 0 -0.11632656491481121 -0.20180975640345439 0 -0.10572848184249441 -0.22143727689839471 0 -0.1172393877583341 -0.22579803743936119 0 -0.11632656491481121 -0.20180975640345439 0 -0.1172393877583341 -0.22579803743936119 0 -0.12638681136909671 -0.2201456295922963 0 -0.11632656491481121 -0.20180975640345439 0 -0.094873786843647195 -0.20778729232703499 0 -0.10572848184249441 -0.22143727689839471 0 -0.089174700395829837 -0.23520300242764619 0 -0.094873786843647195 -0.20778729232703499 0 -0.10572848184249441 -0.22143727689839471 0 -0.089174700395829837 -0.23520300242764619 0 -0.10572848184249441 -0.22143727689839471 0 -0.1114989083824928 -0.23484820281594451 0 -0.1172393877583341 -0.22579803743936119 0 -0.1256857240780026 -0.23245269565442739 0 -0.12638681136909671 -0.2201456295922963 0 -0.1172393877583341 -0.22579803743936119 0 -0.1114989083824928 -0.23484820281594451 0 -0.1256857240780026 -0.23245269565442739 0 -0.10572848184249441 -0.22143727689839471 0 -0.1172393877583341 -0.22579803743936119 0 -0.1114989083824928 -0.23484820281594451 0 -0.1114989083824928 -0.23484820281594451 0 -0.1237574956905899 -0.24519449058821441 0 -0.107407660529706 -0.24900371388762341 0 -0.1114989083824928 -0.23484820281594451 0 -0.1237574956905899 -0.24519449058821441 0 -0.1256857240780026 -0.23245269565442739 0 -0.089174700395829837 -0.23520300242764619 0 -0.1114989083824928 -0.23484820281594451 0 -0.107407660529706 -0.24900371388762341 0 -0.094502101882266515 -0.26315651247145028 0 -0.089174700395829837 -0.23520300242764619 0 -0.107407660529706 -0.24900371388762341 0 -0.08322635034699008 -0.13866991858194441 0 -0.074193400717685071 -0.16095738741504101 0 -0.08322635034699008 -0.13866991858194441 0 -0.074193400717685071 -0.16095738741504101 0 -0.093827666552644379 -0.15990737000347441 0 -0.08322635034699008 -0.13866991858194441 0 -0.093827666552644379 -0.15990737000347441 0 -0.096962185301908588 -0.14744235611205761 0 -0.08322635034699008 -0.13866991858194441 0 -0.096962185301908588 -0.14744235611205761 0 -0.08322635034699008 -0.13866991858194441 0 -0.096962185301908588 -0.14744235611205761 0 -0.1003370444157301 -0.13551028240792029 0 -0.092549977507218814 -0.1156652458811276 0 -0.061648602097330342 -0.12488921655819051 0 -0.08322635034699008 -0.13866991858194441 0 -0.092549977507218814 -0.1156652458811276 0 -0.08322635034699008 -0.13866991858194441 0 -0.1003370444157301 -0.13551028240792029 0 -0.092549977507218814 -0.1156652458811276 0 -0.08322635034699008 -0.13866991858194441 0 -0.061648602097330342 -0.12488921655819051 0 -0.08322635034699008 -0.13866991858194441 0 -0.063685418917211842 -0.1452911684593074 0 -0.061648602097330342 -0.12488921655819051 0 -0.08322635034699008 -0.13866991858194441 0 -0.08322635034699008 -0.13866991858194441 0 -0.063685418917211842 -0.1452911684593074 0 -0.074193400717685071 -0.16095738741504101 0 -0.054030513855998982 -0.1660499566631092 0 -0.063685418917211842 -0.1452911684593074 0 -0.074193400717685071 -0.16095738741504101 0 -0.054030513855998982 -0.1660499566631092 0 -0.074193400717685071 -0.16095738741504101 0 -0.06516045108838224 -0.18324485624813841 0 -0.082707250451185016 -0.18861175503218469 0 -0.06516045108838224 -0.18324485624813841 0 -0.082440970087724344 -0.17417513104246879 0 -0.074193400717685071 -0.16095738741504101 0 -0.06516045108838224 -0.18324485624813841 0 -0.082440970087724344 -0.17417513104246879 0 -0.074193400717685071 -0.16095738741504101 0 -0.06516045108838224 -0.18324485624813841 0 -0.082707250451185016 -0.18861175503218469 0 -0.0980197315064745 -0.1926362629304216 0 -0.097393646903555134 -0.1789640156622222 0 -0.082707250451185016 -0.18861175503218469 0 -0.082440970087724344 -0.17417513104246879 0 -0.097393646903555134 -0.1789640156622222 0 -0.074193400717685071 -0.16095738741504101 0 -0.082440970087724344 -0.17417513104246879 0 -0.093827666552644379 -0.15990737000347441 0 -0.082440970087724344 -0.17417513104246879 0 -0.093827666552644379 -0.15990737000347441 0 -0.097393646903555134 -0.1789640156622222 0 -0.093827666552644379 -0.15990737000347441 0 -0.11464038931995391 -0.1742206781253898 0 -0.093827666552644379 -0.15990737000347441 0 -0.1043413023733403 -0.16229616890702139 0 -0.11464038931995391 -0.1742206781253898 0 -0.093827666552644379 -0.15990737000347441 0 -0.097393646903555134 -0.1789640156622222 0 -0.11464038931995391 -0.1742206781253898 0 -0.093827666552644379 -0.15990737000347441 0 -0.1001350140739741 -0.1566737623814437 0 -0.1043413023733403 -0.16229616890702139 0 -0.1043413023733403 -0.16229616890702139 0 -0.11244576445278789 -0.15733099639418721 0 -0.1106980202568217 -0.15621479364217919 0 -0.1043413023733403 -0.16229616890702139 0 -0.1106980202568217 -0.15621479364217919 0 -0.103712636663366 -0.15605459432997429 0 -0.1043413023733403 -0.16229616890702139 0 -0.1106980202568217 -0.15621479364217919 0 -0.1001350140739741 -0.1566737623814437 0 -0.1043413023733403 -0.16229616890702139 0 -0.103712636663366 -0.15605459432997429 0 -0.11167036283650129 -0.18824826529074681 0 -0.097393646903555134 -0.1789640156622222 0 -0.11464038931995391 -0.1742206781253898 0 -0.0980197315064745 -0.1926362629304216 0 -0.11167036283650129 -0.18824826529074681 0 -0.097393646903555134 -0.1789640156622222 0 -0.11167036283650129 -0.18824826529074681 0 -0.11464038931995391 -0.1742206781253898 0 -0.13551857231928671 -0.18843884881555209 0 -0.11464038931995391 -0.1742206781253898 0 -0.1192147498112741 -0.1646628043643607 0 -0.1320749389571276 -0.17232133688374801 0 -0.1043413023733403 -0.16229616890702139 0 -0.11244576445278789 -0.15733099639418721 0 -0.1192147498112741 -0.1646628043643607 0 -0.1169365109917458 -0.15759547505293051 0 -0.11244576445278789 -0.15733099639418721 0 -0.1192147498112741 -0.1646628043643607 0 -0.1169365109917458 -0.15759547505293051 0 -0.11244576445278789 -0.15733099639418721 0 -0.1106980202568217 -0.15621479364217919 0 -0.11244576445278789 -0.15733099639418721 0 -0.1106980202568217 -0.15621479364217919 0 -0.1043413023733403 -0.16229616890702139 0 -0.11464038931995391 -0.1742206781253898 0 -0.1192147498112741 -0.1646628043643607 0 -0.1169365109917458 -0.15759547505293051 0 -0.1192147498112741 -0.1646628043643607 0 -0.12538750944609961 -0.15217330581099489 0 -0.1106980202568217 -0.15621479364217919 0 -0.12898970369751861 -0.13871541845082941 0 -0.12538750944609961 -0.15217330581099489 0 -0.1106980202568217 -0.15621479364217919 0 -0.11191194870255471 -0.13917406450291561 0 -0.12898970369751861 -0.13871541845082941 0 -0.1106980202568217 -0.15621479364217919 0 -0.12898970369751861 -0.13871541845082941 0 -0.1169365109917458 -0.15759547505293051 0 -0.1106980202568217 -0.15621479364217919 0 -0.12538750944609961 -0.15217330581099489 0 -0.1106980202568217 -0.15621479364217919 0 -0.1049772996692538 -0.14458537416626821 0 -0.096962185301908588 -0.14744235611205761 0 -0.1106980202568217 -0.15621479364217919 0 -0.103712636663366 -0.15605459432997429 0 -0.096962185301908588 -0.14744235611205761 0 -0.1106980202568217 -0.15621479364217919 0 -0.1049772996692538 -0.14458537416626821 0 -0.11191194870255471 -0.13917406450291561 0 -0.1106980202568217 -0.15621479364217919 0 -0.096962185301908588 -0.14744235611205761 0 -0.1049772996692538 -0.14458537416626821 0 -0.096962185301908588 -0.14744235611205761 0 -0.1003370444157301 -0.13551028240792029 0 -0.1001350140739741 -0.1566737623814437 0 -0.103712636663366 -0.15605459432997429 0 -0.096962185301908588 -0.14744235611205761 0 -0.093827666552644379 -0.15990737000347441 0 -0.1001350140739741 -0.1566737623814437 0 -0.096962185301908588 -0.14744235611205761 0 -0.092549977507218814 -0.1156652458811276 0 -0.1003370444157301 -0.13551028240792029 0 -0.1107012318907423 -0.12666355278782451 0 -0.1003370444157301 -0.13551028240792029 0 -0.1107012318907423 -0.12666355278782451 0 -0.11191194870255471 -0.13917406450291561 0 -0.1049772996692538 -0.14458537416626821 0 -0.1003370444157301 -0.13551028240792029 0 -0.11191194870255471 -0.13917406450291561 0 -0.1107012318907423 -0.12666355278782451 0 -0.11191194870255471 -0.13917406450291561 0 -0.12898970369751861 -0.13871541845082941 0 -0.1197664355065898 -0.1134613506783357 0 -0.1107012318907423 -0.12666355278782451 0 -0.12898970369751861 -0.13871541845082941 0 -0.12898970369751861 -0.13871541845082941 0 -0.14728138713821609 -0.12121604325948 0 -0.14826408066461461 -0.14102059234917011 0 -0.16381965852970831 -0.1347926885640425 0 -0.14728138713821609 -0.12121604325948 0 -0.12898970369751861 -0.13871541845082941 0 -0.14826408066461461 -0.14102059234917011 0 -0.14728138713821609 -0.12121604325948 0 -0.1401481345896346 -0.15834720527861981 0 -0.1610815193679952 -0.152031606192879 0 -0.14826408066461461 -0.14102059234917011 0 -0.1401481345896346 -0.15834720527861981 0 -0.1610815193679952 -0.152031606192879 0 -0.12898970369751861 -0.13871541845082941 0 -0.14826408066461461 -0.14102059234917011 0 -0.1401481345896346 -0.15834720527861981 0 -0.12898970369751861 -0.13871541845082941 0 -0.12538750944609961 -0.15217330581099489 0 -0.1401481345896346 -0.15834720527861981 0 -0.1192147498112741 -0.1646628043643607 0 -0.1401481345896346 -0.15834720527861981 0 -0.1320749389571276 -0.17232133688374801 0 -0.1192147498112741 -0.1646628043643607 0 -0.12538750944609961 -0.15217330581099489 0 -0.1401481345896346 -0.15834720527861981 0 -0.1192147498112741 -0.1646628043643607 0 -0.1401481345896346 -0.15834720527861981 0 -0.1320749389571276 -0.17232133688374801 0 -0.15085820707289119 -0.1758006771719787 0 -0.13551857231928671 -0.18843884881555209 0 -0.11464038931995391 -0.1742206781253898 0 -0.1320749389571276 -0.17232133688374801 0 -0.13551857231928671 -0.18843884881555209 0 -0.11464038931995391 -0.1742206781253898 0 -0.13551857231928671 -0.18843884881555209 0 -0.15085820707289119 -0.1758006771719787 0 -0.13551857231928671 -0.18843884881555209 0 -0.15714256750508979 -0.18883852550373051 0 -0.1401481345896346 -0.15834720527861981 0 -0.16322889768999491 -0.16607813728611021 0 -0.1610815193679952 -0.152031606192879 0 -0.1401481345896346 -0.15834720527861981 0 -0.1320749389571276 -0.17232133688374801 0 -0.15085820707289119 -0.1758006771719787 0 -0.1401481345896346 -0.15834720527861981 0 -0.15085820707289119 -0.1758006771719787 0 -0.16322889768999491 -0.16607813728611021 0 -0.16322889768999491 -0.16607813728611021 0 -0.17024929735889949 -0.16031377971805999 0 -0.17695406235339051 -0.1674266023801915 0 -0.16322889768999491 -0.16607813728611021 0 -0.17095996495017091 -0.17945119200844289 0 -0.17695406235339051 -0.1674266023801915 0 -0.16322889768999491 -0.16607813728611021 0 -0.17024929735889949 -0.16031377971805999 0 -0.1610815193679952 -0.152031606192879 0 -0.15085820707289119 -0.1758006771719787 0 -0.17095996495017091 -0.17945119200844289 0 -0.15714256750508979 -0.18883852550373051 0 -0.15085820707289119 -0.1758006771719787 0 -0.16322889768999491 -0.16607813728611021 0 -0.17095996495017091 -0.17945119200844289 0 -0.17095996495017091 -0.17945119200844289 0 -0.18264171043709559 -0.17604168454582531 0 -0.18369144547376001 -0.1909874371071803 0 -0.17095996495017091 -0.17945119200844289 0 -0.18264171043709559 -0.17604168454582531 0 -0.17695406235339051 -0.1674266023801915 0 -0.18264171043709559 -0.17604168454582531 0 -0.18369144547376001 -0.1909874371071803 0 -0.1945640582292055 -0.18207191379940979 0 -0.18264171043709559 -0.17604168454582531 0 -0.17695406235339051 -0.1674266023801915 0 -0.1870390211789508 -0.16027127743390199 0 -0.17024929735889949 -0.16031377971805999 0 -0.17695406235339051 -0.1674266023801915 0 -0.17973271002421751 -0.15571877301305961 0 -0.17695406235339051 -0.1674266023801915 0 -0.1870390211789508 -0.16027127743390199 0 -0.17973271002421751 -0.15571877301305961 0 -0.1870390211789508 -0.16027127743390199 0 -0.17973271002421751 -0.15571877301305961 0 -0.1870390211789508 -0.16027127743390199 0 -0.18201490414635579 -0.1457160071071382 0 -0.19003045763452209 -0.1506982780902569 0 -0.17973271002421751 -0.15571877301305961 0 -0.18201490414635579 -0.1457160071071382 0 -0.1610815193679952 -0.152031606192879 0 -0.1870390211789508 -0.16027127743390199 0 -0.17973271002421751 -0.15571877301305961 0 -0.18201490414635579 -0.1457160071071382 0 -0.1870390211789508 -0.16027127743390199 0 -0.18201490414635579 -0.1457160071071382 0 -0.18201490414635579 -0.1457160071071382 0 -0.17425690043448269 -0.1232404476228063 0 -0.18201490414635579 -0.1457160071071382 0 -0.18447655928356779 -0.13228959039142549 0 -0.17425690043448269 -0.1232404476228063 0 -0.18201490414635579 -0.1457160071071382 0 -0.16381965852970831 -0.1347926885640425 0 -0.17425690043448269 -0.1232404476228063 0 -0.18201490414635579 -0.1457160071071382 0 -0.18447655928356779 -0.13228959039142549 0 -0.18823408959645141 -0.1386607820310915 0 -0.16381965852970831 -0.1347926885640425 0 -0.16227557450298741 -0.11978241432151621 0 -0.14728138713821609 -0.12121604325948 0 -0.16381965852970831 -0.1347926885640425 0 -0.17425690043448269 -0.1232404476228063 0 -0.16227557450298741 -0.11978241432151621 0 -0.17024929735889949 -0.16031377971805999 0 -0.17973271002421751 -0.15571877301305961 0 -0.1610815193679952 -0.152031606192879 0 -0.18201490414635579 -0.1457160071071382 0 -0.16381965852970831 -0.1347926885640425 0 -0.1610815193679952 -0.152031606192879 0 -0.18201490414635579 -0.1457160071071382 0 -0.1610815193679952 -0.152031606192879 0 -0.14826408066461461 -0.14102059234917011 0 -0.16381965852970831 -0.1347926885640425 0 -0.1610815193679952 -0.152031606192879 0 -0.15574900656767399 -0.25088930115713548 0 -0.13388962285226019 -0.22992638714452579 0 -0.15974185162515731 -0.23588197654182541 0 -0.132934929276076 -0.25424137489347087 0 -0.15574900656767399 -0.25088930115713548 0 -0.13388962285226019 -0.22992638714452579 0 -0.132934929276076 -0.25424137489347087 0 -0.1237574956905899 -0.24519449058821441 0 -0.13388962285226019 -0.22992638714452579 0 -0.132934929276076 -0.25424137489347087 0 -0.13388962285226019 -0.22992638714452579 0 -0.1237574956905899 -0.24519449058821441 0 -0.13388962285226019 -0.22992638714452579 0 -0.1256857240780026 -0.23245269565442739 0 -0.13388962285226019 -0.22992638714452579 0 -0.13463339832314769 -0.21098324987648731 0 -0.13388962285226019 -0.22992638714452579 0 -0.12638681136909671 -0.2201456295922963 0 -0.13463339832314769 -0.21098324987648731 0 -0.13388962285226019 -0.22992638714452579 0 -0.1256857240780026 -0.23245269565442739 0 -0.12638681136909671 -0.2201456295922963 0 -0.13388962285226019 -0.22992638714452579 0 -0.1256857240780026 -0.23245269565442739 0 -0.13388962285226019 -0.22992638714452579 0 -0.13463339832314769 -0.21098324987648731 0 -0.15776473427131649 -0.22257428556300091 0 -0.13388962285226019 -0.22992638714452579 0 -0.15776473427131649 -0.22257428556300091 0 -0.15974185162515731 -0.23588197654182541 0 -0.13388962285226019 -0.22992638714452579 0 -0.15776473427131649 -0.22257428556300091 0 -0.13463339832314769 -0.21098324987648731 0 -0.15776473427131649 -0.22257428556300091 0 -0.13463339832314769 -0.21098324987648731 0 -0.1560278143951766 -0.20268360313993031 0 -0.15776473427131649 -0.22257428556300091 0 -0.11632656491481121 -0.20180975640345439 0 -0.13463339832314769 -0.21098324987648731 0 -0.11632656491481121 -0.20180975640345439 0 -0.12638681136909671 -0.2201456295922963 0 -0.13463339832314769 -0.21098324987648731 0 -0.11632656491481121 -0.20180975640345439 0 -0.13463339832314769 -0.21098324987648731 0 -0.13551857231928671 -0.18843884881555209 0 -0.13463339832314769 -0.21098324987648731 0 -0.13551857231928671 -0.18843884881555209 0 -0.13551857231928671 -0.18843884881555209 0 -0.1560278143951766 -0.20268360313993031 0 -0.15714256750508979 -0.18883852550373051 0 -0.13463339832314769 -0.21098324987648731 0 -0.13551857231928671 -0.18843884881555209 0 -0.1560278143951766 -0.20268360313993031 0 -0.13551857231928671 -0.18843884881555209 0 -0.1560278143951766 -0.20268360313993031 0 -0.17095996495017091 -0.17945119200844289 0 -0.15714256750508979 -0.18883852550373051 0 -0.17235363711532631 -0.19768183571990949 0 -0.1560278143951766 -0.20268360313993031 0 -0.15714256750508979 -0.18883852550373051 0 -0.17235363711532631 -0.19768183571990949 0 -0.17095996495017091 -0.17945119200844289 0 -0.18369144547376001 -0.1909874371071803 0 -0.17235363711532631 -0.19768183571990949 0 -0.18369144547376001 -0.1909874371071803 0 -0.17235363711532631 -0.19768183571990949 0 -0.1833967551117541 -0.20542732972711761 0 -0.18369144547376001 -0.1909874371071803 0 -0.1833967551117541 -0.20542732972711761 0 -0.19354639474320201 -0.20135134513621761 0 -0.17235363711532631 -0.19768183571990949 0 -0.17654241479846469 -0.21679188680147299 0 -0.1833967551117541 -0.20542732972711761 0 -0.1560278143951766 -0.20268360313993031 0 -0.17235363711532631 -0.19768183571990949 0 -0.17654241479846469 -0.21679188680147299 0 -0.1560278143951766 -0.20268360313993031 0 -0.17654241479846469 -0.21679188680147299 0 -0.15776473427131649 -0.22257428556300091 0 -0.1560278143951766 -0.20268360313993031 0 -0.17654241479846469 -0.21679188680147299 0 -0.17654241479846469 -0.21679188680147299 0 -0.15776473427131649 -0.22257428556300091 0 -0.15776473427131649 -0.22257428556300091 0 -0.17464078778809641 -0.23103081998015429 0 -0.17654241479846469 -0.21679188680147299 0 -0.15776473427131649 -0.22257428556300091 0 -0.17464078778809641 -0.23103081998015429 0 -0.15776473427131649 -0.22257428556300091 0 -0.17464078778809641 -0.23103081998015429 0 -0.15974185162515731 -0.23588197654182541 0 -0.17654241479846469 -0.21679188680147299 0 -0.17464078778809641 -0.23103081998015429 0 -0.19511848719151589 -0.22956700761720569 0 -0.17654241479846469 -0.21679188680147299 0 -0.19511848719151589 -0.22956700761720569 0 -0.17464078778809641 -0.23103081998015429 0 -0.1915168413048754 -0.23948735439730939 0 -0.19511848719151589 -0.22956700761720569 0 -0.17464078778809641 -0.23103081998015429 0 -0.17666510664643789 -0.24498908886430759 0 -0.1915168413048754 -0.23948735439730939 0 -0.17464078778809641 -0.23103081998015429 0 -0.1915168413048754 -0.23948735439730939 0 -0.15574900656767399 -0.25088930115713548 0 -0.17666510664643789 -0.24498908886430759 0 -0.15974185162515731 -0.23588197654182541 0 -0.17464078778809641 -0.23103081998015429 0 -0.17666510664643789 -0.24498908886430759 0 -0.15974185162515731 -0.23588197654182541 0 -0.21369455958456521 -0.2423421284329412 0 -0.20065074592301779 -0.24160214769084951 0 -0.19511848719151589 -0.22956700761720569 0 -0.1955574188947195 -0.25150403585599412 0 -0.21369455958456521 -0.2423421284329412 0 -0.20065074592301779 -0.24160214769084951 0 -0.1955574188947195 -0.25150403585599412 0 -0.20979158283334889 -0.25166750724865389 0 -0.21369455958456521 -0.2423421284329412 0 -0.21369455958456521 -0.2423421284329412 0 -0.19511848719151589 -0.22956700761720569 0 -0.2151193961368856 -0.2416223776845435 0 -0.20939246102108941 -0.22503098695589421 0 -0.22489451734359001 -0.2366845125008106 0 -0.21369455958456521 -0.2423421284329412 0 -0.2151193961368856 -0.2416223776845435 0 -0.20939246102108941 -0.22503098695589421 0 -0.1955574188947195 -0.25150403585599412 0 -0.21369455958456521 -0.2423421284329412 0 -0.20979158283334889 -0.25166750724865389 0 -0.21369455958456521 -0.2423421284329412 0 -0.21588868556076199 -0.24385107089599919 0 -0.21369455958456521 -0.2423421284329412 0 -0.21588868556076199 -0.24385107089599919 0 -0.21588868556076199 -0.24385107089599919 0 -0.2151193961368856 -0.2416223776845435 0 -0.21369455958456521 -0.2423421284329412 0 -0.21588868556076199 -0.24385107089599919 0 -0.2151193961368856 -0.2416223776845435 0 -0.21588868556076199 -0.24385107089599919 0 -0.2151193961368856 -0.2416223776845435 0 -0.22489451734359001 -0.2366845125008106 0 -0.21369455958456521 -0.2423421284329412 0 -0.2151193961368856 -0.2416223776845435 0 -0.1955574188947195 -0.25150403585599412 0 -0.17666510664643789 -0.24498908886430759 0 -0.1915168413048754 -0.23948735439730939 0 -0.1955574188947195 -0.25150403585599412 0 -0.1915168413048754 -0.23948735439730939 0 -0.20065074592301779 -0.24160214769084951 0 -0.1915168413048754 -0.23948735439730939 0 -0.20065074592301779 -0.24160214769084951 0 -0.19511848719151589 -0.22956700761720569 0 -0.17654241479846469 -0.21679188680147299 0 -0.19511848719151589 -0.22956700761720569 0 -0.19617972222909091 -0.21995736940045441 0 -0.19511848719151589 -0.22956700761720569 0 -0.19617972222909091 -0.21995736940045441 0 -0.20939246102108941 -0.22503098695589421 0 -0.2151193961368856 -0.2416223776845435 0 -0.20939246102108941 -0.22503098695589421 0 -0.20939246102108941 -0.22503098695589421 0 -0.21643154715333091 -0.20810543432548381 0 -0.22489451734359001 -0.2366845125008106 0 -0.21369455958456521 -0.2423421284329412 0 -0.19511848719151589 -0.22956700761720569 0 -0.20939246102108941 -0.22503098695589421 0 -0.20939246102108941 -0.22503098695589421 0 -0.21046705192287429 -0.20634513437058299 0 -0.2036655259052933 -0.20843959622724509 0 -0.20939246102108941 -0.22503098695589421 0 -0.2036655259052933 -0.20843959622724509 0 -0.20939246102108941 -0.22503098695589421 0 -0.21643154715333091 -0.20810543432548381 0 -0.21046705192287429 -0.20634513437058299 0 -0.21643154715333091 -0.20810543432548381 0 -0.21545539842519479 -0.2048090229964796 0 -0.22303984374759081 -0.2024734689765991 0 -0.21643154715333091 -0.20810543432548381 0 -0.21545539842519479 -0.2048090229964796 0 -0.21643154715333091 -0.20810543432548381 0 -0.21545539842519479 -0.2048090229964796 0 -0.21046705192287429 -0.20634513437058299 0 -0.21545539842519479 -0.2048090229964796 0 -0.21046705192287429 -0.20634513437058299 0 -0.21643154715333091 -0.20810543432548381 0 -0.21046705192287429 -0.20634513437058299 0 -0.21046705192287429 -0.20634513437058299 0 -0.20208909527945609 -0.20387255016491909 0 -0.21046705192287429 -0.20634513437058299 0 -0.2036655259052933 -0.20843959622724509 0 -0.21046705192287429 -0.20634513437058299 0 -0.2036655259052933 -0.20843959622724509 0 -0.20208909527945609 -0.20387255016491909 0 -0.17654241479846469 -0.21679188680147299 0 -0.1833967551117541 -0.20542732972711761 0 -0.2036655259052933 -0.20843959622724509 0 -0.1833967551117541 -0.20542732972711761 0 -0.2036655259052933 -0.20843959622724509 0 -0.19354639474320201 -0.20135134513621761 0 -0.17654241479846469 -0.21679188680147299 0 -0.19617972222909091 -0.21995736940045441 0 -0.2036655259052933 -0.20843959622724509 0 -0.19617972222909091 -0.21995736940045441 0 -0.20939246102108941 -0.22503098695589421 0 -0.2036655259052933 -0.20843959622724509 0 -0.17654241479846469 -0.21679188680147299 0 -0.2036655259052933 -0.20843959622724509 0 -0.2036655259052933 -0.20843959622724509 0 -0.20208909527945609 -0.20387255016491909 0 -0.19354639474320201 -0.20135134513621761 0 -0.2036655259052933 -0.20843959622724509 0 -0.20208909527945609 -0.20387255016491909 0 -0.18369144547376001 -0.1909874371071803 0 -0.19354639474320201 -0.20135134513621761 0 -0.1945640582292055 -0.18207191379940979 0 -0.20208909527945609 -0.20387255016491909 0 -0.19354639474320201 -0.20135134513621761 0 -0.20208909527945609 -0.20387255016491909 0 -0.1945640582292055 -0.18207191379940979 0 -0.20208909527945609 -0.20387255016491909 0 -0.19354639474320201 -0.20135134513621761 0 -0.1945640582292055 -0.18207191379940979 0 -0.20208909527945609 -0.20387255016491909 0 -0.20691251650199971 -0.195740796813103 0 -0.1945640582292055 -0.18207191379940979 0 -0.21079744198501729 -0.18907930893056721 0 -0.20691251650199971 -0.195740796813103 0 -0.20435634244013781 -0.1836345842818124 0 -0.21545539842519479 -0.2048090229964796 0 -0.21079744198501729 -0.18907930893056721 0 -0.21545539842519479 -0.2048090229964796 0 -0.21079744198501729 -0.18907930893056721 0 -0.21903271749696401 -0.19483852094341911 0 -0.21545539842519479 -0.2048090229964796 0 -0.21079744198501729 -0.18907930893056721 0 -0.20691251650199971 -0.195740796813103 0 -0.21046705192287429 -0.20634513437058299 0 -0.20208909527945609 -0.20387255016491909 0 -0.20691251650199971 -0.195740796813103 0 -0.21545539842519479 -0.2048090229964796 0 -0.21046705192287429 -0.20634513437058299 0 -0.20691251650199971 -0.195740796813103 0 -0.21079744198501729 -0.18907930893056721 0 -0.21903271749696401 -0.19483852094341911 0 -0.22351759868840201 -0.18300078920267451 0 -0.22303984374759081 -0.2024734689765991 0 -0.22678274867800319 -0.19325430152707451 0 -0.2417568874431269 -0.194365545087062 0 -0.22678274867800319 -0.19325430152707451 0 -0.2417568874431269 -0.194365545087062 0 -0.22351759868840201 -0.18300078920267451 0 -0.2417568874431269 -0.194365545087062 0 -0.22351759868840201 -0.18300078920267451 0 -0.21903271749696401 -0.19483852094341911 0 -0.22678274867800319 -0.19325430152707451 0 -0.22351759868840201 -0.18300078920267451 0 -0.21903271749696401 -0.19483852094341911 0 -0.22303984374759081 -0.2024734689765991 0 -0.22678274867800319 -0.19325430152707451 0 -0.21545539842519479 -0.2048090229964796 0 -0.21903271749696401 -0.19483852094341911 0 -0.22303984374759081 -0.2024734689765991 0 -0.2417568874431269 -0.194365545087062 0 -0.24538033542822071 -0.19133923748977399 0 -0.25988684736018852 -0.20566217904147979 0 -0.2417568874431269 -0.194365545087062 0 -0.24538033542822071 -0.19133923748977399 0 -0.23588363010276411 -0.1829676134618213 0 -0.2417568874431269 -0.194365545087062 0 -0.25424280476546102 -0.2192646611330637 0 -0.2417568874431269 -0.194365545087062 0 -0.2353371759593946 -0.21368504772927821 0 -0.25424280476546102 -0.2192646611330637 0 -0.2353371759593946 -0.21368504772927821 0 -0.25424280476546102 -0.2192646611330637 0 -0.21643154715333091 -0.20810543432548381 0 -0.2353371759593946 -0.21368504772927821 0 -0.21643154715333091 -0.20810543432548381 0 -0.22303984374759081 -0.2024734689765991 0 -0.2353371759593946 -0.21368504772927821 0 -0.21643154715333091 -0.20810543432548381 0 -0.2353371759593946 -0.21368504772927821 0 -0.23533496554996419 -0.22550560067877401 0 -0.22303984374759081 -0.2024734689765991 0 -0.2417568874431269 -0.194365545087062 0 -0.2353371759593946 -0.21368504772927821 0 -0.21545539842519479 -0.2048090229964796 0 -0.22303984374759081 -0.2024734689765991 0 -0.21643154715333091 -0.20810543432548381 0 -0.22489451734359001 -0.2366845125008106 0 -0.21643154715333091 -0.20810543432548381 0 -0.23533496554996419 -0.22550560067877401 0 -0.22489451734359001 -0.2366845125008106 0 -0.23109779021775109 -0.2335509528750154 0 -0.23533496554996419 -0.22550560067877401 0 -0.22489451734359001 -0.2366845125008106 0 -0.23533496554996419 -0.22550560067877401 0 -0.24511636918973989 -0.23010812977676109 0 -0.25424280476546102 -0.2192646611330637 0 -0.2353371759593946 -0.21368504772927821 0 -0.23533496554996419 -0.22550560067877401 0 -0.25424280476546102 -0.2192646611330637 0 -0.23533496554996419 -0.22550560067877401 0 -0.24511636918973989 -0.23010812977676109 0 -0.2402245542204812 -0.23714046641099959 0 -0.23109779021775109 -0.2335509528750154 0 -0.23533496554996419 -0.22550560067877401 0 -0.2402245542204812 -0.23714046641099959 0 -0.23109779021775109 -0.2335509528750154 0 -0.2402245542204812 -0.23714046641099959 0 -0.23430351868414331 -0.2426878383572087 0 -0.2402245542204812 -0.23714046641099959 0 -0.2397414864642112 -0.24651558165772669 0 -0.23430351868414331 -0.2426878383572087 0 -0.24511636918973989 -0.23010812977676109 0 -0.2402245542204812 -0.23714046641099959 0 -0.24677284420420101 -0.23790157994072619 0 -0.24511636918973989 -0.23010812977676109 0 -0.24677284420420101 -0.23790157994072619 0 -0.25416793356240353 -0.23823894190541789 0 -0.2402245542204812 -0.23714046641099959 0 -0.24677284420420101 -0.23790157994072619 0 -0.24621591896379361 -0.24390882307072231 0 -0.24677284420420101 -0.23790157994072619 0 -0.24621591896379361 -0.24390882307072231 0 -0.25058068953819879 -0.2425538979872125 0 -0.24365410585685729 -0.25271518056377179 0 -0.24962427814893129 -0.249267442217251 0 -0.24621591896379361 -0.24390882307072231 0 -0.24365410585685729 -0.25271518056377179 0 -0.24621591896379361 -0.24390882307072231 0 -0.2397414864642112 -0.24651558165772669 0 -0.24962427814893129 -0.249267442217251 0 -0.24621591896379361 -0.24390882307072231 0 -0.25058068953819879 -0.2425538979872125 0 -0.22986248486316421 -0.25346112034917878 0 -0.2397414864642112 -0.24651558165772669 0 -0.23430351868414331 -0.2426878383572087 0 -0.2402245542204812 -0.23714046641099959 0 -0.24621591896379361 -0.24390882307072231 0 -0.2397414864642112 -0.24651558165772669 0 -0.22986248486316421 -0.25346112034917878 0 -0.21588868556076199 -0.24385107089599919 0 -0.22489451734359001 -0.2366845125008106 0 -0.22986248486316421 -0.25346112034917878 0 -0.23430351868414331 -0.2426878383572087 0 -0.22489451734359001 -0.2366845125008106 0 -0.22986248486316421 -0.25346112034917878 0 -0.22489451734359001 -0.2366845125008106 0 -0.23109779021775109 -0.2335509528750154 0 -0.23430351868414331 -0.2426878383572087 0 -0.22489451734359001 -0.2366845125008106 0 -0.23109779021775109 -0.2335509528750154 0 -0.22489451734359001 -0.2366845125008106 0 -0.2151193961368856 -0.2416223776845435 0 -0.22489451734359001 -0.2366845125008106 0 -0.22986248486316421 -0.25346112034917878 0 -0.21588868556076199 -0.24385107089599919 0 -0.20706430835723821 -0.14404230841828791 0 -0.21537171874930169 -0.15548862504397951 0 -0.2013444169819002 -0.15466495767635319 0 -0.20706430835723821 -0.14404230841828791 0 -0.21537171874930169 -0.15548862504397951 0 -0.2184015385116064 -0.14237158116233861 0 -0.20706430835723821 -0.14404230841828791 0 -0.19582148560536 -0.1432460222632029 0 -0.20969180709601201 -0.1219862817958673 0 -0.2184015385116064 -0.14237158116233861 0 -0.2266066900312822 -0.13483914087826121 0 -0.20969180709601201 -0.1219862817958673 0 -0.20706430835723821 -0.14404230841828791 0 -0.2184015385116064 -0.14237158116233861 0 -0.20969180709601201 -0.1219862817958673 0 -0.19582148560536 -0.1432460222632029 0 -0.20969180709601201 -0.1219862817958673 0 -0.18447655928356779 -0.13228959039142549 0 -0.19707748878725781 -0.12908932633264369 0 -0.19251026215839759 -0.1159187289246278 0 -0.19707748878725781 -0.12908932633264369 0 -0.19582148560536 -0.1432460222632029 0 -0.20969180709601201 -0.1219862817958673 0 -0.18447655928356779 -0.13228959039142549 0 -0.19707748878725781 -0.12908932633264369 0 -0.19207804968128289 -0.13634950237838869 0 -0.19707748878725781 -0.12908932633264369 0 -0.19207804968128289 -0.13634950237838869 0 -0.19582148560536 -0.1432460222632029 0 -0.19207804968128289 -0.13634950237838869 0 -0.18823408959645141 -0.1386607820310915 0 -0.19395306541542179 -0.14211426562124721 0 -0.19207804968128289 -0.13634950237838869 0 -0.19395306541542179 -0.14211426562124721 0 -0.19582148560536 -0.1432460222632029 0 -0.18447655928356779 -0.13228959039142549 0 -0.19207804968128289 -0.13634950237838869 0 -0.18823408959645141 -0.1386607820310915 0 -0.18201490414635579 -0.1457160071071382 0 -0.18823408959645141 -0.1386607820310915 0 -0.19395306541542179 -0.14211426562124721 0 -0.18201490414635579 -0.1457160071071382 0 -0.19249183242400161 -0.14663478760018039 0 -0.19395306541542179 -0.14211426562124721 0 -0.18201490414635579 -0.1457160071071382 0 -0.19249183242400161 -0.14663478760018039 0 -0.19003045763452209 -0.1506982780902569 0 -0.18201490414635579 -0.1457160071071382 0 -0.19395306541542179 -0.14211426562124721 0 -0.19249183242400161 -0.14663478760018039 0 -0.19395306541542179 -0.14211426562124721 0 -0.19582148560536 -0.1432460222632029 0 -0.20706430835723821 -0.14404230841828791 0 -0.19582148560536 -0.1432460222632029 0 -0.19809166752845109 -0.14874917620141709 0 -0.19249183242400161 -0.14663478760018039 0 -0.19582148560536 -0.1432460222632029 0 -0.19809166752845109 -0.14874917620141709 0 -0.2013444169819002 -0.15466495767635319 0 -0.19809166752845109 -0.14874917620141709 0 -0.19003045763452209 -0.1506982780902569 0 -0.20706430835723821 -0.14404230841828791 0 -0.2013444169819002 -0.15466495767635319 0 -0.19809166752845109 -0.14874917620141709 0 -0.19249183242400161 -0.14663478760018039 0 -0.19809166752845109 -0.14874917620141709 0 -0.19003045763452209 -0.1506982780902569 0 -0.1870390211789508 -0.16027127743390199 0 -0.2013444169819002 -0.15466495767635319 0 -0.19003045763452209 -0.1506982780902569 0 -0.1870390211789508 -0.16027127743390199 0 -0.1945640582292055 -0.18207191379940979 0 -0.1870390211789508 -0.16027127743390199 0 -0.2013444169819002 -0.15466495767635319 0 -0.20527830993367641 -0.17163603331828831 0 -0.1870390211789508 -0.16027127743390199 0 -0.20527830993367641 -0.17163603331828831 0 -0.1870390211789508 -0.16027127743390199 0 -0.1945640582292055 -0.18207191379940979 0 -0.20527830993367641 -0.17163603331828831 0 -0.18264171043709559 -0.17604168454582531 0 -0.1870390211789508 -0.16027127743390199 0 -0.1945640582292055 -0.18207191379940979 0 -0.1945640582292055 -0.18207191379940979 0 -0.20435634244013781 -0.1836345842818124 0 -0.20613948554483971 -0.17334959486465479 0 -0.1945640582292055 -0.18207191379940979 0 -0.20613948554483971 -0.17334959486465479 0 -0.20527830993367641 -0.17163603331828831 0 -0.20691251650199971 -0.195740796813103 0 -0.1945640582292055 -0.18207191379940979 0 -0.20435634244013781 -0.1836345842818124 0 -0.20527830993367641 -0.17163603331828831 0 -0.22727167722223121 -0.1711099969397413 0 -0.22351759868840201 -0.18300078920267451 0 -0.21079744198501729 -0.18907930893056721 0 -0.20435634244013781 -0.1836345842818124 0 -0.20613948554483971 -0.17334959486465479 0 -0.20613948554483971 -0.17334959486465479 0 -0.20527830993367641 -0.17163603331828831 0 -0.22351759868840201 -0.18300078920267451 0 -0.20527830993367641 -0.17163603331828831 0 -0.22351759868840201 -0.18300078920267451 0 -0.21079744198501729 -0.18907930893056721 0 -0.20613948554483971 -0.17334959486465479 0 -0.22351759868840201 -0.18300078920267451 0 -0.21079744198501729 -0.18907930893056721 0 -0.20613948554483971 -0.17334959486465479 0 -0.21537171874930169 -0.15548862504397951 0 -0.2013444169819002 -0.15466495767635319 0 -0.20527830993367641 -0.17163603331828831 0 -0.21537171874930169 -0.15548862504397951 0 -0.20527830993367641 -0.17163603331828831 0 -0.22727167722223121 -0.1711099969397413 0 -0.21537171874930169 -0.15548862504397951 0 -0.22727167722223121 -0.1711099969397413 0 -0.23575692145276561 -0.15382388739396299 0 -0.2417568874431269 -0.194365545087062 0 -0.22351759868840201 -0.18300078920267451 0 -0.23588363010276411 -0.1829676134618213 0 -0.22727167722223121 -0.1711099969397413 0 -0.22351759868840201 -0.18300078920267451 0 -0.23588363010276411 -0.1829676134618213 0 -0.22727167722223121 -0.1711099969397413 0 -0.23588363010276411 -0.1829676134618213 0 -0.24782188440647729 -0.1797430332177212 0 -0.24538033542822071 -0.19133923748977399 0 -0.23588363010276411 -0.1829676134618213 0 -0.24782188440647729 -0.1797430332177212 0 -0.24782188440647729 -0.1797430332177212 0 -0.24703020523104019 -0.17051586770726321 0 -0.23575692145276561 -0.15382388739396299 0 -0.24782188440647729 -0.1797430332177212 0 -0.23575692145276561 -0.15382388739396299 0 -0.22727167722223121 -0.1711099969397413 0 -0.24782188440647729 -0.1797430332177212 0 -0.23575692145276561 -0.15382388739396299 0 -0.24703020523104019 -0.17051586770726321 0 -0.23575692145276561 -0.15382388739396299 0 -0.25327020623507968 -0.15169592267379139 0 -0.23575692145276561 -0.15382388739396299 0 -0.25327020623507968 -0.15169592267379139 0 -0.2501656495548979 -0.1378698551600121 0 -0.23575692145276561 -0.15382388739396299 0 -0.23794248756495329 -0.1379019013183693 0 -0.2501656495548979 -0.1378698551600121 0 -0.23575692145276561 -0.15382388739396299 0 -0.2266066900312822 -0.13483914087826121 0 -0.23794248756495329 -0.1379019013183693 0 -0.2184015385116064 -0.14237158116233861 0 -0.23575692145276561 -0.15382388739396299 0 -0.2266066900312822 -0.13483914087826121 0 -0.21537171874930169 -0.15548862504397951 0 -0.2184015385116064 -0.14237158116233861 0 -0.23575692145276561 -0.15382388739396299 0 -0.2266066900312822 -0.13483914087826121 0 -0.22767938766819509 -0.1186822091197601 0 -0.20969180709601201 -0.1219862817958673 0 -0.2266066900312822 -0.13483914087826121 0 -0.2392406892208675 -0.12507472184124099 0 -0.22767938766819509 -0.1186822091197601 0 -0.2392406892208675 -0.12507472184124099 0 -0.25517816819888028 -0.1186538974609114 0 -0.2501656495548979 -0.1378698551600121 0 -0.2266066900312822 -0.13483914087826121 0 -0.2392406892208675 -0.12507472184124099 0 -0.23794248756495329 -0.1379019013183693 0 -0.2392406892208675 -0.12507472184124099 0 -0.23794248756495329 -0.1379019013183693 0 -0.2501656495548979 -0.1378698551600121 0 -0.2392406892208675 -0.12507472184124099 0 -0.23929562340614971 -0.1107843597548992 0 -0.25517816819888028 -0.1186538974609114 0 -0.2392406892208675 -0.12507472184124099 0 -0.23929562340614971 -0.1107843597548992 0 -0.22767938766819509 -0.1186822091197601 0 -0.23639694075430559 -0.096255210178154083 0 -0.25846098882620011 -0.1027031305936689 0 -0.23929562340614971 -0.1107843597548992 0 -0.23639694075430559 -0.096255210178154083 0 -0.25846098882620011 -0.1027031305936689 0 -0.23639694075430559 -0.096255210178154083 0 -0.25476971962087458 -0.087562748228348086 0 -0.25846098882620011 -0.1027031305936689 0 -0.23929562340614971 -0.1107843597548992 0 -0.23639694075430559 -0.096255210178154083 0 -0.22356212858666399 -0.10072654132853159 0 -0.23929562340614971 -0.1107843597548992 0 -0.22356212858666399 -0.10072654132853159 0 -0.22767938766819509 -0.1186822091197601 0 -0.22356212858666399 -0.10072654132853159 0 -0.22767938766819509 -0.1186822091197601 0 -0.20969180709601201 -0.1219862817958673 0 -0.23743245007731609 -0.079466800861195966 0 -0.23441361283901349 -0.062342723778561107 0 -0.2513027715679681 -0.05820706039386029 0 -0.23743245007731609 -0.079466800861195966 0 -0.2513027715679681 -0.05820706039386029 0 -0.25632156800307321 -0.073583306545420196 0 -0.23743245007731609 -0.079466800861195966 0 -0.2513027715679681 -0.05820706039386029 0 -0.23743245007731609 -0.079466800861195966 0 -0.25632156800307321 -0.073583306545420196 0 -0.25476971962087458 -0.087562748228348086 0 -0.23639694075430559 -0.096255210178154083 0 -0.23743245007731609 -0.079466800861195966 0 -0.25476971962087458 -0.087562748228348086 0 -0.22356212858666399 -0.10072654132853159 0 -0.23743245007731609 -0.079466800861195966 0 -0.22356212858666399 -0.10072654132853159 0 -0.22141602652978881 -0.085051772214960686 0 -0.2149291866863475 -0.093012768665591966 0 -0.23743245007731609 -0.079466800861195966 0 -0.22141602652978881 -0.085051772214960686 0 -0.21883631058434749 -0.070068980871756781 0 -0.22356212858666399 -0.10072654132853159 0 -0.23743245007731609 -0.079466800861195966 0 -0.22141602652978881 -0.085051772214960686 0 -0.23639694075430559 -0.096255210178154083 0 -0.22356212858666399 -0.10072654132853159 0 -0.23743245007731609 -0.079466800861195966 0 -0.23743245007731609 -0.079466800861195966 0 -0.21883631058434749 -0.070068980871756781 0 -0.23441361283901349 -0.062342723778561107 0 -0.21883631058434749 -0.070068980871756781 0 -0.2081910904273685 -0.063699933304776746 0 -0.2055222876500912 -0.073021218806808202 0 -0.2081910904273685 -0.063699933304776746 0 -0.20115326739606029 -0.067167325786277765 0 -0.20235154518463061 -0.058659052093317628 0 -0.2081910904273685 -0.063699933304776746 0 -0.2055222876500912 -0.073021218806808202 0 -0.20115326739606029 -0.067167325786277765 0 -0.21883631058434749 -0.070068980871756781 0 -0.2081910904273685 -0.063699933304776746 0 -0.2147025835759154 -0.05489128059661709 0 -0.21883631058434749 -0.070068980871756781 0 -0.2055222876500912 -0.073021218806808202 0 -0.21119345384533081 -0.081783572405199428 0 -0.2055222876500912 -0.073021218806808202 0 -0.21119345384533081 -0.081783572405199428 0 -0.19968180294462831 -0.08208699420250562 0 -0.21119345384533081 -0.081783572405199428 0 -0.20532979744798011 -0.09146852947487423 0 -0.19968180294462831 -0.08208699420250562 0 -0.22141602652978881 -0.085051772214960686 0 -0.21883631058434749 -0.070068980871756781 0 -0.21119345384533081 -0.081783572405199428 0 -0.22141602652978881 -0.085051772214960686 0 -0.21119345384533081 -0.081783572405199428 0 -0.2149291866863475 -0.093012768665591966 0 -0.21119345384533081 -0.081783572405199428 0 -0.2149291866863475 -0.093012768665591966 0 -0.20532979744798011 -0.09146852947487423 0 -0.20532979744798011 -0.09146852947487423 0 -0.19968180294462831 -0.08208699420250562 0 -0.19271961910189769 -0.094598677076164386 0 -0.19968180294462831 -0.08208699420250562 0 -0.19271961910189769 -0.094598677076164386 0 -0.18743352319734219 -0.080306544168013028 0 -0.2055222876500912 -0.073021218806808202 0 -0.19968180294462831 -0.08208699420250562 0 -0.19494588051281589 -0.071798036818656638 0 -0.2055222876500912 -0.073021218806808202 0 -0.19494588051281589 -0.071798036818656638 0 -0.20115326739606029 -0.067167325786277765 0 -0.19494588051281589 -0.071798036818656638 0 -0.18743352319734219 -0.080306544168013028 0 -0.1839419321538969 -0.070137377360398795 0 -0.19968180294462831 -0.08208699420250562 0 -0.19494588051281589 -0.071798036818656638 0 -0.18743352319734219 -0.080306544168013028 0 -0.19494588051281589 -0.071798036818656638 0 -0.18892085136125311 -0.063174676907141486 0 -0.19646579172579029 -0.061043772455312319 0 -0.19494588051281589 -0.071798036818656638 0 -0.18892085136125311 -0.063174676907141486 0 -0.1839419321538969 -0.070137377360398795 0 -0.19494588051281589 -0.071798036818656638 0 -0.20115326739606029 -0.067167325786277765 0 -0.19646579172579029 -0.061043772455312319 0 -0.20969180709601201 -0.1219862817958673 0 -0.20773683325106959 -0.1050724825802609 0 -0.19251026215839759 -0.1159187289246278 0 -0.22356212858666399 -0.10072654132853159 0 -0.20969180709601201 -0.1219862817958673 0 -0.22356212858666399 -0.10072654132853159 0 -0.20969180709601201 -0.1219862817958673 0 -0.20773683325106959 -0.1050724825802609 0 -0.22356212858666399 -0.10072654132853159 0 -0.2149291866863475 -0.093012768665591966 0 -0.20773683325106959 -0.1050724825802609 0 -0.2149291866863475 -0.093012768665591966 0 -0.20532979744798011 -0.09146852947487423 0 -0.20773683325106959 -0.1050724825802609 0 -0.19271961910189769 -0.094598677076164386 0 -0.19251026215839759 -0.1159187289246278 0 -0.18056504349161209 -0.1046877206642062 0 -0.20773683325106959 -0.1050724825802609 0 -0.19271961910189769 -0.094598677076164386 0 -0.19251026215839759 -0.1159187289246278 0 -0.20532979744798011 -0.09146852947487423 0 -0.20773683325106959 -0.1050724825802609 0 -0.19271961910189769 -0.094598677076164386 0 -0.19707748878725781 -0.12908932633264369 0 -0.20969180709601201 -0.1219862817958673 0 -0.19251026215839759 -0.1159187289246278 0 -0.18447655928356779 -0.13228959039142549 0 -0.19251026215839759 -0.1159187289246278 0 -0.17425690043448269 -0.1232404476228063 0 -0.19251026215839759 -0.1159187289246278 0 -0.17425690043448269 -0.1232404476228063 0 -0.18056504349161209 -0.1046877206642062 0 -0.17425690043448269 -0.1232404476228063 0 -0.16649889672260981 -0.1007648881384743 0 -0.18056504349161209 -0.1046877206642062 0 -0.17425690043448269 -0.1232404476228063 0 -0.16649889672260981 -0.1007648881384743 0 -0.17425690043448269 -0.1232404476228063 0 -0.16227557450298741 -0.11978241432151621 0 -0.1655730705789136 -0.1037166680681305 0 -0.1655730705789136 -0.1037166680681305 0 -0.14728138713821609 -0.12121604325948 0 -0.16227557450298741 -0.11978241432151621 0 -0.1655730705789136 -0.1037166680681305 0 -0.14728138713821609 -0.12121604325948 0 -0.15644748704803391 -0.099254147196815967 0 -0.1655730705789136 -0.1037166680681305 0 -0.14728138713821609 -0.12121604325948 0 -0.17425690043448269 -0.1232404476228063 0 -0.1655730705789136 -0.1037166680681305 0 -0.16649889672260981 -0.1007648881384743 0 -0.15644748704803391 -0.099254147196815967 0 -0.1655730705789136 -0.1037166680681305 0 -0.16649889672260981 -0.1007648881384743 0 -0.19271961910189769 -0.094598677076164386 0 -0.18056504349161209 -0.1046877206642062 0 -0.17683953904067251 -0.088915861558958392 0 -0.16649889672260981 -0.1007648881384743 0 -0.18056504349161209 -0.1046877206642062 0 -0.17683953904067251 -0.088915861558958392 0 -0.19271961910189769 -0.094598677076164386 0 -0.18743352319734219 -0.080306544168013028 0 -0.17683953904067251 -0.088915861558958392 0 -0.18743352319734219 -0.080306544168013028 0 -0.17683953904067251 -0.088915861558958392 0 -0.17461359737360879 -0.074750649673112235 0 -0.1839419321538969 -0.070137377360398795 0 -0.17521216769145129 -0.064565261802043236 0 -0.1821271417879595 -0.061422574564793567 0 -0.18892085136125311 -0.063174676907141486 0 -0.1839419321538969 -0.070137377360398795 0 -0.1821271417879595 -0.061422574564793567 0 -0.18743352319734219 -0.080306544168013028 0 -0.1839419321538969 -0.070137377360398795 0 -0.17461359737360879 -0.074750649673112235 0 -0.1839419321538969 -0.070137377360398795 0 -0.17461359737360879 -0.074750649673112235 0 -0.17521216769145129 -0.064565261802043236 0 -0.17461359737360879 -0.074750649673112235 0 -0.1655135291475528 -0.066289524495117699 0 -0.15874089301073699 -0.078289328654142287 0 -0.1655135291475528 -0.066289524495117699 0 -0.15874089301073699 -0.078289328654142287 0 -0.1509828892988597 -0.055813769169811893 0 -0.17461359737360879 -0.074750649673112235 0 -0.17521216769145129 -0.064565261802043236 0 -0.1655135291475528 -0.066289524495117699 0 -0.17521216769145129 -0.064565261802043236 0 -0.1655135291475528 -0.066289524495117699 0 -0.1688990349584932 -0.057327738827664509 0 -0.17683953904067251 -0.088915861558958392 0 -0.17461359737360879 -0.074750649673112235 0 -0.15874089301073699 -0.078289328654142287 0 -0.16649889672260981 -0.1007648881384743 0 -0.17683953904067251 -0.088915861558958392 0 -0.15874089301073699 -0.078289328654142287 0 -0.16649889672260981 -0.1007648881384743 0 -0.15874089301073699 -0.078289328654142287 0 -0.15644748704803391 -0.099254147196815967 0 -0.16649889672260981 -0.1007648881384743 0 -0.15874089301073699 -0.078289328654142287 0 -0.15874089301073699 -0.078289328654142287 0 -0.14414318778969271 -0.092283807863852679 0 -0.14415978188810599 -0.075368692909577428 0 -0.15644748704803391 -0.099254147196815967 0 -0.15874089301073699 -0.078289328654142287 0 -0.14414318778969271 -0.092283807863852679 0 -0.14415978188810599 -0.075368692909577428 0 -0.13698411550258871 -0.068580844515753941 0 -0.1509828892988597 -0.055813769169811893 0 -0.15874089301073699 -0.078289328654142287 0 -0.14415978188810599 -0.075368692909577428 0 -0.1509828892988597 -0.055813769169811893 0 -0.15874089301073699 -0.078289328654142287 0 -0.1509828892988597 -0.055813769169811893 0 -0.14415978188810599 -0.075368692909577428 0 -0.13698411550258871 -0.068580844515753941 0 -0.13151349030026979 -0.080911988378094352 0 -0.13698411550258871 -0.068580844515753941 0 -0.12685500174418551 -0.068862895420435014 0 -0.13151349030026979 -0.080911988378094352 0 -0.1185069668054889 -0.079191918244455234 0 -0.12685500174418551 -0.068862895420435014 0 -0.13151349030026979 -0.080911988378094352 0 -0.13698411550258871 -0.068580844515753941 0 -0.12685500174418551 -0.068862895420435014 0 -0.1314094142815225 -0.061946876700850903 0 -0.14414318778969271 -0.092283807863852679 0 -0.14415978188810599 -0.075368692909577428 0 -0.13151349030026979 -0.080911988378094352 0 -0.1193594422888926 -0.089956040382980662 0 -0.13151349030026979 -0.080911988378094352 0 -0.12926418829970049 -0.099954548558512615 0 -0.14414318778969271 -0.092283807863852679 0 -0.13151349030026979 -0.080911988378094352 0 -0.12926418829970049 -0.099954548558512615 0 -0.14414318778969271 -0.092283807863852679 0 -0.12926418829970049 -0.099954548558512615 0 -0.14728138713821609 -0.12121604325948 0 -0.1197664355065898 -0.1134613506783357 0 -0.12898970369751861 -0.13871541845082941 0 -0.14728138713821609 -0.12121604325948 0 -0.1197664355065898 -0.1134613506783357 0 -0.12926418829970049 -0.099954548558512615 0 -0.14728138713821609 -0.12121604325948 0 -0.15644748704803391 -0.099254147196815967 0 -0.14414318778969271 -0.092283807863852679 0 -0.14728138713821609 -0.12121604325948 0 -0.13388815263487219 -0.013669405365648301 0 -0.15266914885854899 -0.031535005899996603 0 -0.1610251665380398 -0.01392057815457798 0 -0.13388815263487219 -0.013669405365648301 0 -0.13786248439976481 -0.026805810469344511 0 -0.15266914885854899 -0.031535005899996603 0 -0.13388815263487219 -0.013669405365648301 0 -0.15266914885854899 -0.031535005899996603 0 -0.13388815263487219 -0.013669405365648301 0 -0.1375100387725828 -0.00473293635783981 0 -0.1610251665380398 -0.01392057815457798 0 -0.1375100387725828 -0.00473293635783981 0 -0.1610251665380398 -0.01392057815457798 0 -0.1375100387725828 -0.00473293635783981 0 -0.1610251665380398 -0.01392057815457798 0 -0.1532190245587064 0.0036016463931156698 0 -0.13388815263487219 -0.013669405365648301 0 -0.1375100387725828 -0.00473293635783981 0 -0.115421237406118 0.0038974226475877302 0 -0.1375100387725828 -0.00473293635783981 0 -0.115421237406118 0.0038974226475877302 0 -0.13388815263487219 -0.013669405365648301 0 -0.1375100387725828 -0.00473293635783981 0 -0.1229760097893568 -0.015317431265900249 0 -0.13388815263487219 -0.013669405365648301 0 -0.129661637862758 -0.024097706211081479 0 -0.13388815263487219 -0.013669405365648301 0 -0.129661637862758 -0.024097706211081479 0 -0.13388815263487219 -0.013669405365648301 0 -0.13786248439976481 -0.026805810469344511 0 -0.129661637862758 -0.024097706211081479 0 -0.13786248439976481 -0.026805810469344511 0 -0.129661637862758 -0.024097706211081479 0 -0.134124848371246 -0.031420374983744143 0 -0.13786248439976481 -0.026805810469344511 0 -0.129661637862758 -0.024097706211081479 0 -0.1243165657106118 -0.037285882154771167 0 -0.129661637862758 -0.024097706211081479 0 -0.134124848371246 -0.031420374983744143 0 -0.1243165657106118 -0.037285882154771167 0 -0.129661637862758 -0.024097706211081479 0 -0.1243165657106118 -0.037285882154771167 0 -0.134124848371246 -0.031420374983744143 0 -0.14465870551184409 -0.03749210109977727 0 -0.1243165657106118 -0.037285882154771167 0 -0.1305707563616865 -0.050120171825992307 0 -0.14848079296721231 -0.048564995255014128 0 -0.1243165657106118 -0.037285882154771167 0 -0.14848079296721231 -0.048564995255014128 0 -0.1243165657106118 -0.037285882154771167 0 -0.14848079296721231 -0.048564995255014128 0 -0.14465870551184409 -0.03749210109977727 0 -0.13786248439976481 -0.026805810469344511 0 -0.134124848371246 -0.031420374983744143 0 -0.14465870551184409 -0.03749210109977727 0 -0.13698411550258871 -0.068580844515753941 0 -0.1314094142815225 -0.061946876700850903 0 -0.1509828892988597 -0.055813769169811893 0 -0.1314094142815225 -0.061946876700850903 0 -0.1305707563616865 -0.050120171825992307 0 -0.14848079296721231 -0.048564995255014128 0 -0.1180762524873999 -0.052682933193331519 0 -0.1314094142815225 -0.061946876700850903 0 -0.1305707563616865 -0.050120171825992307 0 -0.1314094142815225 -0.061946876700850903 0 -0.14848079296721231 -0.048564995255014128 0 -0.1509828892988597 -0.055813769169811893 0 -0.1314094142815225 -0.061946876700850903 0 -0.1509828892988597 -0.055813769169811893 0 -0.14848079296721231 -0.048564995255014128 0 -0.1535285448326266 -0.050921129535139727 0 -0.14848079296721231 -0.048564995255014128 0 -0.1535285448326266 -0.050921129535139727 0 -0.1541574674504908 -0.043582767644856267 0 -0.14848079296721231 -0.048564995255014128 0 -0.1509828892988597 -0.055813769169811893 0 -0.14848079296721231 -0.048564995255014128 0 -0.1535285448326266 -0.050921129535139727 0 -0.1509828892988597 -0.055813769169811893 0 -0.13786248439976481 -0.026805810469344511 0 -0.14465870551184409 -0.03749210109977727 0 -0.15266914885854899 -0.031535005899996603 0 -0.14848079296721231 -0.048564995255014128 0 -0.14465870551184409 -0.03749210109977727 0 -0.14848079296721231 -0.048564995255014128 0 -0.14465870551184409 -0.03749210109977727 0 -0.1541574674504908 -0.043582767644856267 0 -0.14465870551184409 -0.03749210109977727 0 -0.1541574674504908 -0.043582767644856267 0 -0.15266914885854899 -0.031535005899996603 0 -0.15266914885854899 -0.031535005899996603 0 -0.1689664507749512 -0.033200396301880652 0 -0.17145014508222159 -0.049400606434349202 0 -0.15266914885854899 -0.031535005899996603 0 -0.17145014508222159 -0.049400606434349202 0 -0.1541574674504908 -0.043582767644856267 0 -0.15266914885854899 -0.031535005899996603 0 -0.17145014508222159 -0.049400606434349202 0 -0.1509828892988597 -0.055813769169811893 0 -0.17145014508222159 -0.049400606434349202 0 -0.1688990349584932 -0.057327738827664509 0 -0.1509828892988597 -0.055813769169811893 0 -0.17145014508222159 -0.049400606434349202 0 -0.1535285448326266 -0.050921129535139727 0 -0.1509828892988597 -0.055813769169811893 0 -0.17145014508222159 -0.049400606434349202 0 -0.1535285448326266 -0.050921129535139727 0 -0.1541574674504908 -0.043582767644856267 0 -0.17145014508222159 -0.049400606434349202 0 -0.1655135291475528 -0.066289524495117699 0 -0.1509828892988597 -0.055813769169811893 0 -0.1688990349584932 -0.057327738827664509 0 -0.17145014508222159 -0.049400606434349202 0 -0.1688990349584932 -0.057327738827664509 0 -0.17315664271559961 -0.051023928470490122 0 -0.17521216769145129 -0.064565261802043236 0 -0.17659001686021089 -0.05682096508965357 0 -0.1821271417879595 -0.061422574564793567 0 -0.17521216769145129 -0.064565261802043236 0 -0.1688990349584932 -0.057327738827664509 0 -0.17659001686021089 -0.05682096508965357 0 -0.1688990349584932 -0.057327738827664509 0 -0.17659001686021089 -0.05682096508965357 0 -0.17315664271559961 -0.051023928470490122 0 -0.17145014508222159 -0.049400606434349202 0 -0.17860884175156691 -0.051244211685084209 0 -0.18546964839908281 -0.045007767590053968 0 -0.17145014508222159 -0.049400606434349202 0 -0.18546964839908281 -0.045007767590053968 0 -0.17659001686021089 -0.05682096508965357 0 -0.17860884175156691 -0.051244211685084209 0 -0.18203396866967639 -0.055242171455674061 0 -0.17659001686021089 -0.05682096508965357 0 -0.17860884175156691 -0.051244211685084209 0 -0.17315664271559961 -0.051023928470490122 0 -0.17145014508222159 -0.049400606434349202 0 -0.17860884175156691 -0.051244211685084209 0 -0.17315664271559961 -0.051023928470490122 0 -0.17145014508222159 -0.049400606434349202 0 -0.17315664271559961 -0.051023928470490122 0 -0.17860884175156691 -0.051244211685084209 0 -0.18363152145910899 -0.050675888298517692 0 -0.18546964839908281 -0.045007767590053968 0 -0.18363152145910899 -0.050675888298517692 0 -0.18655188535656839 -0.048409809812908079 0 -0.18546964839908281 -0.045007767590053968 0 -0.18363152145910899 -0.050675888298517692 0 -0.18552226906976069 -0.053433710763991622 0 -0.18203396866967639 -0.055242171455674061 0 -0.18363152145910899 -0.050675888298517692 0 -0.18655188535656839 -0.048409809812908079 0 -0.18552226906976069 -0.053433710763991622 0 -0.17860884175156691 -0.051244211685084209 0 -0.18363152145910899 -0.050675888298517692 0 -0.18203396866967639 -0.055242171455674061 0 -0.17659001686021089 -0.05682096508965357 0 -0.18203396866967639 -0.055242171455674061 0 -0.1821271417879595 -0.061422574564793567 0 -0.18203396866967639 -0.055242171455674061 0 -0.1857240210894513 -0.057855678332003731 0 -0.1821271417879595 -0.061422574564793567 0 -0.18552226906976069 -0.053433710763991622 0 -0.1857240210894513 -0.057855678332003731 0 -0.190392830473365 -0.057008288787510943 0 -0.18552226906976069 -0.053433710763991622 0 -0.18203396866967639 -0.055242171455674061 0 -0.1857240210894513 -0.057855678332003731 0 -0.18892085136125311 -0.063174676907141486 0 -0.1857240210894513 -0.057855678332003731 0 -0.1821271417879595 -0.061422574564793567 0 -0.1689664507749512 -0.033200396301880652 0 -0.17145014508222159 -0.049400606434349202 0 -0.18546964839908281 -0.045007767590053968 0 -0.18546964839908281 -0.045007767590053968 0 -0.17814385521490009 -0.021978931293279921 0 -0.1926936633070444 -0.028900424671232959 0 -0.18546964839908281 -0.045007767590053968 0 -0.17814385521490009 -0.021978931293279921 0 -0.1689664507749512 -0.033200396301880652 0 -0.18546964839908281 -0.045007767590053968 0 -0.17814385521490009 -0.021978931293279921 0 -0.18655188535656839 -0.048409809812908079 0 -0.18546964839908281 -0.045007767590053968 0 -0.17814385521490009 -0.021978931293279921 0 -0.18906504466313809 -0.0053416003071723702 0 -0.1926936633070444 -0.028900424671232959 0 -0.1689664507749512 -0.033200396301880652 0 -0.17814385521490009 -0.021978931293279921 0 -0.1610251665380398 -0.01392057815457798 0 -0.15266914885854899 -0.031535005899996603 0 -0.1689664507749512 -0.033200396301880652 0 -0.1610251665380398 -0.01392057815457798 0 -0.1610251665380398 -0.01392057815457798 0 -0.1532190245587064 0.0036016463931156698 0 -0.1708180620307255 0.001049905003496544 0 -0.17814385521490009 -0.021978931293279921 0 -0.1610251665380398 -0.01392057815457798 0 -0.1708180620307255 0.001049905003496544 0 -0.17814385521490009 -0.021978931293279921 0 -0.1708180620307255 0.001049905003496544 0 -0.17814385521490009 -0.021978931293279921 0 -0.18906504466313809 -0.0053416003071723702 0 -0.1708180620307255 0.001049905003496544 0 -0.18906504466313809 -0.0053416003071723702 0 -0.20395769010638881 -0.01779998916163705 0 -0.20845065687622341 0.00034172042793286981 0 -0.18906504466313809 -0.0053416003071723702 0 -0.1926936633070444 -0.028900424671232959 0 -0.20395769010638881 -0.01779998916163705 0 -0.1926936633070444 -0.028900424671232959 0 -0.20395769010638881 -0.01779998916163705 0 -0.20886308993662769 -0.037677720557334801 0 -0.20395769010638881 -0.01779998916163705 0 -0.20886308993662769 -0.037677720557334801 0 -0.22210309490731051 -0.012913091267563809 0 -0.22210309490731051 -0.012913091267563809 0 -0.20845065687622341 0.00034172042793286981 0 -0.22279273163251881 0.0092344643629644792 0 -0.20395769010638881 -0.01779998916163705 0 -0.22210309490731051 -0.012913091267563809 0 -0.20845065687622341 0.00034172042793286981 0 -0.20115326739606029 -0.067167325786277765 0 -0.20235154518463061 -0.058659052093317628 0 -0.19646579172579029 -0.061043772455312319 0 -0.20235154518463061 -0.058659052093317628 0 -0.19582616594348359 -0.055402424378868498 0 -0.19646579172579029 -0.061043772455312319 0 -0.18892085136125311 -0.063174676907141486 0 -0.19646579172579029 -0.061043772455312319 0 -0.190392830473365 -0.057008288787510943 0 -0.18892085136125311 -0.063174676907141486 0 -0.1857240210894513 -0.057855678332003731 0 -0.190392830473365 -0.057008288787510943 0 -0.19582616594348359 -0.055402424378868498 0 -0.19646579172579029 -0.061043772455312319 0 -0.190392830473365 -0.057008288787510943 0 -0.19582616594348359 -0.055402424378868498 0 -0.190392830473365 -0.057008288787510943 0 -0.19128478146060979 -0.052458336915917669 0 -0.19582616594348359 -0.055402424378868498 0 -0.19128478146060979 -0.052458336915917669 0 -0.19777037203916559 -0.049749576038053467 0 -0.18655188535656839 -0.048409809812908079 0 -0.18546964839908281 -0.045007767590053968 0 -0.19777037203916559 -0.049749576038053467 0 -0.18655188535656839 -0.048409809812908079 0 -0.19128478146060979 -0.052458336915917669 0 -0.19777037203916559 -0.049749576038053467 0 -0.18655188535656839 -0.048409809812908079 0 -0.18552226906976069 -0.053433710763991622 0 -0.19128478146060979 -0.052458336915917669 0 -0.18552226906976069 -0.053433710763991622 0 -0.190392830473365 -0.057008288787510943 0 -0.19128478146060979 -0.052458336915917669 0 -0.20235154518463061 -0.058659052093317628 0 -0.19582616594348359 -0.055402424378868498 0 -0.19777037203916559 -0.049749576038053467 0 -0.18546964839908281 -0.045007767590053968 0 -0.19777037203916559 -0.049749576038053467 0 -0.20886308993662769 -0.037677720557334801 0 -0.18546964839908281 -0.045007767590053968 0 -0.20886308993662769 -0.037677720557334801 0 -0.18546964839908281 -0.045007767590053968 0 -0.1926936633070444 -0.028900424671232959 0 -0.20886308993662769 -0.037677720557334801 0 -0.20886308993662769 -0.037677720557334801 0 -0.2147025835759154 -0.05489128059661709 0 -0.22983572599352159 -0.046581121844006507 0 -0.19777037203916559 -0.049749576038053467 0 -0.20886308993662769 -0.037677720557334801 0 -0.2147025835759154 -0.05489128059661709 0 -0.20235154518463061 -0.058659052093317628 0 -0.19777037203916559 -0.049749576038053467 0 -0.2147025835759154 -0.05489128059661709 0 -0.2081910904273685 -0.063699933304776746 0 -0.20235154518463061 -0.058659052093317628 0 -0.2147025835759154 -0.05489128059661709 0 -0.2147025835759154 -0.05489128059661709 0 -0.22983572599352159 -0.046581121844006507 0 -0.23441361283901349 -0.062342723778561107 0 -0.21883631058434749 -0.070068980871756781 0 -0.2147025835759154 -0.05489128059661709 0 -0.23441361283901349 -0.062342723778561107 0 -0.20886308993662769 -0.037677720557334801 0 -0.22983572599352159 -0.046581121844006507 0 -0.23225653147417261 -0.030347673524615679 0 -0.20886308993662769 -0.037677720557334801 0 -0.23225653147417261 -0.030347673524615679 0 -0.22983572599352159 -0.046581121844006507 0 -0.24726719158697191 -0.038847202924023549 0 -0.23225653147417261 -0.030347673524615679 0 -0.22983572599352159 -0.046581121844006507 0 -0.23441361283901349 -0.062342723778561107 0 -0.2513027715679681 -0.05820706039386029 0 -0.22983572599352159 -0.046581121844006507 0 -0.24726719158697191 -0.038847202924023549 0 -0.2513027715679681 -0.05820706039386029 0 -0.22210309490731051 -0.012913091267563809 0 -0.2430680818751586 -0.013434807292780279 0 -0.23556882495632811 0.00032806392891222239 0 -0.22210309490731051 -0.012913091267563809 0 -0.22279273163251881 0.0092344643629644792 0 -0.23556882495632811 0.00032806392891222239 0 -0.20886308993662769 -0.037677720557334801 0 -0.22210309490731051 -0.012913091267563809 0 -0.23225653147417261 -0.030347673524615679 0 -0.22210309490731051 -0.012913091267563809 0 -0.23225653147417261 -0.030347673524615679 0 -0.2430680818751586 -0.013434807292780279 0 -0.24726719158697191 -0.038847202924023549 0 -0.23225653147417261 -0.030347673524615679 0 -0.25564997301171749 -0.023017626491896589 0 -0.23225653147417261 -0.030347673524615679 0 -0.2430680818751586 -0.013434807292780279 0 -0.25564997301171749 -0.023017626491896589 0 -0.23225653147417261 -0.030347673524615679 0 -0.25564997301171749 -0.023017626491896589 0 -0.2430680818751586 -0.013434807292780279 0 -0.25080528299249649 -0.001461169191011345 0 -0.25199524554079228 -0.0097387798922213276 0 -0.2430680818751586 -0.013434807292780279 0 -0.25080528299249649 -0.001461169191011345 0 -0.23556882495632811 0.00032806392891222239 0 -0.25851686688388748 -0.0075763711495226427 0 -0.25559075041162671 -0.016482771935571051 0 -0.28094722485089763 -0.01276951350527328 0 -0.25080528299249649 -0.001461169191011345 0 -0.25851686688388748 -0.0075763711495226427 0 -0.26724344056698479 -0.00084071798374889609 0 -0.25080528299249649 -0.001461169191011345 0 -0.25199524554079228 -0.0097387798922213276 0 -0.25851686688388748 -0.0075763711495226427 0 -0.25199524554079228 -0.0097387798922213276 0 -0.25851686688388748 -0.0075763711495226427 0 -0.25559075041162671 -0.016482771935571051 0 -0.2430680818751586 -0.013434807292780279 0 -0.25199524554079228 -0.0097387798922213276 0 -0.25559075041162671 -0.016482771935571051 0 -0.25564997301171749 -0.023017626491896589 0 -0.25559075041162671 -0.016482771935571051 0 -0.27904341454926451 -0.015687579459184111 0 -0.2430680818751586 -0.013434807292780279 0 -0.25564997301171749 -0.023017626491896589 0 -0.25559075041162671 -0.016482771935571051 0 -0.25564997301171749 -0.023017626491896589 0 -0.27904341454926451 -0.015687579459184111 0 -0.25564997301171749 -0.023017626491896589 0 -0.27904341454926451 -0.015687579459184111 0 -0.26517309305862008 -0.036947319926524662 0 -0.27904341454926451 -0.015687579459184111 0 -0.26517309305862008 -0.036947319926524662 0 -0.27904341454926451 -0.015687579459184111 0 -0.27947269787298579 -0.031879796288089048 0 -0.26517309305862008 -0.036947319926524662 0 -0.26724344056698479 -0.00084071798374889609 0 -0.28094722485089763 -0.01276951350527328 0 -0.27832368885397618 0.0063642707838428769 0 -0.25559075041162671 -0.016482771935571051 0 -0.28094722485089763 -0.01276951350527328 0 -0.25851686688388748 -0.0075763711495226427 0 -0.26724344056698479 -0.00084071798374889609 0 -0.28094722485089763 -0.01276951350527328 0 -0.25559075041162671 -0.016482771935571051 0 -0.27904341454926451 -0.015687579459184111 0 -0.28094722485089763 -0.01276951350527328 0 -0.27904341454926451 -0.015687579459184111 0 -0.28094722485089763 -0.01276951350527328 0 -0.28094722485089763 -0.01276951350527328 0 -0.29485731106328777 -0.01073248958784339 0 -0.29604372759886599 0.010369656744125339 0 -0.28094722485089763 -0.01276951350527328 0 -0.29604372759886599 0.010369656744125339 0 -0.27904341454926451 -0.015687579459184111 0 -0.29485731106328777 -0.01073248958784339 0 -0.27904341454926451 -0.015687579459184111 0 -0.28094722485089763 -0.01276951350527328 0 -0.29485731106328777 -0.01073248958784339 0 -0.28094722485089763 -0.01276951350527328 0 -0.29485731106328777 -0.01073248958784339 0 -0.27904341454926451 -0.015687579459184111 0 -0.28942589646267658 -0.023814269494748831 0 -0.27947269787298579 -0.031879796288089048 0 -0.27904341454926451 -0.015687579459184111 0 -0.29485731106328777 -0.01073248958784339 0 -0.28942589646267658 -0.023814269494748831 0 -0.28942589646267658 -0.023814269494748831 0 -0.29184430008426798 -0.03789821038942523 0 -0.27947269787298579 -0.031879796288089048 0 -0.28942589646267658 -0.023814269494748831 0 -0.30208401058327339 -0.025303833392165749 0 -0.29184430008426798 -0.03789821038942523 0 -0.29485731106328777 -0.01073248958784339 0 -0.28942589646267658 -0.023814269494748831 0 -0.30208401058327339 -0.025303833392165749 0 -0.30208401058327339 -0.025303833392165749 0 -0.31781648952476232 -0.0073702965046123807 0 -0.31715466056583891 -0.031421410961669408 0 -0.29485731106328777 -0.01073248958784339 0 -0.31781648952476232 -0.0073702965046123807 0 -0.29485731106328777 -0.01073248958784339 0 -0.31688985811285197 -0.003828862096149611 0 -0.29485731106328777 -0.01073248958784339 0 -0.30208401058327339 -0.025303833392165749 0 -0.31781648952476232 -0.0073702965046123807 0 -0.29485731106328777 -0.01073248958784339 0 -0.31688985811285197 -0.003828862096149611 0 -0.29604372759886599 0.010369656744125339 0 -0.29485731106328777 -0.01073248958784339 0 -0.31688985811285197 -0.003828862096149611 0 -0.31781648952476232 -0.0073702965046123807 0 -0.31178575416698728 -0.058471514281158918 0 -0.29619572547071538 -0.05095563764277003 0 -0.29615740320495559 -0.06408361595652376 0 -0.31178575416698728 -0.058471514281158918 0 -0.30879783890915358 -0.043663026636321767 0 -0.29619572547071538 -0.05095563764277003 0 -0.30879783890915358 -0.043663026636321767 0 -0.29184430008426798 -0.03789821038942523 0 -0.29619572547071538 -0.05095563764277003 0 -0.30208401058327339 -0.025303833392165749 0 -0.30879783890915358 -0.043663026636321767 0 -0.29184430008426798 -0.03789821038942523 0 -0.30208401058327339 -0.025303833392165749 0 -0.30879783890915358 -0.043663026636321767 0 -0.31715466056583891 -0.031421410961669408 0 -0.29184430008426798 -0.03789821038942523 0 -0.27668777151244262 -0.05527980977533626 0 -0.27947269787298579 -0.031879796288089048 0 -0.29619572547071538 -0.05095563764277003 0 -0.27668777151244262 -0.05527980977533626 0 -0.29615740320495559 -0.06408361595652376 0 -0.29184430008426798 -0.03789821038942523 0 -0.29619572547071538 -0.05095563764277003 0 -0.27668777151244262 -0.05527980977533626 0 -0.27668777151244262 -0.05527980977533626 0 -0.27947269787298579 -0.031879796288089048 0 -0.26517309305862008 -0.036947319926524662 0 -0.24726719158697191 -0.038847202924023549 0 -0.26517309305862008 -0.036947319926524662 0 -0.2513027715679681 -0.05820706039386029 0 -0.24726719158697191 -0.038847202924023549 0 -0.25564997301171749 -0.023017626491896589 0 -0.26517309305862008 -0.036947319926524662 0 -0.26517309305862008 -0.036947319926524662 0 -0.2513027715679681 -0.05820706039386029 0 -0.27668777151244262 -0.05527980977533626 0 -0.2513027715679681 -0.05820706039386029 0 -0.25632156800307321 -0.073583306545420196 0 -0.27668777151244262 -0.05527980977533626 0 -0.26517309305862008 -0.036947319926524662 0 -0.2513027715679681 -0.05820706039386029 0 -0.25632156800307321 -0.073583306545420196 0 -0.25476971962087458 -0.087562748228348086 0 -0.27196154235967618 -0.077707438635349152 0 -0.27538242403509422 -0.09324386341053037 0 -0.27196154235967618 -0.077707438635349152 0 -0.29254928057898288 -0.083359373070791692 0 -0.25476971962087458 -0.087562748228348086 0 -0.27538242403509422 -0.09324386341053037 0 -0.27196154235967618 -0.077707438635349152 0 -0.27668777151244262 -0.05527980977533626 0 -0.27196154235967618 -0.077707438635349152 0 -0.28384519968509869 -0.069418490840576497 0 -0.27668777151244262 -0.05527980977533626 0 -0.25632156800307321 -0.073583306545420196 0 -0.27196154235967618 -0.077707438635349152 0 -0.25517816819888028 -0.1186538974609114 0 -0.25846098882620011 -0.1027031305936689 0 -0.28052503689809438 -0.10915105100918369 0 -0.23929562340614971 -0.1107843597548992 0 -0.25517816819888028 -0.1186538974609114 0 -0.25846098882620011 -0.1027031305936689 0 -0.25476971962087458 -0.087562748228348086 0 -0.27538242403509422 -0.09324386341053037 0 -0.25846098882620011 -0.1027031305936689 0 -0.27538242403509422 -0.09324386341053037 0 -0.25846098882620011 -0.1027031305936689 0 -0.28052503689809438 -0.10915105100918369 0 -0.25846098882620011 -0.1027031305936689 0 -0.28052503689809438 -0.10915105100918369 0 -0.28052503689809438 -0.10915105100918369 0 -0.28284101745063511 -0.1248831293213786 0 -0.26784677301000898 -0.1285663695548149 0 -0.25517816819888028 -0.1186538974609114 0 -0.28052503689809438 -0.10915105100918369 0 -0.26784677301000898 -0.1285663695548149 0 -0.28052503689809438 -0.10915105100918369 0 -0.30258908496998788 -0.1155989714247017 0 -0.28052503689809438 -0.10915105100918369 0 -0.28284101745063511 -0.1248831293213786 0 -0.30258908496998788 -0.1155989714247017 0 -0.28052503689809438 -0.10915105100918369 0 -0.29402797592673718 -0.09897943892584074 0 -0.30258908496998788 -0.1155989714247017 0 -0.27538242403509422 -0.09324386341053037 0 -0.28052503689809438 -0.10915105100918369 0 -0.29402797592673718 -0.09897943892584074 0 -0.30258908496998788 -0.1155989714247017 0 -0.31504263803867938 -0.088531600079895995 0 -0.31664366883141881 -0.1086515097304056 0 -0.29402797592673718 -0.09897943892584074 0 -0.30258908496998788 -0.1155989714247017 0 -0.31504263803867938 -0.088531600079895995 0 -0.30258908496998788 -0.1155989714247017 0 -0.31504263803867938 -0.088531600079895995 0 -0.30258908496998788 -0.1155989714247017 0 -0.3169240931676045 -0.1197881841980224 0 -0.2925086453029434 -0.13750846201600689 0 -0.30258908496998788 -0.1155989714247017 0 -0.3169240931676045 -0.1197881841980224 0 -0.31664366883141881 -0.1086515097304056 0 -0.30258908496998788 -0.1155989714247017 0 -0.3169240931676045 -0.1197881841980224 0 -0.27668777151244262 -0.05527980977533626 0 -0.29615740320495559 -0.06408361595652376 0 -0.28384519968509869 -0.069418490840576497 0 -0.29615740320495559 -0.06408361595652376 0 -0.28384519968509869 -0.069418490840576497 0 -0.29254928057898288 -0.083359373070791692 0 -0.27196154235967618 -0.077707438635349152 0 -0.28384519968509869 -0.069418490840576497 0 -0.29254928057898288 -0.083359373070791692 0 -0.27538242403509422 -0.09324386341053037 0 -0.29402797592673718 -0.09897943892584074 0 -0.29254928057898288 -0.083359373070791692 0 -0.29254928057898288 -0.083359373070791692 0 -0.30726405100614029 -0.075060966356580855 0 -0.31504263803867938 -0.088531600079895995 0 -0.29402797592673718 -0.09897943892584074 0 -0.29254928057898288 -0.083359373070791692 0 -0.31504263803867938 -0.088531600079895995 0 -0.31178575416698728 -0.058471514281158918 0 -0.29615740320495559 -0.06408361595652376 0 -0.30726405100614029 -0.075060966356580855 0 -0.29615740320495559 -0.06408361595652376 0 -0.29254928057898288 -0.083359373070791692 0 -0.30726405100614029 -0.075060966356580855 0 -0.31178575416698728 -0.058471514281158918 0 -0.30726405100614029 -0.075060966356580855 0 -0.3167649925908716 -0.068810646182767513 0 -0.3167649925908716 -0.068810646182767513 0 -0.31504263803867938 -0.088531600079895995 0 -0.32749619110736972 -0.06146422873508986 0 -0.31178575416698728 -0.058471514281158918 0 -0.3167649925908716 -0.068810646182767513 0 -0.31913604715652039 -0.061054794126079517 0 -0.31504263803867938 -0.088531600079895995 0 -0.32749619110736972 -0.06146422873508986 0 -0.30726405100614029 -0.075060966356580855 0 -0.3167649925908716 -0.068810646182767513 0 -0.31504263803867938 -0.088531600079895995 0 -0.31504263803867938 -0.088531600079895995 0 -0.33470746826036157 -0.082413457144848212 0 -0.32749619110736972 -0.06146422873508986 0 -0.3167649925908716 -0.068810646182767513 0 -0.31913604715652039 -0.061054794126079517 0 -0.32749619110736972 -0.06146422873508986 0 -0.31504263803867938 -0.088531600079895995 0 -0.33470746826036157 -0.082413457144848212 0 -0.32977625752917789 -0.094545087727741825 0 -0.33470746826036157 -0.082413457144848212 0 -0.32977625752917789 -0.094545087727741825 0 -0.34191874541335449 -0.1033626855546062 0 -0.33470746826036157 -0.082413457144848212 0 -0.34191874541335449 -0.1033626855546062 0 -0.33470746826036157 -0.082413457144848212 0 -0.34191874541335449 -0.1033626855546062 0 -0.35452160375110808 -0.090056499186388583 0 -0.33470746826036157 -0.082413457144848212 0 -0.33871682963860528 -0.067224886751834786 0 -0.32749619110736972 -0.06146422873508986 0 -0.33470746826036157 -0.082413457144848212 0 -0.32749619110736972 -0.06146422873508986 0 -0.33470746826036157 -0.082413457144848212 0 -0.33871682963860528 -0.067224886751834786 0 -0.34686267124169817 -0.076253477432397021 0 -0.33871682963860528 -0.067224886751834786 0 -0.34962902189214901 -0.065334665813652271 0 -0.34187396492788141 -0.059719157572755553 0 -0.33871682963860528 -0.067224886751834786 0 -0.32749619110736972 -0.06146422873508986 0 -0.33438409913507888 -0.059503078007896518 0 -0.3169240931676045 -0.1197881841980224 0 -0.32300995794316889 -0.1153711767696335 0 -0.33499131787790237 -0.11810503976917219 0 -0.3169240931676045 -0.1197881841980224 0 -0.32300995794316889 -0.1153711767696335 0 -0.3169240931676045 -0.1197881841980224 0 -0.32300995794316889 -0.1153711767696335 0 -0.31664366883141881 -0.1086515097304056 0 -0.32300995794316889 -0.1153711767696335 0 -0.32546174707955933 -0.10859274492636969 0 -0.33094372842505448 -0.1117361495961538 0 -0.32300995794316889 -0.1153711767696335 0 -0.32546174707955933 -0.10859274492636969 0 -0.31664366883141881 -0.1086515097304056 0 -0.31504263803867938 -0.088531600079895995 0 -0.31664366883141881 -0.1086515097304056 0 -0.32335586731653099 -0.1012797968287715 0 -0.32546174707955933 -0.10859274492636969 0 -0.32335586731653099 -0.1012797968287715 0 -0.33335551288162357 -0.1059250917068843 0 -0.32546174707955933 -0.10859274492636969 0 -0.31664366883141881 -0.1086515097304056 0 -0.32335586731653099 -0.1012797968287715 0 -0.31504263803867938 -0.088531600079895995 0 -0.32335586731653099 -0.1012797968287715 0 -0.32977625752917789 -0.094545087727741825 0 -0.32335586731653099 -0.1012797968287715 0 -0.32977625752917789 -0.094545087727741825 0 -0.33335551288162357 -0.1059250917068843 0 -0.32977625752917789 -0.094545087727741825 0 -0.34191874541335449 -0.1033626855546062 0 -0.33335551288162357 -0.1059250917068843 0 -0.32546174707955933 -0.10859274492636969 0 -0.33335551288162357 -0.1059250917068843 0 -0.33094372842505448 -0.1117361495961538 0 -0.3169240931676045 -0.1197881841980224 0 -0.32938545452968793 -0.12699082374907061 0 -0.34301552402293972 -0.12741305290452129 0 -0.3169240931676045 -0.1197881841980224 0 -0.33499131787790237 -0.11810503976917219 0 -0.34301552402293972 -0.12741305290452129 0 -0.3169240931676045 -0.1197881841980224 0 -0.34301552402293972 -0.12741305290452129 0 -0.32300995794316889 -0.1153711767696335 0 -0.33094372842505448 -0.1117361495961538 0 -0.33499131787790237 -0.11810503976917219 0 -0.33094372842505448 -0.1117361495961538 0 -0.33663155318584798 -0.11209170594700001 0 -0.33499131787790237 -0.11810503976917219 0 -0.33335551288162357 -0.1059250917068843 0 -0.33094372842505448 -0.1117361495961538 0 -0.33663155318584798 -0.11209170594700001 0 -0.33663155318584798 -0.11209170594700001 0 -0.33499131787790237 -0.11810503976917219 0 -0.34723565355881142 -0.1126005427157895 0 -0.33335551288162357 -0.1059250917068843 0 -0.33663155318584798 -0.11209170594700001 0 -0.34723565355881142 -0.1126005427157895 0 -0.33499131787790237 -0.11810503976917219 0 -0.34723565355881142 -0.1126005427157895 0 -0.34301552402293972 -0.12741305290452129 0 -0.3590356938999289 -0.1203389009678674 0 -0.34723565355881142 -0.1126005427157895 0 -0.34301552402293972 -0.12741305290452129 0 -0.3590356938999289 -0.1203389009678674 0 -0.34723565355881142 -0.1126005427157895 0 -0.36158056728700311 -0.1069931010958033 0 -0.34191874541335449 -0.1033626855546062 0 -0.33335551288162357 -0.1059250917068843 0 -0.36158056728700311 -0.1069931010958033 0 -0.33335551288162357 -0.1059250917068843 0 -0.34723565355881142 -0.1126005427157895 0 -0.36158056728700311 -0.1069931010958033 0 -0.33335551288162357 -0.1059250917068843 0 -0.36158056728700311 -0.1069931010958033 0 -0.34191874541335449 -0.1033626855546062 0 -0.36158056728700311 -0.1069931010958033 0 -0.35452160375110808 -0.090056499186388583 0 -0.37298471675565109 -0.10627354816840411 0 -0.36158056728700311 -0.1069931010958033 0 -0.38980562169238248 -0.10806111048472231 0 -0.37298471675565109 -0.10627354816840411 0 -0.36158056728700311 -0.1069931010958033 0 -0.35452160375110808 -0.090056499186388583 0 -0.3590356938999289 -0.1203389009678674 0 -0.36158056728700311 -0.1069931010958033 0 -0.37423976975261591 -0.119649886512201 0 -0.35673843266626698 -0.076237878265261169 0 -0.34962902189214901 -0.065334665813652271 0 -0.36033614073406389 -0.065419536657632588 0 -0.33871682963860528 -0.067224886751834786 0 -0.34962902189214901 -0.065334665813652271 0 -0.34686267124169817 -0.076253477432397021 0 -0.35673843266626698 -0.076237878265261169 0 -0.34962902189214901 -0.065334665813652271 0 -0.34686267124169817 -0.076253477432397021 0 -0.33470746826036157 -0.082413457144848212 0 -0.34686267124169817 -0.076253477432397021 0 -0.35452160375110808 -0.090056499186388583 0 -0.35673843266626698 -0.076237878265261169 0 -0.34686267124169817 -0.076253477432397021 0 -0.35452160375110808 -0.090056499186388583 0 -0.37298471675565109 -0.10627354816840411 0 -0.35452160375110808 -0.090056499186388583 0 -0.37001260434386429 -0.079387668110176904 0 -0.37298471675565109 -0.10627354816840411 0 -0.37001260434386429 -0.079387668110176904 0 -0.37298471675565109 -0.10627354816840411 0 -0.37001260434386429 -0.079387668110176904 0 -0.38043114531846012 -0.092760574716205496 0 -0.35673843266626698 -0.076237878265261169 0 -0.35452160375110808 -0.090056499186388583 0 -0.37001260434386429 -0.079387668110176904 0 -0.37001260434386429 -0.079387668110176904 0 -0.36704049193207761 -0.05250178805194973 0 -0.37001260434386429 -0.079387668110176904 0 -0.36033614073406389 -0.065419536657632588 0 -0.36704049193207761 -0.05250178805194973 0 -0.37001260434386429 -0.079387668110176904 0 -0.36704049193207761 -0.05250178805194973 0 -0.38107090177848552 -0.06690149164727828 0 -0.35673843266626698 -0.076237878265261169 0 -0.37001260434386429 -0.079387668110176904 0 -0.36033614073406389 -0.065419536657632588 0 -0.36704049193207761 -0.05250178805194973 0 -0.37529221666822732 -0.04481629787756853 0 -0.38107090177848552 -0.06690149164727828 0 -0.36704049193207761 -0.05250178805194973 0 -0.35723531287577698 -0.054874841909118122 0 -0.35597645933216421 -0.043798346328932133 0 -0.36033614073406389 -0.065419536657632588 0 -0.36704049193207761 -0.05250178805194973 0 -0.35723531287577698 -0.054874841909118122 0 -0.34962902189214901 -0.065334665813652271 0 -0.36033614073406389 -0.065419536657632588 0 -0.35723531287577698 -0.054874841909118122 0 -0.34962902189214901 -0.065334665813652271 0 -0.35723531287577698 -0.054874841909118122 0 -0.34827521867954292 -0.05326783523100112 0 -0.35723531287577698 -0.054874841909118122 0 -0.34827521867954292 -0.05326783523100112 0 -0.35597645933216421 -0.043798346328932133 0 -0.34827521867954292 -0.05326783523100112 0 -0.34541151980812218 -0.044095538671503752 0 -0.35597645933216421 -0.043798346328932133 0 -0.34827521867954292 -0.05326783523100112 0 -0.34541151980812218 -0.044095538671503752 0 -0.33836465529403048 -0.053265322059392967 0 -0.34962902189214901 -0.065334665813652271 0 -0.34827521867954292 -0.05326783523100112 0 -0.34187396492788141 -0.059719157572755553 0 -0.35597645933216421 -0.043798346328932133 0 -0.35162615556897597 -0.032412443903281248 0 -0.36406837952029081 -0.025615907993722559 0 -0.34541151980812218 -0.044095538671503752 0 -0.35162615556897597 -0.032412443903281248 0 -0.34075858291324629 -0.033963804357150053 0 -0.34541151980812218 -0.044095538671503752 0 -0.35597645933216421 -0.043798346328932133 0 -0.35162615556897597 -0.032412443903281248 0 -0.36704049193207761 -0.05250178805194973 0 -0.35597645933216421 -0.043798346328932133 0 -0.36406837952029081 -0.025615907993722559 0 -0.36704049193207761 -0.05250178805194973 0 -0.36406837952029081 -0.025615907993722559 0 -0.37529221666822732 -0.04481629787756853 0 -0.36704049193207761 -0.05250178805194973 0 -0.36406837952029081 -0.025615907993722559 0 -0.36951353155796912 -0.0227311041078588 0 -0.37852659662774291 -0.033898309540005993 0 -0.37529221666822732 -0.04481629787756853 0 -0.36951353155796912 -0.0227311041078588 0 -0.37529221666822732 -0.04481629787756853 0 -0.36951353155796912 -0.0227311041078588 0 -0.36406837952029081 -0.025615907993722559 0 -0.37529221666822732 -0.04481629787756853 0 -0.36951353155796912 -0.0227311041078588 0 -0.36406837952029081 -0.025615907993722559 0 -0.35628109687905019 -0.016469359927209749 0 -0.36951353155796912 -0.0227311041078588 0 -0.36373484644771098 -0.00064591033814894068 0 -0.37816546053191391 -0.01055137608656331 0 -0.36951353155796912 -0.0227311041078588 0 -0.36373484644771098 -0.00064591033814894068 0 -0.36951353155796912 -0.0227311041078588 0 -0.36373484644771098 -0.00064591033814894068 0 -0.35628109687905019 -0.016469359927209749 0 -0.36373484644771098 -0.00064591033814894068 0 -0.34077566798623649 -0.004008103421380433 0 -0.36373484644771098 -0.00064591033814894068 0 -0.35628109687905019 -0.016469359927209749 0 -0.34077566798623649 -0.004008103421380433 0 -0.35628109687905019 -0.016469359927209749 0 -0.34537158148055619 -0.0224840686642158 0 -0.34077566798623649 -0.004008103421380433 0 -0.35162615556897597 -0.032412443903281248 0 -0.36406837952029081 -0.025615907993722559 0 -0.3543041664820239 -0.023984193669485929 0 -0.36406837952029081 -0.025615907993722559 0 -0.3543041664820239 -0.023984193669485929 0 -0.35628109687905019 -0.016469359927209749 0 -0.3543041664820239 -0.023984193669485929 0 -0.35628109687905019 -0.016469359927209749 0 -0.34537158148055619 -0.0224840686642158 0 -0.35162615556897597 -0.032412443903281248 0 -0.3543041664820239 -0.023984193669485929 0 -0.34537158148055619 -0.0224840686642158 0 -0.35162615556897597 -0.032412443903281248 0 -0.34537158148055619 -0.0224840686642158 0 -0.34075858291324629 -0.033963804357150053 0 -0.34537158148055619 -0.0224840686642158 0 -0.33083755586529129 -0.02291449560337008 0 -0.34075858291324629 -0.033963804357150053 0 -0.34537158148055619 -0.0224840686642158 0 -0.33083755586529129 -0.02291449560337008 0 -0.34077566798623649 -0.004008103421380433 0 -0.33083755586529129 -0.02291449560337008 0 -0.34075858291324629 -0.033963804357150053 0 -0.32959607821172732 -0.036118377156072197 0 -0.34077566798623649 -0.004008103421380433 0 -0.31781648952476232 -0.0073702965046123807 0 -0.3389224051624164 0.0030747653955432021 0 -0.34077566798623649 -0.004008103421380433 0 -0.31781648952476232 -0.0073702965046123807 0 -0.33083755586529129 -0.02291449560337008 0 -0.34077566798623649 -0.004008103421380433 0 -0.31781648952476232 -0.0073702965046123807 0 -0.31688985811285197 -0.003828862096149611 0 -0.31781648952476232 -0.0073702965046123807 0 -0.3389224051624164 0.0030747653955432021 0 -0.31688985811285197 -0.003828862096149611 0 -0.3389224051624164 0.0030747653955432021 0 -0.33083755586529129 -0.02291449560337008 0 -0.31781648952476232 -0.0073702965046123807 0 -0.31715466056583891 -0.031421410961669408 0 -0.33083755586529129 -0.02291449560337008 0 -0.31715466056583891 -0.031421410961669408 0 -0.32959607821172732 -0.036118377156072197 0 -0.31715466056583891 -0.031421410961669408 0 -0.32232542583660378 -0.046442819848379793 0 -0.31715466056583891 -0.031421410961669408 0 -0.32232542583660378 -0.046442819848379793 0 -0.32959607821172732 -0.036118377156072197 0 -0.30879783890915358 -0.043663026636321767 0 -0.31715466056583891 -0.031421410961669408 0 -0.32232542583660378 -0.046442819848379793 0 -0.30879783890915358 -0.043663026636321767 0 -0.32232542583660378 -0.046442819848379793 0 -0.32049725076085328 -0.055472787305301773 0 -0.31178575416698728 -0.058471514281158918 0 -0.30879783890915358 -0.043663026636321767 0 -0.32049725076085328 -0.055472787305301773 0 -0.31178575416698728 -0.058471514281158918 0 -0.31913604715652039 -0.061054794126079517 0 -0.32049725076085328 -0.055472787305301773 0 -0.31913604715652039 -0.061054794126079517 0 -0.32049725076085328 -0.055472787305301773 0 -0.32749619110736972 -0.06146422873508986 0 -0.32232542583660378 -0.046442819848379793 0 -0.32749619110736972 -0.06146422873508986 0 -0.32828397832968093 -0.059752000171132837 0 -0.32749619110736972 -0.06146422873508986 0 -0.32828397832968093 -0.059752000171132837 0 -0.32232542583660378 -0.046442819848379793 0 -0.32049725076085328 -0.055472787305301773 0 -0.32749619110736972 -0.06146422873508986 0 -0.32232542583660378 -0.046442819848379793 0 -0.32749619110736972 -0.06146422873508986 0 -0.32232542583660378 -0.046442819848379793 0 -0.32983627583443198 -0.051068613388288303 0 -0.32828397832968093 -0.059752000171132837 0 -0.32983627583443198 -0.051068613388288303 0 -0.33836465529403048 -0.053265322059392967 0 -0.33438208964969368 -0.044159079246797829 0 -0.32983627583443198 -0.051068613388288303 0 -0.33208844498633888 -0.055866553712562543 0 -0.33836465529403048 -0.053265322059392967 0 -0.32232542583660378 -0.046442819848379793 0 -0.32983627583443198 -0.051068613388288303 0 -0.33438208964969368 -0.044159079246797829 0 -0.32983627583443198 -0.051068613388288303 0 -0.32828397832968093 -0.059752000171132837 0 -0.33208844498633888 -0.055866553712562543 0 -0.32749619110736972 -0.06146422873508986 0 -0.32828397832968093 -0.059752000171132837 0 -0.33438409913507888 -0.059503078007896518 0 -0.32828397832968093 -0.059752000171132837 0 -0.33208844498633888 -0.055866553712562543 0 -0.33438409913507888 -0.059503078007896518 0 -0.33208844498633888 -0.055866553712562543 0 -0.33438409913507888 -0.059503078007896518 0 -0.33836465529403048 -0.053265322059392967 0 -0.34827521867954292 -0.05326783523100112 0 -0.34187396492788141 -0.059719157572755553 0 -0.33836465529403048 -0.053265322059392967 0 -0.33871682963860528 -0.067224886751834786 0 -0.33438409913507888 -0.059503078007896518 0 -0.34187396492788141 -0.059719157572755553 0 -0.33438409913507888 -0.059503078007896518 0 -0.34187396492788141 -0.059719157572755553 0 -0.33836465529403048 -0.053265322059392967 0 -0.34541151980812218 -0.044095538671503752 0 -0.33836465529403048 -0.053265322059392967 0 -0.33438208964969368 -0.044159079246797829 0 -0.34541151980812218 -0.044095538671503752 0 -0.34075858291324629 -0.033963804357150053 0 -0.33438208964969368 -0.044159079246797829 0 -0.34075858291324629 -0.033963804357150053 0 -0.32959607821172732 -0.036118377156072197 0 -0.33438208964969368 -0.044159079246797829 0 -0.32232542583660378 -0.046442819848379793 0 -0.32959607821172732 -0.036118377156072197 0 -0.33438208964969368 -0.044159079246797829 0 -0.30493877401889841 -0.2577176602661187 0 -0.31173932486288147 -0.23623359443319161 0 -0.29557820019815922 -0.24692677995950271 0 -0.31955021384196908 -0.25465610241978293 0 -0.30493877401889841 -0.2577176602661187 0 -0.31173932486288147 -0.23623359443319161 0 -0.31173932486288147 -0.23623359443319161 0 -0.28978119973244698 -0.22975309856834811 0 -0.29557820019815922 -0.24692677995950271 0 -0.31173932486288147 -0.23623359443319161 0 -0.28978119973244698 -0.22975309856834811 0 -0.30716267822819388 -0.2168521017071173 0 -0.28978119973244698 -0.22975309856834811 0 -0.30716267822819388 -0.2168521017071173 0 -0.31173932486288147 -0.23623359443319161 0 -0.28978119973244698 -0.22975309856834811 0 -0.28978119973244698 -0.22975309856834811 0 -0.2858493948814283 -0.21429750855816199 0 -0.30716267822819388 -0.2168521017071173 0 -0.28978119973244698 -0.22975309856834811 0 -0.27565148222714159 -0.21548499775325669 0 -0.2858493948814283 -0.21429750855816199 0 -0.28330269037410288 -0.25159757207075412 0 -0.28978119973244698 -0.22975309856834811 0 -0.29557820019815922 -0.24692677995950271 0 -0.26771523081009702 -0.24613104914813719 0 -0.26812581866908669 -0.22336195148275029 0 -0.27312727155289951 -0.23410656687225201 0 -0.28978119973244698 -0.22975309856834811 0 -0.26771523081009702 -0.24613104914813719 0 -0.27312727155289951 -0.23410656687225201 0 -0.28330269037410288 -0.25159757207075412 0 -0.28978119973244698 -0.22975309856834811 0 -0.26771523081009702 -0.24613104914813719 0 -0.28978119973244698 -0.22975309856834811 0 -0.26771523081009702 -0.24613104914813719 0 -0.26771523081009702 -0.24613104914813719 0 -0.26381250405875373 -0.24902775701919841 0 -0.26771523081009702 -0.24613104914813719 0 -0.26381250405875373 -0.24902775701919841 0 -0.25950905091210619 -0.24702573973484421 0 -0.26771523081009702 -0.24613104914813719 0 -0.25416793356240353 -0.23823894190541789 0 -0.25424280476546102 -0.2192646611330637 0 -0.26771523081009702 -0.24613104914813719 0 -0.25950905091210619 -0.24702573973484421 0 -0.25416793356240353 -0.23823894190541789 0 -0.25722652137655938 -0.25156229858660373 0 -0.26381250405875373 -0.24902775701919841 0 -0.25950905091210619 -0.24702573973484421 0 -0.25416793356240353 -0.23823894190541789 0 -0.25058068953819879 -0.2425538979872125 0 -0.25431063943300752 -0.2452267125375053 0 -0.24677284420420101 -0.23790157994072619 0 -0.25416793356240353 -0.23823894190541789 0 -0.25058068953819879 -0.2425538979872125 0 -0.25950905091210619 -0.24702573973484421 0 -0.25416793356240353 -0.23823894190541789 0 -0.25431063943300752 -0.2452267125375053 0 -0.24962427814893129 -0.249267442217251 0 -0.25058068953819879 -0.2425538979872125 0 -0.25431063943300752 -0.2452267125375053 0 -0.25722652137655938 -0.25156229858660373 0 -0.24962427814893129 -0.249267442217251 0 -0.25431063943300752 -0.2452267125375053 0 -0.25722652137655938 -0.25156229858660373 0 -0.25950905091210619 -0.24702573973484421 0 -0.25431063943300752 -0.2452267125375053 0 -0.26771523081009702 -0.24613104914813719 0 -0.25424280476546102 -0.2192646611330637 0 -0.24511636918973989 -0.23010812977676109 0 -0.25416793356240353 -0.23823894190541789 0 -0.25424280476546102 -0.2192646611330637 0 -0.26771523081009702 -0.24613104914813719 0 -0.25424280476546102 -0.2192646611330637 0 -0.26812581866908669 -0.22336195148275029 0 -0.25424280476546102 -0.2192646611330637 0 -0.26812581866908669 -0.22336195148275029 0 -0.28978119973244698 -0.22975309856834811 0 -0.26812581866908669 -0.22336195148275029 0 -0.28978119973244698 -0.22975309856834811 0 -0.26812581866908669 -0.22336195148275029 0 -0.27312727155289951 -0.23410656687225201 0 -0.28978119973244698 -0.22975309856834811 0 -0.26812581866908669 -0.22336195148275029 0 -0.27565148222714159 -0.21548499775325669 0 -0.26812581866908669 -0.22336195148275029 0 -0.27312727155289951 -0.23410656687225201 0 -0.26812581866908669 -0.22336195148275029 0 -0.27565148222714159 -0.21548499775325669 0 -0.25988684736018852 -0.20566217904147979 0 -0.27565148222714159 -0.21548499775325669 0 -0.27668564063410889 -0.19691051362774839 0 -0.2858493948814283 -0.21429750855816199 0 -0.27565148222714159 -0.21548499775325669 0 -0.25988684736018852 -0.20566217904147979 0 -0.27565148222714159 -0.21548499775325669 0 -0.25988684736018852 -0.20566217904147979 0 -0.27668564063410889 -0.19691051362774839 0 -0.2417568874431269 -0.194365545087062 0 -0.25424280476546102 -0.2192646611330637 0 -0.25988684736018852 -0.20566217904147979 0 -0.26812581866908669 -0.22336195148275029 0 -0.25988684736018852 -0.20566217904147979 0 -0.25424280476546102 -0.2192646611330637 0 -0.26812581866908669 -0.22336195148275029 0 -0.25988684736018852 -0.20566217904147979 0 -0.2417568874431269 -0.194365545087062 0 -0.25988684736018852 -0.20566217904147979 0 -0.24538033542822071 -0.19133923748977399 0 -0.24782188440647729 -0.1797430332177212 0 -0.25988684736018852 -0.20566217904147979 0 -0.24782188440647729 -0.1797430332177212 0 -0.25988684736018852 -0.20566217904147979 0 -0.25988684736018852 -0.20566217904147979 0 -0.26635319251277478 -0.18917761599573721 0 -0.25887707279423372 -0.183973381950605 0 -0.24782188440647729 -0.1797430332177212 0 -0.25988684736018852 -0.20566217904147979 0 -0.25887707279423372 -0.183973381950605 0 -0.26635319251277478 -0.18917761599573721 0 -0.27668564063410889 -0.19691051362774839 0 -0.27268541872963198 -0.18420720881547151 0 -0.25988684736018852 -0.20566217904147979 0 -0.26635319251277478 -0.18917761599573721 0 -0.27668564063410889 -0.19691051362774839 0 -0.27668564063410889 -0.19691051362774839 0 -0.2858493948814283 -0.21429750855816199 0 -0.29757642207987822 -0.19078027076414331 0 -0.2858493948814283 -0.21429750855816199 0 -0.29757642207987822 -0.19078027076414331 0 -0.27668564063410889 -0.19691051362774839 0 -0.29757642207987822 -0.19078027076414331 0 -0.28248592381930449 -0.17825852879857959 0 -0.2858493948814283 -0.21429750855816199 0 -0.29921838539085138 -0.20636600603910971 0 -0.29757642207987822 -0.19078027076414331 0 -0.2858493948814283 -0.21429750855816199 0 -0.29921838539085138 -0.20636600603910971 0 -0.30716267822819388 -0.2168521017071173 0 -0.29921838539085138 -0.20636600603910971 0 -0.30716267822819388 -0.2168521017071173 0 -0.30912259481660159 -0.20133318394637931 0 -0.30912259481660159 -0.20133318394637931 0 -0.29757642207987822 -0.19078027076414331 0 -0.32112472897254007 -0.18390320943680019 0 -0.29921838539085138 -0.20636600603910971 0 -0.30912259481660159 -0.20133318394637931 0 -0.29757642207987822 -0.19078027076414331 0 -0.29757642207987822 -0.19078027076414331 0 -0.30930344927832809 -0.16726303297012449 0 -0.32112472897254007 -0.18390320943680019 0 -0.29757642207987822 -0.19078027076414331 0 -0.30930344927832809 -0.16726303297012449 0 -0.29436920749845441 -0.1699043907013362 0 -0.29757642207987822 -0.19078027076414331 0 -0.30930344927832809 -0.16726303297012449 0 -0.30930344927832809 -0.16726303297012449 0 -0.29436920749845441 -0.1699043907013362 0 -0.30071295162199457 -0.15236569235887651 0 -0.29436920749845441 -0.1699043907013362 0 -0.28176729069276663 -0.160854428614957 0 -0.28248592381930449 -0.17825852879857959 0 -0.29436920749845441 -0.1699043907013362 0 -0.28176729069276663 -0.160854428614957 0 -0.30071295162199457 -0.15236569235887651 0 -0.29757642207987822 -0.19078027076414331 0 -0.29436920749845441 -0.1699043907013362 0 -0.28248592381930449 -0.17825852879857959 0 -0.27668564063410889 -0.19691051362774839 0 -0.28248592381930449 -0.17825852879857959 0 -0.27268541872963198 -0.18420720881547151 0 -0.28248592381930449 -0.17825852879857959 0 -0.26676347515158011 -0.17627480288716291 0 -0.27268541872963198 -0.18420720881547151 0 -0.28248592381930449 -0.17825852879857959 0 -0.26676347515158011 -0.17627480288716291 0 -0.27203590103089359 -0.16705746049734971 0 -0.26635319251277478 -0.18917761599573721 0 -0.26676347515158011 -0.17627480288716291 0 -0.27268541872963198 -0.18420720881547151 0 -0.26635319251277478 -0.18917761599573721 0 -0.26676347515158011 -0.17627480288716291 0 -0.25887707279423372 -0.183973381950605 0 -0.26676347515158011 -0.17627480288716291 0 -0.25887707279423372 -0.183973381950605 0 -0.25982494875188611 -0.1712892912984865 0 -0.24782188440647729 -0.1797430332177212 0 -0.25887707279423372 -0.183973381950605 0 -0.25982494875188611 -0.1712892912984865 0 -0.24782188440647729 -0.1797430332177212 0 -0.24703020523104019 -0.17051586770726321 0 -0.25982494875188611 -0.1712892912984865 0 -0.24703020523104019 -0.17051586770726321 0 -0.25982494875188611 -0.1712892912984865 0 -0.2697694252669916 -0.1540121648616348 0 -0.24703020523104019 -0.17051586770726321 0 -0.2697694252669916 -0.1540121648616348 0 -0.25327020623507968 -0.15169592267379139 0 -0.24703020523104019 -0.17051586770726321 0 -0.2697694252669916 -0.1540121648616348 0 -0.25982494875188611 -0.1712892912984865 0 -0.27203590103089359 -0.16705746049734971 0 -0.2697694252669916 -0.1540121648616348 0 -0.28176729069276663 -0.160854428614957 0 -0.28248592381930449 -0.17825852879857959 0 -0.27203590103089359 -0.16705746049734971 0 -0.26676347515158011 -0.17627480288716291 0 -0.25982494875188611 -0.1712892912984865 0 -0.27203590103089359 -0.16705746049734971 0 -0.28176729069276663 -0.160854428614957 0 -0.27203590103089359 -0.16705746049734971 0 -0.2697694252669916 -0.1540121648616348 0 -0.2697694252669916 -0.1540121648616348 0 -0.2925086453029434 -0.13750846201600689 0 -0.2697694252669916 -0.1540121648616348 0 -0.27531893814005648 -0.13744559279998381 0 -0.2925086453029434 -0.13750846201600689 0 -0.2697694252669916 -0.1540121648616348 0 -0.26362882966970291 -0.14225783824608371 0 -0.27531893814005648 -0.13744559279998381 0 -0.2697694252669916 -0.1540121648616348 0 -0.26362882966970291 -0.14225783824608371 0 -0.25327020623507968 -0.15169592267379139 0 -0.26362882966970291 -0.14225783824608371 0 -0.25327020623507968 -0.15169592267379139 0 -0.2501656495548979 -0.1378698551600121 0 -0.25517816819888028 -0.1186538974609114 0 -0.2501656495548979 -0.1378698551600121 0 -0.26784677301000898 -0.1285663695548149 0 -0.26362882966970291 -0.14225783824608371 0 -0.2501656495548979 -0.1378698551600121 0 -0.26784677301000898 -0.1285663695548149 0 -0.26362882966970291 -0.14225783824608371 0 -0.26784677301000898 -0.1285663695548149 0 -0.27531893814005648 -0.13744559279998381 0 -0.28284101745063511 -0.1248831293213786 0 -0.26784677301000898 -0.1285663695548149 0 -0.27531893814005648 -0.13744559279998381 0 -0.28284101745063511 -0.1248831293213786 0 -0.27531893814005648 -0.13744559279998381 0 -0.2925086453029434 -0.13750846201600689 0 -0.28284101745063511 -0.1248831293213786 0 -0.30258908496998788 -0.1155989714247017 0 -0.2925086453029434 -0.13750846201600689 0 -0.28176729069276663 -0.160854428614957 0 -0.2925086453029434 -0.13750846201600689 0 -0.28176729069276663 -0.160854428614957 0 -0.2697694252669916 -0.1540121648616348 0 -0.2925086453029434 -0.13750846201600689 0 -0.28176729069276663 -0.160854428614957 0 -0.2925086453029434 -0.13750846201600689 0 -0.30071295162199457 -0.15236569235887651 0 -0.30071295162199457 -0.15236569235887651 0 -0.30516371249408181 -0.13633274971172649 0 -0.32103047647677668 -0.1437457951761052 0 -0.30930344927832809 -0.16726303297012449 0 -0.30071295162199457 -0.15236569235887651 0 -0.32103047647677668 -0.1437457951761052 0 -0.2925086453029434 -0.13750846201600689 0 -0.30071295162199457 -0.15236569235887651 0 -0.30516371249408181 -0.13633274971172649 0 -0.30258908496998788 -0.1155989714247017 0 -0.2925086453029434 -0.13750846201600689 0 -0.3169240931676045 -0.1197881841980224 0 -0.2925086453029434 -0.13750846201600689 0 -0.30516371249408181 -0.13633274971172649 0 -0.3169240931676045 -0.1197881841980224 0 -0.2925086453029434 -0.13750846201600689 0 -0.3169240931676045 -0.1197881841980224 0 -0.30516371249408181 -0.13633274971172649 0 -0.31812593416703783 -0.1317143882087313 0 -0.32103047647677668 -0.1437457951761052 0 -0.32938545452968793 -0.12699082374907061 0 -0.30516371249408181 -0.13633274971172649 0 -0.32103047647677668 -0.1437457951761052 0 -0.30516371249408181 -0.13633274971172649 0 -0.31812593416703783 -0.1317143882087313 0 -0.32103047647677668 -0.1437457951761052 0 -0.31812593416703783 -0.1317143882087313 0 -0.32103047647677668 -0.1437457951761052 0 -0.32938545452968793 -0.12699082374907061 0 -0.3169240931676045 -0.1197881841980224 0 -0.31812593416703783 -0.1317143882087313 0 -0.32938545452968793 -0.12699082374907061 0 -0.30930344927832809 -0.16726303297012449 0 -0.32103047647677668 -0.1437457951761052 0 -0.32103047647677668 -0.1437457951761052 0 -0.33937751781422859 -0.15231764081014251 0 -0.33405846752601071 -0.13978167122089211 0 -0.32103047647677668 -0.1437457951761052 0 -0.33937751781422859 -0.15231764081014251 0 -0.32624453031494982 -0.16380561572254559 0 -0.33937751781422859 -0.15231764081014251 0 -0.33405846752601071 -0.13978167122089211 0 -0.35270940226496578 -0.14460194751041019 0 -0.32103047647677668 -0.1437457951761052 0 -0.33937751781422859 -0.15231764081014251 0 -0.32103047647677668 -0.1437457951761052 0 -0.33405846752601071 -0.13978167122089211 0 -0.32938545452968793 -0.12699082374907061 0 -0.33405846752601071 -0.13978167122089211 0 -0.34301552402293972 -0.12741305290452129 0 -0.35270940226496578 -0.14460194751041019 0 -0.33405846752601071 -0.13978167122089211 0 -0.32938545452968793 -0.12699082374907061 0 -0.34301552402293972 -0.12741305290452129 0 -0.34301552402293972 -0.12741305290452129 0 -0.36910695487827461 -0.13503792161102171 0 -0.35270940226496578 -0.14460194751041019 0 -0.34301552402293972 -0.12741305290452129 0 -0.36910695487827461 -0.13503792161102171 0 -0.3590356938999289 -0.1203389009678674 0 -0.34301552402293972 -0.12741305290452129 0 -0.36910695487827461 -0.13503792161102171 0 -0.3590356938999289 -0.1203389009678674 0 -0.37423976975261591 -0.119649886512201 0 -0.36910695487827461 -0.13503792161102171 0 -0.36910695487827461 -0.13503792161102171 0 -0.37297339019666093 -0.15217191207170391 0 -0.35270940226496578 -0.14460194751041019 0 -0.37297339019666093 -0.15217191207170391 0 -0.35270940226496578 -0.14460194751041019 0 -0.35772455915168039 -0.16088948644418 0 -0.33937751781422859 -0.15231764081014251 0 -0.35270940226496578 -0.14460194751041019 0 -0.35772455915168039 -0.16088948644418 0 -0.33937751781422859 -0.15231764081014251 0 -0.35772455915168039 -0.16088948644418 0 -0.34038647903287578 -0.17179840021955539 0 -0.33937751781422859 -0.15231764081014251 0 -0.35772455915168039 -0.16088948644418 0 -0.35772455915168039 -0.16088948644418 0 -0.35451331870691688 -0.18064701085961279 0 -0.34038647903287578 -0.17179840021955539 0 -0.37297339019666093 -0.15217191207170391 0 -0.35772455915168039 -0.16088948644418 0 -0.37607160048913219 -0.1694613320782174 0 -0.35772455915168039 -0.16088948644418 0 -0.37607160048913219 -0.1694613320782174 0 -0.35772455915168039 -0.16088948644418 0 -0.36534621735571221 -0.17564448996739901 0 -0.37607160048913219 -0.1694613320782174 0 -0.36534621735571221 -0.17564448996739901 0 -0.37044632648638581 -0.18676120454049361 0 -0.37607160048913219 -0.1694613320782174 0 -0.36534621735571221 -0.17564448996739901 0 -0.37044632648638581 -0.18676120454049361 0 -0.35451331870691688 -0.18064701085961279 0 -0.35451331870691688 -0.18064701085961279 0 -0.34038647903287578 -0.17179840021955539 0 -0.34192563521969321 -0.19105010798466329 0 -0.35772455915168039 -0.16088948644418 0 -0.36534621735571221 -0.17564448996739901 0 -0.35451331870691688 -0.18064701085961279 0 -0.34038647903287578 -0.17179840021955539 0 -0.32624453031494982 -0.16380561572254559 0 -0.32112472897254007 -0.18390320943680019 0 -0.34038647903287578 -0.17179840021955539 0 -0.32112472897254007 -0.18390320943680019 0 -0.34192563521969321 -0.19105010798466329 0 -0.33937751781422859 -0.15231764081014251 0 -0.34038647903287578 -0.17179840021955539 0 -0.32624453031494982 -0.16380561572254559 0 -0.30930344927832809 -0.16726303297012449 0 -0.32624453031494982 -0.16380561572254559 0 -0.32112472897254007 -0.18390320943680019 0 -0.30930344927832809 -0.16726303297012449 0 -0.32103047647677668 -0.1437457951761052 0 -0.32624453031494982 -0.16380561572254559 0 -0.30912259481660159 -0.20133318394637931 0 -0.32112472897254007 -0.18390320943680019 0 -0.32454415672394349 -0.2039511048458903 0 -0.30716267822819388 -0.2168521017071173 0 -0.30912259481660159 -0.20133318394637931 0 -0.32454415672394349 -0.2039511048458903 0 -0.30716267822819388 -0.2168521017071173 0 -0.32454415672394349 -0.2039511048458903 0 -0.30716267822819388 -0.2168521017071173 0 -0.32454415672394349 -0.2039511048458903 0 -0.32539973298991748 -0.2229712282797344 0 -0.32454415672394349 -0.2039511048458903 0 -0.3414179281901214 -0.21267974982842719 0 -0.34339314692011891 -0.2023938407184909 0 -0.32454415672394349 -0.2039511048458903 0 -0.3414179281901214 -0.21267974982842719 0 -0.32539973298991748 -0.2229712282797344 0 -0.32454415672394349 -0.2039511048458903 0 -0.34192563521969321 -0.19105010798466329 0 -0.32112472897254007 -0.18390320943680019 0 -0.32454415672394349 -0.2039511048458903 0 -0.34192563521969321 -0.19105010798466329 0 -0.32454415672394349 -0.2039511048458903 0 -0.34339314692011891 -0.2023938407184909 0 -0.34192563521969321 -0.19105010798466329 0 -0.35451331870691688 -0.18064701085961279 0 -0.34192563521969321 -0.19105010798466329 0 -0.35360164427362573 -0.19768079829449761 0 -0.34339314692011891 -0.2023938407184909 0 -0.34192563521969321 -0.19105010798466329 0 -0.35360164427362573 -0.19768079829449761 0 -0.37044632648638581 -0.18676120454049361 0 -0.35451331870691688 -0.18064701085961279 0 -0.35360164427362573 -0.19768079829449761 0 -0.37044632648638581 -0.18676120454049361 0 -0.35360164427362573 -0.19768079829449761 0 -0.36992353827157781 -0.20188730433228599 0 -0.37044632648638581 -0.18676120454049361 0 -0.36992353827157781 -0.20188730433228599 0 -0.37865847777269862 -0.19537449765307899 0 -0.36992353827157781 -0.20188730433228599 0 -0.35423313530484218 -0.21351896296342121 0 -0.37714238403837103 -0.215019191736776 0 -0.35423313530484218 -0.21351896296342121 0 -0.3669096218239416 -0.22493230294125 0 -0.37714238403837103 -0.215019191736776 0 -0.35423313530484218 -0.21351896296342121 0 -0.37714238403837103 -0.215019191736776 0 -0.34339314692011891 -0.2023938407184909 0 -0.35360164427362573 -0.19768079829449761 0 -0.35423313530484218 -0.21351896296342121 0 -0.35360164427362573 -0.19768079829449761 0 -0.36992353827157781 -0.20188730433228599 0 -0.35423313530484218 -0.21351896296342121 0 -0.35360164427362573 -0.19768079829449761 0 -0.35423313530484218 -0.21351896296342121 0 -0.3414179281901214 -0.21267974982842719 0 -0.34339314692011891 -0.2023938407184909 0 -0.35423313530484218 -0.21351896296342121 0 -0.3414179281901214 -0.21267974982842719 0 -0.35423313530484218 -0.21351896296342121 0 -0.3414179281901214 -0.21267974982842719 0 -0.35423313530484218 -0.21351896296342121 0 -0.33993815245800418 -0.2279880670258643 0 -0.35423313530484218 -0.21351896296342121 0 -0.35494435521429663 -0.23135677456314799 0 -0.35423313530484218 -0.21351896296342121 0 -0.35494435521429663 -0.23135677456314799 0 -0.3669096218239416 -0.22493230294125 0 -0.35423313530484218 -0.21351896296342121 0 -0.35494435521429663 -0.23135677456314799 0 -0.33993815245800418 -0.2279880670258643 0 -0.35494435521429663 -0.23135677456314799 0 -0.3669096218239416 -0.22493230294125 0 -0.37003964676613982 -0.23723138134731589 0 -0.3669096218239416 -0.22493230294125 0 -0.37003964676613982 -0.23723138134731589 0 -0.37777480243678352 -0.22792799341932149 0 -0.3669096218239416 -0.22493230294125 0 -0.37777480243678352 -0.22792799341932149 0 -0.37714238403837103 -0.215019191736776 0 -0.37971297926979208 -0.25629464170773941 0 -0.37003964676613982 -0.23723138134731589 0 -0.35565557512375162 -0.2491945861628749 0 -0.35494435521429663 -0.23135677456314799 0 -0.37003964676613982 -0.23723138134731589 0 -0.35565557512375162 -0.2491945861628749 0 -0.35565557512375162 -0.2491945861628749 0 -0.33369744999331669 -0.24271409029803229 0 -0.35494435521429663 -0.23135677456314799 0 -0.35565557512375162 -0.2491945861628749 0 -0.33369744999331669 -0.24271409029803229 0 -0.35494435521429663 -0.23135677456314799 0 -0.35565557512375162 -0.2491945861628749 0 -0.35494435521429663 -0.23135677456314799 0 -0.33369744999331669 -0.24271409029803229 0 -0.33993815245800418 -0.2279880670258643 0 -0.3414179281901214 -0.21267974982842719 0 -0.33993815245800418 -0.2279880670258643 0 -0.32539973298991748 -0.2229712282797344 0 -0.33369744999331669 -0.24271409029803229 0 -0.33993815245800418 -0.2279880670258643 0 -0.32539973298991748 -0.2229712282797344 0 -0.31173932486288147 -0.23623359443319161 0 -0.30716267822819388 -0.2168521017071173 0 -0.32539973298991748 -0.2229712282797344 0 -0.31173932486288147 -0.23623359443319161 0 -0.33369744999331669 -0.24271409029803229 0 -0.32539973298991748 -0.2229712282797344 0 -0.31955021384196908 -0.25465610241978293 0 -0.31173932486288147 -0.23623359443319161 0 -0.33369744999331669 -0.24271409029803229 0 -0.31173932486288147 -0.23623359443319161 0 -0.33369744999331669 -0.24271409029803229 0 -0.41880099419671729 -0.25193098532517139 0 -0.43720463103343432 -0.24532999276255929 0 -0.42473780422584051 -0.23368502216388251 0 -0.43720463103343432 -0.24532999276255929 0 -0.42473780422584051 -0.23368502216388251 0 -0.44587013023895727 -0.21951987805684189 0 -0.42473780422584051 -0.23368502216388251 0 -0.42296088150542849 -0.21801964928348661 0 -0.44587013023895727 -0.21951987805684189 0 -0.42296088150542849 -0.21801964928348661 0 -0.44587013023895727 -0.21951987805684189 0 -0.41151907249832548 -0.22768516038595449 0 -0.4000516327718997 -0.21651942051013129 0 -0.42296088150542849 -0.21801964928348661 0 -0.42473780422584051 -0.23368502216388251 0 -0.41151907249832548 -0.22768516038595449 0 -0.41035301510009797 -0.23879523068122699 0 -0.42473780422584051 -0.23368502216388251 0 -0.41151907249832548 -0.22768516038595449 0 -0.42296088150542849 -0.21801964928348661 0 -0.41151907249832548 -0.22768516038595449 0 -0.41035301510009797 -0.23879523068122699 0 -0.39919374750258252 -0.2312625146229802 0 -0.41880099419671729 -0.25193098532517139 0 -0.42473780422584051 -0.23368502216388251 0 -0.41035301510009797 -0.23879523068122699 0 -0.41880099419671729 -0.25193098532517139 0 -0.41035301510009797 -0.23879523068122699 0 -0.39895324178003361 -0.24710746596356351 0 -0.39895324178003361 -0.24710746596356351 0 -0.38655590761140252 -0.2369915207318084 0 -0.39919374750258252 -0.2312625146229802 0 -0.41035301510009797 -0.23879523068122699 0 -0.39895324178003361 -0.24710746596356351 0 -0.39919374750258252 -0.2312625146229802 0 -0.37971297926979208 -0.25629464170773941 0 -0.37003964676613982 -0.23723138134731589 0 -0.38655590761140252 -0.2369915207318084 0 -0.37971297926979208 -0.25629464170773941 0 -0.39895324178003361 -0.24710746596356351 0 -0.38655590761140252 -0.2369915207318084 0 -0.3882264519440628 -0.22546557033945699 0 -0.4000516327718997 -0.21651942051013129 0 -0.37714238403837103 -0.215019191736776 0 -0.37003964676613982 -0.23723138134731589 0 -0.38655590761140252 -0.2369915207318084 0 -0.37777480243678352 -0.22792799341932149 0 -0.37777480243678352 -0.22792799341932149 0 -0.3882264519440628 -0.22546557033945699 0 -0.37714238403837103 -0.215019191736776 0 -0.38655590761140252 -0.2369915207318084 0 -0.37777480243678352 -0.22792799341932149 0 -0.3882264519440628 -0.22546557033945699 0 -0.3882264519440628 -0.22546557033945699 0 -0.39919374750258252 -0.2312625146229802 0 -0.4000516327718997 -0.21651942051013129 0 -0.38655590761140252 -0.2369915207318084 0 -0.3882264519440628 -0.22546557033945699 0 -0.39919374750258252 -0.2312625146229802 0 -0.41151907249832548 -0.22768516038595449 0 -0.39919374750258252 -0.2312625146229802 0 -0.4000516327718997 -0.21651942051013129 0 -0.4000516327718997 -0.21651942051013129 0 -0.39851185958291863 -0.21042580348813039 0 -0.37714238403837103 -0.215019191736776 0 -0.4000516327718997 -0.21651942051013129 0 -0.39851185958291863 -0.21042580348813039 0 -0.4090077094198149 -0.21228549482305811 0 -0.39851185958291863 -0.21042580348813039 0 -0.40798404966568719 -0.20501277786049951 0 -0.4090077094198149 -0.21228549482305811 0 -0.39851185958291863 -0.21042580348813039 0 -0.38584927587573781 -0.20352111335120771 0 -0.39691798093496811 -0.19569664533448319 0 -0.39851185958291863 -0.21042580348813039 0 -0.38584927587573781 -0.20352111335120771 0 -0.37714238403837103 -0.215019191736776 0 -0.4000516327718997 -0.21651942051013129 0 -0.37714238403837103 -0.215019191736776 0 -0.36992353827157781 -0.20188730433228599 0 -0.38584927587573781 -0.20352111335120771 0 -0.37714238403837103 -0.215019191736776 0 -0.37044632648638581 -0.18676120454049361 0 -0.37865847777269862 -0.19537449765307899 0 -0.38841477045709288 -0.18932836838832839 0 -0.36992353827157781 -0.20188730433228599 0 -0.38584927587573781 -0.20352111335120771 0 -0.37865847777269862 -0.19537449765307899 0 -0.38584927587573781 -0.20352111335120771 0 -0.38841477045709288 -0.18932836838832839 0 -0.39691798093496811 -0.19569664533448319 0 -0.38584927587573781 -0.20352111335120771 0 -0.37865847777269862 -0.19537449765307899 0 -0.38841477045709288 -0.18932836838832839 0 -0.39851185958291863 -0.21042580348813039 0 -0.41178959857440051 -0.18850959669147421 0 -0.40798404966568719 -0.20501277786049951 0 -0.39851185958291863 -0.21042580348813039 0 -0.41178959857440051 -0.18850959669147421 0 -0.39851185958291863 -0.21042580348813039 0 -0.39691798093496811 -0.19569664533448319 0 -0.41178959857440051 -0.18850959669147421 0 -0.38841477045709288 -0.18932836838832839 0 -0.39691798093496811 -0.19569664533448319 0 -0.39847989173211817 -0.18242524588663381 0 -0.39691798093496811 -0.19569664533448319 0 -0.41178959857440051 -0.18850959669147421 0 -0.39847989173211817 -0.18242524588663381 0 -0.40798404966568719 -0.20501277786049951 0 -0.42569883841432993 -0.1877963874840875 0 -0.42304915173108631 -0.20279199768534051 0 -0.41178959857440051 -0.18850959669147421 0 -0.40798404966568719 -0.20501277786049951 0 -0.42569883841432993 -0.1877963874840875 0 -0.40798404966568719 -0.20501277786049951 0 -0.42569883841432993 -0.1877963874840875 0 -0.4000516327718997 -0.21651942051013129 0 -0.4090077094198149 -0.21228549482305811 0 -0.42296088150542849 -0.21801964928348661 0 -0.4000516327718997 -0.21651942051013129 0 -0.42296088150542849 -0.21801964928348661 0 -0.40798404966568719 -0.20501277786049951 0 -0.4090077094198149 -0.21228549482305811 0 -0.41575044808050421 -0.2095274799130962 0 -0.4090077094198149 -0.21228549482305811 0 -0.41575044808050421 -0.2095274799130962 0 -0.42296088150542849 -0.21801964928348661 0 -0.41575044808050421 -0.2095274799130962 0 -0.42296088150542849 -0.21801964928348661 0 -0.42304915173108631 -0.20279199768534051 0 -0.40798404966568719 -0.20501277786049951 0 -0.41575044808050421 -0.2095274799130962 0 -0.42304915173108631 -0.20279199768534051 0 -0.42296088150542849 -0.21801964928348661 0 -0.42304915173108631 -0.20279199768534051 0 -0.43769176769541868 -0.20474833656770591 0 -0.42296088150542849 -0.21801964928348661 0 -0.43769176769541868 -0.20474833656770591 0 -0.44587013023895727 -0.21951987805684189 0 -0.42569883841432993 -0.1877963874840875 0 -0.44815560878679478 -0.19042645948464221 0 -0.43769176769541868 -0.20474833656770591 0 -0.42569883841432993 -0.1877963874840875 0 -0.42304915173108631 -0.20279199768534051 0 -0.43769176769541868 -0.20474833656770591 0 -0.42569883841432993 -0.1877963874840875 0 -0.42506733756588239 -0.16659338989481789 0 -0.44341362716297261 -0.17057999710767549 0 -0.42569883841432993 -0.1877963874840875 0 -0.44341362716297261 -0.17057999710767549 0 -0.42506733756588239 -0.16659338989481789 0 -0.43834507655736432 -0.1446771830981618 0 -0.44341362716297261 -0.17057999710767549 0 -0.42506733756588239 -0.16659338989481789 0 -0.40887768517210332 -0.15951096287182531 0 -0.41663927374122678 -0.1465071189314345 0 -0.42506733756588239 -0.16659338989481789 0 -0.40887768517210332 -0.15951096287182531 0 -0.40913994663949671 -0.17407494358603531 0 -0.41178959857440051 -0.18850959669147421 0 -0.42506733756588239 -0.16659338989481789 0 -0.40913994663949671 -0.17407494358603531 0 -0.41178959857440051 -0.18850959669147421 0 -0.42569883841432993 -0.1877963874840875 0 -0.42506733756588239 -0.16659338989481789 0 -0.41178959857440051 -0.18850959669147421 0 -0.42506733756588239 -0.16659338989481789 0 -0.41178959857440051 -0.18850959669147421 0 -0.40913994663949671 -0.17407494358603531 0 -0.39847989173211817 -0.18242524588663381 0 -0.40913994663949671 -0.17407494358603531 0 -0.39847989173211817 -0.18242524588663381 0 -0.39834348218030108 -0.16771657162931661 0 -0.39847989173211817 -0.18242524588663381 0 -0.38794278267493282 -0.17585375351845081 0 -0.39834348218030108 -0.16771657162931661 0 -0.38841477045709288 -0.18932836838832839 0 -0.39847989173211817 -0.18242524588663381 0 -0.38794278267493282 -0.17585375351845081 0 -0.37044632648638581 -0.18676120454049361 0 -0.38794278267493282 -0.17585375351845081 0 -0.37607160048913219 -0.1694613320782174 0 -0.37044632648638581 -0.18676120454049361 0 -0.38841477045709288 -0.18932836838832839 0 -0.38794278267493282 -0.17585375351845081 0 -0.38794278267493282 -0.17585375351845081 0 -0.37607160048913219 -0.1694613320782174 0 -0.38740516577277911 -0.15850808760096791 0 -0.37297339019666093 -0.15217191207170391 0 -0.37607160048913219 -0.1694613320782174 0 -0.38740516577277911 -0.15850808760096791 0 -0.38794278267493282 -0.17585375351845081 0 -0.38740516577277911 -0.15850808760096791 0 -0.39834348218030108 -0.16771657162931661 0 -0.38740516577277911 -0.15850808760096791 0 -0.39834348218030108 -0.16771657162931661 0 -0.39519838573360938 -0.14266279031752199 0 -0.40887768517210332 -0.15951096287182531 0 -0.39834348218030108 -0.16771657162931661 0 -0.39519838573360938 -0.14266279031752199 0 -0.40887768517210332 -0.15951096287182531 0 -0.40913994663949671 -0.17407494358603531 0 -0.39834348218030108 -0.16771657162931661 0 -0.37297339019666093 -0.15217191207170391 0 -0.38740516577277911 -0.15850808760096791 0 -0.39519838573360938 -0.14266279031752199 0 -0.36910695487827461 -0.13503792161102171 0 -0.37297339019666093 -0.15217191207170391 0 -0.39519838573360938 -0.14266279031752199 0 -0.36910695487827461 -0.13503792161102171 0 -0.39519838573360938 -0.14266279031752199 0 -0.38786000493649198 -0.1265984240442419 0 -0.37423976975261591 -0.119649886512201 0 -0.36910695487827461 -0.13503792161102171 0 -0.38786000493649198 -0.1265984240442419 0 -0.36910695487827461 -0.13503792161102171 0 -0.39519838573360938 -0.14266279031752199 0 -0.39519838573360938 -0.14266279031752199 0 -0.40652282239645809 -0.12632357344542819 0 -0.41663927374122678 -0.1465071189314345 0 -0.39519838573360938 -0.14266279031752199 0 -0.38786000493649198 -0.1265984240442419 0 -0.40652282239645809 -0.12632357344542819 0 -0.40652282239645809 -0.12632357344542819 0 -0.41663927374122678 -0.1465071189314345 0 -0.43128998840328953 -0.1257607366158541 0 -0.40887768517210332 -0.15951096287182531 0 -0.39519838573360938 -0.14266279031752199 0 -0.41663927374122678 -0.1465071189314345 0 -0.42506733756588239 -0.16659338989481789 0 -0.43834507655736432 -0.1446771830981618 0 -0.42506733756588239 -0.16659338989481789 0 -0.41663927374122678 -0.1465071189314345 0 -0.43834507655736432 -0.1446771830981618 0 -0.41663927374122678 -0.1465071189314345 0 -0.43128998840328953 -0.1257607366158541 0 -0.43834507655736432 -0.1446771830981618 0 -0.43128998840328953 -0.1257607366158541 0 -0.43834507655736432 -0.1446771830981618 0 -0.4566101029708261 -0.13099249003219871 0 -0.43834507655736432 -0.1446771830981618 0 -0.46112841591161519 -0.15336360673126351 0 -0.44341362716297261 -0.17057999710767549 0 -0.43834507655736432 -0.1446771830981618 0 -0.46112841591161519 -0.15336360673126351 0 -0.4566101029708261 -0.13099249003219871 0 -0.46112841591161519 -0.15336360673126351 0 -0.4566101029708261 -0.13099249003219871 0 -0.47884320466025782 -0.13614721635485169 0 -0.4566101029708261 -0.13099249003219871 0 -0.47884320466025782 -0.13614721635485169 0 -0.4756231120506228 -0.1084026389375469 0 -0.47884320466025782 -0.13614721635485169 0 -0.5 -0.1506922700403934 0 -0.5 -0.12247174016205831 0 -0.47884320466025782 -0.13614721635485169 0 -0.5 -0.1506922700403934 0 -0.48328278903044231 -0.15866289599773081 0 -0.46112841591161519 -0.15336360673126351 0 -0.47884320466025782 -0.13614721635485169 0 -0.46112841591161519 -0.15336360673126351 0 -0.47884320466025782 -0.13614721635485169 0 -0.48328278903044231 -0.15866289599773081 0 -0.46112841591161519 -0.15336360673126351 0 -0.48328278903044231 -0.15866289599773081 0 -0.47644232458033781 -0.17419858694341661 0 -0.48328278903044231 -0.15866289599773081 0 -0.5 -0.17891279991872849 0 -0.47644232458033781 -0.17419858694341661 0 -0.5 -0.1506922700403934 0 -0.48328278903044231 -0.15866289599773081 0 -0.5 -0.17891279991872849 0 -0.5 -0.17891279991872849 0 -0.47644232458033781 -0.17419858694341661 0 -0.48527985758979941 -0.1937005342559 0 -0.47644232458033781 -0.17419858694341661 0 -0.46737743165567791 -0.19373271612277759 0 -0.48527985758979941 -0.1937005342559 0 -0.47644232458033781 -0.17419858694341661 0 -0.4590800887194274 -0.17806149577988661 0 -0.46737743165567791 -0.19373271612277759 0 -0.4590800887194274 -0.17806149577988661 0 -0.44815560878679478 -0.19042645948464221 0 -0.46737743165567791 -0.19373271612277759 0 -0.46112841591161519 -0.15336360673126351 0 -0.4590800887194274 -0.17806149577988661 0 -0.44341362716297261 -0.17057999710767549 0 -0.46112841591161519 -0.15336360673126351 0 -0.47644232458033781 -0.17419858694341661 0 -0.4590800887194274 -0.17806149577988661 0 -0.46112841591161519 -0.15336360673126351 0 -0.44341362716297261 -0.17057999710767549 0 -0.4590800887194274 -0.17806149577988661 0 -0.44341362716297261 -0.17057999710767549 0 -0.44815560878679478 -0.19042645948464221 0 -0.42569883841432993 -0.1877963874840875 0 -0.44341362716297261 -0.17057999710767549 0 -0.44815560878679478 -0.19042645948464221 0 -0.44815560878679478 -0.19042645948464221 0 -0.43769176769541868 -0.20474833656770591 0 -0.45431224930505709 -0.2052408963679799 0 -0.43769176769541868 -0.20474833656770591 0 -0.45431224930505709 -0.2052408963679799 0 -0.44587013023895727 -0.21951987805684189 0 -0.45431224930505709 -0.2052408963679799 0 -0.47246630814843638 -0.21777709160793191 0 -0.44587013023895727 -0.21951987805684189 0 -0.45431224930505709 -0.2052408963679799 0 -0.46737743165567791 -0.19373271612277759 0 -0.47246630814843638 -0.21777709160793191 0 -0.44815560878679478 -0.19042645948464221 0 -0.45431224930505709 -0.2052408963679799 0 -0.46737743165567791 -0.19373271612277759 0 -0.46737743165567791 -0.19373271612277759 0 -0.48527985758979941 -0.1937005342559 0 -0.47246630814843638 -0.21777709160793191 0 -0.5 -0.17891279991872849 0 -0.48527985758979941 -0.1937005342559 0 -0.5 -0.2071333297970637 0 -0.48527985758979941 -0.1937005342559 0 -0.5 -0.2071333297970637 0 -0.47246630814843638 -0.21777709160793191 0 -0.47246630814843638 -0.21777709160793191 0 -0.5 -0.23535385967539879 0 -0.47108645465469129 -0.24279908680053611 0 -0.5 -0.2071333297970637 0 -0.47246630814843638 -0.21777709160793191 0 -0.5 -0.23535385967539879 0 -0.47801028507236171 -0.26303348017155709 0 -0.5 -0.23535385967539879 0 -0.47108645465469129 -0.24279908680053611 0 -0.4517060328297729 -0.25742115279182293 0 -0.47108645465469129 -0.24279908680053611 0 -0.4540935144035001 -0.23646443563532701 0 -0.47246630814843638 -0.21777709160793191 0 -0.4540935144035001 -0.23646443563532701 0 -0.44587013023895727 -0.21951987805684189 0 -0.47246630814843638 -0.21777709160793191 0 -0.47108645465469129 -0.24279908680053611 0 -0.4540935144035001 -0.23646443563532701 0 -0.43720463103343432 -0.24532999276255929 0 -0.4540935144035001 -0.23646443563532701 0 -0.44587013023895727 -0.21951987805684189 0 -0.4517060328297729 -0.25742115279182293 0 -0.43720463103343432 -0.24532999276255929 0 -0.4540935144035001 -0.23646443563532701 0 -0.41818868207322679 -0.042913132397725047 0 -0.40424162963109173 -0.029076214395192309 0 -0.39960120618028161 -0.04760809686787263 0 -0.41818868207322679 -0.042913132397725047 0 -0.40424162963109173 -0.029076214395192309 0 -0.41818868207322679 -0.042913132397725047 0 -0.42112011107388148 -0.061015845179541763 0 -0.40515055423846141 -0.07003109562127327 0 -0.41818868207322679 -0.042913132397725047 0 -0.39960120618028161 -0.04760809686787263 0 -0.40515055423846141 -0.07003109562127327 0 -0.41818868207322679 -0.042913132397725047 0 -0.40515055423846141 -0.07003109562127327 0 -0.41818868207322679 -0.042913132397725047 0 -0.43924549471733909 -0.063803667595751568 0 -0.44087843856606462 -0.036057220140216319 0 -0.41818868207322679 -0.042913132397725047 0 -0.42112011107388148 -0.061015845179541763 0 -0.43924549471733909 -0.063803667595751568 0 -0.41818868207322679 -0.042913132397725047 0 -0.43924549471733909 -0.063803667595751568 0 -0.41818868207322679 -0.042913132397725047 0 -0.43118137337345502 -0.015889672486933931 0 -0.44087843856606462 -0.036057220140216319 0 -0.41818868207322679 -0.042913132397725047 0 -0.43118137337345502 -0.015889672486933931 0 -0.43118137337345502 -0.015889672486933931 0 -0.40903599793447959 -0.01029619474609228 0 -0.41736099193169529 0.0072072215031841746 0 -0.43118137337345502 -0.015889672486933931 0 -0.40903599793447959 -0.01029619474609228 0 -0.40424162963109173 -0.029076214395192309 0 -0.41818868207322679 -0.042913132397725047 0 -0.43118137337345502 -0.015889672486933931 0 -0.40424162963109173 -0.029076214395192309 0 -0.40424162963109173 -0.029076214395192309 0 -0.39029457718895461 -0.015239296392661399 0 -0.38578733650673391 -0.028370992254361651 0 -0.40903599793447959 -0.01029619474609228 0 -0.40424162963109173 -0.029076214395192309 0 -0.39029457718895461 -0.015239296392661399 0 -0.40424162963109173 -0.029076214395192309 0 -0.39029457718895461 -0.015239296392661399 0 -0.40903599793447959 -0.01029619474609228 0 -0.39029457718895461 -0.015239296392661399 0 -0.390547919189703 0.0032806555825178421 0 -0.36373484644771098 -0.00064591033814894068 0 -0.37816546053191391 -0.01055137608656331 0 -0.390547919189703 0.0032806555825178421 0 -0.39029457718895461 -0.015239296392661399 0 -0.37816546053191391 -0.01055137608656331 0 -0.390547919189703 0.0032806555825178421 0 -0.39029457718895461 -0.015239296392661399 0 -0.37816546053191391 -0.01055137608656331 0 -0.38018479144880168 -0.020575780905058249 0 -0.39029457718895461 -0.015239296392661399 0 -0.38578733650673391 -0.028370992254361651 0 -0.38018479144880168 -0.020575780905058249 0 -0.36951353155796912 -0.0227311041078588 0 -0.37816546053191391 -0.01055137608656331 0 -0.38018479144880168 -0.020575780905058249 0 -0.36951353155796912 -0.0227311041078588 0 -0.38018479144880168 -0.020575780905058249 0 -0.37821746034669163 -0.026995420096475368 0 -0.36951353155796912 -0.0227311041078588 0 -0.37821746034669163 -0.026995420096475368 0 -0.37852659662774291 -0.033898309540005993 0 -0.38578733650673391 -0.028370992254361651 0 -0.38018479144880168 -0.020575780905058249 0 -0.37821746034669163 -0.026995420096475368 0 -0.38578733650673391 -0.028370992254361651 0 -0.37821746034669163 -0.026995420096475368 0 -0.37852659662774291 -0.033898309540005993 0 -0.37852659662774291 -0.033898309540005993 0 -0.37529221666822732 -0.04481629787756853 0 -0.38610726756805469 -0.041766746206532021 0 -0.38578733650673391 -0.028370992254361651 0 -0.37852659662774291 -0.033898309540005993 0 -0.38610726756805469 -0.041766746206532021 0 -0.40424162963109173 -0.029076214395192309 0 -0.38610726756805469 -0.041766746206532021 0 -0.39960120618028161 -0.04760809686787263 0 -0.40424162963109173 -0.029076214395192309 0 -0.38578733650673391 -0.028370992254361651 0 -0.38610726756805469 -0.041766746206532021 0 -0.39960120618028161 -0.04760809686787263 0 -0.38693347488859819 -0.054238729354081541 0 -0.40515055423846141 -0.07003109562127327 0 -0.38610726756805469 -0.041766746206532021 0 -0.39960120618028161 -0.04760809686787263 0 -0.38693347488859819 -0.054238729354081541 0 -0.37529221666822732 -0.04481629787756853 0 -0.38107090177848552 -0.06690149164727828 0 -0.37529221666822732 -0.04481629787756853 0 -0.38693347488859819 -0.054238729354081541 0 -0.38107090177848552 -0.06690149164727828 0 -0.37529221666822732 -0.04481629787756853 0 -0.38610726756805469 -0.041766746206532021 0 -0.38693347488859819 -0.054238729354081541 0 -0.37001260434386429 -0.079387668110176904 0 -0.38107090177848552 -0.06690149164727828 0 -0.38575552641659361 -0.08124597778795116 0 -0.37001260434386429 -0.079387668110176904 0 -0.38575552641659361 -0.08124597778795116 0 -0.38043114531846012 -0.092760574716205496 0 -0.38575552641659361 -0.08124597778795116 0 -0.38043114531846012 -0.092760574716205496 0 -0.3921124264036967 -0.097149058844821862 0 -0.38575552641659361 -0.08124597778795116 0 -0.40515055423846141 -0.07003109562127327 0 -0.3921124264036967 -0.097149058844821862 0 -0.40515055423846141 -0.07003109562127327 0 -0.3921124264036967 -0.097149058844821862 0 -0.40515055423846141 -0.07003109562127327 0 -0.3921124264036967 -0.097149058844821862 0 -0.41243735423471889 -0.088001135265322772 0 -0.38693347488859819 -0.054238729354081541 0 -0.38107090177848552 -0.06690149164727828 0 -0.40515055423846141 -0.07003109562127327 0 -0.38107090177848552 -0.06690149164727828 0 -0.38575552641659361 -0.08124597778795116 0 -0.40515055423846141 -0.07003109562127327 0 -0.37423976975261591 -0.119649886512201 0 -0.38786000493649198 -0.1265984240442419 0 -0.38980562169238248 -0.10806111048472231 0 -0.36158056728700311 -0.1069931010958033 0 -0.37423976975261591 -0.119649886512201 0 -0.38980562169238248 -0.10806111048472231 0 -0.37298471675565109 -0.10627354816840411 0 -0.38980562169238248 -0.10806111048472231 0 -0.38247610406889349 -0.1013788746549753 0 -0.36158056728700311 -0.1069931010958033 0 -0.38980562169238248 -0.10806111048472231 0 -0.38980562169238248 -0.10806111048472231 0 -0.38247610406889349 -0.1013788746549753 0 -0.3921124264036967 -0.097149058844821862 0 -0.37298471675565109 -0.10627354816840411 0 -0.38043114531846012 -0.092760574716205496 0 -0.38247610406889349 -0.1013788746549753 0 -0.38043114531846012 -0.092760574716205496 0 -0.38247610406889349 -0.1013788746549753 0 -0.3921124264036967 -0.097149058844821862 0 -0.38980562169238248 -0.10806111048472231 0 -0.3921124264036967 -0.097149058844821862 0 -0.41803067609776212 -0.10912911987364129 0 -0.38980562169238248 -0.10806111048472231 0 -0.41803067609776212 -0.10912911987364129 0 -0.38786000493649198 -0.1265984240442419 0 -0.40652282239645809 -0.12632357344542819 0 -0.38980562169238248 -0.10806111048472231 0 -0.40652282239645809 -0.12632357344542819 0 -0.38980562169238248 -0.10806111048472231 0 -0.41803067609776212 -0.10912911987364129 0 -0.40652282239645809 -0.12632357344542819 0 -0.43128998840328953 -0.1257607366158541 0 -0.41803067609776212 -0.10912911987364129 0 -0.41803067609776212 -0.10912911987364129 0 -0.41243735423471889 -0.088001135265322772 0 -0.4328986123313821 -0.086140183328432943 0 -0.3921124264036967 -0.097149058844821862 0 -0.41803067609776212 -0.10912911987364129 0 -0.41243735423471889 -0.088001135265322772 0 -0.41803067609776212 -0.10912911987364129 0 -0.4328986123313821 -0.086140183328432943 0 -0.44625573050314171 -0.1101971292625603 0 -0.41803067609776212 -0.10912911987364129 0 -0.44625573050314171 -0.1101971292625603 0 -0.43128998840328953 -0.1257607366158541 0 -0.41803067609776212 -0.10912911987364129 0 -0.44625573050314171 -0.1101971292625603 0 -0.42112011107388148 -0.061015845179541763 0 -0.40515055423846141 -0.07003109562127327 0 -0.41243735423471889 -0.088001135265322772 0 -0.42112011107388148 -0.061015845179541763 0 -0.41243735423471889 -0.088001135265322772 0 -0.4328986123313821 -0.086140183328432943 0 -0.42112011107388148 -0.061015845179541763 0 -0.4328986123313821 -0.086140183328432943 0 -0.43924549471733909 -0.063803667595751568 0 -0.43924549471733909 -0.063803667595751568 0 -0.46030230736144961 -0.084694202793779941 0 -0.43924549471733909 -0.063803667595751568 0 -0.46030230736144961 -0.084694202793779941 0 -0.47443574184935938 -0.061750696210719172 0 -0.4328986123313821 -0.086140183328432943 0 -0.43924549471733909 -0.063803667595751568 0 -0.46030230736144961 -0.084694202793779941 0 -0.4328986123313821 -0.086140183328432943 0 -0.46030230736144961 -0.084694202793779941 0 -0.44625573050314171 -0.1101971292625603 0 -0.43128998840328953 -0.1257607366158541 0 -0.4566101029708261 -0.13099249003219871 0 -0.44625573050314171 -0.1101971292625603 0 -0.46030230736144961 -0.084694202793779941 0 -0.44625573050314171 -0.1101971292625603 0 -0.4756231120506228 -0.1084026389375469 0 -0.4566101029708261 -0.13099249003219871 0 -0.44625573050314171 -0.1101971292625603 0 -0.4756231120506228 -0.1084026389375469 0 -0.4756231120506228 -0.1084026389375469 0 -0.5 -0.094251210283723297 0 -0.5 -0.12247174016205831 0 -0.4756231120506228 -0.1084026389375469 0 -0.5 -0.094251210283723297 0 -0.48221901240189718 -0.080883279354622487 0 -0.47884320466025782 -0.13614721635485169 0 -0.4756231120506228 -0.1084026389375469 0 -0.5 -0.12247174016205831 0 -0.46030230736144961 -0.084694202793779941 0 -0.48221901240189718 -0.080883279354622487 0 -0.47443574184935938 -0.061750696210719172 0 -0.46030230736144961 -0.084694202793779941 0 -0.4756231120506228 -0.1084026389375469 0 -0.48221901240189718 -0.080883279354622487 0 -0.5 -0.094251210283723297 0 -0.48221901240189718 -0.080883279354622487 0 -0.5 -0.066030680405388176 0 -0.48221901240189718 -0.080883279354622487 0 -0.5 -0.066030680405388176 0 -0.47443574184935938 -0.061750696210719172 0 -0.5 -0.037810150527053048 0 -0.47443574184935938 -0.061750696210719172 0 -0.46484763661547079 -0.037282196587719807 0 -0.5 -0.066030680405388176 0 -0.5 -0.037810150527053048 0 -0.47443574184935938 -0.061750696210719172 0 -0.5 -0.037810150527053048 0 -0.46484763661547079 -0.037282196587719807 0 -0.48133926233701729 -0.01929771179063992 0 -0.43924549471733909 -0.063803667595751568 0 -0.47443574184935938 -0.061750696210719172 0 -0.46484763661547079 -0.037282196587719807 0 -0.43924549471733909 -0.063803667595751568 0 -0.46484763661547079 -0.037282196587719807 0 -0.44087843856606462 -0.036057220140216319 0 -0.43118137337345502 -0.015889672486933931 0 -0.44417406467368659 0.01113378742385557 0 -0.43118137337345502 -0.015889672486933931 0 -0.46079807335039302 -0.0090893390494895046 0 -0.44417406467368659 0.01113378742385557 0 -0.43118137337345502 -0.015889672486933931 0 -0.44087843856606462 -0.036057220140216319 0 -0.46079807335039302 -0.0090893390494895046 0 -0.46484763661547079 -0.037282196587719807 0 -0.44087843856606462 -0.036057220140216319 0 -0.46079807335039302 -0.0090893390494895046 0 -0.46079807335039302 -0.0090893390494895046 0 -0.48133926233701729 -0.01929771179063992 0 -0.48625514560716238 0.003665903108154225 0 -0.46484763661547079 -0.037282196587719807 0 -0.46079807335039302 -0.0090893390494895046 0 -0.48133926233701729 -0.01929771179063992 0 -0.5 -0.037810150527053048 0 -0.48133926233701729 -0.01929771179063992 0 -0.5 -0.0095896206487179336 0 -0.48133926233701729 -0.01929771179063992 0 -0.5 -0.0095896206487179336 0 -0.48625514560716238 0.003665903108154225 0 -0.48625514560716238 0.003665903108154225 0 -0.49767664107715698 0.01896882353460299 0 -0.47092535287542231 0.015051305479226149 0 -0.5 -0.0095896206487179336 0 -0.48625514560716238 0.003665903108154225 0 -0.49999999999999678 0.01863090922961718 0 -0.48625514560716238 0.003665903108154225 0 -0.49767664107715698 0.01896882353460299 0 -0.49999999999999678 0.01863090922961718 0 -0.49767664107715698 0.01896882353460299 0 -0.5 0.036427754468873308 0 -0.48224574890554489 0.031390084234409359 0 -0.49767664107715698 0.01896882353460299 0 -0.49999999999999678 0.01863090922961718 0 -0.5 0.036427754468873308 0 -0.49767664107715698 0.01896882353460299 0 -0.49999999999999678 0.01863090922961718 0 -0.49767664107715698 0.01896882353460299 0 -0.46805390535642682 0.02327721775406694 0 -0.49767664107715698 0.01896882353460299 0 -0.47092535287542231 0.015051305479226149 0 -0.49767664107715698 0.01896882353460299 0 -0.48224574890554489 0.031390084234409359 0 -0.46805390535642682 0.02327721775406694 0 -0.49767664107715698 0.01896882353460299 0 -0.47092535287542231 0.015051305479226149 0 -0.46805390535642682 0.02327721775406694 0 -0.48224574890554489 0.031390084234409359 0 -0.46860074246999139 0.033773111851361233 0 -0.46805390535642682 0.02327721775406694 0 -0.46079807335039302 -0.0090893390494895046 0 -0.48625514560716238 0.003665903108154225 0 -0.47092535287542231 0.015051305479226149 0 -0.50000000000000133 0.053546447562608131 0 -0.47219099044239737 0.044832836627533408 0 -0.48413277490562828 0.065667707414807611 0 -0.50000000000000133 0.053546447562608131 0 -0.47219099044239737 0.044832836627533408 0 -0.5 0.036427754468873308 0 -0.48224574890554489 0.031390084234409359 0 -0.47219099044239737 0.044832836627533408 0 -0.50000000000000133 0.053546447562608131 0 -0.5 0.036427754468873308 0 -0.47219099044239737 0.044832836627533408 0 -0.48224574890554489 0.031390084234409359 0 -0.47219099044239737 0.044832836627533408 0 -0.46860074246999139 0.033773111851361233 0 -0.47219099044239737 0.044832836627533408 0 -0.45981878420267103 0.065365643452312258 0 -0.48413277490562828 0.065667707414807611 0 -0.47219099044239737 0.044832836627533408 0 -0.44332143234842308 0.055657316859687979 0 -0.45981878420267103 0.065365643452312258 0 -0.47219099044239737 0.044832836627533408 0 -0.46860074246999139 0.033773111851361233 0 -0.44438198088479319 0.036119225692459067 0 -0.47219099044239737 0.044832836627533408 0 -0.44438198088479319 0.036119225692459067 0 -0.47219099044239737 0.044832836627533408 0 -0.44438198088479319 0.036119225692459067 0 -0.44332143234842308 0.055657316859687979 0 -0.44438198088479319 0.036119225692459067 0 -0.44332143234842308 0.055657316859687979 0 -0.43198409192706549 0.045244084426832518 0 -0.46079807335039302 -0.0090893390494895046 0 -0.47092535287542231 0.015051305479226149 0 -0.44417406467368659 0.01113378742385557 0 -0.47092535287542231 0.015051305479226149 0 -0.44417406467368659 0.01113378742385557 0 -0.46805390535642682 0.02327721775406694 0 -0.43843116963569639 0.027585611973529659 0 -0.47092535287542231 0.015051305479226149 0 -0.45022464252434158 0.0237183662617673 0 -0.44417406467368659 0.01113378742385557 0 -0.47092535287542231 0.015051305479226149 0 -0.46805390535642682 0.02327721775406694 0 -0.45022464252434158 0.0237183662617673 0 -0.46860074246999139 0.033773111851361233 0 -0.44438198088479319 0.036119225692459067 0 -0.46805390535642682 0.02327721775406694 0 -0.44438198088479319 0.036119225692459067 0 -0.46805390535642682 0.02327721775406694 0 -0.43843116963569639 0.027585611973529659 0 -0.46805390535642682 0.02327721775406694 0 -0.45022464252434158 0.0237183662617673 0 -0.43843116963569639 0.027585611973529659 0 -0.45022464252434158 0.0237183662617673 0 -0.44417406467368659 0.01113378742385557 0 -0.45022464252434158 0.0237183662617673 0 -0.43843116963569639 0.027585611973529659 0 -0.44010311062522339 0.020039585110663071 0 -0.45022464252434158 0.0237183662617673 0 -0.44010311062522339 0.020039585110663071 0 -0.44417406467368659 0.01113378742385557 0 -0.44417406467368659 0.01113378742385557 0 -0.41736099193169529 0.0072072215031841746 0 -0.42758256566716829 0.01772057478350484 0 -0.43118137337345502 -0.015889672486933931 0 -0.44417406467368659 0.01113378742385557 0 -0.41736099193169529 0.0072072215031841746 0 -0.44417406467368659 0.01113378742385557 0 -0.41736099193169529 0.0072072215031841746 0 -0.41736099193169529 0.0072072215031841746 0 -0.41657297132718912 0.027405614757384709 0 -0.42758256566716829 0.01772057478350484 0 -0.41736099193169529 0.0072072215031841746 0 -0.41657297132718912 0.027405614757384709 0 -0.40299911976464381 0.01294199770902377 0 -0.44438198088479319 0.036119225692459067 0 -0.43843116963569639 0.027585611973529659 0 -0.41657297132718912 0.027405614757384709 0 -0.43843116963569639 0.027585611973529659 0 -0.41657297132718912 0.027405614757384709 0 -0.42758256566716829 0.01772057478350484 0 -0.44010311062522339 0.020039585110663071 0 -0.44417406467368659 0.01113378742385557 0 -0.42758256566716829 0.01772057478350484 0 -0.43843116963569639 0.027585611973529659 0 -0.44010311062522339 0.020039585110663071 0 -0.42758256566716829 0.01772057478350484 0 -0.44438198088479319 0.036119225692459067 0 -0.41657297132718912 0.027405614757384709 0 -0.43198409192706549 0.045244084426832518 0 -0.44438198088479319 0.036119225692459067 0 -0.41657297132718912 0.027405614757384709 0 -0.41657297132718912 0.027405614757384709 0 -0.43198409192706549 0.045244084426832518 0 -0.41995353562375021 0.054848063423225853 0 -0.44332143234842308 0.055657316859687979 0 -0.41995353562375021 0.054848063423225853 0 -0.42745579775816039 0.06969268603662386 0 -0.44332143234842308 0.055657316859687979 0 -0.41995353562375021 0.054848063423225853 0 -0.44332143234842308 0.055657316859687979 0 -0.43198409192706549 0.045244084426832518 0 -0.41995353562375021 0.054848063423225853 0 -0.41995353562375021 0.054848063423225853 0 -0.39658563889907689 0.054038809986763733 0 -0.41657297132718912 0.027405614757384709 0 -0.41995353562375021 0.054848063423225853 0 -0.40180512215835151 0.038554225333339652 0 -0.40180512215835151 0.038554225333339652 0 -0.38539802928552919 0.039301970268788067 0 -0.388763961769585 0.018692003822310399 0 -0.40180512215835151 0.038554225333339652 0 -0.39658563889907689 0.054038809986763733 0 -0.38539802928552919 0.039301970268788067 0 -0.41995353562375021 0.054848063423225853 0 -0.39658563889907689 0.054038809986763733 0 -0.39807499737798752 0.068406479060106037 0 -0.41995353562375021 0.054848063423225853 0 -0.40180512215835151 0.038554225333339652 0 -0.39658563889907689 0.054038809986763733 0 -0.39658563889907689 0.054038809986763733 0 -0.38426132225062121 0.06418386343050507 0 -0.39807499737798752 0.068406479060106037 0 -0.39658563889907689 0.054038809986763733 0 -0.38539802928552919 0.039301970268788067 0 -0.37321774217440368 0.0532295565503016 0 -0.39658563889907689 0.054038809986763733 0 -0.37321774217440368 0.0532295565503016 0 -0.39658563889907689 0.054038809986763733 0 -0.38426132225062121 0.06418386343050507 0 -0.37321774217440368 0.0532295565503016 0 -0.38539802928552919 0.039301970268788067 0 -0.37322659657493412 0.041105448591380621 0 -0.37321774217440368 0.0532295565503016 0 -0.38539802928552919 0.039301970268788067 0 -0.37083186985997763 0.027893024071709051 0 -0.37322659657493412 0.041105448591380621 0 -0.38539802928552919 0.039301970268788067 0 -0.388763961769585 0.018692003822310399 0 -0.37083186985997763 0.027893024071709051 0 -0.388763961769585 0.018692003822310399 0 -0.37600041990474492 0.0078262854884788742 0 -0.36095495221198082 0.009978392887236235 0 -0.36373484644771098 -0.00064591033814894068 0 -0.390547919189703 0.0032806555825178421 0 -0.36373484644771098 -0.00064591033814894068 0 -0.37600041990474492 0.0078262854884788742 0 -0.390547919189703 0.0032806555825178421 0 -0.388763961769585 0.018692003822310399 0 -0.37600041990474492 0.0078262854884788742 0 -0.390547919189703 0.0032806555825178421 0 -0.388763961769585 0.018692003822310399 0 -0.390547919189703 0.0032806555825178421 0 -0.40299911976464381 0.01294199770902377 0 -0.41736099193169529 0.0072072215031841746 0 -0.390547919189703 0.0032806555825178421 0 -0.40299911976464381 0.01294199770902377 0 -0.40903599793447959 -0.01029619474609228 0 -0.41736099193169529 0.0072072215031841746 0 -0.390547919189703 0.0032806555825178421 0 -0.41736099193169529 0.0072072215031841746 0 -0.390547919189703 0.0032806555825178421 0 -0.41657297132718912 0.027405614757384709 0 -0.388763961769585 0.018692003822310399 0 -0.41657297132718912 0.027405614757384709 0 -0.388763961769585 0.018692003822310399 0 -0.40299911976464381 0.01294199770902377 0 -0.41657297132718912 0.027405614757384709 0 -0.40180512215835151 0.038554225333339652 0 -0.388763961769585 0.018692003822310399 0 -0.40505787840746033 0.094686206592829447 0 -0.40058884391435001 0.11346030243397449 0 -0.38628343025521422 0.097594453867902595 0 -0.40058884391435001 0.11346030243397449 0 -0.40590216570415671 0.13265550096846471 0 -0.38440739263673179 0.12533490720897719 0 -0.40058884391435001 0.11346030243397449 0 -0.38628343025521422 0.097594453867902595 0 -0.38440739263673179 0.12533490720897719 0 -0.38628343025521422 0.097594453867902595 0 -0.38440739263673179 0.12533490720897719 0 -0.36466733534410412 0.12012446695210791 0 -0.38628343025521422 0.097594453867902595 0 -0.38982793565002433 0.079224612522402912 0 -0.37087112025194829 0.082266300008257312 0 -0.38982793565002433 0.079224612522402912 0 -0.38426132225062121 0.06418386343050507 0 -0.3740924733881304 0.070074034467767721 0 -0.38426132225062121 0.06418386343050507 0 -0.36623367028137582 0.061443303131482649 0 -0.38982793565002433 0.079224612522402912 0 -0.3740924733881304 0.070074034467767721 0 -0.37087112025194829 0.082266300008257312 0 -0.38982793565002433 0.079224612522402912 0 -0.39807499737798752 0.068406479060106037 0 -0.41104881530326759 0.076102456095131499 0 -0.38982793565002433 0.079224612522402912 0 -0.38426132225062121 0.06418386343050507 0 -0.39807499737798752 0.068406479060106037 0 -0.40505787840746033 0.094686206592829447 0 -0.38982793565002433 0.079224612522402912 0 -0.41104881530326759 0.076102456095131499 0 -0.40505787840746033 0.094686206592829447 0 -0.38628343025521422 0.097594453867902595 0 -0.38982793565002433 0.079224612522402912 0 -0.40505787840746033 0.094686206592829447 0 -0.41104881530326759 0.076102456095131499 0 -0.42661699103838441 0.090236268225802579 0 -0.41104881530326759 0.076102456095131499 0 -0.42745579775816039 0.06969268603662386 0 -0.42661699103838441 0.090236268225802579 0 -0.41995353562375021 0.054848063423225853 0 -0.39807499737798752 0.068406479060106037 0 -0.41104881530326759 0.076102456095131499 0 -0.41995353562375021 0.054848063423225853 0 -0.41104881530326759 0.076102456095131499 0 -0.42745579775816039 0.06969268603662386 0 -0.42745579775816039 0.06969268603662386 0 -0.42661699103838441 0.090236268225802579 0 -0.44354268055838308 0.073918672245727179 0 -0.42661699103838441 0.090236268225802579 0 -0.43429178417828018 0.1112218644187848 0 -0.44699235253525088 0.099107260322174678 0 -0.42661699103838441 0.090236268225802579 0 -0.41855258429559372 0.1064957129647883 0 -0.43429178417828018 0.1112218644187848 0 -0.40505787840746033 0.094686206592829447 0 -0.40058884391435001 0.11346030243397449 0 -0.41855258429559372 0.1064957129647883 0 -0.40505787840746033 0.094686206592829447 0 -0.42661699103838441 0.090236268225802579 0 -0.41855258429559372 0.1064957129647883 0 -0.40058884391435001 0.11346030243397449 0 -0.41855258429559372 0.1064957129647883 0 -0.41372355470660399 0.11959076585248379 0 -0.40058884391435001 0.11346030243397449 0 -0.41372355470660399 0.11959076585248379 0 -0.40590216570415671 0.13265550096846471 0 -0.41855258429559372 0.1064957129647883 0 -0.41372355470660399 0.11959076585248379 0 -0.42574870126398229 0.1210159018382119 0 -0.41372355470660399 0.11959076585248379 0 -0.42574870126398229 0.1210159018382119 0 -0.42236718280159002 0.13239304021553311 0 -0.43429178417828018 0.1112218644187848 0 -0.42574870126398229 0.1210159018382119 0 -0.43632181525477193 0.13015398283914401 0 -0.41855258429559372 0.1064957129647883 0 -0.43429178417828018 0.1112218644187848 0 -0.42574870126398229 0.1210159018382119 0 -0.43429178417828018 0.1112218644187848 0 -0.45044202451211868 0.12429584839862221 0 -0.43632181525477193 0.13015398283914401 0 -0.45044202451211868 0.12429584839862221 0 -0.44699235253525088 0.099107260322174678 0 -0.43429178417828018 0.1112218644187848 0 -0.45044202451211868 0.12429584839862221 0 -0.44699235253525088 0.099107260322174678 0 -0.44699235253525088 0.099107260322174678 0 -0.45851972760381671 0.084661184537363848 0 -0.47356170044596058 0.1011775971649234 0 -0.44699235253525088 0.099107260322174678 0 -0.46543383039688058 0.1166363668505397 0 -0.47356170044596058 0.1011775971649234 0 -0.45044202451211868 0.12429584839862221 0 -0.44699235253525088 0.099107260322174678 0 -0.46543383039688058 0.1166363668505397 0 -0.45044202451211868 0.12429584839862221 0 -0.46543383039688058 0.1166363668505397 0 -0.46127722110494151 0.1304272076100628 0 -0.44332143234842308 0.055657316859687979 0 -0.42745579775816039 0.06969268603662386 0 -0.44354268055838308 0.073918672245727179 0 -0.44332143234842308 0.055657316859687979 0 -0.44354268055838308 0.073918672245727179 0 -0.45981878420267103 0.065365643452312258 0 -0.42661699103838441 0.090236268225802579 0 -0.44699235253525088 0.099107260322174678 0 -0.44354268055838308 0.073918672245727179 0 -0.44699235253525088 0.099107260322174678 0 -0.44354268055838308 0.073918672245727179 0 -0.45851972760381671 0.084661184537363848 0 -0.44699235253525088 0.099107260322174678 0 -0.44354268055838308 0.073918672245727179 0 -0.45851972760381671 0.084661184537363848 0 -0.45981878420267103 0.065365643452312258 0 -0.47173081069891432 0.076060899192485695 0 -0.44354268055838308 0.073918672245727179 0 -0.45851972760381671 0.084661184537363848 0 -0.45981878420267103 0.065365643452312258 0 -0.47173081069891432 0.076060899192485695 0 -0.48413277490562828 0.065667707414807611 0 -0.4833963934636698 0.087884555503373693 0 -0.45981878420267103 0.065365643452312258 0 -0.47173081069891432 0.076060899192485695 0 -0.48413277490562828 0.065667707414807611 0 -0.45851972760381671 0.084661184537363848 0 -0.4833963934636698 0.087884555503373693 0 -0.47356170044596058 0.1011775971649234 0 -0.45851972760381671 0.084661184537363848 0 -0.47173081069891432 0.076060899192485695 0 -0.4833963934636698 0.087884555503373693 0 -0.4833963934636698 0.087884555503373693 0 -0.5 0.075947968371554153 0 -0.5 0.098349489180500071 0 -0.50000000000000133 0.053546447562608131 0 -0.48413277490562828 0.065667707414807611 0 -0.5 0.075947968371554153 0 -0.48413277490562828 0.065667707414807611 0 -0.4833963934636698 0.087884555503373693 0 -0.5 0.075947968371554153 0 -0.46543383039688058 0.1166363668505397 0 -0.48373727623616358 0.1148580551380682 0 -0.47356170044596058 0.1011775971649234 0 -0.46543383039688058 0.1166363668505397 0 -0.48373727623616358 0.1148580551380682 0 -0.47534133302177828 0.13129217871601989 0 -0.4833963934636698 0.087884555503373693 0 -0.47356170044596058 0.1011775971649234 0 -0.5 0.098349489180500071 0 -0.48373727623616358 0.1148580551380682 0 -0.47356170044596058 0.1011775971649234 0 -0.5 0.098349489180500071 0 -0.48373727623616358 0.1148580551380682 0 -0.5 0.098349489180500071 0 -0.50000000000000311 0.1207510099894461 0 -0.48373727623616358 0.1148580551380682 0 -0.50000000000000311 0.1207510099894461 0 -0.47534133302177828 0.13129217871601989 0 -0.50000000000000311 0.1207510099894461 0 -0.47645349299521977 0.13886229766904731 0 -0.50000000000000311 0.1207510099894461 0 -0.48854003779750671 0.14336981055675249 0 -0.5 0.14671825805113489 0 -0.50000000000000311 0.1207510099894461 0 -0.47645349299521977 0.13886229766904731 0 -0.48854003779750671 0.14336981055675249 0 -0.50000000000000311 0.1207510099894461 0 -0.47645349299521977 0.13886229766904731 0 -0.47534133302177828 0.13129217871601989 0 -0.47645349299521977 0.13886229766904731 0 -0.47871188638461931 0.1531679564463809 0 -0.46574389835984931 0.15722804709452309 0 -0.47645349299521977 0.13886229766904731 0 -0.47871188638461931 0.1531679564463809 0 -0.48854003779750671 0.14336981055675249 0 -0.47871188638461931 0.1531679564463809 0 -0.48854003779750671 0.14336981055675249 0 -0.48753480960769452 0.15734953062775359 0 -0.48854003779750671 0.14336981055675249 0 -0.5 0.14671825805113489 0 -0.48753480960769452 0.15734953062775359 0 -0.5 0.14671825805113489 0 -0.48753480960769452 0.15734953062775359 0 -0.5 0.1726855061128236 0 -0.48753480960769452 0.15734953062775359 0 -0.5 0.1726855061128236 0 -0.47630273941939338 0.1675047747739829 0 -0.5 0.1726855061128236 0 -0.48040602782055508 0.18611483660444281 0 -0.49999999999999922 0.19865275417451239 0 -0.5 0.1726855061128236 0 -0.48040602782055508 0.18611483660444281 0 -0.47630273941939338 0.1675047747739829 0 -0.48040602782055508 0.18611483660444281 0 -0.47630273941939338 0.1675047747739829 0 -0.46518059072735363 0.17833585885552791 0 -0.48040602782055508 0.18611483660444281 0 -0.46518059072735363 0.17833585885552791 0 -0.4622583113334402 0.19311829461500291 0 -0.47871188638461931 0.1531679564463809 0 -0.48753480960769452 0.15734953062775359 0 -0.47630273941939338 0.1675047747739829 0 -0.47871188638461931 0.1531679564463809 0 -0.47630273941939338 0.1675047747739829 0 -0.46574389835984931 0.15722804709452309 0 -0.47630273941939338 0.1675047747739829 0 -0.46574389835984931 0.15722804709452309 0 -0.46283952037841219 0.1672198530664423 0 -0.46574389835984931 0.15722804709452309 0 -0.46283952037841219 0.1672198530664423 0 -0.45933561029807168 0.16177650802909771 0 -0.47630273941939338 0.1675047747739829 0 -0.46283952037841219 0.1672198530664423 0 -0.46518059072735363 0.17833585885552791 0 -0.46283952037841219 0.1672198530664423 0 -0.45585203646359029 0.16568454660677839 0 -0.45933561029807168 0.16177650802909771 0 -0.46283952037841219 0.1672198530664423 0 -0.45585203646359029 0.16568454660677839 0 -0.45662463826870919 0.1733657707696504 0 -0.45585203646359029 0.16568454660677839 0 -0.45662463826870919 0.1733657707696504 0 -0.44891013033218191 0.1714908190645853 0 -0.45585203646359029 0.16568454660677839 0 -0.45933561029807168 0.16177650802909771 0 -0.45290698599043511 0.15697358534864689 0 -0.46574389835984931 0.15722804709452309 0 -0.45933561029807168 0.16177650802909771 0 -0.45290698599043511 0.15697358534864689 0 -0.46283952037841219 0.1672198530664423 0 -0.46518059072735363 0.17833585885552791 0 -0.45662463826870919 0.1733657707696504 0 -0.46518059072735363 0.17833585885552791 0 -0.45662463826870919 0.1733657707696504 0 -0.45265230714361149 0.18269162330364641 0 -0.46518059072735363 0.17833585885552791 0 -0.45265230714361149 0.18269162330364641 0 -0.4622583113334402 0.19311829461500291 0 -0.45662463826870919 0.1733657707696504 0 -0.45265230714361149 0.18269162330364641 0 -0.44891013033218191 0.1714908190645853 0 -0.45265230714361149 0.18269162330364641 0 -0.4408084470171415 0.18139720593886929 0 -0.44891013033218191 0.1714908190645853 0 -0.4408084470171415 0.18139720593886929 0 -0.44891013033218191 0.1714908190645853 0 -0.44299651058135231 0.17123662084508701 0 -0.4408084470171415 0.18139720593886929 0 -0.44299651058135231 0.17123662084508701 0 -0.42936047898565061 0.17508487302824649 0 -0.45265230714361149 0.18269162330364641 0 -0.4408084470171415 0.18139720593886929 0 -0.44145445748243878 0.19572522684643121 0 -0.45290698599043511 0.15697358534864689 0 -0.45389169648898831 0.14948443647506951 0 -0.43428319144300748 0.16611516014821129 0 -0.45290698599043511 0.15697358534864689 0 -0.43428319144300748 0.16611516014821129 0 -0.42936047898565061 0.17508487302824649 0 -0.45290698599043511 0.15697358534864689 0 -0.44299651058135231 0.17123662084508701 0 -0.42936047898565061 0.17508487302824649 0 -0.45290698599043511 0.15697358534864689 0 -0.42936047898565061 0.17508487302824649 0 -0.45389169648898831 0.14948443647506951 0 -0.43428319144300748 0.16611516014821129 0 -0.45585203646359029 0.16568454660677839 0 -0.45290698599043511 0.15697358534864689 0 -0.44891013033218191 0.1714908190645853 0 -0.45290698599043511 0.15697358534864689 0 -0.44891013033218191 0.1714908190645853 0 -0.44299651058135231 0.17123662084508701 0 -0.4436084957238825 0.15091133303995291 0 -0.43666232816394912 0.15450533097657659 0 -0.43428319144300748 0.16611516014821129 0 -0.4436084957238825 0.15091133303995291 0 -0.45389169648898831 0.14948443647506951 0 -0.43428319144300748 0.16611516014821129 0 -0.4436084957238825 0.15091133303995291 0 -0.43733176146314412 0.1475730355112059 0 -0.43666232816394912 0.15450533097657659 0 -0.4436084957238825 0.15091133303995291 0 -0.4431978569885982 0.1406558125952907 0 -0.45389169648898831 0.14948443647506951 0 -0.4436084957238825 0.15091133303995291 0 -0.4431978569885982 0.1406558125952907 0 -0.43733176146314412 0.1475730355112059 0 -0.4431978569885982 0.1406558125952907 0 -0.43206618965774629 0.14152179737276199 0 -0.43733176146314412 0.1475730355112059 0 -0.45044202451211868 0.12429584839862221 0 -0.4431978569885982 0.1406558125952907 0 -0.45389169648898831 0.14948443647506951 0 -0.45044202451211868 0.12429584839862221 0 -0.4431978569885982 0.1406558125952907 0 -0.43632181525477193 0.13015398283914401 0 -0.45044202451211868 0.12429584839862221 0 -0.45389169648898831 0.14948443647506951 0 -0.47534133302177828 0.13129217871601989 0 -0.45389169648898831 0.14948443647506951 0 -0.47534133302177828 0.13129217871601989 0 -0.46127722110494151 0.1304272076100628 0 -0.45389169648898831 0.14948443647506951 0 -0.45044202451211868 0.12429584839862221 0 -0.46127722110494151 0.1304272076100628 0 -0.45389169648898831 0.14948443647506951 0 -0.47645349299521977 0.13886229766904731 0 -0.47534133302177828 0.13129217871601989 0 -0.45389169648898831 0.14948443647506951 0 -0.46543383039688058 0.1166363668505397 0 -0.47534133302177828 0.13129217871601989 0 -0.46127722110494151 0.1304272076100628 0 -0.47645349299521977 0.13886229766904731 0 -0.45290698599043511 0.15697358534864689 0 -0.47645349299521977 0.13886229766904731 0 -0.46574389835984931 0.15722804709452309 0 -0.45290698599043511 0.15697358534864689 0 -0.47645349299521977 0.13886229766904731 0 -0.45430537870128362 0.15250503405941429 0 -0.45389169648898831 0.14948443647506951 0 -0.47645349299521977 0.13886229766904731 0 -0.45290698599043511 0.15697358534864689 0 -0.45430537870128362 0.15250503405941429 0 -0.45290698599043511 0.15697358534864689 0 -0.45430537870128362 0.15250503405941429 0 -0.45389169648898831 0.14948443647506951 0 -0.45430537870128362 0.15250503405941429 0 -0.45389169648898831 0.14948443647506951 0 -0.5 0.22707426608826259 0 -0.50000000000000111 0.25549577800201262 0 -0.47165578298512661 0.25029209389457358 0 -0.5 0.22707426608826259 0 -0.47999109483962549 0.22368988815248059 0 -0.47165578298512661 0.25029209389457358 0 -0.47999109483962549 0.22368988815248059 0 -0.45930457686831588 0.22705304874041621 0 -0.47165578298512661 0.25029209389457358 0 -0.47999109483962549 0.22368988815248059 0 -0.47562346800981548 0.2038723672276877 0 -0.45930457686831588 0.22705304874041621 0 -0.47999109483962549 0.22368988815248059 0 -0.47562346800981548 0.2038723672276877 0 -0.49999999999999922 0.19865275417451239 0 -0.5 0.22707426608826259 0 -0.47999109483962549 0.22368988815248059 0 -0.49999999999999922 0.19865275417451239 0 -0.47562346800981548 0.2038723672276877 0 -0.49999999999999922 0.19865275417451239 0 -0.48040602782055508 0.18611483660444281 0 -0.47562346800981548 0.2038723672276877 0 -0.49999999999999922 0.19865275417451239 0 -0.48040602782055508 0.18611483660444281 0 -0.47562346800981548 0.2038723672276877 0 -0.4622583113334402 0.19311829461500291 0 -0.47562346800981548 0.2038723672276877 0 -0.4622583113334402 0.19311829461500291 0 -0.45124693601963201 0.20909198028086309 0 -0.4622583113334402 0.19311829461500291 0 -0.44145445748243878 0.19572522684643121 0 -0.45124693601963201 0.20909198028086309 0 -0.45265230714361149 0.18269162330364641 0 -0.4622583113334402 0.19311829461500291 0 -0.44145445748243878 0.19572522684643121 0 -0.44145445748243878 0.19572522684643121 0 -0.45124693601963201 0.20909198028086309 0 -0.42687040402944842 0.21431159333403851 0 -0.45124693601963201 0.20909198028086309 0 -0.43786778915493801 0.22889694804950239 0 -0.42687040402944842 0.21431159333403851 0 -0.45124693601963201 0.20909198028086309 0 -0.42687040402944842 0.21431159333403851 0 -0.47562346800981548 0.2038723672276877 0 -0.45124693601963201 0.20909198028086309 0 -0.47562346800981548 0.2038723672276877 0 -0.45124693601963201 0.20909198028086309 0 -0.45930457686831588 0.22705304874041621 0 -0.45930457686831588 0.22705304874041621 0 -0.43786778915493801 0.22889694804950239 0 -0.44331156597025201 0.24508840978713481 0 -0.45124693601963201 0.20909198028086309 0 -0.45930457686831588 0.22705304874041621 0 -0.43786778915493801 0.22889694804950239 0 -0.45930457686831588 0.22705304874041621 0 -0.44331156597025201 0.24508840978713481 0 -0.47165578298512661 0.25029209389457358 0 -0.44331156597025201 0.24508840978713481 0 -0.47165578298512661 0.25029209389457358 0 -0.40770799354114862 0.2474913254542897 0 -0.42688256286909892 0.24626093374958469 0 -0.40770799354114862 0.2474913254542897 0 -0.42688256286909892 0.24626093374958469 0 -0.41959068917288111 0.23157572240497709 0 -0.40770799354114862 0.2474913254542897 0 -0.42688256286909892 0.24626093374958469 0 -0.41946165209625769 0.2557915731152311 0 -0.43786778915493801 0.22889694804950239 0 -0.44331156597025201 0.24508840978713481 0 -0.42688256286909892 0.24626093374958469 0 -0.43786778915493801 0.22889694804950239 0 -0.42688256286909892 0.24626093374958469 0 -0.41959068917288111 0.23157572240497709 0 -0.44331156597025201 0.24508840978713481 0 -0.42688256286909892 0.24626093374958469 0 -0.43496045959765711 0.25517361776031672 0 -0.43786778915493801 0.22889694804950239 0 -0.41959068917288111 0.23157572240497709 0 -0.42687040402944842 0.21431159333403851 0 -0.40770799354114862 0.2474913254542897 0 -0.41959068917288111 0.23157572240497709 0 -0.40249387203926512 0.21953120638721529 0 -0.41959068917288111 0.23157572240497709 0 -0.42687040402944842 0.21431159333403851 0 -0.40249387203926512 0.21953120638721529 0 -0.42687040402944842 0.21431159333403851 0 -0.40249387203926512 0.21953120638721529 0 -0.40950728499067479 0.20814600107824349 0 -0.42687040402944842 0.21431159333403851 0 -0.42371152590882999 0.19933191038962481 0 -0.40950728499067479 0.20814600107824349 0 -0.42687040402944842 0.21431159333403851 0 -0.40249387203926512 0.21953120638721529 0 -0.44145445748243878 0.19572522684643121 0 -0.42371152590882999 0.19933191038962481 0 -0.42822977627498537 0.18894707538220359 0 -0.44145445748243878 0.19572522684643121 0 -0.42687040402944842 0.21431159333403851 0 -0.42371152590882999 0.19933191038962481 0 -0.4408084470171415 0.18139720593886929 0 -0.44145445748243878 0.19572522684643121 0 -0.42822977627498537 0.18894707538220359 0 -0.40950728499067479 0.20814600107824349 0 -0.42371152590882999 0.19933191038962481 0 -0.405813971980866 0.1931961607078462 0 -0.42371152590882999 0.19933191038962481 0 -0.42822977627498537 0.18894707538220359 0 -0.405813971980866 0.1931961607078462 0 -0.405813971980866 0.1931961607078462 0 -0.39506618135104482 0.1993766074944934 0 -0.4146746863970262 0.18274588382135229 0 -0.405813971980866 0.1931961607078462 0 -0.38173679989003578 0.21068176611276149 0 -0.39506618135104482 0.1993766074944934 0 -0.38609313488103808 0.1937992247088221 0 -0.39565618949383308 0.1800344911742538 0 -0.405813971980866 0.1931961607078462 0 -0.39506618135104482 0.1993766074944934 0 -0.38173679989003578 0.21068176611276149 0 -0.405813971980866 0.1931961607078462 0 -0.38173679989003578 0.21068176611276149 0 -0.40219324548005958 0.2043434967733069 0 -0.39506618135104482 0.1993766074944934 0 -0.4146746863970262 0.18274588382135229 0 -0.40950728499067479 0.20814600107824349 0 -0.405813971980866 0.1931961607078462 0 -0.40219324548005958 0.2043434967733069 0 -0.38609313488103808 0.1937992247088221 0 -0.38050020824098041 0.20276259088954479 0 -0.37825693711300612 0.18592993286567799 0 -0.38050020824098041 0.20276259088954479 0 -0.37825693711300612 0.18592993286567799 0 -0.36758920666420292 0.19669339218798079 0 -0.39506618135104482 0.1993766074944934 0 -0.38609313488103808 0.1937992247088221 0 -0.38050020824098041 0.20276259088954479 0 -0.39506618135104482 0.1993766074944934 0 -0.38173679989003578 0.21068176611276149 0 -0.39506618135104482 0.1993766074944934 0 -0.38050020824098041 0.20276259088954479 0 -0.38173679989003578 0.21068176611276149 0 -0.38050020824098041 0.20276259088954479 0 -0.37545767630506333 0.21600733116763449 0 -0.37340744350434107 0.2065774899474466 0 -0.38050020824098041 0.20276259088954479 0 -0.38173679989003578 0.21068176611276149 0 -0.37545767630506333 0.21600733116763449 0 -0.38173679989003578 0.21068176611276149 0 -0.37545767630506333 0.21600733116763449 0 -0.38337563789767892 0.21639958731649159 0 -0.37545767630506333 0.21600733116763449 0 -0.38337563789767892 0.21639958731649159 0 -0.38607786555151552 0.2230462757899892 0 -0.38173679989003578 0.21068176611276149 0 -0.37545767630506333 0.21600733116763449 0 -0.38337563789767892 0.21639958731649159 0 -0.38969954475805529 0.21523729392089719 0 -0.38607786555151552 0.2230462757899892 0 -0.38173679989003578 0.21068176611276149 0 -0.38337563789767892 0.21639958731649159 0 -0.38969954475805529 0.21523729392089719 0 -0.38173679989003578 0.21068176611276149 0 -0.38969954475805529 0.21523729392089719 0 -0.39608254209680632 0.21204842425993839 0 -0.38969954475805529 0.21523729392089719 0 -0.39686702187038608 0.2150946665223071 0 -0.38607786555151552 0.2230462757899892 0 -0.38173679989003578 0.21068176611276149 0 -0.39608254209680632 0.21204842425993839 0 -0.40219324548005958 0.2043434967733069 0 -0.39686702187038608 0.2150946665223071 0 -0.39608254209680632 0.21204842425993839 0 -0.40184635560717957 0.21605897496098919 0 -0.38969954475805529 0.21523729392089719 0 -0.39686702187038608 0.2150946665223071 0 -0.39608254209680632 0.21204842425993839 0 -0.39608254209680632 0.21204842425993839 0 -0.40219324548005958 0.2043434967733069 0 -0.40240735704368008 0.21014922426811949 0 -0.40950728499067479 0.20814600107824349 0 -0.40219324548005958 0.2043434967733069 0 -0.40240735704368008 0.21014922426811949 0 -0.40950728499067479 0.20814600107824349 0 -0.40240735704368008 0.21014922426811949 0 -0.40184635560717957 0.21605897496098919 0 -0.40950728499067479 0.20814600107824349 0 -0.40184635560717957 0.21605897496098919 0 -0.40249387203926512 0.21953120638721529 0 -0.39686702187038608 0.2150946665223071 0 -0.40184635560717957 0.21605897496098919 0 -0.40249387203926512 0.21953120638721529 0 -0.40184635560717957 0.21605897496098919 0 -0.40249387203926512 0.21953120638721529 0 -0.39608254209680632 0.21204842425993839 0 -0.40240735704368008 0.21014922426811949 0 -0.40184635560717957 0.21605897496098919 0 -0.40770799354114862 0.2474913254542897 0 -0.40249387203926512 0.21953120638721529 0 -0.39686702187038608 0.2150946665223071 0 -0.40249387203926512 0.21953120638721529 0 -0.38607786555151552 0.2230462757899892 0 -0.40770799354114862 0.2474913254542897 0 -0.40249387203926512 0.21953120638721529 0 -0.39138686501675252 0.23483691959436639 0 -0.40249387203926512 0.21953120638721529 0 -0.38607786555151552 0.2230462757899892 0 -0.39138686501675252 0.23483691959436639 0 -0.40249387203926512 0.21953120638721529 0 -0.38607786555151552 0.2230462757899892 0 -0.37545767630506333 0.21600733116763449 0 -0.38607786555151552 0.2230462757899892 0 -0.36966185906376597 0.22656134519276461 0 -0.38607786555151552 0.2230462757899892 0 -0.37802526777497703 0.23501521965282979 0 -0.36966185906376597 0.22656134519276461 0 -0.38607786555151552 0.2230462757899892 0 -0.36966185906376597 0.22656134519276461 0 -0.38607786555151552 0.2230462757899892 0 -0.37802526777497703 0.23501521965282979 0 -0.39138686501675252 0.23483691959436639 0 -0.37802526777497703 0.23501521965282979 0 -0.38262932617685658 0.24910057068750771 0 -0.39138686501675252 0.23483691959436639 0 -0.37802526777497703 0.23501521965282979 0 -0.38262932617685658 0.24910057068750771 0 -0.36884835756302731 0.24170121431994701 0 -0.38262932617685658 0.24910057068750771 0 -0.36884835756302731 0.24170121431994701 0 -0.40770799354114862 0.2474913254542897 0 -0.38262932617685658 0.24910057068750771 0 -0.39138686501675252 0.23483691959436639 0 -0.40770799354114862 0.2474913254542897 0 -0.38262932617685658 0.24910057068750771 0 -0.40770799354114862 0.2474913254542897 0 -0.38262932617685658 0.24910057068750771 0 -0.38801897292272802 0.25023951331412447 0 -0.4188131679962247 0.14578753471265199 0 -0.40479608135484579 0.1486837317571349 0 -0.40590216570415671 0.13265550096846471 0 -0.4188131679962247 0.14578753471265199 0 -0.42306668551026272 0.15735790226693319 0 -0.41145363367606191 0.15819754087203389 0 -0.4188131679962247 0.14578753471265199 0 -0.41145363367606191 0.15819754087203389 0 -0.40479608135484579 0.1486837317571349 0 -0.41372355470660399 0.11959076585248379 0 -0.42236718280159002 0.13239304021553311 0 -0.40590216570415671 0.13265550096846471 0 -0.4188131679962247 0.14578753471265199 0 -0.42236718280159002 0.13239304021553311 0 -0.40590216570415671 0.13265550096846471 0 -0.4188131679962247 0.14578753471265199 0 -0.42236718280159002 0.13239304021553311 0 -0.43206618965774629 0.14152179737276199 0 -0.42574870126398229 0.1210159018382119 0 -0.42236718280159002 0.13239304021553311 0 -0.43632181525477193 0.13015398283914401 0 -0.42236718280159002 0.13239304021553311 0 -0.43632181525477193 0.13015398283914401 0 -0.43206618965774629 0.14152179737276199 0 -0.4431978569885982 0.1406558125952907 0 -0.43632181525477193 0.13015398283914401 0 -0.43206618965774629 0.14152179737276199 0 -0.43206618965774629 0.14152179737276199 0 -0.43733176146314412 0.1475730355112059 0 -0.42970810046122893 0.1508724863646731 0 -0.4188131679962247 0.14578753471265199 0 -0.43206618965774629 0.14152179737276199 0 -0.42970810046122893 0.1508724863646731 0 -0.4188131679962247 0.14578753471265199 0 -0.42970810046122893 0.1508724863646731 0 -0.42306668551026272 0.15735790226693319 0 -0.42970810046122893 0.1508724863646731 0 -0.4303084699760471 0.15848931734790919 0 -0.42306668551026272 0.15735790226693319 0 -0.42970810046122893 0.1508724863646731 0 -0.43666232816394912 0.15450533097657659 0 -0.4303084699760471 0.15848931734790919 0 -0.43733176146314412 0.1475730355112059 0 -0.42970810046122893 0.1508724863646731 0 -0.43666232816394912 0.15450533097657659 0 -0.43666232816394912 0.15450533097657659 0 -0.4303084699760471 0.15848931734790919 0 -0.43428319144300748 0.16611516014821129 0 -0.4303084699760471 0.15848931734790919 0 -0.43428319144300748 0.16611516014821129 0 -0.42688613277157761 0.16274445008845809 0 -0.43428319144300748 0.16611516014821129 0 -0.42688613277157761 0.16274445008845809 0 -0.41988618415699308 0.16901542059077879 0 -0.42306668551026272 0.15735790226693319 0 -0.42688613277157761 0.16274445008845809 0 -0.41988618415699308 0.16901542059077879 0 -0.4303084699760471 0.15848931734790919 0 -0.42306668551026272 0.15735790226693319 0 -0.42688613277157761 0.16274445008845809 0 -0.43428319144300748 0.16611516014821129 0 -0.4146746863970262 0.18274588382135229 0 -0.43428319144300748 0.16611516014821129 0 -0.4146746863970262 0.18274588382135229 0 -0.41988618415699308 0.16901542059077879 0 -0.43428319144300748 0.16611516014821129 0 -0.42936047898565061 0.17508487302824649 0 -0.4146746863970262 0.18274588382135229 0 -0.4408084470171415 0.18139720593886929 0 -0.42822977627498537 0.18894707538220359 0 -0.42936047898565061 0.17508487302824649 0 -0.42822977627498537 0.18894707538220359 0 -0.405813971980866 0.1931961607078462 0 -0.42936047898565061 0.17508487302824649 0 -0.405813971980866 0.1931961607078462 0 -0.42936047898565061 0.17508487302824649 0 -0.4146746863970262 0.18274588382135229 0 -0.405813971980866 0.1931961607078462 0 -0.42936047898565061 0.17508487302824649 0 -0.4146746863970262 0.18274588382135229 0 -0.41988618415699308 0.16901542059077879 0 -0.40772137839603823 0.17025455796807079 0 -0.42306668551026272 0.15735790226693319 0 -0.41988618415699308 0.16901542059077879 0 -0.41145363367606191 0.15819754087203389 0 -0.41988618415699308 0.16901542059077879 0 -0.40772137839603823 0.17025455796807079 0 -0.41145363367606191 0.15819754087203389 0 -0.40772137839603823 0.17025455796807079 0 -0.3969361982562763 0.16127945338193531 0 -0.39565618949383308 0.1800344911742538 0 -0.40772137839603823 0.17025455796807079 0 -0.41145363367606191 0.15819754087203389 0 -0.3969361982562763 0.16127945338193531 0 -0.39506618135104482 0.1993766074944934 0 -0.4146746863970262 0.18274588382135229 0 -0.39565618949383308 0.1800344911742538 0 -0.4146746863970262 0.18274588382135229 0 -0.40772137839603823 0.17025455796807079 0 -0.39565618949383308 0.1800344911742538 0 -0.38609313488103808 0.1937992247088221 0 -0.39565618949383308 0.1800344911742538 0 -0.37825693711300612 0.18592993286567799 0 -0.39565618949383308 0.1800344911742538 0 -0.37825693711300612 0.18592993286567799 0 -0.37681790395456582 0.1619083413495567 0 -0.39565618949383308 0.1800344911742538 0 -0.37681790395456582 0.1619083413495567 0 -0.3969361982562763 0.16127945338193531 0 -0.39565618949383308 0.1800344911742538 0 -0.37681790395456582 0.1619083413495567 0 -0.37681790395456582 0.1619083413495567 0 -0.3751564947144197 0.1416367972888771 0 -0.39087524114150918 0.14549862885058859 0 -0.3969361982562763 0.16127945338193531 0 -0.37681790395456582 0.1619083413495567 0 -0.39087524114150918 0.14549862885058859 0 -0.3969361982562763 0.16127945338193531 0 -0.39087524114150918 0.14549862885058859 0 -0.40479608135484579 0.1486837317571349 0 -0.39087524114150918 0.14549862885058859 0 -0.40479608135484579 0.1486837317571349 0 -0.40590216570415671 0.13265550096846471 0 -0.41145363367606191 0.15819754087203389 0 -0.3969361982562763 0.16127945338193531 0 -0.40479608135484579 0.1486837317571349 0 -0.39087524114150918 0.14549862885058859 0 -0.40590216570415671 0.13265550096846471 0 -0.38440739263673179 0.12533490720897719 0 -0.3751564947144197 0.1416367972888771 0 -0.39087524114150918 0.14549862885058859 0 -0.38440739263673179 0.12533490720897719 0 -0.3751564947144197 0.1416367972888771 0 -0.35797961841529841 0.14378219152485969 0 -0.36466733534410412 0.12012446695210791 0 -0.3751564947144197 0.1416367972888771 0 -0.38440739263673179 0.12533490720897719 0 -0.36466733534410412 0.12012446695210791 0 -0.35797961841529841 0.14378219152485969 0 -0.33914133287603099 0.12565604170016259 0 -0.35797961841529841 0.14378219152485969 0 -0.33914133287603099 0.12565604170016259 0 -0.36466733534410412 0.12012446695210791 0 -0.35797961841529841 0.14378219152485969 0 -0.33914133287603099 0.12565604170016259 0 -0.33684980075020671 0.1508292280790629 0 -0.35797961841529841 0.14378219152485969 0 -0.35428169457312242 0.16676785163324701 0 -0.33684980075020671 0.1508292280790629 0 -0.37681790395456582 0.1619083413495567 0 -0.3751564947144197 0.1416367972888771 0 -0.35797961841529841 0.14378219152485969 0 -0.37681790395456582 0.1619083413495567 0 -0.35797961841529841 0.14378219152485969 0 -0.37681790395456582 0.1619083413495567 0 -0.35797961841529841 0.14378219152485969 0 -0.35428169457312242 0.16676785163324701 0 -0.37681790395456582 0.1619083413495567 0 -0.36568241664294199 0.17959477124262069 0 -0.35428169457312242 0.16676785163324701 0 -0.37825693711300612 0.18592993286567799 0 -0.36568241664294199 0.17959477124262069 0 -0.36758920666420292 0.19669339218798079 0 -0.37825693711300612 0.18592993286567799 0 -0.37681790395456582 0.1619083413495567 0 -0.36568241664294199 0.17959477124262069 0 -0.35146634090981282 0.18667433817664081 0 -0.35428169457312242 0.16676785163324701 0 -0.33284440788268449 0.17450037848239691 0 -0.36568241664294199 0.17959477124262069 0 -0.35146634090981282 0.18667433817664081 0 -0.35428169457312242 0.16676785163324701 0 -0.33284440788268449 0.17450037848239691 0 -0.3194291827190312 0.15706105454230609 0 -0.33684980075020671 0.1508292280790629 0 -0.35428169457312242 0.16676785163324701 0 -0.33284440788268449 0.17450037848239691 0 -0.33684980075020671 0.1508292280790629 0 -0.35146634090981282 0.18667433817664081 0 -0.33284440788268449 0.17450037848239691 0 -0.33854888797891508 0.198472326937673 0 -0.33284440788268449 0.17450037848239691 0 -0.31336755213237161 0.17317622378632369 0 -0.31969679873234808 0.19325312865870781 0 -0.33284440788268449 0.17450037848239691 0 -0.31336755213237161 0.17317622378632369 0 -0.3194291827190312 0.15706105454230609 0 -0.31336755213237161 0.17317622378632369 0 -0.3194291827190312 0.15706105454230609 0 -0.30796670396304521 0.1612100219742876 0 -0.3194291827190312 0.15706105454230609 0 -0.31742256803507268 0.13720785059140519 0 -0.30831883537031118 0.15182978396413599 0 -0.3194291827190312 0.15706105454230609 0 -0.31742256803507268 0.13720785059140519 0 -0.33684980075020671 0.1508292280790629 0 -0.31742256803507268 0.13720785059140519 0 -0.33914133287603099 0.12565604170016259 0 -0.32284262133770081 0.1143035070858858 0 -0.31742256803507268 0.13720785059140519 0 -0.33914133287603099 0.12565604170016259 0 -0.33684980075020671 0.1508292280790629 0 -0.35867575245407318 0.24429616695695841 0 -0.35434486376622049 0.2339139156049963 0 -0.35014097212956308 0.25118527989977613 0 -0.35434486376622049 0.2339139156049963 0 -0.33698489466040682 0.23503186956709771 0 -0.34053134287490211 0.2456296914052418 0 -0.35434486376622049 0.2339139156049963 0 -0.34462058268492302 0.25653493811952821 0 -0.35014097212956308 0.25118527989977613 0 -0.35434486376622049 0.2339139156049963 0 -0.34462058268492302 0.25653493811952821 0 -0.35434486376622049 0.2339139156049963 0 -0.34053134287490211 0.2456296914052418 0 -0.34462058268492302 0.25653493811952821 0 -0.35867575245407318 0.24429616695695841 0 -0.35014097212956308 0.25118527989977613 0 -0.36638514915320991 0.25014292529364179 0 -0.35434486376622049 0.2339139156049963 0 -0.34053134287490211 0.2456296914052418 0 -0.35867575245407318 0.24429616695695841 0 -0.36884835756302731 0.24170121431994701 0 -0.36638514915320991 0.25014292529364179 0 -0.38262932617685658 0.24910057068750771 0 -0.36884835756302731 0.24170121431994701 0 -0.36638514915320991 0.25014292529364179 0 -0.38262932617685658 0.24910057068750771 0 -0.36638514915320991 0.25014292529364179 0 -0.37802526777497703 0.23501521965282979 0 -0.36884835756302731 0.24170121431994701 0 -0.3646400286206623 0.2338833004492345 0 -0.36884835756302731 0.24170121431994701 0 -0.35434486376622049 0.2339139156049963 0 -0.36884835756302731 0.24170121431994701 0 -0.3646400286206623 0.2338833004492345 0 -0.35434486376622049 0.2339139156049963 0 -0.35867575245407318 0.24429616695695841 0 -0.36884835756302731 0.24170121431994701 0 -0.35434486376622049 0.2339139156049963 0 -0.37545767630506333 0.21600733116763449 0 -0.35584917125908189 0.23263805484077529 0 -0.3646400286206623 0.2338833004492345 0 -0.36966185906376597 0.22656134519276461 0 -0.35584917125908189 0.23263805484077529 0 -0.37545767630506333 0.21600733116763449 0 -0.36966185906376597 0.22656134519276461 0 -0.35584917125908189 0.23263805484077529 0 -0.35584917125908189 0.23263805484077529 0 -0.36737500845922549 0.20810856171323991 0 -0.37545767630506333 0.21600733116763449 0 -0.35584917125908189 0.23263805484077529 0 -0.36737500845922549 0.20810856171323991 0 -0.37802526777497703 0.23501521965282979 0 -0.3646400286206623 0.2338833004492345 0 -0.36966185906376597 0.22656134519276461 0 -0.35584917125908189 0.23263805484077529 0 -0.35434486376622049 0.2339139156049963 0 -0.34961122510196191 0.21610259858462441 0 -0.35434486376622049 0.2339139156049963 0 -0.34961122510196191 0.21610259858462441 0 -0.32890055023179232 0.22025220947642349 0 -0.35584917125908189 0.23263805484077529 0 -0.34961122510196191 0.21610259858462441 0 -0.36737500845922549 0.20810856171323991 0 -0.3646400286206623 0.2338833004492345 0 -0.35584917125908189 0.23263805484077529 0 -0.35434486376622049 0.2339139156049963 0 -0.35584917125908189 0.23263805484077529 0 -0.35434486376622049 0.2339139156049963 0 -0.34961122510196191 0.21610259858462441 0 -0.36737500845922549 0.20810856171323991 0 -0.35505505266899229 0.20184929178302921 0 -0.34961122510196191 0.21610259858462441 0 -0.35505505266899229 0.20184929178302921 0 -0.33854888797891508 0.198472326937673 0 -0.37545767630506333 0.21600733116763449 0 -0.37340744350434107 0.2065774899474466 0 -0.36737500845922549 0.20810856171323991 0 -0.37340744350434107 0.2065774899474466 0 -0.36737500845922549 0.20810856171323991 0 -0.36758920666420292 0.19669339218798079 0 -0.36568241664294199 0.17959477124262069 0 -0.35146634090981282 0.18667433817664081 0 -0.36758920666420292 0.19669339218798079 0 -0.36737500845922549 0.20810856171323991 0 -0.36758920666420292 0.19669339218798079 0 -0.35505505266899229 0.20184929178302921 0 -0.38050020824098041 0.20276259088954479 0 -0.37340744350434107 0.2065774899474466 0 -0.36758920666420292 0.19669339218798079 0 -0.35146634090981282 0.18667433817664081 0 -0.36758920666420292 0.19669339218798079 0 -0.35505505266899229 0.20184929178302921 0 -0.35146634090981282 0.18667433817664081 0 -0.35505505266899229 0.20184929178302921 0 -0.33854888797891508 0.198472326937673 0 -0.33284440788268449 0.17450037848239691 0 -0.33854888797891508 0.198472326937673 0 -0.31969679873234808 0.19325312865870781 0 -0.32890055023179232 0.22025220947642349 0 -0.30345623669736299 0.20659050334785259 0 -0.31969679873234808 0.19325312865870781 0 -0.32890055023179232 0.22025220947642349 0 -0.30345623669736299 0.20659050334785259 0 -0.33854888797891508 0.198472326937673 0 -0.31969679873234808 0.19325312865870781 0 -0.32890055023179232 0.22025220947642349 0 -0.34961122510196191 0.21610259858462441 0 -0.33854888797891508 0.198472326937673 0 -0.32890055023179232 0.22025220947642349 0 -0.35434486376622049 0.2339139156049963 0 -0.32890055023179232 0.22025220947642349 0 -0.33698489466040682 0.23503186956709771 0 -0.35434486376622049 0.2339139156049963 0 -0.32890055023179232 0.22025220947642349 0 -0.32890055023179232 0.22025220947642349 0 -0.32416282176871142 0.2403316617817311 0 -0.33698489466040682 0.23503186956709771 0 -0.32890055023179232 0.22025220947642349 0 -0.30968147410946523 0.2310425191373609 0 -0.30345623669736299 0.20659050334785259 0 -0.32890055023179232 0.22025220947642349 0 -0.32416282176871142 0.2403316617817311 0 -0.30968147410946523 0.2310425191373609 0 -0.32416282176871142 0.2403316617817311 0 -0.30968147410946523 0.2310425191373609 0 -0.31332832454887088 0.25244391761365692 0 -0.32416282176871142 0.2403316617817311 0 -0.33698489466040682 0.23503186956709771 0 -0.34053134287490211 0.2456296914052418 0 -0.32416282176871142 0.2403316617817311 0 -0.34053134287490211 0.2456296914052418 0 -0.32671782198358301 0.25734546720548668 0 -0.29589392737197351 0.249512538125438 0 -0.28753453506461829 0.22413396938238159 0 -0.27316976485792488 0.24444195486591161 0 -0.29589392737197351 0.249512538125438 0 -0.30968147410946523 0.2310425191373609 0 -0.29589392737197351 0.249512538125438 0 -0.30968147410946523 0.2310425191373609 0 -0.28753453506461829 0.22413396938238159 0 -0.29589392737197351 0.249512538125438 0 -0.30968147410946523 0.2310425191373609 0 -0.31332832454887088 0.25244391761365692 0 -0.30968147410946523 0.2310425191373609 0 -0.28753453506461829 0.22413396938238159 0 -0.30345623669736299 0.20659050334785259 0 -0.28753453506461829 0.22413396938238159 0 -0.30345623669736299 0.20659050334785259 0 -0.27801192316293372 0.19292879721928169 0 -0.31969679873234808 0.19325312865870781 0 -0.30345623669736299 0.20659050334785259 0 -0.30106315747096268 0.1865271299215773 0 -0.30345623669736299 0.20659050334785259 0 -0.27801192316293372 0.19292879721928169 0 -0.30106315747096268 0.1865271299215773 0 -0.30345623669736299 0.20659050334785259 0 -0.27801192316293372 0.19292879721928169 0 -0.27801192316293372 0.19292879721928169 0 -0.25452127516851919 0.20182214795708131 0 -0.25256760962850472 0.17926709109071021 0 -0.27801192316293372 0.19292879721928169 0 -0.25452127516851919 0.20182214795708131 0 -0.26427740569439878 0.22020682222584681 0 -0.25452127516851919 0.20182214795708131 0 -0.26427740569439878 0.22020682222584681 0 -0.24337552138156279 0.21795896149778779 0 -0.28753453506461829 0.22413396938238159 0 -0.27801192316293372 0.19292879721928169 0 -0.26427740569439878 0.22020682222584681 0 -0.28753453506461829 0.22413396938238159 0 -0.26427740569439878 0.22020682222584681 0 -0.27316976485792488 0.24444195486591161 0 -0.26427740569439878 0.22020682222584681 0 -0.25124147401774211 0.23762226217384569 0 -0.27316976485792488 0.24444195486591161 0 -0.26427740569439878 0.22020682222584681 0 -0.25124147401774211 0.23762226217384569 0 -0.24337552138156279 0.21795896149778779 0 -0.25124147401774211 0.23762226217384569 0 -0.27316976485792488 0.24444195486591161 0 -0.25758647592664707 0.2638813985755446 0 -0.29740833750732631 0.1475397782310475 0 -0.27739410697957961 0.15787170587068949 0 -0.28338020308430018 0.14453433823850531 0 -0.29740833750732631 0.1475397782310475 0 -0.27739410697957961 0.15787170587068949 0 -0.29740833750732631 0.1475397782310475 0 -0.29897872492802507 0.15591133965438231 0 -0.27739410697957961 0.15787170587068949 0 -0.28338020308430018 0.14453433823850531 0 -0.29239480055653322 0.13701889084080471 0 -0.29740833750732631 0.1475397782310475 0 -0.29239480055653322 0.13701889084080471 0 -0.27429261487182011 0.1171596263047522 0 -0.29239480055653322 0.13701889084080471 0 -0.30168824458910071 0.13188911639101639 0 -0.28963007663840612 0.1213590857689255 0 -0.28338020308430018 0.14453433823850531 0 -0.29239480055653322 0.13701889084080471 0 -0.27701488604061542 0.13641720567024249 0 -0.29239480055653322 0.13701889084080471 0 -0.27429261487182011 0.1171596263047522 0 -0.28963007663840612 0.1213590857689255 0 -0.31742256803507268 0.13720785059140519 0 -0.30168824458910071 0.13188911639101639 0 -0.29740833750732631 0.1475397782310475 0 -0.31742256803507268 0.13720785059140519 0 -0.30168824458910071 0.13188911639101639 0 -0.30505676335876991 0.1175002608098905 0 -0.29239480055653322 0.13701889084080471 0 -0.30168824458910071 0.13188911639101639 0 -0.29740833750732631 0.1475397782310475 0 -0.31742256803507268 0.13720785059140519 0 -0.29740833750732631 0.1475397782310475 0 -0.31742256803507268 0.13720785059140519 0 -0.29740833750732631 0.1475397782310475 0 -0.30831883537031118 0.15182978396413599 0 -0.29740833750732631 0.1475397782310475 0 -0.29897872492802507 0.15591133965438231 0 -0.30831883537031118 0.15182978396413599 0 -0.29897872492802507 0.15591133965438231 0 -0.30831883537031118 0.15182978396413599 0 -0.30796670396304521 0.1612100219742876 0 -0.3194291827190312 0.15706105454230609 0 -0.30831883537031118 0.15182978396413599 0 -0.30796670396304521 0.1612100219742876 0 -0.31336755213237161 0.17317622378632369 0 -0.30796670396304521 0.1612100219742876 0 -0.29973922466548691 0.16807170792428969 0 -0.29897872492802507 0.15591133965438231 0 -0.30796670396304521 0.1612100219742876 0 -0.29973922466548691 0.16807170792428969 0 -0.31336755213237161 0.17317622378632369 0 -0.31969679873234808 0.19325312865870781 0 -0.30106315747096268 0.1865271299215773 0 -0.31336755213237161 0.17317622378632369 0 -0.29973922466548691 0.16807170792428969 0 -0.30106315747096268 0.1865271299215773 0 -0.27801192316293372 0.19292879721928169 0 -0.30106315747096268 0.1865271299215773 0 -0.28788837090188057 0.17574757415513151 0 -0.29973922466548691 0.16807170792428969 0 -0.30106315747096268 0.1865271299215773 0 -0.28788837090188057 0.17574757415513151 0 -0.29897872492802507 0.15591133965438231 0 -0.2887841928562363 0.16502159924682341 0 -0.27739410697957961 0.15787170587068949 0 -0.29897872492802507 0.15591133965438231 0 -0.27739410697957961 0.15787170587068949 0 -0.29897872492802507 0.15591133965438231 0 -0.29973922466548691 0.16807170792428969 0 -0.2887841928562363 0.16502159924682341 0 -0.29973922466548691 0.16807170792428969 0 -0.28788837090188057 0.17574757415513151 0 -0.2887841928562363 0.16502159924682341 0 -0.28788837090188057 0.17574757415513151 0 -0.2887841928562363 0.16502159924682341 0 -0.2790395704537727 0.16773550997355821 0 -0.2887841928562363 0.16502159924682341 0 -0.27739410697957961 0.15787170587068949 0 -0.2790395704537727 0.16773550997355821 0 -0.27739410697957961 0.15787170587068949 0 -0.2790395704537727 0.16773550997355821 0 -0.26324491037830727 0.16517593249288001 0 -0.2790395704537727 0.16773550997355821 0 -0.27365763266116488 0.1759639765531508 0 -0.26324491037830727 0.16517593249288001 0 -0.27739410697957961 0.15787170587068949 0 -0.26324491037830727 0.16517593249288001 0 -0.27801192316293372 0.19292879721928169 0 -0.27365763266116488 0.1759639765531508 0 -0.25922242205649387 0.1784619102688369 0 -0.27801192316293372 0.19292879721928169 0 -0.28788837090188057 0.17574757415513151 0 -0.27365763266116488 0.1759639765531508 0 -0.28788837090188057 0.17574757415513151 0 -0.2790395704537727 0.16773550997355821 0 -0.27365763266116488 0.1759639765531508 0 -0.27801192316293372 0.19292879721928169 0 -0.25256760962850472 0.17926709109071021 0 -0.27801192316293372 0.19292879721928169 0 -0.25922242205649387 0.1784619102688369 0 -0.25256760962850472 0.17926709109071021 0 -0.27365763266116488 0.1759639765531508 0 -0.25922242205649387 0.1784619102688369 0 -0.26324491037830727 0.16517593249288001 0 -0.25922242205649387 0.1784619102688369 0 -0.25256760962850472 0.17926709109071021 0 -0.24909571377703479 0.17248015911507039 0 -0.25922242205649387 0.1784619102688369 0 -0.26324491037830727 0.16517593249288001 0 -0.24909571377703479 0.17248015911507039 0 -0.25922242205649387 0.1784619102688369 0 -0.25256760962850472 0.17926709109071021 0 -0.27739410697957961 0.15787170587068949 0 -0.26324491037830727 0.16517593249288001 0 -0.24973542440397539 0.160383733048482 0 -0.27739410697957961 0.15787170587068949 0 -0.24973542440397539 0.160383733048482 0 -0.26324491037830727 0.16517593249288001 0 -0.24973542440397539 0.160383733048482 0 -0.24909571377703479 0.17248015911507039 0 -0.26324491037830727 0.16517593249288001 0 -0.24909571377703479 0.17248015911507039 0 -0.2621556406359567 0.14950235590482261 0 -0.2486418601058053 0.14588316763779119 0 -0.24973542440397539 0.160383733048482 0 -0.27739410697957961 0.15787170587068949 0 -0.2621556406359567 0.14950235590482261 0 -0.24973542440397539 0.160383733048482 0 -0.2621556406359567 0.14950235590482261 0 -0.26205562709162572 0.1362290776150222 0 -0.2486418601058053 0.14588316763779119 0 -0.2621556406359567 0.14950235590482261 0 -0.27255754757566752 0.14554898200050551 0 -0.26205562709162572 0.1362290776150222 0 -0.27739410697957961 0.15787170587068949 0 -0.2621556406359567 0.14950235590482261 0 -0.27255754757566752 0.14554898200050551 0 -0.28338020308430018 0.14453433823850531 0 -0.27255754757566752 0.14554898200050551 0 -0.27701488604061542 0.13641720567024249 0 -0.28338020308430018 0.14453433823850531 0 -0.27739410697957961 0.15787170587068949 0 -0.27255754757566752 0.14554898200050551 0 -0.27701488604061542 0.13641720567024249 0 -0.26205562709162572 0.1362290776150222 0 -0.27429261487182011 0.1171596263047522 0 -0.29239480055653322 0.13701889084080471 0 -0.27701488604061542 0.13641720567024249 0 -0.27429261487182011 0.1171596263047522 0 -0.27255754757566752 0.14554898200050551 0 -0.27701488604061542 0.13641720567024249 0 -0.26205562709162572 0.1362290776150222 0 -0.26205562709162572 0.1362290776150222 0 -0.25243723761715509 0.1184612761912272 0 -0.24822770506743089 0.13226351280279799 0 -0.26205562709162572 0.1362290776150222 0 -0.24822770506743089 0.13226351280279799 0 -0.2486418601058053 0.14588316763779119 0 -0.25243723761715509 0.1184612761912272 0 -0.2561904291871071 0.097300361768699717 0 -0.27429261487182011 0.1171596263047522 0 -0.26205562709162572 0.1362290776150222 0 -0.25243723761715509 0.1184612761912272 0 -0.27429261487182011 0.1171596263047522 0 -0.2561904291871071 0.097300361768699717 0 -0.27429261487182011 0.1171596263047522 0 -0.2561904291871071 0.097300361768699717 0 -0.27429261487182011 0.1171596263047522 0 -0.28661085884774262 0.094338815545201141 0 -0.27429261487182011 0.1171596263047522 0 -0.28963007663840612 0.1213590857689255 0 -0.28661085884774262 0.094338815545201141 0 -0.28963007663840612 0.1213590857689255 0 -0.28661085884774262 0.094338815545201141 0 -0.30505676335876991 0.1175002608098905 0 -0.28661085884774262 0.094338815545201141 0 -0.31152900169961062 0.095152725125876497 0 -0.28661085884774262 0.094338815545201141 0 -0.31152900169961062 0.095152725125876497 0 -0.30505676335876991 0.1175002608098905 0 -0.30168824458910071 0.13188911639101639 0 -0.28963007663840612 0.1213590857689255 0 -0.30505676335876991 0.1175002608098905 0 -0.30135897825031632 0.062833176481056796 0 -0.30499504547633438 0.07317979846742681 0 -0.29080888791622111 0.064835996049510847 0 -0.30135897825031632 0.062833176481056796 0 -0.30499504547633438 0.07317979846742681 0 -0.31175093366558371 0.062264561513365048 0 -0.30499504547633438 0.07317979846742681 0 -0.31175093366558371 0.062264561513365048 0 -0.31563483571933121 0.07512205883592607 0 -0.31152900169961062 0.095152725125876497 0 -0.30499504547633438 0.07317979846742681 0 -0.31563483571933121 0.07512205883592607 0 -0.31152900169961062 0.095152725125876497 0 -0.30499504547633438 0.07317979846742681 0 -0.29368437491129712 0.081031803111784734 0 -0.28661085884774262 0.094338815545201141 0 -0.31152900169961062 0.095152725125876497 0 -0.29368437491129712 0.081031803111784734 0 -0.28661085884774262 0.094338815545201141 0 -0.29368437491129712 0.081031803111784734 0 -0.27447808061657669 0.077651680370908305 0 -0.29368437491129712 0.081031803111784734 0 -0.29080888791622111 0.064835996049510847 0 -0.27447808061657669 0.077651680370908305 0 -0.30499504547633438 0.07317979846742681 0 -0.29368437491129712 0.081031803111784734 0 -0.29080888791622111 0.064835996049510847 0 -0.29080888791622111 0.064835996049510847 0 -0.27372697185359429 0.0626183161432496 0 -0.27447808061657669 0.077651680370908305 0 -0.27372697185359429 0.0626183161432496 0 -0.27447808061657669 0.077651680370908305 0 -0.25622419186420398 0.071140944602872444 0 -0.2561904291871071 0.097300361768699717 0 -0.28661085884774262 0.094338815545201141 0 -0.27447808061657669 0.077651680370908305 0 -0.2561904291871071 0.097300361768699717 0 -0.25622419186420398 0.071140944602872444 0 -0.23808824350239399 0.077441097232647221 0 -0.2561904291871071 0.097300361768699717 0 -0.27447808061657669 0.077651680370908305 0 -0.25622419186420398 0.071140944602872444 0 -0.25622419186420398 0.071140944602872444 0 -0.25991768517992653 0.049305863222038747 0 -0.24139748063478941 0.062976940995822323 0 -0.27372697185359429 0.0626183161432496 0 -0.25622419186420398 0.071140944602872444 0 -0.25991768517992653 0.049305863222038747 0 -0.25991768517992653 0.049305863222038747 0 -0.2514308507817738 0.031339817910523912 0 -0.27353422832994612 0.033659242006370237 0 -0.25991768517992653 0.049305863222038747 0 -0.27353422832994612 0.033659242006370237 0 -0.2898950719365278 0.050344009852638982 0 -0.27372697185359429 0.0626183161432496 0 -0.25991768517992653 0.049305863222038747 0 -0.2898950719365278 0.050344009852638982 0 -0.25991768517992653 0.049305863222038747 0 -0.2898950719365278 0.050344009852638982 0 -0.25080528299249649 -0.001461169191011345 0 -0.26724344056698479 -0.00084071798374889609 0 -0.26445932091645658 0.014231891854857121 0 -0.25080528299249649 -0.001461169191011345 0 -0.26445932091645658 0.014231891854857121 0 -0.2432637047602107 0.013675888509439909 0 -0.2514308507817738 0.031339817910523912 0 -0.27353422832994612 0.033659242006370237 0 -0.26445932091645658 0.014231891854857121 0 -0.2514308507817738 0.031339817910523912 0 -0.26445932091645658 0.014231891854857121 0 -0.2432637047602107 0.013675888509439909 0 -0.27353422832994612 0.033659242006370237 0 -0.26445932091645658 0.014231891854857121 0 -0.28072954888937068 0.020000341118287211 0 -0.26445932091645658 0.014231891854857121 0 -0.28072954888937068 0.020000341118287211 0 -0.27832368885397618 0.0063642707838428769 0 -0.26724344056698479 -0.00084071798374889609 0 -0.26445932091645658 0.014231891854857121 0 -0.27832368885397618 0.0063642707838428769 0 -0.28094722485089763 -0.01276951350527328 0 -0.27832368885397618 0.0063642707838428769 0 -0.29604372759886599 0.010369656744125339 0 -0.28072954888937068 0.020000341118287211 0 -0.27832368885397618 0.0063642707838428769 0 -0.29604372759886599 0.010369656744125339 0 -0.27353422832994612 0.033659242006370237 0 -0.28072954888937068 0.020000341118287211 0 -0.29128677874760889 0.03537664420224048 0 -0.28072954888937068 0.020000341118287211 0 -0.29604372759886599 0.010369656744125339 0 -0.29128677874760889 0.03537664420224048 0 -0.29604372759886599 0.010369656744125339 0 -0.29128677874760889 0.03537664420224048 0 -0.31114023034683091 0.033508826993526267 0 -0.29604372759886599 0.010369656744125339 0 -0.31114023034683091 0.033508826993526267 0 -0.29604372759886599 0.010369656744125339 0 -0.31114023034683091 0.033508826993526267 0 -0.32261607383840002 0.015629560667828689 0 -0.31688985811285197 -0.003828862096149611 0 -0.29604372759886599 0.010369656744125339 0 -0.32261607383840002 0.015629560667828689 0 -0.29080888791622111 0.064835996049510847 0 -0.27372697185359429 0.0626183161432496 0 -0.2898950719365278 0.050344009852638982 0 -0.2898950719365278 0.050344009852638982 0 -0.29789598092636399 0.05062108926509673 0 -0.30135897825031632 0.062833176481056796 0 -0.29080888791622111 0.064835996049510847 0 -0.29789598092636399 0.05062108926509673 0 -0.29080888791622111 0.064835996049510847 0 -0.2898950719365278 0.050344009852638982 0 -0.29789598092636399 0.05062108926509673 0 -0.2898950719365278 0.050344009852638982 0 -0.29128677874760889 0.03537664420224048 0 -0.30593189909811902 0.042762937956894571 0 -0.27353422832994612 0.033659242006370237 0 -0.2898950719365278 0.050344009852638982 0 -0.29128677874760889 0.03537664420224048 0 -0.29128677874760889 0.03537664420224048 0 -0.31114023034683091 0.033508826993526267 0 -0.30593189909811902 0.042762937956894571 0 -0.29128677874760889 0.03537664420224048 0 -0.31114023034683091 0.033508826993526267 0 -0.31114023034683091 0.033508826993526267 0 -0.30593189909811902 0.042762937956894571 0 -0.3174649557664983 0.043203052252828493 0 -0.29789598092636399 0.05062108926509673 0 -0.31987245869312919 0.051382156483239232 0 -0.29789598092636399 0.05062108926509673 0 -0.31175093366558371 0.062264561513365048 0 -0.32304353212762837 0.054877546363192378 0 -0.30593189909811902 0.042762937956894571 0 -0.29789598092636399 0.05062108926509673 0 -0.31987245869312919 0.051382156483239232 0 -0.2898950719365278 0.050344009852638982 0 -0.30593189909811902 0.042762937956894571 0 -0.29789598092636399 0.05062108926509673 0 -0.29789598092636399 0.05062108926509673 0 -0.32304353212762837 0.054877546363192378 0 -0.30135897825031632 0.062833176481056796 0 -0.29789598092636399 0.05062108926509673 0 -0.31175093366558371 0.062264561513365048 0 -0.29789598092636399 0.05062108926509673 0 -0.32304353212762837 0.054877546363192378 0 -0.31987245869312919 0.051382156483239232 0 -0.31175093366558371 0.062264561513365048 0 -0.32304353212762837 0.054877546363192378 0 -0.32291083828810352 0.067137431593264477 0 -0.32304353212762837 0.054877546363192378 0 -0.32291083828810352 0.067137431593264477 0 -0.33405811880393033 0.064865040449579803 0 -0.3174649557664983 0.043203052252828493 0 -0.33031482795368378 0.043864592089823337 0 -0.33352008560847068 0.031403325157871302 0 -0.30593189909811902 0.042762937956894571 0 -0.31987245869312919 0.051382156483239232 0 -0.3174649557664983 0.043203052252828493 0 -0.31114023034683091 0.033508826993526267 0 -0.33352008560847068 0.031403325157871302 0 -0.31114023034683091 0.033508826993526267 0 -0.3174649557664983 0.043203052252828493 0 -0.33352008560847068 0.031403325157871302 0 -0.31114023034683091 0.033508826993526267 0 -0.3174649557664983 0.043203052252828493 0 -0.31987245869312919 0.051382156483239232 0 -0.3174649557664983 0.043203052252828493 0 -0.33031482795368378 0.043864592089823337 0 -0.33031482795368378 0.043864592089823337 0 -0.33352008560847068 0.031403325157871302 0 -0.34984984544973041 0.052420303113841521 0 -0.32304353212762837 0.054877546363192378 0 -0.34820601831213061 0.05870274283245995 0 -0.33405811880393033 0.064865040449579803 0 -0.32304353212762837 0.054877546363192378 0 -0.34820601831213061 0.05870274283245995 0 -0.31987245869312919 0.051382156483239232 0 -0.34984984544973041 0.052420303113841521 0 -0.31987245869312919 0.051382156483239232 0 -0.33031482795368378 0.043864592089823337 0 -0.34984984544973041 0.052420303113841521 0 -0.32304353212762837 0.054877546363192378 0 -0.34820601831213061 0.05870274283245995 0 -0.34984984544973041 0.052420303113841521 0 -0.32304353212762837 0.054877546363192378 0 -0.31987245869312919 0.051382156483239232 0 -0.34984984544973041 0.052420303113841521 0 -0.31688985811285197 -0.003828862096149611 0 -0.32261607383840002 0.015629560667828689 0 -0.3389224051624164 0.0030747653955432021 0 -0.31114023034683091 0.033508826993526267 0 -0.33352008560847068 0.031403325157871302 0 -0.32261607383840002 0.015629560667828689 0 -0.33352008560847068 0.031403325157871302 0 -0.32261607383840002 0.015629560667828689 0 -0.34360902405394123 0.018647911152554559 0 -0.32261607383840002 0.015629560667828689 0 -0.34360902405394123 0.018647911152554559 0 -0.3389224051624164 0.0030747653955432021 0 -0.34360902405394123 0.018647911152554559 0 -0.3389224051624164 0.0030747653955432021 0 -0.36095495221198082 0.009978392887236235 0 -0.34077566798623649 -0.004008103421380433 0 -0.3389224051624164 0.0030747653955432021 0 -0.36095495221198082 0.009978392887236235 0 -0.36373484644771098 -0.00064591033814894068 0 -0.34077566798623649 -0.004008103421380433 0 -0.36095495221198082 0.009978392887236235 0 -0.3389224051624164 0.0030747653955432021 0 -0.36095495221198082 0.009978392887236235 0 -0.33352008560847068 0.031403325157871302 0 -0.35589994087011068 0.02929782332221675 0 -0.35589994087011068 0.02929782332221675 0 -0.36095495221198082 0.009978392887236235 0 -0.34360902405394123 0.018647911152554559 0 -0.35589994087011068 0.02929782332221675 0 -0.36095495221198082 0.009978392887236235 0 -0.33352008560847068 0.031403325157871302 0 -0.34360902405394123 0.018647911152554559 0 -0.35589994087011068 0.02929782332221675 0 -0.388763961769585 0.018692003822310399 0 -0.37083186985997763 0.027893024071709051 0 -0.36095495221198082 0.009978392887236235 0 -0.35589994087011068 0.02929782332221675 0 -0.37083186985997763 0.027893024071709051 0 -0.36095495221198082 0.009978392887236235 0 -0.35589994087011068 0.02929782332221675 0 -0.37083186985997763 0.027893024071709051 0 -0.388763961769585 0.018692003822310399 0 -0.36095495221198082 0.009978392887236235 0 -0.36373484644771098 -0.00064591033814894068 0 -0.36095495221198082 0.009978392887236235 0 -0.36373484644771098 -0.00064591033814894068 0 -0.37600041990474492 0.0078262854884788742 0 -0.36095495221198082 0.009978392887236235 0 -0.34820601831213061 0.05870274283245995 0 -0.34984984544973041 0.052420303113841521 0 -0.36623367028137582 0.061443303131482649 0 -0.34820601831213061 0.05870274283245995 0 -0.36623367028137582 0.061443303131482649 0 -0.34820601831213061 0.05870274283245995 0 -0.34984984544973041 0.052420303113841521 0 -0.35589994087011068 0.02929782332221675 0 -0.34984984544973041 0.052420303113841521 0 -0.3618667057087091 0.04321180930809293 0 -0.33352008560847068 0.031403325157871302 0 -0.35589994087011068 0.02929782332221675 0 -0.34984984544973041 0.052420303113841521 0 -0.35589994087011068 0.02929782332221675 0 -0.34984984544973041 0.052420303113841521 0 -0.35589994087011068 0.02929782332221675 0 -0.37083186985997763 0.027893024071709051 0 -0.3618667057087091 0.04321180930809293 0 -0.37083186985997763 0.027893024071709051 0 -0.3618667057087091 0.04321180930809293 0 -0.37322659657493412 0.041105448591380621 0 -0.3618667057087091 0.04321180930809293 0 -0.37322659657493412 0.041105448591380621 0 -0.37321774217440368 0.0532295565503016 0 -0.34984984544973041 0.052420303113841521 0 -0.36623367028137582 0.061443303131482649 0 -0.37321774217440368 0.0532295565503016 0 -0.34984984544973041 0.052420303113841521 0 -0.3618667057087091 0.04321180930809293 0 -0.37321774217440368 0.0532295565503016 0 -0.38426132225062121 0.06418386343050507 0 -0.36623367028137582 0.061443303131482649 0 -0.37321774217440368 0.0532295565503016 0 -0.34984984544973041 0.052420303113841521 0 -0.37321774217440368 0.0532295565503016 0 -0.36623367028137582 0.061443303131482649 0 -0.3740924733881304 0.070074034467767721 0 -0.35772575207130303 0.070457165918920373 0 -0.3740924733881304 0.070074034467767721 0 -0.35772575207130303 0.070457165918920373 0 -0.37087112025194829 0.082266300008257312 0 -0.38426132225062121 0.06418386343050507 0 -0.36623367028137582 0.061443303131482649 0 -0.3740924733881304 0.070074034467767721 0 -0.34820601831213061 0.05870274283245995 0 -0.36623367028137582 0.061443303131482649 0 -0.35772575207130303 0.070457165918920373 0 -0.35772575207130303 0.070457165918920373 0 -0.34412952826020538 0.074282424192356228 0 -0.3548289452390172 0.082729707991802875 0 -0.34820601831213061 0.05870274283245995 0 -0.35772575207130303 0.070457165918920373 0 -0.34412952826020538 0.074282424192356228 0 -0.34820601831213061 0.05870274283245995 0 -0.34412952826020538 0.074282424192356228 0 -0.3548289452390172 0.082729707991802875 0 -0.36136528740334639 0.096780544287227238 0 -0.34005303820828292 0.089862105552253227 0 -0.34412952826020538 0.074282424192356228 0 -0.3548289452390172 0.082729707991802875 0 -0.34005303820828292 0.089862105552253227 0 -0.3548289452390172 0.082729707991802875 0 -0.37087112025194829 0.082266300008257312 0 -0.36136528740334639 0.096780544287227238 0 -0.35772575207130303 0.070457165918920373 0 -0.3548289452390172 0.082729707991802875 0 -0.37087112025194829 0.082266300008257312 0 -0.38628343025521422 0.097594453867902595 0 -0.37087112025194829 0.082266300008257312 0 -0.36136528740334639 0.096780544287227238 0 -0.38628343025521422 0.097594453867902595 0 -0.36136528740334639 0.096780544287227238 0 -0.36466733534410412 0.12012446695210791 0 -0.38628343025521422 0.097594453867902595 0 -0.36136528740334639 0.096780544287227238 0 -0.33914133287603099 0.12565604170016259 0 -0.36466733534410412 0.12012446695210791 0 -0.34826494608517272 0.1092744345211029 0 -0.36136528740334639 0.096780544287227238 0 -0.33644714455147862 0.095966634706551868 0 -0.34005303820828292 0.089862105552253227 0 -0.36136528740334639 0.096780544287227238 0 -0.33644714455147862 0.095966634706551868 0 -0.36136528740334639 0.096780544287227238 0 -0.34826494608517272 0.1092744345211029 0 -0.33644714455147862 0.095966634706551868 0 -0.36136528740334639 0.096780544287227238 0 -0.36466733534410412 0.12012446695210791 0 -0.34826494608517272 0.1092744345211029 0 -0.34826494608517272 0.1092744345211029 0 -0.33644714455147862 0.095966634706551868 0 -0.33525588490348412 0.10911976172577401 0 -0.33525588490348412 0.10911976172577401 0 -0.32284262133770081 0.1143035070858858 0 -0.32651866312306838 0.10363565716102199 0 -0.33644714455147862 0.095966634706551868 0 -0.33525588490348412 0.10911976172577401 0 -0.32651866312306838 0.10363565716102199 0 -0.33914133287603099 0.12565604170016259 0 -0.34826494608517272 0.1092744345211029 0 -0.33525588490348412 0.10911976172577401 0 -0.33914133287603099 0.12565604170016259 0 -0.33525588490348412 0.10911976172577401 0 -0.32284262133770081 0.1143035070858858 0 -0.31742256803507268 0.13720785059140519 0 -0.30505676335876991 0.1175002608098905 0 -0.32284262133770081 0.1143035070858858 0 -0.31152900169961062 0.095152725125876497 0 -0.30505676335876991 0.1175002608098905 0 -0.32284262133770081 0.1143035070858858 0 -0.31152900169961062 0.095152725125876497 0 -0.32284262133770081 0.1143035070858858 0 -0.32651866312306838 0.10363565716102199 0 -0.31152900169961062 0.095152725125876497 0 -0.33644714455147862 0.095966634706551868 0 -0.31152900169961062 0.095152725125876497 0 -0.33644714455147862 0.095966634706551868 0 -0.32651866312306838 0.10363565716102199 0 -0.31152900169961062 0.095152725125876497 0 -0.32476875462079358 0.079557745269726532 0 -0.31563483571933121 0.07512205883592607 0 -0.31152900169961062 0.095152725125876497 0 -0.32476875462079358 0.079557745269726532 0 -0.32999528348829632 0.088038325038612475 0 -0.31152900169961062 0.095152725125876497 0 -0.33644714455147862 0.095966634706551868 0 -0.32999528348829632 0.088038325038612475 0 -0.31175093366558371 0.062264561513365048 0 -0.31563483571933121 0.07512205883592607 0 -0.32291083828810352 0.067137431593264477 0 -0.32476875462079358 0.079557745269726532 0 -0.31563483571933121 0.07512205883592607 0 -0.32291083828810352 0.067137431593264477 0 -0.32476875462079358 0.079557745269726532 0 -0.32291083828810352 0.067137431593264477 0 -0.33248044192740772 0.073292214648437604 0 -0.32476875462079358 0.079557745269726532 0 -0.33248044192740772 0.073292214648437604 0 -0.33492814083328543 0.080895668310844021 0 -0.32291083828810352 0.067137431593264477 0 -0.33248044192740772 0.073292214648437604 0 -0.33405811880393033 0.064865040449579803 0 -0.34820601831213061 0.05870274283245995 0 -0.34412952826020538 0.074282424192356228 0 -0.33405811880393033 0.064865040449579803 0 -0.34412952826020538 0.074282424192356228 0 -0.33248044192740772 0.073292214648437604 0 -0.33492814083328543 0.080895668310844021 0 -0.34412952826020538 0.074282424192356228 0 -0.33248044192740772 0.073292214648437604 0 -0.33405811880393033 0.064865040449579803 0 -0.34412952826020538 0.074282424192356228 0 -0.34005303820828292 0.089862105552253227 0 -0.33492814083328543 0.080895668310844021 0 -0.34412952826020538 0.074282424192356228 0 -0.34005303820828292 0.089862105552253227 0 -0.34005303820828292 0.089862105552253227 0 -0.32999528348829632 0.088038325038612475 0 -0.33492814083328543 0.080895668310844021 0 -0.33644714455147862 0.095966634706551868 0 -0.34005303820828292 0.089862105552253227 0 -0.32999528348829632 0.088038325038612475 0 -0.32476875462079358 0.079557745269726532 0 -0.32999528348829632 0.088038325038612475 0 -0.33492814083328543 0.080895668310844021 0 -0.40059210066135942 0.47861187748698258 0 -0.40369667178166768 0.5 0 -0.37620787980309761 0.5 0 -0.40059210066135942 0.47861187748698258 0 -0.37620787980309761 0.5 0 -0.37838733059780499 0.47089647310786659 0 -0.37838733059780499 0.47089647310786659 0 -0.39408073640414099 0.45574207902324487 0 -0.36730380585777139 0.44730229719289588 0 -0.39408073640414099 0.45574207902324487 0 -0.38678339568476883 0.43586044725082213 0 -0.36730380585777139 0.44730229719289588 0 -0.39408073640414099 0.45574207902324487 0 -0.36730380585777139 0.44730229719289588 0 -0.39408073640414099 0.45574207902324487 0 -0.40675183167516232 0.43895685801158651 0 -0.38678339568476883 0.43586044725082213 0 -0.40059210066135942 0.47861187748698258 0 -0.39408073640414099 0.45574207902324487 0 -0.42085766695051069 0.46418186085359392 0 -0.40059210066135942 0.47861187748698258 0 -0.37838733059780499 0.47089647310786659 0 -0.39408073640414099 0.45574207902324487 0 -0.39408073640414099 0.45574207902324487 0 -0.42085766695051069 0.46418186085359392 0 -0.42085766695051069 0.46418186085359392 0 -0.40675183167516232 0.43895685801158651 0 -0.42580297252172911 0.43753824447335349 0 -0.39408073640414099 0.45574207902324487 0 -0.42085766695051069 0.46418186085359392 0 -0.40675183167516232 0.43895685801158651 0 -0.42580297252172911 0.43753824447335349 0 -0.43734779961059972 0.45205926066396662 0 -0.43626202375548251 0.4363496853435529 0 -0.42085766695051069 0.46418186085359392 0 -0.42580297252172911 0.43753824447335349 0 -0.43734779961059972 0.45205926066396662 0 -0.42085766695051069 0.46418186085359392 0 -0.44763459749688028 0.47262164268394291 0 -0.42085766695051069 0.46418186085359392 0 -0.43734779961059972 0.45205926066396662 0 -0.44763459749688028 0.47262164268394291 0 -0.42085766695051069 0.46418186085359392 0 -0.42484069866279123 0.4841638249813297 0 -0.44763459749688028 0.47262164268394291 0 -0.40059210066135942 0.47861187748698258 0 -0.42085766695051069 0.46418186085359392 0 -0.42484069866279123 0.4841638249813297 0 -0.40059210066135942 0.47861187748698258 0 -0.40369667178166768 0.5 0 -0.42484069866279123 0.4841638249813297 0 -0.40369667178166768 0.5 0 -0.42484069866279123 0.4841638249813297 0 -0.43118546376023781 0.5 0 -0.42484069866279123 0.4841638249813297 0 -0.43118546376023781 0.5 0 -0.44507769132609137 0.48956756886345909 0 -0.43118546376023781 0.5 0 -0.44507769132609137 0.48956756886345909 0 -0.45867425573880799 0.5 0 -0.42484069866279123 0.4841638249813297 0 -0.44507769132609137 0.48956756886345909 0 -0.44763459749688028 0.47262164268394291 0 -0.47441152804324799 0.48106142451429779 0 -0.46176368927388289 0.46067835441727317 0 -0.44763459749688028 0.47262164268394291 0 -0.47441152804324799 0.48106142451429779 0 -0.46176368927388289 0.46067835441727317 0 -0.44763459749688028 0.47262164268394291 0 -0.47441152804324799 0.48106142451429779 0 -0.44507769132609137 0.48956756886345909 0 -0.44763459749688028 0.47262164268394291 0 -0.47441152804324799 0.48106142451429779 0 -0.44507769132609137 0.48956756886345909 0 -0.45867425573880799 0.5 0 -0.47441152804324799 0.48106142451429779 0 -0.45867425573880799 0.5 0 -0.47441152804324799 0.48106142451429779 0 -0.48616304771737823 0.49999999999999839 0 -0.47441152804324799 0.48106142451429779 0 -0.48616304771737823 0.49999999999999839 0 -0.47441152804324799 0.48106142451429779 0 -0.50000000000000622 0.48912661780868749 0 -0.5 0.46174832628781959 0 -0.47441152804324799 0.48106142451429779 0 -0.50000000000000622 0.48912661780868749 0 -0.47441152804324799 0.48106142451429779 0 -0.50000000000000622 0.48912661780868749 0 -0.48616304771737823 0.49999999999999839 0 -0.50000000000000622 0.48912661780868749 0 -0.5 0.5 0 -0.48616304771737823 0.49999999999999839 0 -0.48055842316006298 0.45509191619051742 0 -0.47590089885450548 0.43717627580100737 0 -0.5 0.43437003476695191 0 -0.5 0.46174832628781959 0 -0.48055842316006298 0.45509191619051742 0 -0.5 0.43437003476695191 0 -0.47441152804324799 0.48106142451429779 0 -0.5 0.46174832628781959 0 -0.48055842316006298 0.45509191619051742 0 -0.48055842316006298 0.45509191619051742 0 -0.46498678918587688 0.4484586187046109 0 -0.46176368927388289 0.46067835441727317 0 -0.47441152804324799 0.48106142451429779 0 -0.48055842316006298 0.45509191619051742 0 -0.46176368927388289 0.46067835441727317 0 -0.48055842316006298 0.45509191619051742 0 -0.46498678918587688 0.4484586187046109 0 -0.47590089885450548 0.43717627580100737 0 -0.45180179770901102 0.43998251683506268 0 -0.47590089885450548 0.43717627580100737 0 -0.46498678918587688 0.4484586187046109 0 -0.45180179770901102 0.43998251683506268 0 -0.47590089885450548 0.43717627580100737 0 -0.46498678918587688 0.4484586187046109 0 -0.4547892364879022 0.44943842935043798 0 -0.46176368927388289 0.46067835441727317 0 -0.46498678918587688 0.4484586187046109 0 -0.4547892364879022 0.44943842935043798 0 -0.45180179770901102 0.43998251683506268 0 -0.4547892364879022 0.44943842935043798 0 -0.45180179770901102 0.43998251683506268 0 -0.4547892364879022 0.44943842935043798 0 -0.46176368927388289 0.46067835441727317 0 -0.4547892364879022 0.44943842935043798 0 -0.46176368927388289 0.46067835441727317 0 -0.44902754198349137 0.45389745998528602 0 -0.44763459749688028 0.47262164268394291 0 -0.46176368927388289 0.46067835441727317 0 -0.44902754198349137 0.45389745998528602 0 -0.43734779961059972 0.45205926066396662 0 -0.44763459749688028 0.47262164268394291 0 -0.44902754198349137 0.45389745998528602 0 -0.43734779961059972 0.45205926066396662 0 -0.44424497826522841 0.446150940442815 0 -0.43626202375548251 0.4363496853435529 0 -0.4547892364879022 0.44943842935043798 0 -0.44911585050452052 0.44029528432024678 0 -0.45180179770901102 0.43998251683506268 0 -0.4547892364879022 0.44943842935043798 0 -0.44911585050452052 0.44029528432024678 0 -0.44911585050452052 0.44029528432024678 0 -0.45180179770901102 0.43998251683506268 0 -0.4547892364879022 0.44943842935043798 0 -0.44902754198349137 0.45389745998528602 0 -0.44911585050452052 0.44029528432024678 0 -0.44902754198349137 0.45389745998528602 0 -0.44911585050452052 0.44029528432024678 0 -0.44424497826522841 0.446150940442815 0 -0.43734779961059972 0.45205926066396662 0 -0.44902754198349137 0.45389745998528602 0 -0.44424497826522841 0.446150940442815 0 -0.44911585050452052 0.44029528432024678 0 -0.44424497826522841 0.446150940442815 0 -0.43626202375548251 0.4363496853435529 0 -0.45180179770901102 0.43998251683506268 0 -0.44350880132326548 0.41494474287354149 0 -0.46271664341028101 0.42250244734599868 0 -0.44911585050452052 0.44029528432024678 0 -0.45180179770901102 0.43998251683506268 0 -0.44350880132326548 0.41494474287354149 0 -0.44911585050452052 0.44029528432024678 0 -0.43648615662318391 0.4199414562566785 0 -0.43626202375548251 0.4363496853435529 0 -0.44911585050452052 0.44029528432024678 0 -0.44350880132326548 0.41494474287354149 0 -0.43648615662318391 0.4199414562566785 0 -0.44911585050452052 0.44029528432024678 0 -0.43648615662318391 0.4199414562566785 0 -0.45180179770901102 0.43998251683506268 0 -0.44350880132326548 0.41494474287354149 0 -0.46271664341028101 0.42250244734599868 0 -0.47445764364039789 0.40667239698316271 0 -0.45489335250244539 0.39738163447189562 0 -0.44350880132326548 0.41494474287354149 0 -0.46271664341028101 0.42250244734599868 0 -0.45489335250244539 0.39738163447189562 0 -0.45180179770901102 0.43998251683506268 0 -0.46271664341028101 0.42250244734599868 0 -0.47590089885450548 0.43717627580100737 0 -0.46271664341028101 0.42250244734599868 0 -0.47590089885450548 0.43717627580100737 0 -0.48610252160667178 0.4199037417456154 0 -0.46271664341028101 0.42250244734599868 0 -0.47445764364039789 0.40667239698316271 0 -0.48610252160667178 0.4199037417456154 0 -0.47445764364039789 0.40667239698316271 0 -0.48610252160667178 0.4199037417456154 0 -0.5 0.40455765863946203 0 -0.48610252160667178 0.4199037417456154 0 -0.5 0.43437003476695191 0 -0.5 0.40455765863946203 0 -0.47590089885450548 0.43717627580100737 0 -0.5 0.43437003476695191 0 -0.47590089885450548 0.43717627580100737 0 -0.48610252160667178 0.4199037417456154 0 -0.5 0.43437003476695191 0 -0.5 0.40455765863946203 0 -0.47814093137070962 0.38752827971014941 0 -0.5 0.37474528251197198 0 -0.47445764364039789 0.40667239698316271 0 -0.47814093137070962 0.38752827971014941 0 -0.45489335250244539 0.39738163447189562 0 -0.47445764364039789 0.40667239698316271 0 -0.5 0.40455765863946203 0 -0.47814093137070962 0.38752827971014941 0 -0.47814093137070962 0.38752827971014941 0 -0.47209811493985421 0.36821819869505229 0 -0.5 0.37474528251197198 0 -0.47814093137070962 0.38752827971014941 0 -0.46097952127509167 0.37861786806774772 0 -0.47209811493985421 0.36821819869505229 0 -0.47814093137070962 0.38752827971014941 0 -0.46097952127509167 0.37861786806774772 0 -0.45489335250244539 0.39738163447189562 0 -0.46097952127509167 0.37861786806774772 0 -0.45489335250244539 0.39738163447189562 0 -0.44571703740566582 0.37580073083122328 0 -0.44350880132326548 0.41494474287354149 0 -0.43521580493751982 0.38990696891202042 0 -0.44350880132326548 0.41494474287354149 0 -0.45489335250244539 0.39738163447189562 0 -0.43521580493751982 0.38990696891202042 0 -0.45489335250244539 0.39738163447189562 0 -0.44571703740566582 0.37580073083122328 0 -0.43521580493751982 0.38990696891202042 0 -0.43521580493751982 0.38990696891202042 0 -0.42692280855177411 0.36486919495049908 0 -0.43521580493751982 0.38990696891202042 0 -0.41122676886050852 0.37923380012954361 0 -0.42385646274184618 0.399587628193111 0 -0.43521580493751982 0.38990696891202042 0 -0.41122676886050852 0.37923380012954361 0 -0.42692280855177411 0.36486919495049908 0 -0.44571703740566582 0.37580073083122328 0 -0.43521580493751982 0.38990696891202042 0 -0.43056881235120198 0.3700798028553326 0 -0.41122676886050852 0.37923380012954361 0 -0.42385646274184618 0.399587628193111 0 -0.41122676886050852 0.37923380012954361 0 -0.42385646274184618 0.399587628193111 0 -0.40322766422218181 0.40076342572519291 0 -0.42385646274184618 0.399587628193111 0 -0.41994099544582247 0.41611252436937352 0 -0.40322766422218181 0.40076342572519291 0 -0.44350880132326548 0.41494474287354149 0 -0.43521580493751982 0.38990696891202042 0 -0.42385646274184618 0.399587628193111 0 -0.44350880132326548 0.41494474287354149 0 -0.42385646274184618 0.399587628193111 0 -0.43648615662318391 0.4199414562566785 0 -0.42385646274184618 0.399587628193111 0 -0.43648615662318391 0.4199414562566785 0 -0.42385646274184618 0.399587628193111 0 -0.43648615662318391 0.4199414562566785 0 -0.41994099544582247 0.41611252436937352 0 -0.42580297252172911 0.43753824447335349 0 -0.43648615662318391 0.4199414562566785 0 -0.43626202375548251 0.4363496853435529 0 -0.42580297252172911 0.43753824447335349 0 -0.43648615662318391 0.4199414562566785 0 -0.41994099544582247 0.41611252436937352 0 -0.40675183167516232 0.43895685801158651 0 -0.41994099544582247 0.41611252436937352 0 -0.40348211507145981 0.42029682055928319 0 -0.40675183167516232 0.43895685801158651 0 -0.42580297252172911 0.43753824447335349 0 -0.41994099544582247 0.41611252436937352 0 -0.41994099544582247 0.41611252436937352 0 -0.40348211507145981 0.42029682055928319 0 -0.40322766422218181 0.40076342572519291 0 -0.40348211507145981 0.42029682055928319 0 -0.38918160712203859 0.41411432709478829 0 -0.40322766422218181 0.40076342572519291 0 -0.40348211507145981 0.42029682055928319 0 -0.38678339568476883 0.43586044725082213 0 -0.38918160712203859 0.41411432709478829 0 -0.40675183167516232 0.43895685801158651 0 -0.40348211507145981 0.42029682055928319 0 -0.38678339568476883 0.43586044725082213 0 -0.38678339568476883 0.43586044725082213 0 -0.37450339908755731 0.42235077074787691 0 -0.36730380585777139 0.44730229719289588 0 -0.38678339568476883 0.43586044725082213 0 -0.38918160712203859 0.41411432709478829 0 -0.37450339908755731 0.42235077074787691 0 -0.38170299231734423 0.39739924430285811 0 -0.37450339908755731 0.42235077074787691 0 -0.38918160712203859 0.41411432709478829 0 -0.38170299231734423 0.39739924430285811 0 -0.37450339908755731 0.42235077074787691 0 -0.38170299231734423 0.39739924430285811 0 -0.39468013889139569 0.38349231248636578 0 -0.37478873927532252 0.38168920586728883 0 -0.39468013889139569 0.38349231248636578 0 -0.38714191213991078 0.36977235548835979 0 -0.37478873927532252 0.38168920586728883 0 -0.41122676886050852 0.37923380012954361 0 -0.39468013889139569 0.38349231248636578 0 -0.40322766422218181 0.40076342572519291 0 -0.38170299231734423 0.39739924430285811 0 -0.39468013889139569 0.38349231248636578 0 -0.40322766422218181 0.40076342572519291 0 -0.38918160712203859 0.41411432709478829 0 -0.38170299231734423 0.39739924430285811 0 -0.40322766422218181 0.40076342572519291 0 -0.3985970749791713 0.35887997206597572 0 -0.38516793102062069 0.33723776206933348 0 -0.3985970749791713 0.35887997206597572 0 -0.38516793102062069 0.33723776206933348 0 -0.40356983124600321 0.33651413058534863 0 -0.41122676886050852 0.37923380012954361 0 -0.3985970749791713 0.35887997206597572 0 -0.41122676886050852 0.37923380012954361 0 -0.39468013889139569 0.38349231248636578 0 -0.3985970749791713 0.35887997206597572 0 -0.39468013889139569 0.38349231248636578 0 -0.3985970749791713 0.35887997206597572 0 -0.38714191213991078 0.36977235548835979 0 -0.3985970749791713 0.35887997206597572 0 -0.38714191213991078 0.36977235548835979 0 -0.38714191213991078 0.36977235548835979 0 -0.36751896561308139 0.35463576371022038 0 -0.37478873927532252 0.38168920586728883 0 -0.38714191213991078 0.36977235548835979 0 -0.38338642517398308 0.35435313139665309 0 -0.36751896561308139 0.35463576371022038 0 -0.3985970749791713 0.35887997206597572 0 -0.38714191213991078 0.36977235548835979 0 -0.38338642517398308 0.35435313139665309 0 -0.3985970749791713 0.35887997206597572 0 -0.38338642517398308 0.35435313139665309 0 -0.38516793102062069 0.33723776206933348 0 -0.38338642517398308 0.35435313139665309 0 -0.38516793102062069 0.33723776206933348 0 -0.36751896561308139 0.35463576371022038 0 -0.39161447677982608 0.31972739957169632 0 -0.39333452525534951 0.30820328092677618 0 -0.37173878706207081 0.31559555207269091 0 -0.38516793102062069 0.33723776206933348 0 -0.39161447677982608 0.31972739957169632 0 -0.37173878706207081 0.31559555207269091 0 -0.38516793102062069 0.33723776206933348 0 -0.37173878706207081 0.31559555207269091 0 -0.38516793102062069 0.33723776206933348 0 -0.39161447677982608 0.31972739957169632 0 -0.40141304517947352 0.32535046790887101 0 -0.39161447677982608 0.31972739957169632 0 -0.40141304517947352 0.32535046790887101 0 -0.40170313858752832 0.31522420451553251 0 -0.39161447677982608 0.31972739957169632 0 -0.40170313858752832 0.31522420451553251 0 -0.39333452525534951 0.30820328092677618 0 -0.40141304517947352 0.32535046790887101 0 -0.40356983124600321 0.33651413058534863 0 -0.41262049555587799 0.32168841164114148 0 -0.40141304517947352 0.32535046790887101 0 -0.40170313858752832 0.31522420451553251 0 -0.41262049555587799 0.32168841164114148 0 -0.38516793102062069 0.33723776206933348 0 -0.40141304517947352 0.32535046790887101 0 -0.40356983124600321 0.33651413058534863 0 -0.41862981216602912 0.33983142098897762 0 -0.41262049555587799 0.32168841164114148 0 -0.42397936921043022 0.33474468173567079 0 -0.41862981216602912 0.33983142098897762 0 -0.41262049555587799 0.32168841164114148 0 -0.40356983124600321 0.33651413058534863 0 -0.41862981216602912 0.33983142098897762 0 -0.41262049555587799 0.32168841164114148 0 -0.41862981216602912 0.33983142098897762 0 -0.42397936921043022 0.33474468173567079 0 -0.40170313858752832 0.31522420451553251 0 -0.41262049555587799 0.32168841164114148 0 -0.40661117894572768 0.30354540229330518 0 -0.41262049555587799 0.32168841164114148 0 -0.40661117894572768 0.30354540229330518 0 -0.42063427327084241 0.31680699449000588 0 -0.41262049555587799 0.32168841164114148 0 -0.40661117894572768 0.30354540229330518 0 -0.42063427327084241 0.31680699449000588 0 -0.41262049555587799 0.32168841164114148 0 -0.42397936921043022 0.33474468173567079 0 -0.42063427327084241 0.31680699449000588 0 -0.43702840182094399 0.3223367335921723 0 -0.42397936921043022 0.33474468173567079 0 -0.42063427327084241 0.31680699449000588 0 -0.42397936921043022 0.33474468173567079 0 -0.42063427327084241 0.31680699449000588 0 -0.43702840182094399 0.3223367335921723 0 -0.43020259817132911 0.31044363795200908 0 -0.43702840182094399 0.3223367335921723 0 -0.44113312081994971 0.30780665837841731 0 -0.43020259817132911 0.31044363795200908 0 -0.41862981216602912 0.33983142098897762 0 -0.42397936921043022 0.33474468173567079 0 -0.42727409078081641 0.35241224229550172 0 -0.42397936921043022 0.33474468173567079 0 -0.43312119793181381 0.34267593062133211 0 -0.42727409078081641 0.35241224229550172 0 -0.42397936921043022 0.33474468173567079 0 -0.42727409078081641 0.35241224229550172 0 -0.43702840182094399 0.3223367335921723 0 -0.42397936921043022 0.33474468173567079 0 -0.43702840182094399 0.3223367335921723 0 -0.42397936921043022 0.33474468173567079 0 -0.43594161031020778 0.33427958947234498 0 -0.42397936921043022 0.33474468173567079 0 -0.43594161031020778 0.33427958947234498 0 -0.43312119793181381 0.34267593062133211 0 -0.43594161031020778 0.33427958947234498 0 -0.43312119793181381 0.34267593062133211 0 -0.44206911936803078 0.34216716589663299 0 -0.41862981216602912 0.33983142098897762 0 -0.42692280855177411 0.36486919495049908 0 -0.41862981216602912 0.33983142098897762 0 -0.42727409078081641 0.35241224229550172 0 -0.42692280855177411 0.36486919495049908 0 -0.43312119793181381 0.34267593062133211 0 -0.42727409078081641 0.35241224229550172 0 -0.43807146048692769 0.35126216057383058 0 -0.42727409078081641 0.35241224229550172 0 -0.43610505075956552 0.3602535630291393 0 -0.43807146048692769 0.35126216057383058 0 -0.3985970749791713 0.35887997206597572 0 -0.41862981216602912 0.33983142098897762 0 -0.3985970749791713 0.35887997206597572 0 -0.41862981216602912 0.33983142098897762 0 -0.42692280855177411 0.36486919495049908 0 -0.3985970749791713 0.35887997206597572 0 -0.40356983124600321 0.33651413058534863 0 -0.41862981216602912 0.33983142098897762 0 -0.41122676886050852 0.37923380012954361 0 -0.3985970749791713 0.35887997206597572 0 -0.42692280855177411 0.36486919495049908 0 -0.42727409078081641 0.35241224229550172 0 -0.43056881235120198 0.3700798028553326 0 -0.42727409078081641 0.35241224229550172 0 -0.43610505075956552 0.3602535630291393 0 -0.43056881235120198 0.3700798028553326 0 -0.43521580493751982 0.38990696891202042 0 -0.42692280855177411 0.36486919495049908 0 -0.43056881235120198 0.3700798028553326 0 -0.42727409078081641 0.35241224229550172 0 -0.42692280855177411 0.36486919495049908 0 -0.43056881235120198 0.3700798028553326 0 -0.43610505075956552 0.3602535630291393 0 -0.43056881235120198 0.3700798028553326 0 -0.43926126653380088 0.36695497369141139 0 -0.44571703740566582 0.37580073083122328 0 -0.4451597946567783 0.36034170056478998 0 -0.43926126653380088 0.36695497369141139 0 -0.44571703740566582 0.37580073083122328 0 -0.43056881235120198 0.3700798028553326 0 -0.43926126653380088 0.36695497369141139 0 -0.43610505075956552 0.3602535630291393 0 -0.4451597946567783 0.36034170056478998 0 -0.43926126653380088 0.36695497369141139 0 -0.44571703740566582 0.37580073083122328 0 -0.4451597946567783 0.36034170056478998 0 -0.45690015831196318 0.3653118659471537 0 -0.4451597946567783 0.36034170056478998 0 -0.45323704062492998 0.3549276388847864 0 -0.45690015831196318 0.3653118659471537 0 -0.43807146048692769 0.35126216057383058 0 -0.44669122388910598 0.35047550289927543 0 -0.44206911936803078 0.34216716589663299 0 -0.43312119793181381 0.34267593062133211 0 -0.43807146048692769 0.35126216057383058 0 -0.44206911936803078 0.34216716589663299 0 -0.4451597946567783 0.36034170056478998 0 -0.43807146048692769 0.35126216057383058 0 -0.44669122388910598 0.35047550289927543 0 -0.43610505075956552 0.3602535630291393 0 -0.4451597946567783 0.36034170056478998 0 -0.43807146048692769 0.35126216057383058 0 -0.4451597946567783 0.36034170056478998 0 -0.44669122388910598 0.35047550289927543 0 -0.45323704062492998 0.3549276388847864 0 -0.44669122388910598 0.35047550289927543 0 -0.45417749124377871 0.34507606606853358 0 -0.45323704062492998 0.3549276388847864 0 -0.44669122388910598 0.35047550289927543 0 -0.45417749124377871 0.34507606606853358 0 -0.44206911936803078 0.34216716589663299 0 -0.45417749124377871 0.34507606606853358 0 -0.45323704062492998 0.3549276388847864 0 -0.46288592849048149 0.35413166769027771 0 -0.45323704062492998 0.3549276388847864 0 -0.46288592849048149 0.35413166769027771 0 -0.45690015831196318 0.3653118659471537 0 -0.45417749124377871 0.34507606606853358 0 -0.46288592849048149 0.35413166769027771 0 -0.46650548091883082 0.34128582657487871 0 -0.46288592849048149 0.35413166769027771 0 -0.47462896999281923 0.35132800861196589 0 -0.46650548091883082 0.34128582657487871 0 -0.46097952127509167 0.37861786806774772 0 -0.44571703740566582 0.37580073083122328 0 -0.45690015831196318 0.3653118659471537 0 -0.46288592849048149 0.35413166769027771 0 -0.45690015831196318 0.3653118659471537 0 -0.47209811493985421 0.36821819869505229 0 -0.46097952127509167 0.37861786806774772 0 -0.45690015831196318 0.3653118659471537 0 -0.47209811493985421 0.36821819869505229 0 -0.46288592849048149 0.35413166769027771 0 -0.47209811493985421 0.36821819869505229 0 -0.47462896999281923 0.35132800861196589 0 -0.47209811493985421 0.36821819869505229 0 -0.47462896999281923 0.35132800861196589 0 -0.48489371608664772 0.35823412977265179 0 -0.47462896999281923 0.35132800861196589 0 -0.47805484908228912 0.33893517041070859 0 -0.46650548091883082 0.34128582657487871 0 -0.47462896999281923 0.35132800861196589 0 -0.4852339154482101 0.34627672031809259 0 -0.47805484908228912 0.33893517041070859 0 -0.47462896999281923 0.35132800861196589 0 -0.48489371608664772 0.35823412977265179 0 -0.4852339154482101 0.34627672031809259 0 -0.48489371608664772 0.35823412977265179 0 -0.5 0.34493290638448199 0 -0.5 0.37474528251197198 0 -0.48489371608664772 0.35823412977265179 0 -0.4852339154482101 0.34627672031809259 0 -0.5 0.34493290638448199 0 -0.47209811493985421 0.36821819869505229 0 -0.48489371608664772 0.35823412977265179 0 -0.5 0.37474528251197198 0 -0.49708826062087269 0.3308878360468655 0 -0.47970540079611002 0.31435502050394509 0 -0.5 0.31512053025699199 0 -0.49708826062087269 0.3308878360468655 0 -0.47970540079611002 0.31435502050394509 0 -0.49708826062087269 0.3308878360468655 0 -0.4828996699853525 0.3300060864301424 0 -0.47970540079611002 0.31435502050394509 0 -0.5 0.34493290638448199 0 -0.5 0.31512053025699199 0 -0.49708826062087269 0.3308878360468655 0 -0.5 0.34493290638448199 0 -0.49708826062087269 0.3308878360468655 0 -0.48859204207929441 0.33795338641065492 0 -0.4852339154482101 0.34627672031809259 0 -0.5 0.34493290638448199 0 -0.48859204207929441 0.33795338641065492 0 -0.49708826062087269 0.3308878360468655 0 -0.48859204207929441 0.33795338641065492 0 -0.4828996699853525 0.3300060864301424 0 -0.4828996699853525 0.3300060864301424 0 -0.47805484908228912 0.33893517041070859 0 -0.47105779734819608 0.32789901877853772 0 -0.48859204207929441 0.33795338641065492 0 -0.4828996699853525 0.3300060864301424 0 -0.47805484908228912 0.33893517041070859 0 -0.4852339154482101 0.34627672031809259 0 -0.48859204207929441 0.33795338641065492 0 -0.47805484908228912 0.33893517041070859 0 -0.47805484908228912 0.33893517041070859 0 -0.47105779734819608 0.32789901877853772 0 -0.46650548091883082 0.34128582657487871 0 -0.47105779734819608 0.32789901877853772 0 -0.47970540079611002 0.31435502050394509 0 -0.46310984631332691 0.31686387791373383 0 -0.4828996699853525 0.3300060864301424 0 -0.47105779734819608 0.32789901877853772 0 -0.47970540079611002 0.31435502050394509 0 -0.47105779734819608 0.32789901877853772 0 -0.46310984631332691 0.31686387791373383 0 -0.46283648456139448 0.32535892642037462 0 -0.46310984631332691 0.31686387791373383 0 -0.46283648456139448 0.32535892642037462 0 -0.45156788730620512 0.32194608134523761 0 -0.46283648456139448 0.32535892642037462 0 -0.45897091422479558 0.33236915390299221 0 -0.45156788730620512 0.32194608134523761 0 -0.46310984631332691 0.31686387791373383 0 -0.45540659050425347 0.31493578427177382 0 -0.45156788730620512 0.32194608134523761 0 -0.46310984631332691 0.31686387791373383 0 -0.45540659050425347 0.31493578427177382 0 -0.45867883018975319 0.31008720025806102 0 -0.47105779734819608 0.32789901877853772 0 -0.46283648456139448 0.32535892642037462 0 -0.45897091422479558 0.33236915390299221 0 -0.47105779734819608 0.32789901877853772 0 -0.46650548091883082 0.34128582657487871 0 -0.45897091422479558 0.33236915390299221 0 -0.45417749124377871 0.34507606606853358 0 -0.45897091422479558 0.33236915390299221 0 -0.44696928421450938 0.33244580925055872 0 -0.45417749124377871 0.34507606606853358 0 -0.46650548091883082 0.34128582657487871 0 -0.45897091422479558 0.33236915390299221 0 -0.45417749124377871 0.34507606606853358 0 -0.44696928421450938 0.33244580925055872 0 -0.44206911936803078 0.34216716589663299 0 -0.45897091422479558 0.33236915390299221 0 -0.44696928421450938 0.33244580925055872 0 -0.45156788730620512 0.32194608134523761 0 -0.43702840182094399 0.3223367335921723 0 -0.43594161031020778 0.33427958947234498 0 -0.44696928421450938 0.33244580925055872 0 -0.43594161031020778 0.33427958947234498 0 -0.44696928421450938 0.33244580925055872 0 -0.44206911936803078 0.34216716589663299 0 -0.45540659050425347 0.31493578427177382 0 -0.45156788730620512 0.32194608134523761 0 -0.4500774344314587 0.30992878544867453 0 -0.43702840182094399 0.3223367335921723 0 -0.45156788730620512 0.32194608134523761 0 -0.4500774344314587 0.30992878544867453 0 -0.43702840182094399 0.3223367335921723 0 -0.44696928421450938 0.33244580925055872 0 -0.45156788730620512 0.32194608134523761 0 -0.43702840182094399 0.3223367335921723 0 -0.44113312081994971 0.30780665837841731 0 -0.4500774344314587 0.30992878544867453 0 -0.43702840182094399 0.3223367335921723 0 -0.4500774344314587 0.30992878544867453 0 -0.44113312081994971 0.30780665837841731 0 -0.4500774344314587 0.30992878544867453 0 -0.43418656004200612 0.30027771010694021 0 -0.44456994706623132 0.29683102194278488 0 -0.44933856593774962 0.29428856939455139 0 -0.46306157279976368 0.30268445269671462 0 -0.4500774344314587 0.30992878544867453 0 -0.46306157279976368 0.30268445269671462 0 -0.43418656004200612 0.30027771010694021 0 -0.44456994706623132 0.29683102194278488 0 -0.46306157279976368 0.30268445269671462 0 -0.43418656004200612 0.30027771010694021 0 -0.46306157279976368 0.30268445269671462 0 -0.43418656004200612 0.30027771010694021 0 -0.44113312081994971 0.30780665837841731 0 -0.43418656004200612 0.30027771010694021 0 -0.44493968114658422 0.28128938941810422 0 -0.44933856593774962 0.29428856939455139 0 -0.46232254097134717 0.29782220496102468 0 -0.44493968114658422 0.28128938941810422 0 -0.43777095125517862 0.28972750297105998 0 -0.43362737617250319 0.27648273492738568 0 -0.44493968114658422 0.28128938941810422 0 -0.43777095125517862 0.28972750297105998 0 -0.44933856593774962 0.29428856939455139 0 -0.43777095125517862 0.28972750297105998 0 -0.44456994706623132 0.29683102194278488 0 -0.44933856593774962 0.29428856939455139 0 -0.43777095125517862 0.28972750297105998 0 -0.44456994706623132 0.29683102194278488 0 -0.43418656004200612 0.30027771010694021 0 -0.44493968114658422 0.28128938941810422 0 -0.45854011303415398 0.28439439603604311 0 -0.46232254097134717 0.29782220496102468 0 -0.44493968114658422 0.28128938941810422 0 -0.46232254097134717 0.29782220496102468 0 -0.45854011303415398 0.28439439603604311 0 -0.46541855227198109 0.28901742932561569 0 -0.46232254097134717 0.29782220496102468 0 -0.46541855227198109 0.28901742932561569 0 -0.46232254097134717 0.29782220496102468 0 -0.46949124543712101 0.29404455280943231 0 -0.45854011303415398 0.28439439603604311 0 -0.46541855227198109 0.28901742932561569 0 -0.46656243275697862 0.27435838371703769 0 -0.47970540079611002 0.31435502050394509 0 -0.46310984631332691 0.31686387791373383 0 -0.46306157279976368 0.30268445269671462 0 -0.47970540079611002 0.31435502050394509 0 -0.46232254097134717 0.29782220496102468 0 -0.46306157279976368 0.30268445269671462 0 -0.45540659050425347 0.31493578427177382 0 -0.4500774344314587 0.30992878544867453 0 -0.45867883018975319 0.31008720025806102 0 -0.4500774344314587 0.30992878544867453 0 -0.45867883018975319 0.31008720025806102 0 -0.46306157279976368 0.30268445269671462 0 -0.44933856593774962 0.29428856939455139 0 -0.46232254097134717 0.29782220496102468 0 -0.46306157279976368 0.30268445269671462 0 -0.46310984631332691 0.31686387791373383 0 -0.45867883018975319 0.31008720025806102 0 -0.46306157279976368 0.30268445269671462 0 -0.47970540079611002 0.31435502050394509 0 -0.46232254097134717 0.29782220496102468 0 -0.47970540079611002 0.31435502050394509 0 -0.46232254097134717 0.29782220496102468 0 -0.47572129958386972 0.30113925400219432 0 -0.47970540079611002 0.31435502050394509 0 -0.47572129958386972 0.30113925400219432 0 -0.48872497868782577 0.30219945370042722 0 -0.47572129958386972 0.30113925400219432 0 -0.48460445520898232 0.29043472860597341 0 -0.48872497868782577 0.30219945370042722 0 -0.46232254097134717 0.29782220496102468 0 -0.47572129958386972 0.30113925400219432 0 -0.46949124543712101 0.29404455280943231 0 -0.46541855227198109 0.28901742932561569 0 -0.46949124543712101 0.29404455280943231 0 -0.47450258892128611 0.28819932294889478 0 -0.47572129958386972 0.30113925400219432 0 -0.46949124543712101 0.29404455280943231 0 -0.47450258892128611 0.28819932294889478 0 -0.46541855227198109 0.28901742932561569 0 -0.47450258892128611 0.28819932294889478 0 -0.46656243275697862 0.27435838371703769 0 -0.47450258892128611 0.28819932294889478 0 -0.48460445520898232 0.29043472860597341 0 -0.48407340885192979 0.27532745824884841 0 -0.47572129958386972 0.30113925400219432 0 -0.47450258892128611 0.28819932294889478 0 -0.48460445520898232 0.29043472860597341 0 -0.5 0.28530815412950228 0 -0.48460445520898232 0.29043472860597341 0 -0.48872497868782577 0.30219945370042722 0 -0.5 0.28530815412950228 0 -0.48460445520898232 0.29043472860597341 0 -0.48407340885192979 0.27532745824884841 0 -0.5 0.31512053025699199 0 -0.5 0.28530815412950228 0 -0.48872497868782577 0.30219945370042722 0 -0.5 0.31512053025699199 0 -0.47970540079611002 0.31435502050394509 0 -0.48872497868782577 0.30219945370042722 0 -0.50000000000000111 0.25549577800201262 0 -0.47165578298512661 0.25029209389457358 0 -0.50000000000000111 0.25549577800201262 0 -0.48407340885192979 0.27532745824884841 0 -0.47165578298512661 0.25029209389457358 0 -0.5 0.28530815412950228 0 -0.50000000000000111 0.25549577800201262 0 -0.48407340885192979 0.27532745824884841 0 -0.47450258892128611 0.28819932294889478 0 -0.48407340885192979 0.27532745824884841 0 -0.46656243275697862 0.27435838371703769 0 -0.48407340885192979 0.27532745824884841 0 -0.47165578298512661 0.25029209389457358 0 -0.46656243275697862 0.27435838371703769 0 -0.44331156597025201 0.24508840978713481 0 -0.47165578298512661 0.25029209389457358 0 -0.45726276466134502 0.2604738710997283 0 -0.47165578298512661 0.25029209389457358 0 -0.45726276466134502 0.2604738710997283 0 -0.46656243275697862 0.27435838371703769 0 -0.45726276466134502 0.2604738710997283 0 -0.46656243275697862 0.27435838371703769 0 -0.45443002037528363 0.27250806291257612 0 -0.45854011303415398 0.28439439603604311 0 -0.46656243275697862 0.27435838371703769 0 -0.45443002037528363 0.27250806291257612 0 -0.44493968114658422 0.28128938941810422 0 -0.45443002037528363 0.27250806291257612 0 -0.44529894736042258 0.26308493340715688 0 -0.44493968114658422 0.28128938941810422 0 -0.44529894736042258 0.26308493340715688 0 -0.42755682132182138 0.26475657387518381 0 -0.44493968114658422 0.28128938941810422 0 -0.45854011303415398 0.28439439603604311 0 -0.45443002037528363 0.27250806291257612 0 -0.44331156597025201 0.24508840978713481 0 -0.44529894736042258 0.26308493340715688 0 -0.43496045959765711 0.25517361776031672 0 -0.44331156597025201 0.24508840978713481 0 -0.45726276466134502 0.2604738710997283 0 -0.44529894736042258 0.26308493340715688 0 -0.45726276466134502 0.2604738710997283 0 -0.45443002037528363 0.27250806291257612 0 -0.44529894736042258 0.26308493340715688 0 -0.44529894736042258 0.26308493340715688 0 -0.43496045959765711 0.25517361776031672 0 -0.42755682132182138 0.26475657387518381 0 -0.43496045959765711 0.25517361776031672 0 -0.42755682132182138 0.26475657387518381 0 -0.41946165209625769 0.2557915731152311 0 -0.42688256286909892 0.24626093374958469 0 -0.43496045959765711 0.25517361776031672 0 -0.41946165209625769 0.2557915731152311 0 -0.42755682132182138 0.26475657387518381 0 -0.41946165209625769 0.2557915731152311 0 -0.41083197207650779 0.26424329638171351 0 -0.40770799354114862 0.2474913254542897 0 -0.41083197207650779 0.26424329638171351 0 -0.40770799354114862 0.2474913254542897 0 -0.41946165209625769 0.2557915731152311 0 -0.41083197207650779 0.26424329638171351 0 -0.41083197207650779 0.26424329638171351 0 -0.4203898776308298 0.27684665592085689 0 -0.43362737617250319 0.27648273492738568 0 -0.41083197207650779 0.26424329638171351 0 -0.41333792150220389 0.27768115821390571 0 -0.4022828146017623 0.26569921050629242 0 -0.41333792150220389 0.27768115821390571 0 -0.4022828146017623 0.26569921050629242 0 -0.41083197207650779 0.26424329638171351 0 -0.41333792150220389 0.27768115821390571 0 -0.41083197207650779 0.26424329638171351 0 -0.41333792150220389 0.27768115821390571 0 -0.4203898776308298 0.27684665592085689 0 -0.41333792150220389 0.27768115821390571 0 -0.4203898776308298 0.27684665592085689 0 -0.423762240772105 0.28897943416042288 0 -0.41083197207650779 0.26424329638171351 0 -0.43362737617250319 0.27648273492738568 0 -0.42755682132182138 0.26475657387518381 0 -0.41083197207650779 0.26424329638171351 0 -0.43362737617250319 0.27648273492738568 0 -0.4203898776308298 0.27684665592085689 0 -0.43362737617250319 0.27648273492738568 0 -0.423762240772105 0.28897943416042288 0 -0.44493968114658422 0.28128938941810422 0 -0.42755682132182138 0.26475657387518381 0 -0.43362737617250319 0.27648273492738568 0 -0.44493968114658422 0.28128938941810422 0 -0.42755682132182138 0.26475657387518381 0 -0.423762240772105 0.28897943416042288 0 -0.43418656004200612 0.30027771010694021 0 -0.41728917733125442 0.29886930724434091 0 -0.43777095125517862 0.28972750297105998 0 -0.43362737617250319 0.27648273492738568 0 -0.423762240772105 0.28897943416042288 0 -0.43777095125517862 0.28972750297105998 0 -0.423762240772105 0.28897943416042288 0 -0.43418656004200612 0.30027771010694021 0 -0.423762240772105 0.28897943416042288 0 -0.43418656004200612 0.30027771010694021 0 -0.43418656004200612 0.30027771010694021 0 -0.41728917733125442 0.29886930724434091 0 -0.42063427327084241 0.31680699449000588 0 -0.43020259817132911 0.31044363795200908 0 -0.41728917733125442 0.29886930724434091 0 -0.43020259817132911 0.31044363795200908 0 -0.43418656004200612 0.30027771010694021 0 -0.41728917733125442 0.29886930724434091 0 -0.44113312081994971 0.30780665837841731 0 -0.43020259817132911 0.31044363795200908 0 -0.43418656004200612 0.30027771010694021 0 -0.42063427327084241 0.31680699449000588 0 -0.41728917733125442 0.29886930724434091 0 -0.40661117894572768 0.30354540229330518 0 -0.42063427327084241 0.31680699449000588 0 -0.41728917733125442 0.29886930724434091 0 -0.41333792150220389 0.27768115821390571 0 -0.423762240772105 0.28897943416042288 0 -0.41728917733125442 0.29886930724434091 0 -0.41333792150220389 0.27768115821390571 0 -0.41728917733125442 0.29886930724434091 0 -0.39953661119633033 0.28034093584277581 0 -0.41333792150220389 0.27768115821390571 0 -0.41728917733125442 0.29886930724434091 0 -0.41333792150220389 0.27768115821390571 0 -0.423762240772105 0.28897943416042288 0 -0.38779941021738629 0.29641132466019687 0 -0.3854783917962582 0.27661438594014459 0 -0.39953661119633033 0.28034093584277581 0 -0.41728917733125442 0.29886930724434091 0 -0.38779941021738629 0.29641132466019687 0 -0.39953661119633033 0.28034093584277581 0 -0.41728917733125442 0.29886930724434091 0 -0.38779941021738629 0.29641132466019687 0 -0.40661117894572768 0.30354540229330518 0 -0.39333452525534951 0.30820328092677618 0 -0.38779941021738629 0.29641132466019687 0 -0.41728917733125442 0.29886930724434091 0 -0.40661117894572768 0.30354540229330518 0 -0.38779941021738629 0.29641132466019687 0 -0.40170313858752832 0.31522420451553251 0 -0.40661117894572768 0.30354540229330518 0 -0.39333452525534951 0.30820328092677618 0 -0.39333452525534951 0.30820328092677618 0 -0.38779941021738629 0.29641132466019687 0 -0.37173878706207081 0.31559555207269091 0 -0.38779941021738629 0.29641132466019687 0 -0.3854783917962582 0.27661438594014459 0 -0.37256470499111433 0.28366262806163689 0 -0.3854783917962582 0.27661438594014459 0 -0.37197363093053393 0.27158599871266259 0 -0.37256470499111433 0.28366262806163689 0 -0.3854783917962582 0.27661438594014459 0 -0.38142091919676319 0.26739766899051071 0 -0.39103195172911681 0.26677022849177429 0 -0.38142091919676319 0.26739766899051071 0 -0.37558133138564898 0.26301992020649151 0 -0.37197363093053393 0.27158599871266259 0 -0.3854783917962582 0.27661438594014459 0 -0.38142091919676319 0.26739766899051071 0 -0.37197363093053393 0.27158599871266259 0 -0.37558133138564898 0.26301992020649151 0 -0.38303929014225818 0.25899781160148039 0 -0.37329283887254922 0.25674915234024109 0 -0.38142091919676319 0.26739766899051071 0 -0.37558133138564898 0.26301992020649151 0 -0.38303929014225818 0.25899781160148039 0 -0.38262932617685658 0.24910057068750771 0 -0.38303929014225818 0.25899781160148039 0 -0.37329283887254922 0.25674915234024109 0 -0.38262932617685658 0.24910057068750771 0 -0.38303929014225818 0.25899781160148039 0 -0.39122770770132098 0.2537172627986789 0 -0.38262932617685658 0.24910057068750771 0 -0.39122770770132098 0.2537172627986789 0 -0.38262932617685658 0.24910057068750771 0 -0.38801897292272802 0.25023951331412447 0 -0.39122770770132098 0.2537172627986789 0 -0.38801897292272802 0.25023951331412447 0 -0.39122770770132098 0.2537172627986789 0 -0.38303929014225818 0.25899781160148039 0 -0.39122770770132098 0.2537172627986789 0 -0.39103195172911681 0.26677022849177429 0 -0.38142091919676319 0.26739766899051071 0 -0.38303929014225818 0.25899781160148039 0 -0.39103195172911681 0.26677022849177429 0 -0.40770799354114862 0.2474913254542897 0 -0.38801897292272802 0.25023951331412447 0 -0.39122770770132098 0.2537172627986789 0 -0.40770799354114862 0.2474913254542897 0 -0.41083197207650779 0.26424329638171351 0 -0.39122770770132098 0.2537172627986789 0 -0.39122770770132098 0.2537172627986789 0 -0.4022828146017623 0.26569921050629242 0 -0.39103195172911681 0.26677022849177429 0 -0.39122770770132098 0.2537172627986789 0 -0.4022828146017623 0.26569921050629242 0 -0.41083197207650779 0.26424329638171351 0 -0.39122770770132098 0.2537172627986789 0 -0.4022828146017623 0.26569921050629242 0 -0.41083197207650779 0.26424329638171351 0 -0.39122770770132098 0.2537172627986789 0 -0.41333792150220389 0.27768115821390571 0 -0.4022828146017623 0.26569921050629242 0 -0.39953661119633033 0.28034093584277581 0 -0.3854783917962582 0.27661438594014459 0 -0.39953661119633033 0.28034093584277581 0 -0.39103195172911681 0.26677022849177429 0 -0.4022828146017623 0.26569921050629242 0 -0.39953661119633033 0.28034093584277581 0 -0.39103195172911681 0.26677022849177429 0 -0.34456672490757417 0.27346023756626048 0 -0.34920772654121401 0.26746753535819662 0 -0.34462058268492302 0.25653493811952821 0 -0.35536308613643658 0.27129230959689721 0 -0.35566433196416181 0.26583896784865868 0 -0.34920772654121401 0.26746753535819662 0 -0.35566433196416181 0.26583896784865868 0 -0.36181234999874368 0.26439411751967978 0 -0.3604035772751194 0.27067861997142578 0 -0.35536308613643658 0.27129230959689721 0 -0.35566433196416181 0.26583896784865868 0 -0.3604035772751194 0.27067861997142578 0 -0.35536308613643658 0.27129230959689721 0 -0.35883416355539322 0.27613699172565132 0 -0.3604035772751194 0.27067861997142578 0 -0.35536308613643658 0.27129230959689721 0 -0.35883416355539322 0.27613699172565132 0 -0.35452389741547308 0.27580406117724549 0 -0.35883416355539322 0.27613699172565132 0 -0.35521932075676249 0.28037371315613352 0 -0.35452389741547308 0.27580406117724549 0 -0.35883416355539322 0.27613699172565132 0 -0.35521932075676249 0.28037371315613352 0 -0.3596907757832174 0.28148011466751299 0 -0.35521932075676249 0.28037371315613352 0 -0.35452389741547308 0.27580406117724549 0 -0.34887919910236898 0.27969577580776939 0 -0.35536308613643658 0.27129230959689721 0 -0.35452389741547308 0.27580406117724549 0 -0.34998660183341729 0.27355866704934129 0 -0.34998660183341729 0.27355866704934129 0 -0.34887919910236898 0.27969577580776939 0 -0.34456672490757417 0.27346023756626048 0 -0.34887919910236898 0.27969577580776939 0 -0.34456672490757417 0.27346023756626048 0 -0.34213127052979192 0.28189283635936369 0 -0.35452389741547308 0.27580406117724549 0 -0.34998660183341729 0.27355866704934129 0 -0.34887919910236898 0.27969577580776939 0 -0.35536308613643658 0.27129230959689721 0 -0.34998660183341729 0.27355866704934129 0 -0.34920772654121401 0.26746753535819662 0 -0.34998660183341729 0.27355866704934129 0 -0.34456672490757417 0.27346023756626048 0 -0.34920772654121401 0.26746753535819662 0 -0.34920772654121401 0.26746753535819662 0 -0.34462058268492302 0.25653493811952821 0 -0.35198110991118592 0.26112934915200547 0 -0.35014097212956308 0.25118527989977613 0 -0.35816631442152902 0.2551378164824526 0 -0.36638514915320991 0.25014292529364179 0 -0.35014097212956308 0.25118527989977613 0 -0.36638514915320991 0.25014292529364179 0 -0.34462058268492302 0.25653493811952821 0 -0.35311812518028141 0.25609432187477232 0 -0.35198110991118592 0.26112934915200547 0 -0.34462058268492302 0.25653493811952821 0 -0.35014097212956308 0.25118527989977613 0 -0.35311812518028141 0.25609432187477232 0 -0.35014097212956308 0.25118527989977613 0 -0.35311812518028141 0.25609432187477232 0 -0.35816631442152902 0.2551378164824526 0 -0.35311812518028141 0.25609432187477232 0 -0.35816631442152902 0.2551378164824526 0 -0.35706855079177141 0.25992322358224562 0 -0.35566433196416181 0.26583896784865868 0 -0.34920772654121401 0.26746753535819662 0 -0.35198110991118592 0.26112934915200547 0 -0.35566433196416181 0.26583896784865868 0 -0.35198110991118592 0.26112934915200547 0 -0.35706855079177141 0.25992322358224562 0 -0.35311812518028141 0.25609432187477232 0 -0.35198110991118592 0.26112934915200547 0 -0.35706855079177141 0.25992322358224562 0 -0.35566433196416181 0.26583896784865868 0 -0.35706855079177141 0.25992322358224562 0 -0.36181234999874368 0.26439411751967978 0 -0.38262932617685658 0.24910057068750771 0 -0.36638514915320991 0.25014292529364179 0 -0.37329283887254922 0.25674915234024109 0 -0.35706855079177141 0.25992322358224562 0 -0.36181234999874368 0.26439411751967978 0 -0.36411877485281952 0.25834333176182711 0 -0.36181234999874368 0.26439411751967978 0 -0.36411877485281952 0.25834333176182711 0 -0.36840011766549058 0.26325659300695348 0 -0.35816631442152902 0.2551378164824526 0 -0.36411877485281952 0.25834333176182711 0 -0.36638514915320991 0.25014292529364179 0 -0.35816631442152902 0.2551378164824526 0 -0.35706855079177141 0.25992322358224562 0 -0.36411877485281952 0.25834333176182711 0 -0.36411877485281952 0.25834333176182711 0 -0.36638514915320991 0.25014292529364179 0 -0.37329283887254922 0.25674915234024109 0 -0.36411877485281952 0.25834333176182711 0 -0.37329283887254922 0.25674915234024109 0 -0.36840011766549058 0.26325659300695348 0 -0.37558133138564898 0.26301992020649151 0 -0.37329283887254922 0.25674915234024109 0 -0.36840011766549058 0.26325659300695348 0 -0.36840011766549058 0.26325659300695348 0 -0.37197363093053393 0.27158599871266259 0 -0.36547254652203331 0.26930676100652851 0 -0.37558133138564898 0.26301992020649151 0 -0.36840011766549058 0.26325659300695348 0 -0.37197363093053393 0.27158599871266259 0 -0.37197363093053393 0.27158599871266259 0 -0.36547254652203331 0.26930676100652851 0 -0.36477305674027888 0.27661847582192101 0 -0.36181234999874368 0.26439411751967978 0 -0.36840011766549058 0.26325659300695348 0 -0.36547254652203331 0.26930676100652851 0 -0.36547254652203331 0.26930676100652851 0 -0.3604035772751194 0.27067861997142578 0 -0.36477305674027888 0.27661847582192101 0 -0.36181234999874368 0.26439411751967978 0 -0.36547254652203331 0.26930676100652851 0 -0.3604035772751194 0.27067861997142578 0 -0.36477305674027888 0.27661847582192101 0 -0.3596907757832174 0.28148011466751299 0 -0.36355741997877411 0.28469836641732038 0 -0.35883416355539322 0.27613699172565132 0 -0.36477305674027888 0.27661847582192101 0 -0.3596907757832174 0.28148011466751299 0 -0.35883416355539322 0.27613699172565132 0 -0.3604035772751194 0.27067861997142578 0 -0.36477305674027888 0.27661847582192101 0 -0.37197363093053393 0.27158599871266259 0 -0.36477305674027888 0.27661847582192101 0 -0.37256470499111433 0.28366262806163689 0 -0.38779941021738629 0.29641132466019687 0 -0.37256470499111433 0.28366262806163689 0 -0.35830964310351843 0.29395334207604978 0 -0.38779941021738629 0.29641132466019687 0 -0.35830964310351843 0.29395334207604978 0 -0.36477305674027888 0.27661847582192101 0 -0.37256470499111433 0.28366262806163689 0 -0.36355741997877411 0.28469836641732038 0 -0.37256470499111433 0.28366262806163689 0 -0.36355741997877411 0.28469836641732038 0 -0.35830964310351843 0.29395334207604978 0 -0.36355741997877411 0.28469836641732038 0 -0.3584685673627076 0.28679759294366042 0 -0.35830964310351843 0.29395334207604978 0 -0.3596907757832174 0.28148011466751299 0 -0.36355741997877411 0.28469836641732038 0 -0.3584685673627076 0.28679759294366042 0 -0.35830964310351843 0.29395334207604978 0 -0.37173878706207081 0.31559555207269091 0 -0.35141732351942989 0.31171054102606571 0 -0.35830964310351843 0.29395334207604978 0 -0.37173878706207081 0.31559555207269091 0 -0.38779941021738629 0.29641132466019687 0 -0.35830964310351843 0.29395334207604978 0 -0.37173878706207081 0.31559555207269091 0 -0.35141732351942989 0.31171054102606571 0 -0.35830964310351843 0.29395334207604978 0 -0.33581194080188592 0.29207815058243869 0 -0.35701458234187738 0.29186624128627298 0 -0.34730156501416948 0.2856119604202485 0 -0.33581194080188592 0.29207815058243869 0 -0.35701458234187738 0.29186624128627298 0 -0.35830964310351843 0.29395334207604978 0 -0.33581194080188592 0.29207815058243869 0 -0.35830964310351843 0.29395334207604978 0 -0.33581194080188592 0.29207815058243869 0 -0.35376276821086161 0.28465744205760041 0 -0.35701458234187738 0.29186624128627298 0 -0.34730156501416948 0.2856119604202485 0 -0.35521932075676249 0.28037371315613352 0 -0.35376276821086161 0.28465744205760041 0 -0.35678535802838729 0.28332721570622682 0 -0.35521932075676249 0.28037371315613352 0 -0.34887919910236898 0.27969577580776939 0 -0.35376276821086161 0.28465744205760041 0 -0.3596907757832174 0.28148011466751299 0 -0.35678535802838729 0.28332721570622682 0 -0.3584685673627076 0.28679759294366042 0 -0.35376276821086161 0.28465744205760041 0 -0.35678535802838729 0.28332721570622682 0 -0.3584685673627076 0.28679759294366042 0 -0.35521932075676249 0.28037371315613352 0 -0.3596907757832174 0.28148011466751299 0 -0.35678535802838729 0.28332721570622682 0 -0.35376276821086161 0.28465744205760041 0 -0.3584685673627076 0.28679759294366042 0 -0.35701458234187738 0.29186624128627298 0 -0.3584685673627076 0.28679759294366042 0 -0.35701458234187738 0.29186624128627298 0 -0.35830964310351843 0.29395334207604978 0 -0.35701458234187738 0.29186624128627298 0 -0.35830964310351843 0.29395334207604978 0 -0.34887919910236898 0.27969577580776939 0 -0.35376276821086161 0.28465744205760041 0 -0.34730156501416948 0.2856119604202485 0 -0.34887919910236898 0.27969577580776939 0 -0.34730156501416948 0.2856119604202485 0 -0.34213127052979192 0.28189283635936369 0 -0.34213127052979192 0.28189283635936369 0 -0.33581194080188592 0.29207815058243869 0 -0.33417377642064833 0.27876801828666958 0 -0.34730156501416948 0.2856119604202485 0 -0.34213127052979192 0.28189283635936369 0 -0.33581194080188592 0.29207815058243869 0 -0.35141732351942989 0.31171054102606571 0 -0.33581194080188592 0.29207815058243869 0 -0.33243180499776348 0.31315212131940362 0 -0.33581194080188592 0.29207815058243869 0 -0.31331423850025392 0.29020295908882299 0 -0.31151508458518418 0.30845115823521951 0 -0.33581194080188592 0.29207815058243869 0 -0.31151508458518418 0.30845115823521951 0 -0.33243180499776348 0.31315212131940362 0 -0.33581194080188592 0.29207815058243869 0 -0.31331423850025392 0.29020295908882299 0 -0.33417377642064833 0.27876801828666958 0 -0.33581194080188592 0.29207815058243869 0 -0.31331423850025392 0.29020295908882299 0 -0.31331423850025392 0.29020295908882299 0 -0.32088285188706461 0.26919512359144199 0 -0.30499556613982948 0.26916164627915562 0 -0.31331423850025392 0.29020295908882299 0 -0.32088285188706461 0.26919512359144199 0 -0.33417377642064833 0.27876801828666958 0 -0.34462058268492302 0.25653493811952821 0 -0.33417377642064833 0.27876801828666958 0 -0.33159875824405471 0.26546088680078161 0 -0.34456672490757417 0.27346023756626048 0 -0.34462058268492302 0.25653493811952821 0 -0.33417377642064833 0.27876801828666958 0 -0.34462058268492302 0.25653493811952821 0 -0.33417377642064833 0.27876801828666958 0 -0.32088285188706461 0.26919512359144199 0 -0.33417377642064833 0.27876801828666958 0 -0.33159875824405471 0.26546088680078161 0 -0.34456672490757417 0.27346023756626048 0 -0.34213127052979192 0.28189283635936369 0 -0.33417377642064833 0.27876801828666958 0 -0.34462058268492302 0.25653493811952821 0 -0.33159875824405471 0.26546088680078161 0 -0.32671782198358301 0.25734546720548668 0 -0.34053134287490211 0.2456296914052418 0 -0.34462058268492302 0.25653493811952821 0 -0.32671782198358301 0.25734546720548668 0 -0.34053134287490211 0.2456296914052418 0 -0.32671782198358301 0.25734546720548668 0 -0.32088285188706461 0.26919512359144199 0 -0.31332832454887088 0.25244391761365692 0 -0.30499556613982948 0.26916164627915562 0 -0.32088285188706461 0.26919512359144199 0 -0.31332832454887088 0.25244391761365692 0 -0.32671782198358301 0.25734546720548668 0 -0.32416282176871142 0.2403316617817311 0 -0.31332832454887088 0.25244391761365692 0 -0.32671782198358301 0.25734546720548668 0 -0.32088285188706461 0.26919512359144199 0 -0.33159875824405471 0.26546088680078161 0 -0.32671782198358301 0.25734546720548668 0 -0.29589392737197351 0.249512538125438 0 -0.31332832454887088 0.25244391761365692 0 -0.30499556613982948 0.26916164627915562 0 -0.30499556613982948 0.26916164627915562 0 -0.28210638063448179 0.26798255711351499 0 -0.29081653619862191 0.28832776759520728 0 -0.29589392737197351 0.249512538125438 0 -0.28210638063448179 0.26798255711351499 0 -0.29589392737197351 0.249512538125438 0 -0.30499556613982948 0.26916164627915562 0 -0.28210638063448179 0.26798255711351499 0 -0.29589392737197351 0.249512538125438 0 -0.27316976485792488 0.24444195486591161 0 -0.28210638063448179 0.26798255711351499 0 -0.27316976485792488 0.24444195486591161 0 -0.28210638063448179 0.26798255711351499 0 -0.25758647592664707 0.2638813985755446 0 -0.28210638063448179 0.26798255711351499 0 -0.26831883389698991 0.2864525761015918 0 -0.28210638063448179 0.26798255711351499 0 -0.26831883389698991 0.2864525761015918 0 -0.29081653619862191 0.28832776759520728 0 -0.28210638063448179 0.26798255711351499 0 -0.25758647592664707 0.2638813985755446 0 -0.26831883389698991 0.2864525761015918 0 -0.25758647592664707 0.2638813985755446 0 -0.26831883389698991 0.2864525761015918 0 -0.24127526784236469 0.28419848524632291 0 -0.25338091248938688 0.30646365546864041 0 -0.26699717125876909 0.29785791909853349 0 -0.25956205549439493 0.32363160875278918 0 -0.25338091248938688 0.30646365546864041 0 -0.26831883389698991 0.2864525761015918 0 -0.26699717125876909 0.29785791909853349 0 -0.26831883389698991 0.2864525761015918 0 -0.24127526784236469 0.28419848524632291 0 -0.25338091248938688 0.30646365546864041 0 -0.26831883389698991 0.2864525761015918 0 -0.25338091248938688 0.30646365546864041 0 -0.26831883389698991 0.2864525761015918 0 -0.24127526784236469 0.28419848524632291 0 -0.26831883389698991 0.2864525761015918 0 -0.29081653619862191 0.28832776759520728 0 -0.26831883389698991 0.2864525761015918 0 -0.27889834588953688 0.29487761965777859 0 -0.26699717125876909 0.29785791909853349 0 -0.26831883389698991 0.2864525761015918 0 -0.27889834588953688 0.29487761965777859 0 -0.29081653619862191 0.28832776759520728 0 -0.26699717125876909 0.29785791909853349 0 -0.2768994994275838 0.32506088323382809 0 -0.26699717125876909 0.29785791909853349 0 -0.28443651164913952 0.30691349876390489 0 -0.2768994994275838 0.32506088323382809 0 -0.27889834588953688 0.29487761965777859 0 -0.26699717125876909 0.29785791909853349 0 -0.28443651164913952 0.30691349876390489 0 -0.28443651164913952 0.30691349876390489 0 -0.29081653619862191 0.28832776759520728 0 -0.31151508458518418 0.30845115823521951 0 -0.27889834588953688 0.29487761965777859 0 -0.28443651164913952 0.30691349876390489 0 -0.29081653619862191 0.28832776759520728 0 -0.31331423850025392 0.29020295908882299 0 -0.29081653619862191 0.28832776759520728 0 -0.31151508458518418 0.30845115823521951 0 -0.31331423850025392 0.29020295908882299 0 -0.30499556613982948 0.26916164627915562 0 -0.29081653619862191 0.28832776759520728 0 -0.31331423850025392 0.29020295908882299 0 -0.29081653619862191 0.28832776759520728 0 -0.28443651164913952 0.30691349876390489 0 -0.31151508458518418 0.30845115823521951 0 -0.29814725568391037 0.32100244810371159 0 -0.29814725568391037 0.32100244810371159 0 -0.30073908498630042 0.33505942590343879 0 -0.31855243813660472 0.32633772411498763 0 -0.31151508458518418 0.30845115823521951 0 -0.29814725568391037 0.32100244810371159 0 -0.31855243813660472 0.32633772411498763 0 -0.30073908498630042 0.33505942590343879 0 -0.30964010743850851 0.34611000497996308 0 -0.31855243813660472 0.32633772411498763 0 -0.30073908498630042 0.33505942590343879 0 -0.29693787143884992 0.34687745219566157 0 -0.30964010743850851 0.34611000497996308 0 -0.2768994994275838 0.32506088323382809 0 -0.28680182759639927 0.35226384736912247 0 -0.29814725568391037 0.32100244810371159 0 -0.28728222349579607 0.33970777133494362 0 -0.2768994994275838 0.32506088323382809 0 -0.28728222349579607 0.33970777133494362 0 -0.2768994994275838 0.32506088323382809 0 -0.28680182759639927 0.35226384736912247 0 -0.29814725568391037 0.32100244810371159 0 -0.30073908498630042 0.33505942590343879 0 -0.28728222349579607 0.33970777133494362 0 -0.30073908498630042 0.33505942590343879 0 -0.28728222349579607 0.33970777133494362 0 -0.29693787143884992 0.34687745219566157 0 -0.28443651164913952 0.30691349876390489 0 -0.29814725568391037 0.32100244810371159 0 -0.2768994994275838 0.32506088323382809 0 -0.26699717125876909 0.29785791909853349 0 -0.2768994994275838 0.32506088323382809 0 -0.25956205549439493 0.32363160875278918 0 -0.2768994994275838 0.32506088323382809 0 -0.26960421982280469 0.34264163011881987 0 -0.28680182759639927 0.35226384736912247 0 -0.2768994994275838 0.32506088323382809 0 -0.26960421982280469 0.34264163011881987 0 -0.25956205549439493 0.32363160875278918 0 -0.25474707007556158 0.33891952561205912 0 -0.25956205549439493 0.32363160875278918 0 -0.23844299108178371 0.32647473483568867 0 -0.26960421982280469 0.34264163011881987 0 -0.25474707007556158 0.33891952561205912 0 -0.25956205549439493 0.32363160875278918 0 -0.25338091248938688 0.30646365546864041 0 -0.25956205549439493 0.32363160875278918 0 -0.23844299108178371 0.32647473483568867 0 -0.25312128223145541 0.37178480457244328 0 -0.25646036989131921 0.35522813450423879 0 -0.241039142730791 0.35789964845884059 0 -0.25312128223145541 0.37178480457244328 0 -0.25646036989131921 0.35522813450423879 0 -0.26593737287792829 0.36909786340005751 0 -0.25646036989131921 0.35522813450423879 0 -0.26888482431336153 0.35625341071649302 0 -0.26593737287792829 0.36909786340005751 0 -0.25312128223145541 0.37178480457244328 0 -0.26593737287792829 0.36909786340005751 0 -0.26772816376317332 0.38276642968986718 0 -0.26960421982280469 0.34264163011881987 0 -0.25474707007556158 0.33891952561205912 0 -0.25646036989131921 0.35522813450423879 0 -0.25474707007556158 0.33891952561205912 0 -0.25646036989131921 0.35522813450423879 0 -0.24061465764034129 0.34408284438474962 0 -0.26960421982280469 0.34264163011881987 0 -0.25646036989131921 0.35522813450423879 0 -0.26888482431336153 0.35625341071649302 0 -0.26888482431336153 0.35625341071649302 0 -0.27598317331024791 0.36671359822994309 0 -0.28680182759639927 0.35226384736912247 0 -0.26960421982280469 0.34264163011881987 0 -0.26888482431336153 0.35625341071649302 0 -0.28680182759639927 0.35226384736912247 0 -0.26888482431336153 0.35625341071649302 0 -0.27598317331024791 0.36671359822994309 0 -0.26593737287792829 0.36909786340005751 0 -0.27598317331024791 0.36671359822994309 0 -0.26593737287792829 0.36909786340005751 0 -0.27645750376548073 0.3771064621371254 0 -0.28680182759639927 0.35226384736912247 0 -0.2957169443318981 0.37675481521863491 0 -0.28680182759639927 0.35226384736912247 0 -0.28566612080577319 0.38194774107757051 0 -0.28680182759639927 0.35226384736912247 0 -0.2957169443318981 0.37675481521863491 0 -0.28566612080577319 0.38194774107757051 0 -0.28680182759639927 0.35226384736912247 0 -0.300226113677246 0.36124621139083968 0 -0.2957169443318981 0.37675481521863491 0 -0.27598317331024791 0.36671359822994309 0 -0.28680182759639927 0.35226384736912247 0 -0.28566612080577319 0.38194774107757051 0 -0.28728222349579607 0.33970777133494362 0 -0.28680182759639927 0.35226384736912247 0 -0.28680182759639927 0.35226384736912247 0 -0.29693787143884992 0.34687745219566157 0 -0.300226113677246 0.36124621139083968 0 -0.28728222349579607 0.33970777133494362 0 -0.28680182759639927 0.35226384736912247 0 -0.29693787143884992 0.34687745219566157 0 -0.30964010743850851 0.34611000497996308 0 -0.300226113677246 0.36124621139083968 0 -0.31735104197155228 0.36558400171365202 0 -0.29693787143884992 0.34687745219566157 0 -0.30964010743850851 0.34611000497996308 0 -0.300226113677246 0.36124621139083968 0 -0.300226113677246 0.36124621139083968 0 -0.31735104197155228 0.36558400171365202 0 -0.2957169443318981 0.37675481521863491 0 -0.31735104197155228 0.36558400171365202 0 -0.31057368862527451 0.37899142455712281 0 -0.2957169443318981 0.37675481521863491 0 -0.31735104197155228 0.36558400171365202 0 -0.2957169443318981 0.37675481521863491 0 -0.31735104197155228 0.36558400171365202 0 -0.33898425960112899 0.35441148425523239 0 -0.31735104197155228 0.36558400171365202 0 -0.3388009782161836 0.37233303031711817 0 -0.33898425960112899 0.35441148425523239 0 -0.30964010743850851 0.34611000497996308 0 -0.31735104197155228 0.36558400171365202 0 -0.32475244719092239 0.34452256960447558 0 -0.31735104197155228 0.36558400171365202 0 -0.33898425960112899 0.35441148425523239 0 -0.32475244719092239 0.34452256960447558 0 -0.30964010743850851 0.34611000497996308 0 -0.32475244719092239 0.34452256960447558 0 -0.31855243813660472 0.32633772411498763 0 -0.32475244719092239 0.34452256960447558 0 -0.31855243813660472 0.32633772411498763 0 -0.33923438880681772 0.33016963295854279 0 -0.31151508458518418 0.30845115823521951 0 -0.31855243813660472 0.32633772411498763 0 -0.33243180499776348 0.31315212131940362 0 -0.31855243813660472 0.32633772411498763 0 -0.33243180499776348 0.31315212131940362 0 -0.33923438880681772 0.33016963295854279 0 -0.35141732351942989 0.31171054102606571 0 -0.33243180499776348 0.31315212131940362 0 -0.33923438880681772 0.33016963295854279 0 -0.33898425960112899 0.35441148425523239 0 -0.32475244719092239 0.34452256960447558 0 -0.33923438880681772 0.33016963295854279 0 -0.33898425960112899 0.35441148425523239 0 -0.33923438880681772 0.33016963295854279 0 -0.35919789509571598 0.33382457653353281 0 -0.35141732351942989 0.31171054102606571 0 -0.33923438880681772 0.33016963295854279 0 -0.35919789509571598 0.33382457653353281 0 -0.35141732351942989 0.31171054102606571 0 -0.35919789509571598 0.33382457653353281 0 -0.37173878706207081 0.31559555207269091 0 -0.38516793102062069 0.33723776206933348 0 -0.35919789509571598 0.33382457653353281 0 -0.37173878706207081 0.31559555207269091 0 -0.38516793102062069 0.33723776206933348 0 -0.35919789509571598 0.33382457653353281 0 -0.36751896561308139 0.35463576371022038 0 -0.36751896561308139 0.35463576371022038 0 -0.35671859859363769 0.3767467351495925 0 -0.37478873927532252 0.38168920586728883 0 -0.33898425960112899 0.35441148425523239 0 -0.36751896561308139 0.35463576371022038 0 -0.35671859859363769 0.3767467351495925 0 -0.3388009782161836 0.37233303031711817 0 -0.33898425960112899 0.35441148425523239 0 -0.35671859859363769 0.3767467351495925 0 -0.33898425960112899 0.35441148425523239 0 -0.35919789509571598 0.33382457653353281 0 -0.36751896561308139 0.35463576371022038 0 -0.36297548253082268 0.39371230007235952 0 -0.35278055475445458 0.40713508952947658 0 -0.33175347930235283 0.38918387241225011 0 -0.35671859859363769 0.3767467351495925 0 -0.36297548253082268 0.39371230007235952 0 -0.33175347930235283 0.38918387241225011 0 -0.35671859859363769 0.3767467351495925 0 -0.37478873927532252 0.38168920586728883 0 -0.36297548253082268 0.39371230007235952 0 -0.38170299231734423 0.39739924430285811 0 -0.37478873927532252 0.38168920586728883 0 -0.36297548253082268 0.39371230007235952 0 -0.38170299231734423 0.39739924430285811 0 -0.36297548253082268 0.39371230007235952 0 -0.37450339908755731 0.42235077074787691 0 -0.36297548253082268 0.39371230007235952 0 -0.37450339908755731 0.42235077074787691 0 -0.35278055475445458 0.40713508952947658 0 -0.37450339908755731 0.42235077074787691 0 -0.35278055475445458 0.40713508952947658 0 -0.35575871175463841 0.42028783493115007 0 -0.37450339908755731 0.42235077074787691 0 -0.36730380585777139 0.44730229719289588 0 -0.37450339908755731 0.42235077074787691 0 -0.36521315780775399 0.42990436135952942 0 -0.35575871175463841 0.42028783493115007 0 -0.37450339908755731 0.42235077074787691 0 -0.36521315780775399 0.42990436135952942 0 -0.3660165678866692 0.44185090254978582 0 -0.37450339908755731 0.42235077074787691 0 -0.3660165678866692 0.44185090254978582 0 -0.36730380585777139 0.44730229719289588 0 -0.36521315780775399 0.42990436135952942 0 -0.35810378017606459 0.42743810306490659 0 -0.35575871175463841 0.42028783493115007 0 -0.36521315780775399 0.42990436135952942 0 -0.35911638325946538 0.43135709440084169 0 -0.35810378017606459 0.42743810306490659 0 -0.36521315780775399 0.42990436135952942 0 -0.35931269657059378 0.43445016006391679 0 -0.3660165678866692 0.44185090254978582 0 -0.35312044665707509 0.43466493077961449 0 -0.35931269657059378 0.43445016006391679 0 -0.3660165678866692 0.44185090254978582 0 -0.36521315780775399 0.42990436135952942 0 -0.35931269657059378 0.43445016006391679 0 -0.35911638325946538 0.43135709440084169 0 -0.35312044665707509 0.43466493077961449 0 -0.35575871175463841 0.42028783493115007 0 -0.3310811759536455 0.422384216734637 0 -0.35312044665707509 0.43466493077961449 0 -0.35931269657059378 0.43445016006391679 0 -0.35911638325946538 0.43135709440084169 0 -0.35312044665707509 0.43466493077961449 0 -0.35911638325946538 0.43135709440084169 0 -0.35810378017606459 0.42743810306490659 0 -0.35312044665707509 0.43466493077961449 0 -0.35810378017606459 0.42743810306490659 0 -0.35575871175463841 0.42028783493115007 0 -0.35278055475445458 0.40713508952947658 0 -0.35575871175463841 0.42028783493115007 0 -0.3310811759536455 0.422384216734637 0 -0.35278055475445458 0.40713508952947658 0 -0.3310811759536455 0.422384216734637 0 -0.32595162778821218 0.40567336474826959 0 -0.35312044665707509 0.43466493077961449 0 -0.3310811759536455 0.422384216734637 0 -0.32922404838729369 0.43975842702051021 0 -0.35312044665707509 0.43466493077961449 0 -0.3310811759536455 0.422384216734637 0 -0.3310811759536455 0.422384216734637 0 -0.3119532156062072 0.43081776769941632 0 -0.32922404838729369 0.43975842702051021 0 -0.3310811759536455 0.422384216734637 0 -0.30904190525021591 0.41010350268965939 0 -0.3119532156062072 0.43081776769941632 0 -0.3310811759536455 0.422384216734637 0 -0.32595162778821218 0.40567336474826959 0 -0.30904190525021591 0.41010350268965939 0 -0.3310811759536455 0.422384216734637 0 -0.30904190525021591 0.41010350268965939 0 -0.32595162778821218 0.40567336474826959 0 -0.30432449577470411 0.39265301649951079 0 -0.30904190525021591 0.41010350268965939 0 -0.32595162778821218 0.40567336474826959 0 -0.33175347930235283 0.38918387241225011 0 -0.30432449577470411 0.39265301649951079 0 -0.35278055475445458 0.40713508952947658 0 -0.32595162778821218 0.40567336474826959 0 -0.33175347930235283 0.38918387241225011 0 -0.31735104197155228 0.36558400171365202 0 -0.3388009782161836 0.37233303031711817 0 -0.33175347930235283 0.38918387241225011 0 -0.3388009782161836 0.37233303031711817 0 -0.35671859859363769 0.3767467351495925 0 -0.33175347930235283 0.38918387241225011 0 -0.31735104197155228 0.36558400171365202 0 -0.33175347930235283 0.38918387241225011 0 -0.31057368862527451 0.37899142455712281 0 -0.33175347930235283 0.38918387241225011 0 -0.31057368862527451 0.37899142455712281 0 -0.30432449577470411 0.39265301649951079 0 -0.30432449577470411 0.39265301649951079 0 -0.2957169443318981 0.37675481521863491 0 -0.29352002484042589 0.38825270296236258 0 -0.31057368862527451 0.37899142455712281 0 -0.30432449577470411 0.39265301649951079 0 -0.2957169443318981 0.37675481521863491 0 -0.30432449577470411 0.39265301649951079 0 -0.28700263454678637 0.39782278864468201 0 -0.30904190525021591 0.41010350268965939 0 -0.28700263454678637 0.39782278864468201 0 -0.30904190525021591 0.41010350268965939 0 -0.28700263454678637 0.39782278864468201 0 -0.28566612080577319 0.38194774107757051 0 -0.28470750916138882 0.40700291059353988 0 -0.28566612080577319 0.38194774107757051 0 -0.27823530561430992 0.39480732208844438 0 -0.28470750916138882 0.40700291059353988 0 -0.30432449577470411 0.39265301649951079 0 -0.28700263454678637 0.39782278864468201 0 -0.29352002484042589 0.38825270296236258 0 -0.28700263454678637 0.39782278864468201 0 -0.28470750916138882 0.40700291059353988 0 -0.30904190525021591 0.41010350268965939 0 -0.28566612080577319 0.38194774107757051 0 -0.28470750916138882 0.40700291059353988 0 -0.28700263454678637 0.39782278864468201 0 -0.29352002484042589 0.38825270296236258 0 -0.28566612080577319 0.38194774107757051 0 -0.2957169443318981 0.37675481521863491 0 -0.28566612080577319 0.38194774107757051 0 -0.2957169443318981 0.37675481521863491 0 -0.29352002484042589 0.38825270296236258 0 -0.28566612080577319 0.38194774107757051 0 -0.27598317331024791 0.36671359822994309 0 -0.28566612080577319 0.38194774107757051 0 -0.27645750376548073 0.3771064621371254 0 -0.28566612080577319 0.38194774107757051 0 -0.2643803918037439 0.39294079735622689 0 -0.28566612080577319 0.38194774107757051 0 -0.27645750376548073 0.3771064621371254 0 -0.26772816376317332 0.38276642968986718 0 -0.28566612080577319 0.38194774107757051 0 -0.26772816376317332 0.38276642968986718 0 -0.2643803918037439 0.39294079735622689 0 -0.28566612080577319 0.38194774107757051 0 -0.27823530561430992 0.39480732208844438 0 -0.2643803918037439 0.39294079735622689 0 -0.26593737287792829 0.36909786340005751 0 -0.27645750376548073 0.3771064621371254 0 -0.26772816376317332 0.38276642968986718 0 -0.27823530561430992 0.39480732208844438 0 -0.27736185737332258 0.40283513881721761 0 -0.28470750916138882 0.40700291059353988 0 -0.27823530561430992 0.39480732208844438 0 -0.27736185737332258 0.40283513881721761 0 -0.27076593980297609 0.39944983778766741 0 -0.27736185737332258 0.40283513881721761 0 -0.27055725992908192 0.4057347094846987 0 -0.27076593980297609 0.39944983778766741 0 -0.27055725992908192 0.4057347094846987 0 -0.27076593980297609 0.39944983778766741 0 -0.26329488429442238 0.40093122119174962 0 -0.27823530561430992 0.39480732208844438 0 -0.27076593980297609 0.39944983778766741 0 -0.2643803918037439 0.39294079735622689 0 -0.27076593980297609 0.39944983778766741 0 -0.2643803918037439 0.39294079735622689 0 -0.26329488429442238 0.40093122119174962 0 -0.2643803918037439 0.39294079735622689 0 -0.26329488429442238 0.40093122119174962 0 -0.25539120860364062 0.39491143968511128 0 -0.27055725992908192 0.4057347094846987 0 -0.26329488429442238 0.40093122119174962 0 -0.26274258787665228 0.41010996782981413 0 -0.26329488429442238 0.40093122119174962 0 -0.25451008460704327 0.40456677896455162 0 -0.26274258787665228 0.41010996782981413 0 -0.25451008460704327 0.40456677896455162 0 -0.25539120860364062 0.39491143968511128 0 -0.2454187063172775 0.40112155437524821 0 -0.26329488429442238 0.40093122119174962 0 -0.25451008460704327 0.40456677896455162 0 -0.25539120860364062 0.39491143968511128 0 -0.26772816376317332 0.38276642968986718 0 -0.24688149284123401 0.38896101214766021 0 -0.26772816376317332 0.38276642968986718 0 -0.25539120860364062 0.39491143968511128 0 -0.24688149284123401 0.38896101214766021 0 -0.25312128223145541 0.37178480457244328 0 -0.26772816376317332 0.38276642968986718 0 -0.24688149284123401 0.38896101214766021 0 -0.26772816376317332 0.38276642968986718 0 -0.2643803918037439 0.39294079735622689 0 -0.25539120860364062 0.39491143968511128 0 -0.25403631530162057 0.43243169108781832 0 -0.26079948647657392 0.42091303525218021 0 -0.26796829898215191 0.42976502981460862 0 -0.25403631530162057 0.43243169108781832 0 -0.26796829898215191 0.42976502981460862 0 -0.26526083744267431 0.44417407470095688 0 -0.25403631530162057 0.43243169108781832 0 -0.26079948647657392 0.42091303525218021 0 -0.2486543677354095 0.42074152845041968 0 -0.25447032304768408 0.41314830927361529 0 -0.26079948647657392 0.42091303525218021 0 -0.2486543677354095 0.42074152845041968 0 -0.25451008460704327 0.40456677896455162 0 -0.25447032304768408 0.41314830927361529 0 -0.26274258787665228 0.41010996782981413 0 -0.25451008460704327 0.40456677896455162 0 -0.25447032304768408 0.41314830927361529 0 -0.2449945204330097 0.41010395808071443 0 -0.25447032304768408 0.41314830927361529 0 -0.26274258787665228 0.41010996782981413 0 -0.26079948647657392 0.42091303525218021 0 -0.26274258787665228 0.41010996782981413 0 -0.26079948647657392 0.42091303525218021 0 -0.27282348890510799 0.41536575281208932 0 -0.27282348890510799 0.41536575281208932 0 -0.28374889751700427 0.43205808010950919 0 -0.28470750916138882 0.40700291059353988 0 -0.27055725992908192 0.4057347094846987 0 -0.26274258787665228 0.41010996782981413 0 -0.27282348890510799 0.41536575281208932 0 -0.27736185737332258 0.40283513881721761 0 -0.27282348890510799 0.41536575281208932 0 -0.28470750916138882 0.40700291059353988 0 -0.27736185737332258 0.40283513881721761 0 -0.27055725992908192 0.4057347094846987 0 -0.27282348890510799 0.41536575281208932 0 -0.27282348890510799 0.41536575281208932 0 -0.26796829898215191 0.42976502981460862 0 -0.28374889751700427 0.43205808010950919 0 -0.26796829898215191 0.42976502981460862 0 -0.28374889751700427 0.43205808010950919 0 -0.26526083744267431 0.44417407470095688 0 -0.26079948647657392 0.42091303525218021 0 -0.27282348890510799 0.41536575281208932 0 -0.26796829898215191 0.42976502981460862 0 -0.28374889751700427 0.43205808010950919 0 -0.28470750916138882 0.40700291059353988 0 -0.28374889751700427 0.43205808010950919 0 -0.28470750916138882 0.40700291059353988 0 -0.29751827356996269 0.42007063248932353 0 -0.29751827356996269 0.42007063248932353 0 -0.30904190525021591 0.41010350268965939 0 -0.3119532156062072 0.43081776769941632 0 -0.28470750916138882 0.40700291059353988 0 -0.29751827356996269 0.42007063248932353 0 -0.30904190525021591 0.41010350268965939 0 -0.28374889751700427 0.43205808010950919 0 -0.29751827356996269 0.42007063248932353 0 -0.3119532156062072 0.43081776769941632 0 -0.28374889751700427 0.43205808010950919 0 -0.3119532156062072 0.43081776769941632 0 -0.31050752858297742 0.45541228310926729 0 -0.31050752858297742 0.45541228310926729 0 -0.28279028587261967 0.4571132496254785 0 -0.29405696711547569 0.4738505062638334 0 -0.28374889751700427 0.43205808010950919 0 -0.28279028587261967 0.4571132496254785 0 -0.28374889751700427 0.43205808010950919 0 -0.31050752858297742 0.45541228310926729 0 -0.28279028587261967 0.4571132496254785 0 -0.28374889751700427 0.43205808010950919 0 -0.28279028587261967 0.4571132496254785 0 -0.26526083744267431 0.44417407470095688 0 -0.28279028587261967 0.4571132496254785 0 -0.26342496349609951 0.4607983715385302 0 -0.26526083744267431 0.44417407470095688 0 -0.28279028587261967 0.4571132496254785 0 -0.26342496349609951 0.4607983715385302 0 -0.27430104449147469 0.47614557846821209 0 -0.26342496349609951 0.4607983715385302 0 -0.25381995339722718 0.47609427898681239 0 -0.24095269627650159 0.45046467591119088 0 -0.26342496349609951 0.4607983715385302 0 -0.26526083744267431 0.44417407470095688 0 -0.24095269627650159 0.45046467591119088 0 -0.25403631530162057 0.43243169108781832 0 -0.26526083744267431 0.44417407470095688 0 -0.24095269627650159 0.45046467591119088 0 -0.25381995339722718 0.47609427898681239 0 -0.26625271188881727 0.5 0 -0.24505829213240191 0.48999556900025693 0 -0.26342496349609951 0.4607983715385302 0 -0.25381995339722718 0.47609427898681239 0 -0.27430104449147469 0.47614557846821209 0 -0.25381995339722718 0.47609427898681239 0 -0.27430104449147469 0.47614557846821209 0 -0.26625271188881727 0.5 0 -0.27430104449147469 0.47614557846821209 0 -0.26625271188881727 0.5 0 -0.28544441188576009 0.48752006702315093 0 -0.26625271188881727 0.5 0 -0.28544441188576009 0.48752006702315093 0 -0.29374150386738729 0.5 0 -0.28544441188576009 0.48752006702315093 0 -0.29374150386738729 0.5 0 -0.29886983206564588 0.48760425038370908 0 -0.28279028587261967 0.4571132496254785 0 -0.27430104449147469 0.47614557846821209 0 -0.29405696711547569 0.4738505062638334 0 -0.27430104449147469 0.47614557846821209 0 -0.28544441188576009 0.48752006702315093 0 -0.29405696711547569 0.4738505062638334 0 -0.28544441188576009 0.48752006702315093 0 -0.29405696711547569 0.4738505062638334 0 -0.29886983206564588 0.48760425038370908 0 -0.31050752858297742 0.45541228310926729 0 -0.29405696711547569 0.4738505062638334 0 -0.30924718109674892 0.4787595169291925 0 -0.29405696711547569 0.4738505062638334 0 -0.30924718109674892 0.4787595169291925 0 -0.29886983206564588 0.48760425038370908 0 -0.30924718109674892 0.4787595169291925 0 -0.31026803186043428 0.49630814218410979 0 -0.29886983206564588 0.48760425038370908 0 -0.29374150386738729 0.5 0 -0.31026803186043428 0.49630814218410979 0 -0.3212302958459573 0.5 0 -0.29374150386738729 0.5 0 -0.31026803186043428 0.49630814218410979 0 -0.29886983206564588 0.48760425038370908 0 -0.3212302958459573 0.5 0 -0.33476650862485391 0.48894110201344487 0 -0.32455217012598131 0.47576040504927802 0 -0.31026803186043428 0.49630814218410979 0 -0.3212302958459573 0.5 0 -0.32455217012598131 0.47576040504927802 0 -0.31026803186043428 0.49630814218410979 0 -0.32455217012598131 0.47576040504927802 0 -0.3212302958459573 0.5 0 -0.33476650862485391 0.48894110201344487 0 -0.34871908782452737 0.5 0 -0.33476650862485391 0.48894110201344487 0 -0.34219818706038979 0.47324033932605902 0 -0.34871908782452737 0.5 0 -0.33476650862485391 0.48894110201344487 0 -0.34219818706038979 0.47324033932605902 0 -0.32455217012598131 0.47576040504927802 0 -0.31050752858297742 0.45541228310926729 0 -0.30924718109674892 0.4787595169291925 0 -0.32455217012598131 0.47576040504927802 0 -0.30924718109674892 0.4787595169291925 0 -0.31026803186043428 0.49630814218410979 0 -0.32455217012598131 0.47576040504927802 0 -0.31050752858297742 0.45541228310926729 0 -0.32455217012598131 0.47576040504927802 0 -0.33883630839152817 0.45521266791444631 0 -0.3119532156062072 0.43081776769941632 0 -0.31050752858297742 0.45541228310926729 0 -0.32922404838729369 0.43975842702051021 0 -0.31050752858297742 0.45541228310926729 0 -0.32922404838729369 0.43975842702051021 0 -0.33883630839152817 0.45521266791444631 0 -0.35312044665707509 0.43466493077961449 0 -0.32922404838729369 0.43975842702051021 0 -0.33883630839152817 0.45521266791444631 0 -0.32455217012598131 0.47576040504927802 0 -0.33883630839152817 0.45521266791444631 0 -0.34219818706038979 0.47324033932605902 0 -0.32455217012598131 0.47576040504927802 0 -0.33883630839152817 0.45521266791444631 0 -0.34219818706038979 0.47324033932605902 0 -0.3565840079797099 0.45323189669297193 0 -0.3600109042242764 0.47257720122722169 0 -0.34219818706038979 0.47324033932605902 0 -0.33883630839152817 0.45521266791444631 0 -0.3565840079797099 0.45323189669297193 0 -0.35312044665707509 0.43466493077961449 0 -0.33883630839152817 0.45521266791444631 0 -0.3564133880876092 0.44369554265044692 0 -0.33883630839152817 0.45521266791444631 0 -0.3565840079797099 0.45323189669297193 0 -0.3564133880876092 0.44369554265044692 0 -0.35312044665707509 0.43466493077961449 0 -0.33883630839152817 0.45521266791444631 0 -0.3565840079797099 0.45323189669297193 0 -0.3564133880876092 0.44369554265044692 0 -0.36087859392843757 0.44792754440029281 0 -0.35312044665707509 0.43466493077961449 0 -0.3564133880876092 0.44369554265044692 0 -0.36015735016681072 0.44243092115708049 0 -0.3564133880876092 0.44369554265044692 0 -0.36015735016681072 0.44243092115708049 0 -0.36087859392843757 0.44792754440029281 0 -0.35312044665707509 0.43466493077961449 0 -0.3660165678866692 0.44185090254978582 0 -0.35312044665707509 0.43466493077961449 0 -0.36015735016681072 0.44243092115708049 0 -0.3660165678866692 0.44185090254978582 0 -0.36015735016681072 0.44243092115708049 0 -0.36435775427426198 0.44401568540526209 0 -0.36087859392843757 0.44792754440029281 0 -0.3660165678866692 0.44185090254978582 0 -0.36435775427426198 0.44401568540526209 0 -0.36730380585777139 0.44730229719289588 0 -0.36015735016681072 0.44243092115708049 0 -0.3660165678866692 0.44185090254978582 0 -0.36435775427426198 0.44401568540526209 0 -0.3565840079797099 0.45323189669297193 0 -0.36087859392843757 0.44792754440029281 0 -0.36730380585777139 0.44730229719289588 0 -0.36515306286189858 0.44662440763319139 0 -0.36087859392843757 0.44792754440029281 0 -0.36730380585777139 0.44730229719289588 0 -0.36435775427426198 0.44401568540526209 0 -0.36515306286189858 0.44662440763319139 0 -0.36087859392843757 0.44792754440029281 0 -0.36435775427426198 0.44401568540526209 0 -0.36515306286189858 0.44662440763319139 0 -0.36730380585777139 0.44730229719289588 0 -0.36515306286189858 0.44662440763319139 0 -0.36730380585777139 0.44730229719289588 0 -0.3565840079797099 0.45323189669297193 0 -0.36730380585777139 0.44730229719289588 0 -0.3600109042242764 0.47257720122722169 0 -0.36730380585777139 0.44730229719289588 0 -0.3600109042242764 0.47257720122722169 0 -0.37838733059780499 0.47089647310786659 0 -0.36730380585777139 0.44730229719289588 0 -0.3600109042242764 0.47257720122722169 0 -0.37620787980309761 0.5 0 -0.37838733059780499 0.47089647310786659 0 -0.3600109042242764 0.47257720122722169 0 -0.37620787980309761 0.5 0 -0.3600109042242764 0.47257720122722169 0 -0.34871908782452737 0.5 0 -0.34219818706038979 0.47324033932605902 0 -0.3600109042242764 0.47257720122722169 0 -0.34871908782452737 0.5 0 -0.15036482881209171 0.48238111653585092 0 -0.13167946935475039 0.48572897040798302 0 -0.14893430645646949 0.46338634674793833 0 -0.15036482881209171 0.48238111653585092 0 -0.14893430645646949 0.46338634674793833 0 -0.1691189861823007 0.47772492145069068 0 -0.15036482881209171 0.48238111653585092 0 -0.13681340504149711 0.49999999999999861 0 -0.15743064292484019 0.5 0 -0.15036482881209171 0.48238111653585092 0 -0.13681340504149711 0.49999999999999861 0 -0.13167946935475039 0.48572897040798302 0 -0.13681340504149711 0.49999999999999861 0 -0.13167946935475039 0.48572897040798302 0 -0.13681340504149711 0.49999999999999861 0 -0.13167946935475039 0.48572897040798302 0 -0.1243666693260226 0.49519803337158957 0 -0.13167946935475039 0.48572897040798302 0 -0.1243666693260226 0.49519803337158957 0 -0.13167946935475039 0.48572897040798302 0 -0.14893430645646949 0.46338634674793833 0 -0.13167946935475039 0.48572897040798302 0 -0.12773902584999411 0.47477554416868678 0 -0.13167946935475039 0.48572897040798302 0 -0.12773902584999411 0.47477554416868678 0 -0.14893430645646949 0.46338634674793833 0 -0.13167946935475039 0.48572897040798302 0 -0.12773902584999411 0.47477554416868678 0 -0.1183242178867096 0.48738777208434098 0 -0.12773902584999411 0.47477554416868678 0 -0.13964126427685339 0.45883111446482139 0 -0.12773902584999411 0.47477554416868678 0 -0.13964126427685339 0.45883111446482139 0 -0.14893430645646949 0.46338634674793833 0 -0.12773902584999411 0.47477554416868678 0 -0.13964126427685339 0.45883111446482139 0 -0.1177949305002824 0.44713349961249971 0 -0.1346692166019966 0.44501009218672621 0 -0.1177949305002824 0.44713349961249971 0 -0.13964126427685339 0.45883111446482139 0 -0.1346692166019966 0.44501009218672621 0 -0.1177949305002824 0.44713349961249971 0 -0.1346692166019966 0.44501009218672621 0 -0.12653184718620369 0.4336263234919227 0 -0.1177949305002824 0.44713349961249971 0 -0.13964126427685339 0.45883111446482139 0 -0.1346692166019966 0.44501009218672621 0 -0.15154350270371111 0.44288668476095472 0 -0.1346692166019966 0.44501009218672621 0 -0.15154350270371111 0.44288668476095472 0 -0.14283905501164501 0.42568926773920662 0 -0.1346692166019966 0.44501009218672621 0 -0.15154350270371111 0.44288668476095472 0 -0.13964126427685339 0.45883111446482139 0 -0.15154350270371111 0.44288668476095472 0 -0.15154350270371111 0.44288668476095472 0 -0.14893430645646949 0.46338634674793833 0 -0.1661891435581932 0.44104372308789719 0 -0.13964126427685339 0.45883111446482139 0 -0.15154350270371111 0.44288668476095472 0 -0.14893430645646949 0.46338634674793833 0 -0.14893430645646949 0.46338634674793833 0 -0.16888229526069351 0.45919091945000101 0 -0.1661891435581932 0.44104372308789719 0 -0.14893430645646949 0.46338634674793833 0 -0.16888229526069351 0.45919091945000101 0 -0.1691189861823007 0.47772492145069068 0 -0.14893430645646949 0.46338634674793833 0 -0.1661891435581932 0.44104372308789719 0 -0.15154350270371111 0.44288668476095472 0 -0.1661891435581932 0.44104372308789719 0 -0.16888229526069351 0.45919091945000101 0 -0.18150783032229731 0.43911606742106468 0 -0.1872269264453742 0.45941071161403663 0 -0.18150783032229731 0.43911606742106468 0 -0.1872269264453742 0.45941071161403663 0 -0.18150783032229731 0.43911606742106468 0 -0.1872269264453742 0.45941071161403663 0 -0.18846705501909641 0.43824034033490289 0 -0.16888229526069351 0.45919091945000101 0 -0.1661891435581932 0.44104372308789719 0 -0.18150783032229731 0.43911606742106468 0 -0.1661891435581932 0.44104372308789719 0 -0.18150783032229731 0.43911606742106468 0 -0.1661891435581932 0.44104372308789719 0 -0.18150783032229731 0.43911606742106468 0 -0.17234642623033669 0.43307089502227603 0 -0.18150783032229731 0.43911606742106468 0 -0.18846705501909641 0.43824034033490289 0 -0.16888229526069351 0.45919091945000101 0 -0.1872269264453742 0.45941071161403663 0 -0.1691189861823007 0.47772492145069068 0 -0.1872269264453742 0.45941071161403663 0 -0.1691189861823007 0.47772492145069068 0 -0.19294602256845289 0.47970535580700813 0 -0.15036482881209171 0.48238111653585092 0 -0.1691189861823007 0.47772492145069068 0 -0.15743064292484019 0.5 0 -0.1691189861823007 0.47772492145069068 0 -0.15743064292484019 0.5 0 -0.17804788080818351 0.5 0 -0.1691189861823007 0.47772492145069068 0 -0.17804788080818351 0.5 0 -0.19294602256845289 0.47970535580700813 0 -0.19866511869152659 0.49999999999998102 0 -0.19294602256845289 0.47970535580700813 0 -0.20367243696081661 0.47941344677830089 0 -0.17804788080818351 0.5 0 -0.19866511869152659 0.49999999999998102 0 -0.19294602256845289 0.47970535580700813 0 -0.19866511869152659 0.49999999999998102 0 -0.19294602256845289 0.47970535580700813 0 -0.1872269264453742 0.45941071161403663 0 -0.19294602256845289 0.47970535580700813 0 -0.19294602256845289 0.47970535580700813 0 -0.20367243696081661 0.47941344677830089 0 -0.19606974598995591 0.45882689355660211 0 -0.20367243696081661 0.47941344677830089 0 -0.19606974598995591 0.45882689355660211 0 -0.20367243696081661 0.47941344677830089 0 -0.22849203162999429 0.47493126872778968 0 -0.21103871332828519 0.46499592571950149 0 -0.20367243696081661 0.47941344677830089 0 -0.21127512793167719 0.49999999999999961 0 -0.22426562675462269 0.49047517162088511 0 -0.20367243696081661 0.47941344677830089 0 -0.21127512793167719 0.49999999999999961 0 -0.19866511869152659 0.49999999999998102 0 -0.20367243696081661 0.47941344677830089 0 -0.21127512793167719 0.49999999999999961 0 -0.21127512793167719 0.49999999999999961 0 -0.22426562675462269 0.49047517162088511 0 -0.23796284383572361 0.498952297286682 0 -0.22849203162999429 0.47493126872778968 0 -0.23796284383572361 0.498952297286682 0 -0.22426562675462269 0.49047517162088511 0 -0.22849203162999429 0.47493126872778968 0 -0.23796284383572361 0.498952297286682 0 -0.20367243696081661 0.47941344677830089 0 -0.22426562675462269 0.49047517162088511 0 -0.22849203162999429 0.47493126872778968 0 -0.25381995339722718 0.47609427898681239 0 -0.22849203162999429 0.47493126872778968 0 -0.24505829213240191 0.48999556900025693 0 -0.22849203162999429 0.47493126872778968 0 -0.24505829213240191 0.48999556900025693 0 -0.23796284383572361 0.498952297286682 0 -0.26625271188881727 0.5 0 -0.24505829213240191 0.48999556900025693 0 -0.23796284383572361 0.498952297286682 0 -0.24095269627650159 0.45046467591119088 0 -0.22891678948807959 0.43425818627468532 0 -0.24058220489641291 0.42853180239755362 0 -0.25381995339722718 0.47609427898681239 0 -0.22849203162999429 0.47493126872778968 0 -0.24095269627650159 0.45046467591119088 0 -0.22849203162999429 0.47493126872778968 0 -0.21902121942426489 0.45091024016889719 0 -0.21103871332828519 0.46499592571950149 0 -0.22849203162999429 0.47493126872778968 0 -0.24095269627650159 0.45046467591119088 0 -0.21902121942426489 0.45091024016889719 0 -0.22849203162999429 0.47493126872778968 0 -0.21902121942426489 0.45091024016889719 0 -0.21902121942426489 0.45091024016889719 0 -0.2194446737638337 0.43133112945029711 0 -0.22891678948807959 0.43425818627468532 0 -0.24095269627650159 0.45046467591119088 0 -0.21902121942426489 0.45091024016889719 0 -0.22891678948807959 0.43425818627468532 0 -0.21902121942426489 0.45091024016889719 0 -0.20740844751581539 0.43585681470071252 0 -0.20955040721853549 0.42688921161000482 0 -0.21902121942426489 0.45091024016889719 0 -0.20955040721853549 0.42688921161000482 0 -0.21902121942426489 0.45091024016889719 0 -0.20440103625548331 0.44976604289612332 0 -0.20740844751581539 0.43585681470071252 0 -0.20367243696081661 0.47941344677830089 0 -0.21103871332828519 0.46499592571950149 0 -0.19606974598995591 0.45882689355660211 0 -0.21902121942426489 0.45091024016889719 0 -0.20440103625548331 0.44976604289612332 0 -0.21103871332828519 0.46499592571950149 0 -0.20440103625548331 0.44976604289612332 0 -0.21103871332828519 0.46499592571950149 0 -0.19606974598995591 0.45882689355660211 0 -0.1872269264453742 0.45941071161403663 0 -0.19294602256845289 0.47970535580700813 0 -0.19606974598995591 0.45882689355660211 0 -0.1872269264453742 0.45941071161403663 0 -0.19606974598995591 0.45882689355660211 0 -0.18846705501909641 0.43824034033490289 0 -0.19606974598995591 0.45882689355660211 0 -0.18846705501909641 0.43824034033490289 0 -0.20440103625548331 0.44976604289612332 0 -0.18846705501909641 0.43824034033490289 0 -0.20740844751581539 0.43585681470071252 0 -0.20440103625548331 0.44976604289612332 0 -0.19606974598995591 0.45882689355660211 0 -0.18846705501909641 0.43824034033490289 0 -0.18846705501909641 0.43824034033490289 0 -0.19740425155133379 0.428825100955191 0 -0.20740844751581539 0.43585681470071252 0 -0.18846705501909641 0.43824034033490289 0 -0.19740425155133379 0.428825100955191 0 -0.18315556632104071 0.42385790059244322 0 -0.18846705501909641 0.43824034033490289 0 -0.20740844751581539 0.43585681470071252 0 -0.19740425155133379 0.428825100955191 0 -0.19615505321339299 0.41893042290816379 0 -0.18315556632104071 0.42385790059244322 0 -0.19740425155133379 0.428825100955191 0 -0.19615505321339299 0.41893042290816379 0 -0.20955040721853549 0.42688921161000482 0 -0.19615505321339299 0.41893042290816379 0 -0.20955040721853549 0.42688921161000482 0 -0.1996395821943043 0.40175216889626558 0 -0.1893085730425566 0.41378299185042511 0 -0.1996395821943043 0.40175216889626558 0 -0.1778440776229869 0.40947546084998271 0 -0.1893085730425566 0.41378299185042511 0 -0.19615505321339299 0.41893042290816379 0 -0.1996395821943043 0.40175216889626558 0 -0.1893085730425566 0.41378299185042511 0 -0.19615505321339299 0.41893042290816379 0 -0.18315556632104071 0.42385790059244322 0 -0.2156848940836962 0.41947779048219308 0 -0.20955040721853549 0.42688921161000482 0 -0.1996395821943043 0.40175216889626558 0 -0.2156848940836962 0.41947779048219308 0 -0.21432444382948049 0.40938095571072508 0 -0.1996395821943043 0.40175216889626558 0 -0.20955040721853549 0.42688921161000482 0 -0.1996395821943043 0.40175216889626558 0 -0.2156848940836962 0.41947779048219308 0 -0.21432444382948049 0.40938095571072508 0 -0.2238045676602218 0.41545182534364761 0 -0.21902121942426489 0.45091024016889719 0 -0.20955040721853549 0.42688921161000482 0 -0.2194446737638337 0.43133112945029711 0 -0.19740425155133379 0.428825100955191 0 -0.20740844751581539 0.43585681470071252 0 -0.20955040721853549 0.42688921161000482 0 -0.2156848940836962 0.41947779048219308 0 -0.20955040721853549 0.42688921161000482 0 -0.2194446737638337 0.43133112945029711 0 -0.2194446737638337 0.43133112945029711 0 -0.22891678948807959 0.43425818627468532 0 -0.22405005860459209 0.42512021871570499 0 -0.22891678948807959 0.43425818627468532 0 -0.2318080969444585 0.42163851568810068 0 -0.24058220489641291 0.42853180239755362 0 -0.22891678948807959 0.43425818627468532 0 -0.22405005860459209 0.42512021871570499 0 -0.2318080969444585 0.42163851568810068 0 -0.2156848940836962 0.41947779048219308 0 -0.2194446737638337 0.43133112945029711 0 -0.22405005860459209 0.42512021871570499 0 -0.2156848940836962 0.41947779048219308 0 -0.22405005860459209 0.42512021871570499 0 -0.2238045676602218 0.41545182534364761 0 -0.22405005860459209 0.42512021871570499 0 -0.2238045676602218 0.41545182534364761 0 -0.2318080969444585 0.42163851568810068 0 -0.2238045676602218 0.41545182534364761 0 -0.22271754823615411 0.40713281538379192 0 -0.23190175443684369 0.41276157033918198 0 -0.21432444382948049 0.40938095571072508 0 -0.2238045676602218 0.41545182534364761 0 -0.22271754823615411 0.40713281538379192 0 -0.22271754823615411 0.40713281538379192 0 -0.23190175443684369 0.41276157033918198 0 -0.23104185854944151 0.40555855623608211 0 -0.23190175443684369 0.41276157033918198 0 -0.23764163437822799 0.40684142109944132 0 -0.23104185854944151 0.40555855623608211 0 -0.2238045676602218 0.41545182534364761 0 -0.23190175443684369 0.41276157033918198 0 -0.2318080969444585 0.42163851568810068 0 -0.23190175443684369 0.41276157033918198 0 -0.23975247372937131 0.41835443099879099 0 -0.23857259574436321 0.41201534512953208 0 -0.23190175443684369 0.41276157033918198 0 -0.2318080969444585 0.42163851568810068 0 -0.23975247372937131 0.41835443099879099 0 -0.23975247372937131 0.41835443099879099 0 -0.23857259574436321 0.41201534512953208 0 -0.2449945204330097 0.41010395808071443 0 -0.23190175443684369 0.41276157033918198 0 -0.23764163437822799 0.40684142109944132 0 -0.23857259574436321 0.41201534512953208 0 -0.23764163437822799 0.40684142109944132 0 -0.23857259574436321 0.41201534512953208 0 -0.2449945204330097 0.41010395808071443 0 -0.25447032304768408 0.41314830927361529 0 -0.2449945204330097 0.41010395808071443 0 -0.2486543677354095 0.42074152845041968 0 -0.23975247372937131 0.41835443099879099 0 -0.2449945204330097 0.41010395808071443 0 -0.2486543677354095 0.42074152845041968 0 -0.23975247372937131 0.41835443099879099 0 -0.2486543677354095 0.42074152845041968 0 -0.24058220489641291 0.42853180239755362 0 -0.25403631530162057 0.43243169108781832 0 -0.2486543677354095 0.42074152845041968 0 -0.24058220489641291 0.42853180239755362 0 -0.25403631530162057 0.43243169108781832 0 -0.24095269627650159 0.45046467591119088 0 -0.24058220489641291 0.42853180239755362 0 -0.2318080969444585 0.42163851568810068 0 -0.23975247372937131 0.41835443099879099 0 -0.24058220489641291 0.42853180239755362 0 -0.25312128223145541 0.37178480457244328 0 -0.24688149284123401 0.38896101214766021 0 -0.23149433421665849 0.37191664463003449 0 -0.24688149284123401 0.38896101214766021 0 -0.22874963888165631 0.38430831885413341 0 -0.23149433421665849 0.37191664463003449 0 -0.24688149284123401 0.38896101214766021 0 -0.2360393306837735 0.39954123331985691 0 -0.22603482191929469 0.39515559460545308 0 -0.25539120860364062 0.39491143968511128 0 -0.24688149284123401 0.38896101214766021 0 -0.2454187063172775 0.40112155437524821 0 -0.24688149284123401 0.38896101214766021 0 -0.22603482191929469 0.39515559460545308 0 -0.24688149284123401 0.38896101214766021 0 -0.2454187063172775 0.40112155437524821 0 -0.2360393306837735 0.39954123331985691 0 -0.25451008460704327 0.40456677896455162 0 -0.2449945204330097 0.41010395808071443 0 -0.2454187063172775 0.40112155437524821 0 -0.23764163437822799 0.40684142109944132 0 -0.2449945204330097 0.41010395808071443 0 -0.2454187063172775 0.40112155437524821 0 -0.23764163437822799 0.40684142109944132 0 -0.2454187063172775 0.40112155437524821 0 -0.2360393306837735 0.39954123331985691 0 -0.23764163437822799 0.40684142109944132 0 -0.2360393306837735 0.39954123331985691 0 -0.23104185854944151 0.40555855623608211 0 -0.22921747009716531 0.39960926145525688 0 -0.22603482191929469 0.39515559460545308 0 -0.2051881509973553 0.40135017706324561 0 -0.22271754823615411 0.40713281538379192 0 -0.22921747009716531 0.39960926145525688 0 -0.2051881509973553 0.40135017706324561 0 -0.2360393306837735 0.39954123331985691 0 -0.22921747009716531 0.39960926145525688 0 -0.22603482191929469 0.39515559460545308 0 -0.22271754823615411 0.40713281538379192 0 -0.23104185854944151 0.40555855623608211 0 -0.22921747009716531 0.39960926145525688 0 -0.2360393306837735 0.39954123331985691 0 -0.23104185854944151 0.40555855623608211 0 -0.22921747009716531 0.39960926145525688 0 -0.22603482191929469 0.39515559460545308 0 -0.21922714222905521 0.38740102366770229 0 -0.21227383731155261 0.39269052632196438 0 -0.24688149284123401 0.38896101214766021 0 -0.22603482191929469 0.39515559460545308 0 -0.22874963888165631 0.38430831885413341 0 -0.22603482191929469 0.39515559460545308 0 -0.21922714222905521 0.38740102366770229 0 -0.22874963888165631 0.38430831885413341 0 -0.21922714222905521 0.38740102366770229 0 -0.22874963888165631 0.38430831885413341 0 -0.220089509878094 0.38006137360080289 0 -0.22874963888165631 0.38430831885413341 0 -0.220089509878094 0.38006137360080289 0 -0.23149433421665849 0.37191664463003449 0 -0.20898790315467819 0.38478930495615798 0 -0.1936292268589728 0.38650797293683281 0 -0.2085671482665771 0.36649689356978532 0 -0.220089509878094 0.38006137360080289 0 -0.20898790315467819 0.38478930495615798 0 -0.2085671482665771 0.36649689356978532 0 -0.21922714222905521 0.38740102366770229 0 -0.20898790315467819 0.38478930495615798 0 -0.21227383731155261 0.39269052632196438 0 -0.21922714222905521 0.38740102366770229 0 -0.220089509878094 0.38006137360080289 0 -0.20898790315467819 0.38478930495615798 0 -0.20898790315467819 0.38478930495615798 0 -0.21227383731155261 0.39269052632196438 0 -0.20224002328731919 0.39252212185962521 0 -0.22921747009716531 0.39960926145525688 0 -0.2051881509973553 0.40135017706324561 0 -0.21432444382948049 0.40938095571072508 0 -0.22271754823615411 0.40713281538379192 0 -0.2051881509973553 0.40135017706324561 0 -0.22603482191929469 0.39515559460545308 0 -0.21227383731155261 0.39269052632196438 0 -0.2051881509973553 0.40135017706324561 0 -0.22603482191929469 0.39515559460545308 0 -0.2051881509973553 0.40135017706324561 0 -0.21227383731155261 0.39269052632196438 0 -0.2051881509973553 0.40135017706324561 0 -0.20224002328731919 0.39252212185962521 0 -0.21432444382948049 0.40938095571072508 0 -0.2051881509973553 0.40135017706324561 0 -0.1996395821943043 0.40175216889626558 0 -0.1996395821943043 0.40175216889626558 0 -0.1778440776229869 0.40947546084998271 0 -0.1996395821943043 0.40175216889626558 0 -0.1936292268589728 0.38650797293683281 0 -0.1812554424015034 0.40308409327464179 0 -0.1996395821943043 0.40175216889626558 0 -0.1812554424015034 0.40308409327464179 0 -0.2051881509973553 0.40135017706324561 0 -0.1996395821943043 0.40175216889626558 0 -0.20224002328731919 0.39252212185962521 0 -0.2051881509973553 0.40135017706324561 0 -0.1996395821943043 0.40175216889626558 0 -0.1996395821943043 0.40175216889626558 0 -0.20224002328731919 0.39252212185962521 0 -0.1936292268589728 0.38650797293683281 0 -0.1996395821943043 0.40175216889626558 0 -0.1936292268589728 0.38650797293683281 0 -0.1936292268589728 0.38650797293683281 0 -0.2085671482665771 0.36649689356978532 0 -0.1936292268589728 0.38650797293683281 0 -0.18659645502928149 0.36867059961556958 0 -0.20898790315467819 0.38478930495615798 0 -0.20224002328731919 0.39252212185962521 0 -0.1936292268589728 0.38650797293683281 0 -0.1936292268589728 0.38650797293683281 0 -0.17719838527153081 0.38991777350957679 0 -0.1759237473396438 0.37529474555321551 0 -0.1936292268589728 0.38650797293683281 0 -0.1759237473396438 0.37529474555321551 0 -0.18659645502928149 0.36867059961556958 0 -0.17719838527153081 0.38991777350957679 0 -0.1759237473396438 0.37529474555321551 0 -0.16586294129855181 0.38359899805513081 0 -0.16586294129855181 0.38359899805513081 0 -0.16008282057455309 0.3959096780185285 0 -0.14871841794981511 0.39120820888732061 0 -0.16008282057455309 0.3959096780185285 0 -0.1715520143685812 0.40378710317862943 0 -0.1541979086812624 0.40504440195303398 0 -0.16586294129855181 0.38359899805513081 0 -0.1715520143685812 0.40378710317862943 0 -0.16586294129855181 0.38359899805513081 0 -0.16008282057455309 0.3959096780185285 0 -0.1715520143685812 0.40378710317862943 0 -0.1715520143685812 0.40378710317862943 0 -0.1541979086812624 0.40504440195303398 0 -0.17719838527153081 0.38991777350957679 0 -0.16586294129855181 0.38359899805513081 0 -0.1715520143685812 0.40378710317862943 0 -0.1996395821943043 0.40175216889626558 0 -0.1812554424015034 0.40308409327464179 0 -0.1778440776229869 0.40947546084998271 0 -0.1715520143685812 0.40378710317862943 0 -0.17639889704624309 0.40556220342940441 0 -0.1812554424015034 0.40308409327464179 0 -0.1715520143685812 0.40378710317862943 0 -0.17639889704624309 0.40556220342940441 0 -0.1749918228297819 0.40767239861559812 0 -0.1936292268589728 0.38650797293683281 0 -0.17719838527153081 0.38991777350957679 0 -0.1812554424015034 0.40308409327464179 0 -0.1715520143685812 0.40378710317862943 0 -0.1812554424015034 0.40308409327464179 0 -0.17719838527153081 0.38991777350957679 0 -0.1715520143685812 0.40378710317862943 0 -0.1812554424015034 0.40308409327464179 0 -0.1936292268589728 0.38650797293683281 0 -0.1812554424015034 0.40308409327464179 0 -0.17639889704624309 0.40556220342940441 0 -0.1812554424015034 0.40308409327464179 0 -0.1778440776229869 0.40947546084998271 0 -0.1778440776229869 0.40947546084998271 0 -0.18315556632104071 0.42385790059244322 0 -0.1893085730425566 0.41378299185042511 0 -0.1778440776229869 0.40947546084998271 0 -0.18315556632104071 0.42385790059244322 0 -0.17406743505811639 0.41271326332543939 0 -0.1778440776229869 0.40947546084998271 0 -0.18315556632104071 0.42385790059244322 0 -0.17351732445845741 0.41076115434764171 0 -0.1760968283520204 0.40999465548416769 0 -0.17406743505811639 0.41271326332543939 0 -0.17351732445845741 0.41076115434764171 0 -0.1760968283520204 0.40999465548416769 0 -0.17406743505811639 0.41271326332543939 0 -0.1760968283520204 0.40999465548416769 0 -0.17406743505811639 0.41271326332543939 0 -0.17351732445845741 0.41076115434764171 0 -0.1715520143685812 0.40378710317862943 0 -0.17351732445845741 0.41076115434764171 0 -0.1749918228297819 0.40767239861559812 0 -0.1715520143685812 0.40378710317862943 0 -0.17351732445845741 0.41076115434764171 0 -0.17351732445845741 0.41076115434764171 0 -0.1749918228297819 0.40767239861559812 0 -0.1760968283520204 0.40999465548416769 0 -0.17639889704624309 0.40556220342940441 0 -0.1749918228297819 0.40767239861559812 0 -0.1778440776229869 0.40947546084998271 0 -0.1749918228297819 0.40767239861559812 0 -0.1760968283520204 0.40999465548416769 0 -0.1778440776229869 0.40947546084998271 0 -0.1812554424015034 0.40308409327464179 0 -0.1778440776229869 0.40947546084998271 0 -0.17639889704624309 0.40556220342940441 0 -0.1778440776229869 0.40947546084998271 0 -0.1760968283520204 0.40999465548416769 0 -0.1778440776229869 0.40947546084998271 0 -0.17406743505811639 0.41271326332543939 0 -0.1760968283520204 0.40999465548416769 0 -0.1778440776229869 0.40947546084998271 0 -0.18150783032229731 0.43911606742106468 0 -0.17406743505811639 0.41271326332543939 0 -0.17234642623033669 0.43307089502227603 0 -0.18150783032229731 0.43911606742106468 0 -0.17406743505811639 0.41271326332543939 0 -0.18315556632104071 0.42385790059244322 0 -0.18150783032229731 0.43911606742106468 0 -0.17406743505811639 0.41271326332543939 0 -0.18846705501909641 0.43824034033490289 0 -0.18315556632104071 0.42385790059244322 0 -0.18150783032229731 0.43911606742106468 0 -0.18846705501909641 0.43824034033490289 0 -0.18315556632104071 0.42385790059244322 0 -0.17406743505811639 0.41271326332543939 0 -0.17234642623033669 0.43307089502227603 0 -0.16280546888091779 0.42779997404320008 0 -0.1661891435581932 0.44104372308789719 0 -0.17234642623033669 0.43307089502227603 0 -0.1661891435581932 0.44104372308789719 0 -0.17234642623033669 0.43307089502227603 0 -0.16280546888091779 0.42779997404320008 0 -0.15154350270371111 0.44288668476095472 0 -0.16280546888091779 0.42779997404320008 0 -0.15154350270371111 0.44288668476095472 0 -0.1661891435581932 0.44104372308789719 0 -0.16280546888091779 0.42779997404320008 0 -0.1715520143685812 0.40378710317862943 0 -0.1666265752185016 0.41280873856493627 0 -0.1541979086812624 0.40504440195303398 0 -0.1715520143685812 0.40378710317862943 0 -0.17351732445845741 0.41076115434764171 0 -0.1666265752185016 0.41280873856493627 0 -0.17406743505811639 0.41271326332543939 0 -0.17351732445845741 0.41076115434764171 0 -0.1666265752185016 0.41280873856493627 0 -0.17351732445845741 0.41076115434764171 0 -0.1666265752185016 0.41280873856493627 0 -0.17406743505811639 0.41271326332543939 0 -0.16280546888091779 0.42779997404320008 0 -0.1666265752185016 0.41280873856493627 0 -0.17406743505811639 0.41271326332543939 0 -0.16280546888091779 0.42779997404320008 0 -0.16280546888091779 0.42779997404320008 0 -0.1666265752185016 0.41280873856493627 0 -0.15487190552364849 0.41779519579490337 0 -0.1666265752185016 0.41280873856493627 0 -0.15487190552364849 0.41779519579490337 0 -0.1541979086812624 0.40504440195303398 0 -0.15487190552364849 0.41779519579490337 0 -0.14283905501164501 0.42568926773920662 0 -0.13684380299394289 0.40630170072742888 0 -0.15487190552364849 0.41779519579490337 0 -0.13684380299394289 0.40630170072742888 0 -0.1541979086812624 0.40504440195303398 0 -0.15154350270371111 0.44288668476095472 0 -0.16280546888091779 0.42779997404320008 0 -0.14283905501164501 0.42568926773920662 0 -0.16280546888091779 0.42779997404320008 0 -0.15487190552364849 0.41779519579490337 0 -0.14283905501164501 0.42568926773920662 0 -0.1346692166019966 0.44501009218672621 0 -0.14283905501164501 0.42568926773920662 0 -0.12653184718620369 0.4336263234919227 0 -0.14283905501164501 0.42568926773920662 0 -0.12653184718620369 0.4336263234919227 0 -0.12583354385699089 0.42060104052817121 0 -0.14283905501164501 0.42568926773920662 0 -0.13684380299394289 0.40630170072742888 0 -0.12583354385699089 0.42060104052817121 0 -0.13684380299394289 0.40630170072742888 0 -0.12583354385699089 0.42060104052817121 0 -0.1236455351503008 0.40951412160870387 0 -0.13684380299394289 0.40630170072742888 0 -0.13328731423163501 0.39403750187845038 0 -0.1227247137401461 0.39959294009767438 0 -0.13684380299394289 0.40630170072742888 0 -0.1227247137401461 0.39959294009767438 0 -0.1236455351503008 0.40951412160870387 0 -0.13684380299394289 0.40630170072742888 0 -0.13328731423163501 0.39403750187845038 0 -0.14871841794981511 0.39120820888732061 0 -0.13328731423163501 0.39403750187845038 0 -0.12182170936468199 0.38797141707274679 0 -0.1227247137401461 0.39959294009767438 0 -0.13328731423163501 0.39403750187845038 0 -0.12984696498931361 0.38387547124717541 0 -0.12182170936468199 0.38797141707274679 0 -0.12984696498931361 0.38387547124717541 0 -0.12409617984858549 0.37797054131832492 0 -0.12182170936468199 0.38797141707274679 0 -0.12984696498931361 0.38387547124717541 0 -0.13466586913775 0.36927846796720781 0 -0.12409617984858549 0.37797054131832492 0 -0.12984696498931361 0.38387547124717541 0 -0.13952670270025991 0.38024243266649771 0 -0.13466586913775 0.36927846796720781 0 -0.13328731423163501 0.39403750187845038 0 -0.13952670270025991 0.38024243266649771 0 -0.14871841794981511 0.39120820888732061 0 -0.13328731423163501 0.39403750187845038 0 -0.12984696498931361 0.38387547124717541 0 -0.13952670270025991 0.38024243266649771 0 -0.16586294129855181 0.38359899805513081 0 -0.14871841794981511 0.39120820888732061 0 -0.14943532021980999 0.37410274272518063 0 -0.13952670270025991 0.38024243266649771 0 -0.14871841794981511 0.39120820888732061 0 -0.14943532021980999 0.37410274272518063 0 -0.13684380299394289 0.40630170072742888 0 -0.1541979086812624 0.40504440195303398 0 -0.13684380299394289 0.40630170072742888 0 -0.14871841794981511 0.39120820888732061 0 -0.1541979086812624 0.40504440195303398 0 -0.16008282057455309 0.3959096780185285 0 -0.14871841794981511 0.39120820888732061 0 -0.1541979086812624 0.40504440195303398 0 -0.14754590501543721 0.35767209473496431 0 -0.13945508869491549 0.33945215125243428 0 -0.1544847951584849 0.34322278780813548 0 -0.14754590501543721 0.35767209473496431 0 -0.1544847951584849 0.34322278780813548 0 -0.16017386822852039 0.36341089293163248 0 -0.14754590501543721 0.35767209473496431 0 -0.14943532021980999 0.37410274272518063 0 -0.13466586913775 0.36927846796720781 0 -0.14754590501543721 0.35767209473496431 0 -0.14943532021980999 0.37410274272518063 0 -0.16017386822852039 0.36341089293163248 0 -0.13952670270025991 0.38024243266649771 0 -0.14943532021980999 0.37410274272518063 0 -0.13466586913775 0.36927846796720781 0 -0.13466586913775 0.36927846796720781 0 -0.12064946039485799 0.36175199786925438 0 -0.12409617984858549 0.37797054131832492 0 -0.13466586913775 0.36927846796720781 0 -0.13039255960540619 0.35088903951061062 0 -0.12064946039485799 0.36175199786925438 0 -0.14754590501543721 0.35767209473496431 0 -0.13466586913775 0.36927846796720781 0 -0.13945508869491549 0.33945215125243428 0 -0.13466586913775 0.36927846796720781 0 -0.13945508869491549 0.33945215125243428 0 -0.13466586913775 0.36927846796720781 0 -0.13039255960540619 0.35088903951061062 0 -0.13945508869491549 0.33945215125243428 0 -0.13039255960540619 0.35088903951061062 0 -0.127802025433392 0.33652864330326893 0 -0.12064946039485799 0.36175199786925438 0 -0.13039255960540619 0.35088903951061062 0 -0.127802025433392 0.33652864330326893 0 -0.13945508869491549 0.33945215125243428 0 -0.1358168826942393 0.32856144984775087 0 -0.13945508869491549 0.33945215125243428 0 -0.14198994403037579 0.3236655711720845 0 -0.127802025433392 0.33652864330326893 0 -0.1358168826942393 0.32856144984775087 0 -0.13945508869491549 0.33945215125243428 0 -0.127802025433392 0.33652864330326893 0 -0.13945508869491549 0.33945215125243428 0 -0.127802025433392 0.33652864330326893 0 -0.13402047261827379 0.31459943366321591 0 -0.1208179330180239 0.3233426548663958 0 -0.13402047261827379 0.31459943366321591 0 -0.14198994403037579 0.3236655711720845 0 -0.1445247993658294 0.30787899109173372 0 -0.127802025433392 0.33652864330326893 0 -0.1358168826942393 0.32856144984775087 0 -0.13402047261827379 0.31459943366321591 0 -0.127802025433392 0.33652864330326893 0 -0.13402047261827379 0.31459943366321591 0 -0.1358168826942393 0.32856144984775087 0 -0.13402047261827379 0.31459943366321591 0 -0.14198994403037579 0.3236655711720845 0 -0.14198994403037579 0.3236655711720845 0 -0.1445247993658294 0.30787899109173372 0 -0.14950479726215621 0.32555088944993482 0 -0.14198994403037579 0.3236655711720845 0 -0.1445247993658294 0.30787899109173372 0 -0.14950479726215621 0.32555088944993482 0 -0.1564488278204739 0.31332749071601312 0 -0.1445247993658294 0.30787899109173372 0 -0.14950479726215621 0.32555088944993482 0 -0.1445247993658294 0.30787899109173372 0 -0.13945508869491549 0.33945215125243428 0 -0.14950479726215621 0.32555088944993482 0 -0.14198994403037579 0.3236655711720845 0 -0.13945508869491549 0.33945215125243428 0 -0.14950479726215621 0.32555088944993482 0 -0.1544847951584849 0.34322278780813548 0 -0.13945508869491549 0.33945215125243428 0 -0.14198994403037579 0.3236655711720845 0 -0.14950479726215621 0.32555088944993482 0 -0.1544847951584849 0.34322278780813548 0 -0.13945508869491549 0.33945215125243428 0 -0.1544847951584849 0.34322278780813548 0 -0.1544847951584849 0.34322278780813548 0 -0.16852227471057871 0.33340804636566329 0 -0.17145578382331189 0.3474804511498224 0 -0.14950479726215621 0.32555088944993482 0 -0.1544847951584849 0.34322278780813548 0 -0.16852227471057871 0.33340804636566329 0 -0.14950479726215621 0.32555088944993482 0 -0.16852227471057871 0.33340804636566329 0 -0.1680293359152541 0.31947244271011371 0 -0.14950479726215621 0.32555088944993482 0 -0.1564488278204739 0.31332749071601312 0 -0.1680293359152541 0.31947244271011371 0 -0.1564488278204739 0.31332749071601312 0 -0.1680293359152541 0.31947244271011371 0 -0.165936004880745 0.30943290709769972 0 -0.16852227471057871 0.33340804636566329 0 -0.1680293359152541 0.31947244271011371 0 -0.17763365994053279 0.32228494820697873 0 -0.1680293359152541 0.31947244271011371 0 -0.177471899209203 0.31071030275085437 0 -0.165936004880745 0.30943290709769972 0 -0.1680293359152541 0.31947244271011371 0 -0.17763365994053279 0.32228494820697873 0 -0.177471899209203 0.31071030275085437 0 -0.17763365994053279 0.32228494820697873 0 -0.18344069721493189 0.3314759202778193 0 -0.1907040926526965 0.31635802893044263 0 -0.17763365994053279 0.32228494820697873 0 -0.1907040926526965 0.31635802893044263 0 -0.177471899209203 0.31071030275085437 0 -0.16852227471057871 0.33340804636566329 0 -0.1786900937103183 0.34146588440466791 0 -0.17145578382331189 0.3474804511498224 0 -0.16852227471057871 0.33340804636566329 0 -0.17763365994053279 0.32228494820697873 0 -0.18344069721493189 0.3314759202778193 0 -0.16852227471057871 0.33340804636566329 0 -0.1786900937103183 0.34146588440466791 0 -0.18344069721493189 0.3314759202778193 0 -0.1786900937103183 0.34146588440466791 0 -0.18344069721493189 0.3314759202778193 0 -0.18902570567821761 0.34302328958551598 0 -0.1795636831995909 0.35083322629430641 0 -0.19311149161603541 0.35508256978836761 0 -0.18902570567821761 0.34302328958551598 0 -0.1786900937103183 0.34146588440466791 0 -0.1795636831995909 0.35083322629430641 0 -0.18902570567821761 0.34302328958551598 0 -0.1795636831995909 0.35083322629430641 0 -0.18659645502928149 0.36867059961556958 0 -0.19311149161603541 0.35508256978836761 0 -0.1795636831995909 0.35083322629430641 0 -0.17145578382331189 0.3474804511498224 0 -0.1720816073510047 0.35966223627054961 0 -0.1786900937103183 0.34146588440466791 0 -0.1795636831995909 0.35083322629430641 0 -0.17145578382331189 0.3474804511498224 0 -0.1544847951584849 0.34322278780813548 0 -0.17145578382331189 0.3474804511498224 0 -0.1544847951584849 0.34322278780813548 0 -0.16017386822852039 0.36341089293163248 0 -0.17145578382331189 0.3474804511498224 0 -0.16017386822852039 0.36341089293163248 0 -0.1720816073510047 0.35966223627054961 0 -0.1544847951584849 0.34322278780813548 0 -0.17145578382331189 0.3474804511498224 0 -0.16017386822852039 0.36341089293163248 0 -0.16586294129855181 0.38359899805513081 0 -0.14943532021980999 0.37410274272518063 0 -0.16017386822852039 0.36341089293163248 0 -0.1759237473396438 0.37529474555321551 0 -0.16017386822852039 0.36341089293163248 0 -0.1720816073510047 0.35966223627054961 0 -0.16586294129855181 0.38359899805513081 0 -0.16017386822852039 0.36341089293163248 0 -0.1759237473396438 0.37529474555321551 0 -0.16586294129855181 0.38359899805513081 0 -0.16017386822852039 0.36341089293163248 0 -0.1795636831995909 0.35083322629430641 0 -0.18659645502928149 0.36867059961556958 0 -0.1720816073510047 0.35966223627054961 0 -0.1795636831995909 0.35083322629430641 0 -0.18659645502928149 0.36867059961556958 0 -0.1759237473396438 0.37529474555321551 0 -0.18659645502928149 0.36867059961556958 0 -0.1720816073510047 0.35966223627054961 0 -0.18659645502928149 0.36867059961556958 0 -0.19311149161603541 0.35508256978836761 0 -0.2085671482665771 0.36649689356978532 0 -0.1936292268589728 0.38650797293683281 0 -0.18659645502928149 0.36867059961556958 0 -0.2085671482665771 0.36649689356978532 0 -0.19311149161603541 0.35508256978836761 0 -0.2040629197515236 0.34406992143909998 0 -0.2085671482665771 0.36649689356978532 0 -0.19311149161603541 0.35508256978836761 0 -0.2040629197515236 0.34406992143909998 0 -0.18902570567821761 0.34302328958551598 0 -0.2085671482665771 0.36649689356978532 0 -0.22350506967418041 0.34648581420273689 0 -0.2040629197515236 0.34406992143909998 0 -0.2085671482665771 0.36649689356978532 0 -0.22350506967418041 0.34648581420273689 0 -0.220089509878094 0.38006137360080289 0 -0.2085671482665771 0.36649689356978532 0 -0.23149433421665849 0.37191664463003449 0 -0.2085671482665771 0.36649689356978532 0 -0.23149433421665849 0.37191664463003449 0 -0.22350506967418041 0.34648581420273689 0 -0.23149433421665849 0.37191664463003449 0 -0.22350506967418041 0.34648581420273689 0 -0.241039142730791 0.35789964845884059 0 -0.22350506967418041 0.34648581420273689 0 -0.24061465764034129 0.34408284438474962 0 -0.241039142730791 0.35789964845884059 0 -0.25646036989131921 0.35522813450423879 0 -0.24061465764034129 0.34408284438474962 0 -0.241039142730791 0.35789964845884059 0 -0.25312128223145541 0.37178480457244328 0 -0.23149433421665849 0.37191664463003449 0 -0.241039142730791 0.35789964845884059 0 -0.25338091248938688 0.30646365546864041 0 -0.23844299108178371 0.32647473483568867 0 -0.25474707007556158 0.33891952561205912 0 -0.24061465764034129 0.34408284438474962 0 -0.23844299108178371 0.32647473483568867 0 -0.22350506967418041 0.34648581420273689 0 -0.23844299108178371 0.32647473483568867 0 -0.2131459736728101 0.32355783052722098 0 -0.22350506967418041 0.34648581420273689 0 -0.23844299108178371 0.32647473483568867 0 -0.22350506967418041 0.34648581420273689 0 -0.24061465764034129 0.34408284438474962 0 -0.23844299108178371 0.32647473483568867 0 -0.23844299108178371 0.32647473483568867 0 -0.2131459736728101 0.32355783052722098 0 -0.2281036998432813 0.30427954540199309 0 -0.2131459736728101 0.32355783052722098 0 -0.1907040926526965 0.31635802893044263 0 -0.2068690764578961 0.30478704572466248 0 -0.2040629197515236 0.34406992143909998 0 -0.2131459736728101 0.32355783052722098 0 -0.19656990340199171 0.33101413633189009 0 -0.2040629197515236 0.34406992143909998 0 -0.22350506967418041 0.34648581420273689 0 -0.2131459736728101 0.32355783052722098 0 -0.2040629197515236 0.34406992143909998 0 -0.19656990340199171 0.33101413633189009 0 -0.18902570567821761 0.34302328958551598 0 -0.18344069721493189 0.3314759202778193 0 -0.19656990340199171 0.33101413633189009 0 -0.18902570567821761 0.34302328958551598 0 -0.2131459736728101 0.32355783052722098 0 -0.19656990340199171 0.33101413633189009 0 -0.1907040926526965 0.31635802893044263 0 -0.18344069721493189 0.3314759202778193 0 -0.19656990340199171 0.33101413633189009 0 -0.1907040926526965 0.31635802893044263 0 -0.1907040926526965 0.31635802893044263 0 -0.18815991433295329 0.29779542937260178 0 -0.2068690764578961 0.30478704572466248 0 -0.18815991433295329 0.29779542937260178 0 -0.21423170178773959 0.28194439439105418 0 -0.2068690764578961 0.30478704572466248 0 -0.18815991433295329 0.29779542937260178 0 -0.21423170178773959 0.28194439439105418 0 -0.18718813573311449 0.27969030353578539 0 -0.21423170178773959 0.28194439439105418 0 -0.2068690764578961 0.30478704572466248 0 -0.2281036998432813 0.30427954540199309 0 -0.2131459736728101 0.32355783052722098 0 -0.2068690764578961 0.30478704572466248 0 -0.2281036998432813 0.30427954540199309 0 -0.21423170178773959 0.28194439439105418 0 -0.2281036998432813 0.30427954540199309 0 -0.24127526784236469 0.28419848524632291 0 -0.21423170178773959 0.28194439439105418 0 -0.24127526784236469 0.28419848524632291 0 -0.25338091248938688 0.30646365546864041 0 -0.23844299108178371 0.32647473483568867 0 -0.2281036998432813 0.30427954540199309 0 -0.25338091248938688 0.30646365546864041 0 -0.2281036998432813 0.30427954540199309 0 -0.24127526784236469 0.28419848524632291 0 -0.25124147401774211 0.23762226217384569 0 -0.25758647592664707 0.2638813985755446 0 -0.22983146302123131 0.25737430153518798 0 -0.25758647592664707 0.2638813985755446 0 -0.24127526784236469 0.28419848524632291 0 -0.22983146302123131 0.25737430153518798 0 -0.21423170178773959 0.28194439439105418 0 -0.24127526784236469 0.28419848524632291 0 -0.22983146302123131 0.25737430153518798 0 -0.22983146302123131 0.25737430153518798 0 -0.205553597989131 0.26150580031344489 0 -0.20938706557945219 0.23843414291351139 0 -0.21423170178773959 0.28194439439105418 0 -0.22983146302123131 0.25737430153518798 0 -0.205553597989131 0.26150580031344489 0 -0.21423170178773959 0.28194439439105418 0 -0.205553597989131 0.26150580031344489 0 -0.18718813573311449 0.27969030353578539 0 -0.21423170178773959 0.28194439439105418 0 -0.18718813573311449 0.27969030353578539 0 -0.205553597989131 0.26150580031344489 0 -0.18712962382411741 0.25008585919168602 0 -0.18718813573311449 0.27969030353578539 0 -0.205553597989131 0.26150580031344489 0 -0.18712962382411741 0.25008585919168602 0 -0.20938706557945219 0.23843414291351139 0 -0.18712962382411741 0.25008585919168602 0 -0.1708395831024879 0.26285197240963121 0 -0.17201299137271389 0.24603671229643051 0 -0.18712962382411741 0.25008585919168602 0 -0.1708395831024879 0.26285197240963121 0 -0.18718813573311449 0.27969030353578539 0 -0.1708395831024879 0.26285197240963121 0 -0.16076302832828671 0.25712584943817529 0 -0.17201299137271389 0.24603671229643051 0 -0.16076302832828671 0.25712584943817529 0 -0.15819105805983069 0.26646841397481391 0 -0.1503930546116993 0.26110708162770679 0 -0.1708395831024879 0.26285197240963121 0 -0.16076302832828671 0.25712584943817529 0 -0.15819105805983069 0.26646841397481391 0 -0.16076302832828671 0.25712584943817529 0 -0.1503930546116993 0.26110708162770679 0 -0.15849465336154589 0.24630261166939491 0 -0.1708395831024879 0.26285197240963121 0 -0.16014456967848939 0.27743621268051671 0 -0.15819105805983069 0.26646841397481391 0 -0.16014456967848939 0.27743621268051671 0 -0.18718813573311449 0.27969030353578539 0 -0.1708395831024879 0.26285197240963121 0 -0.16014456967848939 0.27743621268051671 0 -0.18718813573311449 0.27969030353578539 0 -0.18815991433295329 0.29779542937260178 0 -0.18718813573311449 0.27969030353578539 0 -0.17324007775025671 0.2889865175530883 0 -0.18815991433295329 0.29779542937260178 0 -0.17324007775025671 0.2889865175530883 0 -0.17006451210513929 0.29924582841910602 0 -0.16014456967848939 0.27743621268051671 0 -0.18718813573311449 0.27969030353578539 0 -0.17324007775025671 0.2889865175530883 0 -0.18815991433295329 0.29779542937260178 0 -0.177471899209203 0.31071030275085437 0 -0.17006451210513929 0.29924582841910602 0 -0.1907040926526965 0.31635802893044263 0 -0.18815991433295329 0.29779542937260178 0 -0.177471899209203 0.31071030275085437 0 -0.165936004880745 0.30943290709769972 0 -0.17006451210513929 0.29924582841910602 0 -0.1538181981446822 0.3004842672011816 0 -0.177471899209203 0.31071030275085437 0 -0.165936004880745 0.30943290709769972 0 -0.17006451210513929 0.29924582841910602 0 -0.1564488278204739 0.31332749071601312 0 -0.165936004880745 0.30943290709769972 0 -0.1538181981446822 0.3004842672011816 0 -0.17006451210513929 0.29924582841910602 0 -0.1606432569015869 0.29076481375743157 0 -0.1538181981446822 0.3004842672011816 0 -0.16014456967848939 0.27743621268051671 0 -0.17324007775025671 0.2889865175530883 0 -0.1606432569015869 0.29076481375743157 0 -0.17324007775025671 0.2889865175530883 0 -0.17006451210513929 0.29924582841910602 0 -0.1606432569015869 0.29076481375743157 0 -0.16014456967848939 0.27743621268051671 0 -0.1606432569015869 0.29076481375743157 0 -0.1544307149425366 0.28459838963774148 0 -0.1606432569015869 0.29076481375743157 0 -0.1544307149425366 0.28459838963774148 0 -0.15396945443651441 0.29101451288186392 0 -0.1544307149425366 0.28459838963774148 0 -0.14730703102064269 0.29055179998687658 0 -0.15008926267544931 0.2732246088820186 0 -0.1407332125698762 0.29092711205602562 0 -0.14447915668427089 0.28148058290361672 0 -0.14116617675910401 0.27228677453103017 0 -0.14730703102064269 0.29055179998687658 0 -0.15008926267544931 0.2732246088820186 0 -0.14730703102064269 0.29055179998687658 0 -0.14447915668427089 0.28148058290361672 0 -0.15008926267544931 0.2732246088820186 0 -0.1544307149425366 0.28459838963774148 0 -0.15396945443651441 0.29101451288186392 0 -0.14730703102064269 0.29055179998687658 0 -0.1606432569015869 0.29076481375743157 0 -0.15396945443651441 0.29101451288186392 0 -0.1538181981446822 0.3004842672011816 0 -0.15396945443651441 0.29101451288186392 0 -0.14730703102064269 0.29055179998687658 0 -0.1538181981446822 0.3004842672011816 0 -0.14730703102064269 0.29055179998687658 0 -0.1407332125698762 0.29092711205602562 0 -0.14023891980314471 0.29267022402315968 0 -0.14730703102064269 0.29055179998687658 0 -0.1407332125698762 0.29092711205602562 0 -0.14447915668427089 0.28148058290361672 0 -0.14730703102064269 0.29055179998687658 0 -0.1445247993658294 0.30787899109173372 0 -0.14730703102064269 0.29055179998687658 0 -0.1445247993658294 0.30787899109173372 0 -0.14023891980314471 0.29267022402315968 0 -0.14730703102064269 0.29055179998687658 0 -0.1538181981446822 0.3004842672011816 0 -0.1445247993658294 0.30787899109173372 0 -0.1564488278204739 0.31332749071601312 0 -0.1538181981446822 0.3004842672011816 0 -0.1445247993658294 0.30787899109173372 0 -0.1445247993658294 0.30787899109173372 0 -0.14023891980314471 0.29267022402315968 0 -0.13402047261827379 0.31459943366321591 0 -0.14023891980314471 0.29267022402315968 0 -0.13402047261827379 0.31459943366321591 0 -0.14023891980314471 0.29267022402315968 0 -0.11951352674528889 0.29573834667700499 0 -0.13402047261827379 0.31459943366321591 0 -0.1445247993658294 0.30787899109173372 0 -0.14023891980314471 0.29267022402315968 0 -0.14023891980314471 0.29267022402315968 0 -0.1193064873638774 0.27478810971615419 0 -0.11951352674528889 0.29573834667700499 0 -0.1407332125698762 0.29092711205602562 0 -0.14023891980314471 0.29267022402315968 0 -0.13216156808548279 0.26400713188352481 0 -0.1407332125698762 0.29092711205602562 0 -0.14023891980314471 0.29267022402315968 0 -0.14023891980314471 0.29267022402315968 0 -0.13216156808548279 0.26400713188352481 0 -0.1193064873638774 0.27478810971615419 0 -0.1407332125698762 0.29092711205602562 0 -0.13216156808548279 0.26400713188352481 0 -0.14116617675910401 0.27228677453103017 0 -0.14023891980314471 0.29267022402315968 0 -0.13216156808548279 0.26400713188352481 0 -0.13216156808548279 0.26400713188352481 0 -0.1216953518658548 0.25506607473002069 0 -0.1240842163678311 0.23534403974388701 0 -0.13216156808548279 0.26400713188352481 0 -0.1503930546116993 0.26110708162770679 0 -0.1417636236240036 0.24415226059194911 0 -0.1503930546116993 0.26110708162770679 0 -0.15849465336154589 0.24630261166939491 0 -0.1417636236240036 0.24415226059194911 0 -0.1503930546116993 0.26110708162770679 0 -0.15849465336154589 0.24630261166939491 0 -0.13216156808548279 0.26400713188352481 0 -0.1503930546116993 0.26110708162770679 0 -0.14116617675910401 0.27228677453103017 0 -0.16014456967848939 0.27743621268051671 0 -0.15819105805983069 0.26646841397481391 0 -0.15008926267544931 0.2732246088820186 0 -0.15819105805983069 0.26646841397481391 0 -0.1503930546116993 0.26110708162770679 0 -0.15008926267544931 0.2732246088820186 0 -0.16014456967848939 0.27743621268051671 0 -0.1544307149425366 0.28459838963774148 0 -0.15008926267544931 0.2732246088820186 0 -0.14447915668427089 0.28148058290361672 0 -0.15008926267544931 0.2732246088820186 0 -0.14116617675910401 0.27228677453103017 0 -0.1503930546116993 0.26110708162770679 0 -0.15008926267544931 0.2732246088820186 0 -0.14116617675910401 0.27228677453103017 0 -0.10701037718875719 0.27282773420177597 0 -0.1024215871121078 0.26215264693147228 0 -0.112207414283161 0.26317011359104842 0 -0.10701037718875719 0.27282773420177597 0 -0.095634817441002468 0.26940241790795422 0 -0.1024215871121078 0.26215264693147228 0 -0.10701037718875719 0.27282773420177597 0 -0.0967505402678695 0.2807376927231236 0 -0.1083662038588707 0.28430583755538957 0 -0.10701037718875719 0.27282773420177597 0 -0.0967505402678695 0.2807376927231236 0 -0.095634817441002468 0.26940241790795422 0 -0.095634817441002468 0.26940241790795422 0 -0.1024215871121078 0.26215264693147228 0 -0.089943107215429585 0.25816419963501308 0 -0.1024215871121078 0.26215264693147228 0 -0.089943107215429585 0.25816419963501308 0 -0.10625519902310331 0.24894121247517381 0 -0.089943107215429585 0.25816419963501308 0 -0.10625519902310331 0.24894121247517381 0 -0.088923442773677641 0.2428954043945287 0 -0.1024215871121078 0.26215264693147228 0 -0.112207414283161 0.26317011359104842 0 -0.10625519902310331 0.24894121247517381 0 -0.112207414283161 0.26317011359104842 0 -0.1216953518658548 0.25506607473002069 0 -0.1193064873638774 0.27478810971615419 0 -0.1216953518658548 0.25506607473002069 0 -0.1193064873638774 0.27478810971615419 0 -0.13216156808548279 0.26400713188352481 0 -0.1216953518658548 0.25506607473002069 0 -0.1193064873638774 0.27478810971615419 0 -0.112207414283161 0.26317011359104842 0 -0.1216953518658548 0.25506607473002069 0 -0.10625519902310331 0.24894121247517381 0 -0.10701037718875719 0.27282773420177597 0 -0.112207414283161 0.26317011359104842 0 -0.1193064873638774 0.27478810971615419 0 -0.10701037718875719 0.27282773420177597 0 -0.1193064873638774 0.27478810971615419 0 -0.1083662038588707 0.28430583755538957 0 -0.1193064873638774 0.27478810971615419 0 -0.11951352674528889 0.29573834667700499 0 -0.1083662038588707 0.28430583755538957 0 -0.13402047261827379 0.31459943366321591 0 -0.11951352674528889 0.29573834667700499 0 -0.1123571474708088 0.31272256710581819 0 -0.11951352674528889 0.29573834667700499 0 -0.099250087728560699 0.29743730445888927 0 -0.1123571474708088 0.31272256710581819 0 -0.099250087728560699 0.29743730445888927 0 -0.094922504102749175 0.31409556473017403 0 -0.1123571474708088 0.31272256710581819 0 -0.0967505402678695 0.2807376927231236 0 -0.099250087728560699 0.29743730445888927 0 -0.1083662038588707 0.28430583755538957 0 -0.11951352674528889 0.29573834667700499 0 -0.099250087728560699 0.29743730445888927 0 -0.1083662038588707 0.28430583755538957 0 -0.099250087728560699 0.29743730445888927 0 -0.083399928076496488 0.28682609001186887 0 -0.076912640643010927 0.30469961213334251 0 -0.0967505402678695 0.2807376927231236 0 -0.099250087728560699 0.29743730445888927 0 -0.083399928076496488 0.28682609001186887 0 -0.099250087728560699 0.29743730445888927 0 -0.076912640643010927 0.30469961213334251 0 -0.094922504102749175 0.31409556473017403 0 -0.076912640643010927 0.30469961213334251 0 -0.067842447492994465 0.28745264814399762 0 -0.060449691190533762 0.29999331893973502 0 -0.076912640643010927 0.30469961213334251 0 -0.060449691190533762 0.29999331893973502 0 -0.058290619237973067 0.31908969664955178 0 -0.083399928076496488 0.28682609001186887 0 -0.076912640643010927 0.30469961213334251 0 -0.067842447492994465 0.28745264814399762 0 -0.083399928076496488 0.28682609001186887 0 -0.067842447492994465 0.28745264814399762 0 -0.073185374046240759 0.27665291396354302 0 -0.068682187409612766 0.26969178320318687 0 -0.073185374046240759 0.27665291396354302 0 -0.060987869501014848 0.274113340431833 0 -0.067842447492994465 0.28745264814399762 0 -0.073185374046240759 0.27665291396354302 0 -0.060987869501014848 0.274113340431833 0 -0.068682187409612766 0.26969178320318687 0 -0.065024613879518536 0.2622704101821165 0 -0.060987869501014848 0.274113340431833 0 -0.068682187409612766 0.26969178320318687 0 -0.074792949453744748 0.26849526520345968 0 -0.073185374046240759 0.27665291396354302 0 -0.074792949453744748 0.26849526520345968 0 -0.083689977974341148 0.2709991903350214 0 -0.075379520658553634 0.26099478626167077 0 -0.074792949453744748 0.26849526520345968 0 -0.073185374046240759 0.27665291396354302 0 -0.083689977974341148 0.2709991903350214 0 -0.068682187409612766 0.26969178320318687 0 -0.074792949453744748 0.26849526520345968 0 -0.073027687179975612 0.2641376522538767 0 -0.0967505402678695 0.2807376927231236 0 -0.083399928076496488 0.28682609001186887 0 -0.083689977974341148 0.2709991903350214 0 -0.083399928076496488 0.28682609001186887 0 -0.073185374046240759 0.27665291396354302 0 -0.083689977974341148 0.2709991903350214 0 -0.083689977974341148 0.2709991903350214 0 -0.075379520658553634 0.26099478626167077 0 -0.095634817441002468 0.26940241790795422 0 -0.083689977974341148 0.2709991903350214 0 -0.089943107215429585 0.25816419963501308 0 -0.0967505402678695 0.2807376927231236 0 -0.095634817441002468 0.26940241790795422 0 -0.083689977974341148 0.2709991903350214 0 -0.089943107215429585 0.25816419963501308 0 -0.075379520658553634 0.26099478626167077 0 -0.088923442773677641 0.2428954043945287 0 -0.075379520658553634 0.26099478626167077 0 -0.088923442773677641 0.2428954043945287 0 -0.083689977974341148 0.2709991903350214 0 -0.089943107215429585 0.25816419963501308 0 -0.075379520658553634 0.26099478626167077 0 -0.075379520658553634 0.26099478626167077 0 -0.058684454871330401 0.24089671249510741 0 -0.075379520658553634 0.26099478626167077 0 -0.065024613879518536 0.2622704101821165 0 -0.059283572062676322 0.25669736346003491 0 -0.075379520658553634 0.26099478626167077 0 -0.059283572062676322 0.25669736346003491 0 -0.058684454871330401 0.24089671249510741 0 -0.075379520658553634 0.26099478626167077 0 -0.073027687179975612 0.2641376522538767 0 -0.065024613879518536 0.2622704101821165 0 -0.074792949453744748 0.26849526520345968 0 -0.075379520658553634 0.26099478626167077 0 -0.073027687179975612 0.2641376522538767 0 -0.075379520658553634 0.26099478626167077 0 -0.073027687179975612 0.2641376522538767 0 -0.068682187409612766 0.26969178320318687 0 -0.073027687179975612 0.2641376522538767 0 -0.065024613879518536 0.2622704101821165 0 -0.059283572062676322 0.25669736346003491 0 -0.044684585048828732 0.25364523157778279 0 -0.058684454871330401 0.24089671249510741 0 -0.065024613879518536 0.2622704101821165 0 -0.059283572062676322 0.25669736346003491 0 -0.052978198735318879 0.26471820334385499 0 -0.059283572062676322 0.25669736346003491 0 -0.052978198735318879 0.26471820334385499 0 -0.044684585048828732 0.25364523157778279 0 -0.065024613879518536 0.2622704101821165 0 -0.052978198735318879 0.26471820334385499 0 -0.060987869501014848 0.274113340431833 0 -0.052978198735318879 0.26471820334385499 0 -0.046231940097944381 0.27438534818238602 0 -0.042457042734334781 0.26488998997383661 0 -0.052978198735318879 0.26471820334385499 0 -0.060987869501014848 0.274113340431833 0 -0.046231940097944381 0.27438534818238602 0 -0.060987869501014848 0.274113340431833 0 -0.046231940097944381 0.27438534818238602 0 -0.053166782542409648 0.28729009856405258 0 -0.046231940097944381 0.27438534818238602 0 -0.034060992438127498 0.27277577762256427 0 -0.037670751057185169 0.28601095440611302 0 -0.046231940097944381 0.27438534818238602 0 -0.034060992438127498 0.27277577762256427 0 -0.042457042734334781 0.26488998997383661 0 -0.034060992438127498 0.27277577762256427 0 -0.042457042734334781 0.26488998997383661 0 -0.032855902840705081 0.2609624233304893 0 -0.044684585048828732 0.25364523157778279 0 -0.032855902840705081 0.2609624233304893 0 -0.028224460930672039 0.24786102306797789 0 -0.052978198735318879 0.26471820334385499 0 -0.044684585048828732 0.25364523157778279 0 -0.042457042734334781 0.26488998997383661 0 -0.044684585048828732 0.25364523157778279 0 -0.042457042734334781 0.26488998997383661 0 -0.032855902840705081 0.2609624233304893 0 -0.032855902840705081 0.2609624233304893 0 -0.02118178781633704 0.26040260152103012 0 -0.028224460930672039 0.24786102306797789 0 -0.02118178781633704 0.26040260152103012 0 -0.01292667695621828 0.26021059831846272 0 -0.028224460930672039 0.24786102306797789 0 -0.032855902840705081 0.2609624233304893 0 -0.02118178781633704 0.26040260152103012 0 -0.026787187870216202 0.26942518628239742 0 -0.02118178781633704 0.26040260152103012 0 -0.01292667695621828 0.26021059831846272 0 -0.019050068385695181 0.28355994265550588 0 -0.034060992438127498 0.27277577762256427 0 -0.019050068385695181 0.28355994265550588 0 -0.037670751057185169 0.28601095440611302 0 -0.02118178781633704 0.26040260152103012 0 -0.019050068385695181 0.28355994265550588 0 -0.034060992438127498 0.27277577762256427 0 -0.032855902840705081 0.2609624233304893 0 -0.026787187870216202 0.26942518628239742 0 -0.02118178781633704 0.26040260152103012 0 -0.026787187870216202 0.26942518628239742 0 -0.019050068385695181 0.28355994265550588 0 -0.034060992438127498 0.27277577762256427 0 -0.026787187870216202 0.26942518628239742 0 -0.019050068385695181 0.28355994265550588 0 -0.003274538635535746 0.26908299884594111 0 -0.002156139922442863 0.28621280957184281 0 0.0031113325240992242 0.27793868923660842 0 -0.01292667695621828 0.26021059831846272 0 -0.002156139922442863 0.28621280957184281 0 -0.003274538635535746 0.26908299884594111 0 -0.01292667695621828 0.26021059831846272 0 -0.002156139922442863 0.28621280957184281 0 -0.01292667695621828 0.26021059831846272 0 -0.002156139922442863 0.28621280957184281 0 -0.019050068385695181 0.28355994265550588 0 -0.003274538635535746 0.26908299884594111 0 -0.0021990067430706149 0.26168932046446503 0 0.0011902785683393809 0.26692144956961572 0 -0.0021990067430706149 0.26168932046446503 0 -0.00011193775520391721 0.25517212070728618 0 0.0011902785683393809 0.26692144956961572 0 -0.003274538635535746 0.26908299884594111 0 -0.0066670192839213254 0.26152512591465221 0 -0.01292667695621828 0.26021059831846272 0 -0.003274538635535746 0.26908299884594111 0 -0.0066670192839213254 0.26152512591465221 0 -0.0021990067430706149 0.26168932046446503 0 -0.0066670192839213254 0.26152512591465221 0 -0.0021990067430706149 0.26168932046446503 0 -0.0069593859884252499 0.25657207441499907 0 -0.0021990067430706149 0.26168932046446503 0 -0.00011193775520391721 0.25517212070728618 0 -0.0021990067430706149 0.26168932046446503 0 -0.00011193775520391721 0.25517212070728618 0 -0.0069593859884252499 0.25657207441499907 0 -0.00011193775520391721 0.25517212070728618 0 -0.0069593859884252499 0.25657207441499907 0 -0.0096905366651163487 0.249625733408574 0 -0.0069593859884252499 0.25657207441499907 0 -0.01292667695621828 0.26021059831846272 0 -0.0096905366651163487 0.249625733408574 0 -0.0066670192839213254 0.26152512591465221 0 -0.0069593859884252499 0.25657207441499907 0 -0.01292667695621828 0.26021059831846272 0 -0.002156139922442863 0.28621280957184281 0 -0.016918348955053321 0.30671728378998181 0 0.0086143971113345399 0.31221502082522212 0 -0.002156139922442863 0.28621280957184281 0 -0.019050068385695181 0.28355994265550588 0 -0.016918348955053321 0.30671728378998181 0 -0.019050068385695181 0.28355994265550588 0 -0.016918348955053321 0.30671728378998181 0 -0.03102417527610565 0.29940206575135397 0 -0.019050068385695181 0.28355994265550588 0 -0.03102417527610565 0.29940206575135397 0 -0.037670751057185169 0.28601095440611302 0 -0.019050068385695181 0.28355994265550588 0 -0.016918348955053321 0.30671728378998181 0 -0.016918348955053321 0.30671728378998181 0 -0.03102417527610565 0.29940206575135397 0 -0.035445741946313863 0.31928760869743911 0 -0.03102417527610565 0.29940206575135397 0 -0.046035966036280698 0.30143453920773061 0 -0.035445741946313863 0.31928760869743911 0 -0.03102417527610565 0.29940206575135397 0 -0.046035966036280698 0.30143453920773061 0 -0.037670751057185169 0.28601095440611302 0 -0.046035966036280698 0.30143453920773061 0 -0.037670751057185169 0.28601095440611302 0 -0.053166782542409648 0.28729009856405258 0 -0.046231940097944381 0.27438534818238602 0 -0.037670751057185169 0.28601095440611302 0 -0.053166782542409648 0.28729009856405258 0 -0.046035966036280698 0.30143453920773061 0 -0.053166782542409648 0.28729009856405258 0 -0.060449691190533762 0.29999331893973502 0 -0.067842447492994465 0.28745264814399762 0 -0.053166782542409648 0.28729009856405258 0 -0.060449691190533762 0.29999331893973502 0 -0.067842447492994465 0.28745264814399762 0 -0.060987869501014848 0.274113340431833 0 -0.053166782542409648 0.28729009856405258 0 -0.046035966036280698 0.30143453920773061 0 -0.060449691190533762 0.29999331893973502 0 -0.058290619237973067 0.31908969664955178 0 -0.058290619237973067 0.31908969664955178 0 -0.049474953708455227 0.33748992700664898 0 -0.035445741946313863 0.31928760869743911 0 -0.058290619237973067 0.31908969664955178 0 -0.049474953708455227 0.33748992700664898 0 -0.064023584101980183 0.33590151203636959 0 -0.049474953708455227 0.33748992700664898 0 -0.061861516436751432 0.35343473464786512 0 -0.064023584101980183 0.33590151203636959 0 -0.049474953708455227 0.33748992700664898 0 -0.03262843748424326 0.34319381666539672 0 -0.035445741946313863 0.31928760869743911 0 -0.046035966036280698 0.30143453920773061 0 -0.058290619237973067 0.31908969664955178 0 -0.035445741946313863 0.31928760869743911 0 -0.016918348955053321 0.30671728378998181 0 -0.014786629524411451 0.32987462492445768 0 -0.016918348955053321 0.30671728378998181 0 -0.035445741946313863 0.31928760869743911 0 -0.014786629524411451 0.32987462492445768 0 -0.03262843748424326 0.34319381666539672 0 -0.035445741946313863 0.31928760869743911 0 -0.014786629524411451 0.32987462492445768 0 -0.03262843748424326 0.34319381666539672 0 -0.014786629524411451 0.32987462492445768 0 -0.01265491009377208 0.35303196605893378 0 -0.0067863524078850606 0.34948112208733911 0 0.00091402235172630131 0.33084807145628131 0 0.00352664657360207 0.34324111351580311 0 -0.014786629524411451 0.32987462492445768 0 -0.0067863524078850606 0.34948112208733911 0 0.00091402235172630131 0.33084807145628131 0 -0.0067863524078850606 0.34948112208733911 0 0.00091402235172630131 0.33084807145628131 0 -0.014786629524411451 0.32987462492445768 0 -0.01265491009377208 0.35303196605893378 0 -0.016918348955053321 0.30671728378998181 0 -0.014786629524411451 0.32987462492445768 0 0.00091402235172630131 0.33084807145628131 0 -0.016918348955053321 0.30671728378998181 0 0.00091402235172630131 0.33084807145628131 0 0.0086143971113345399 0.31221502082522212 0 -0.01185315850765473 0.36174157142157132 0 -0.01859800525147505 0.37806247459832981 0 -0.01185315850765473 0.36174157142157132 0 -0.01107788045841877 0.37016358887950601 0 -0.01859800525147505 0.37806247459832981 0 -0.01185315850765473 0.36174157142157132 0 -0.01265491009377208 0.35303196605893378 0 -0.021900420160448769 0.36714355059229342 0 -0.01185315850765473 0.36174157142157132 0 -0.01107788045841877 0.37016358887950601 0 -0.0025736289457283651 0.36123100961101179 0 -0.01185315850765473 0.36174157142157132 0 -0.01107788045841877 0.37016358887950601 0 -0.01107788045841877 0.37016358887950601 0 -0.0022610491863152291 0.37261641259158551 0 -0.010404342119991141 0.37748038528613848 0 -0.01107788045841877 0.37016358887950601 0 -0.01859800525147505 0.37806247459832981 0 -0.01107788045841877 0.37016358887950601 0 -0.01859800525147505 0.37806247459832981 0 -0.011540410179137321 0.37526469641744048 0 -0.01107788045841877 0.37016358887950601 0 -0.010404342119991141 0.37748038528613848 0 -0.011540410179137321 0.37526469641744048 0 -0.01107788045841877 0.37016358887950601 0 -0.010404342119991141 0.37748038528613848 0 -0.01107788045841877 0.37016358887950601 0 -0.0022610491863152291 0.37261641259158551 0 -0.0025736289457283651 0.36123100961101179 0 -0.01107788045841877 0.37016358887950601 0 -0.0025736289457283651 0.36123100961101179 0 -0.01185315850765473 0.36174157142157132 0 -0.0025736289457283651 0.36123100961101179 0 -0.0067863524078850606 0.34948112208733911 0 -0.0025736289457283651 0.36123100961101179 0 -0.0067863524078850606 0.34948112208733911 0 0.0038867047330880238 0.35524624533010579 0 -0.014786629524411451 0.32987462492445768 0 -0.0067863524078850606 0.34948112208733911 0 -0.01265491009377208 0.35303196605893378 0 -0.0067863524078850606 0.34948112208733911 0 0.00352664657360207 0.34324111351580311 0 -0.0067863524078850606 0.34948112208733911 0 -0.01265491009377208 0.35303196605893378 0 -0.01185315850765473 0.36174157142157132 0 -0.0067863524078850606 0.34948112208733911 0 -0.01265491009377208 0.35303196605893378 0 -0.01185315850765473 0.36174157142157132 0 -0.01265491009377208 0.35303196605893378 0 -0.01185315850765473 0.36174157142157132 0 -0.0067863524078850606 0.34948112208733911 0 -0.01265491009377208 0.35303196605893378 0 -0.033181703852697503 0.36545195846189371 0 -0.03262843748424326 0.34319381666539672 0 -0.01265491009377208 0.35303196605893378 0 -0.033181703852697503 0.36545195846189371 0 -0.01265491009377208 0.35303196605893378 0 -0.021900420160448769 0.36714355059229342 0 -0.033181703852697503 0.36545195846189371 0 -0.01185315850765473 0.36174157142157132 0 -0.021900420160448769 0.36714355059229342 0 -0.01859800525147505 0.37806247459832981 0 -0.021900420160448769 0.36714355059229342 0 -0.033181703852697503 0.36545195846189371 0 -0.035239545781749197 0.38016752181997299 0 -0.033181703852697503 0.36545195846189371 0 -0.053708497611622469 0.37787195086485448 0 -0.035239545781749197 0.38016752181997299 0 -0.033181703852697503 0.36545195846189371 0 -0.045172417349331258 0.35456290915451821 0 -0.053708497611622469 0.37787195086485448 0 -0.033181703852697503 0.36545195846189371 0 -0.053708497611622469 0.37787195086485448 0 -0.049474953708455227 0.33748992700664898 0 -0.03262843748424326 0.34319381666539672 0 -0.045172417349331258 0.35456290915451821 0 -0.03262843748424326 0.34319381666539672 0 -0.033181703852697503 0.36545195846189371 0 -0.045172417349331258 0.35456290915451821 0 -0.049474953708455227 0.33748992700664898 0 -0.045172417349331258 0.35456290915451821 0 -0.061861516436751432 0.35343473464786512 0 -0.061861516436751432 0.35343473464786512 0 -0.071119897719893146 0.37135249078060723 0 -0.053708497611622469 0.37787195086485448 0 -0.045172417349331258 0.35456290915451821 0 -0.061861516436751432 0.35343473464786512 0 -0.053708497611622469 0.37787195086485448 0 -0.071119897719893146 0.37135249078060723 0 -0.087537876712825355 0.35822434741815151 0 -0.074314185768825342 0.35710435420561498 0 -0.061861516436751432 0.35343473464786512 0 -0.071119897719893146 0.37135249078060723 0 -0.074314185768825342 0.35710435420561498 0 -0.087537876712825355 0.35822434741815151 0 -0.1010170173262686 0.36715648701043341 0 -0.088942563050748852 0.3752687555785052 0 -0.071119897719893146 0.37135249078060723 0 -0.087537876712825355 0.35822434741815151 0 -0.088942563050748852 0.3752687555785052 0 -0.087537876712825355 0.35822434741815151 0 -0.076737452205831433 0.34540584397583629 0 -0.074314185768825342 0.35710435420561498 0 -0.087537876712825355 0.35822434741815151 0 -0.076737452205831433 0.34540584397583629 0 -0.092345894717351343 0.3430617879442226 0 -0.061861516436751432 0.35343473464786512 0 -0.076737452205831433 0.34540584397583629 0 -0.064023584101980183 0.33590151203636959 0 -0.061861516436751432 0.35343473464786512 0 -0.076737452205831433 0.34540584397583629 0 -0.074314185768825342 0.35710435420561498 0 -0.076737452205831433 0.34540584397583629 0 -0.064023584101980183 0.33590151203636959 0 -0.081461087969779536 0.32490267886745722 0 -0.058290619237973067 0.31908969664955178 0 -0.081461087969779536 0.32490267886745722 0 -0.076912640643010927 0.30469961213334251 0 -0.058290619237973067 0.31908969664955178 0 -0.081461087969779536 0.32490267886745722 0 -0.058290619237973067 0.31908969664955178 0 -0.064023584101980183 0.33590151203636959 0 -0.081461087969779536 0.32490267886745722 0 -0.081461087969779536 0.32490267886745722 0 -0.1046315567015859 0.33071566108536249 0 -0.094922504102749175 0.31409556473017403 0 -0.081461087969779536 0.32490267886745722 0 -0.1046315567015859 0.33071566108536249 0 -0.076912640643010927 0.30469961213334251 0 -0.081461087969779536 0.32490267886745722 0 -0.094922504102749175 0.31409556473017403 0 -0.081461087969779536 0.32490267886745722 0 -0.092345894717351343 0.3430617879442226 0 -0.1046315567015859 0.33071566108536249 0 -0.076737452205831433 0.34540584397583629 0 -0.081461087969779536 0.32490267886745722 0 -0.092345894717351343 0.3430617879442226 0 -0.092345894717351343 0.3430617879442226 0 -0.1046315567015859 0.33071566108536249 0 -0.1056639718810469 0.34957315410511552 0 -0.1046315567015859 0.33071566108536249 0 -0.094922504102749175 0.31409556473017403 0 -0.1123571474708088 0.31272256710581819 0 -0.1046315567015859 0.33071566108536249 0 -0.1123571474708088 0.31272256710581819 0 -0.1208179330180239 0.3233426548663958 0 -0.13402047261827379 0.31459943366321591 0 -0.1123571474708088 0.31272256710581819 0 -0.1208179330180239 0.3233426548663958 0 -0.127802025433392 0.33652864330326893 0 -0.1046315567015859 0.33071566108536249 0 -0.1208179330180239 0.3233426548663958 0 -0.127802025433392 0.33652864330326893 0 -0.1046315567015859 0.33071566108536249 0 -0.127802025433392 0.33652864330326893 0 -0.1046315567015859 0.33071566108536249 0 -0.1056639718810469 0.34957315410511552 0 -0.127802025433392 0.33652864330326893 0 -0.12064946039485799 0.36175199786925438 0 -0.1056639718810469 0.34957315410511552 0 -0.127802025433392 0.33652864330326893 0 -0.12064946039485799 0.36175199786925438 0 -0.12064946039485799 0.36175199786925438 0 -0.1010170173262686 0.36715648701043341 0 -0.1073265901474993 0.37799449046736211 0 -0.12064946039485799 0.36175199786925438 0 -0.1134968953563239 0.38697535243523989 0 -0.12064946039485799 0.36175199786925438 0 -0.1010170173262686 0.36715648701043341 0 -0.1056639718810469 0.34957315410511552 0 -0.1010170173262686 0.36715648701043341 0 -0.097922465712378837 0.37968505039470007 0 -0.1073265901474993 0.37799449046736211 0 -0.1010170173262686 0.36715648701043341 0 -0.097922465712378837 0.37968505039470007 0 -0.088942563050748852 0.3752687555785052 0 -0.087537876712825355 0.35822434741815151 0 -0.092345894717351343 0.3430617879442226 0 -0.1056639718810469 0.34957315410511552 0 -0.087537876712825355 0.35822434741815151 0 -0.1010170173262686 0.36715648701043341 0 -0.1056639718810469 0.34957315410511552 0 -0.1071323807826971 0.39848149802177252 0 -0.1095660833553561 0.385559597085601 0 -0.099387962445081843 0.40910799399308889 0 -0.099852770390436343 0.39770962187327952 0 -0.1095660833553561 0.385559597085601 0 -0.099387962445081843 0.40910799399308889 0 -0.1095660833553561 0.385559597085601 0 -0.099387962445081843 0.40910799399308889 0 -0.099852770390436343 0.39770962187327952 0 -0.1012904898863705 0.38639273643342759 0 -0.092236131645059005 0.40620230976523353 0 -0.1012904898863705 0.38639273643342759 0 -0.092236131645059005 0.40620230976523353 0 -0.1012904898863705 0.38639273643342759 0 -0.090652595520233845 0.3935044995436745 0 -0.092236131645059005 0.40620230976523353 0 -0.1071323807826971 0.39848149802177252 0 -0.1095660833553561 0.385559597085601 0 -0.1098869863941008 0.39220188579097548 0 -0.1071323807826971 0.39848149802177252 0 -0.110215867919171 0.40298479214337818 0 -0.1062829114791239 0.4063173546176107 0 -0.1071323807826971 0.39848149802177252 0 -0.1062829114791239 0.4063173546176107 0 -0.099387962445081843 0.40910799399308889 0 -0.110215867919171 0.40298479214337818 0 -0.11053070609709779 0.40838516378315481 0 -0.1062829114791239 0.4063173546176107 0 -0.099852770390436343 0.39770962187327952 0 -0.099387962445081843 0.40910799399308889 0 -0.092236131645059005 0.40620230976523353 0 -0.1012904898863705 0.38639273643342759 0 -0.097922465712378837 0.37968505039470007 0 -0.090792301401334943 0.38527997033883032 0 -0.1012904898863705 0.38639273643342759 0 -0.090652595520233845 0.3935044995436745 0 -0.090792301401334943 0.38527997033883032 0 -0.1012904898863705 0.38639273643342759 0 -0.097922465712378837 0.37968505039470007 0 -0.1073265901474993 0.37799449046736211 0 -0.099852770390436343 0.39770962187327952 0 -0.1012904898863705 0.38639273643342759 0 -0.1095660833553561 0.385559597085601 0 -0.1012904898863705 0.38639273643342759 0 -0.1073265901474993 0.37799449046736211 0 -0.1095660833553561 0.385559597085601 0 -0.1134968953563239 0.38697535243523989 0 -0.12182170936468199 0.38797141707274679 0 -0.1145906530040092 0.39120460698619619 0 -0.111770356605617 0.38895807136107857 0 -0.1095660833553561 0.385559597085601 0 -0.1134968953563239 0.38697535243523989 0 -0.12064946039485799 0.36175199786925438 0 -0.1073265901474993 0.37799449046736211 0 -0.1134968953563239 0.38697535243523989 0 -0.111770356605617 0.38895807136107857 0 -0.1095660833553561 0.385559597085601 0 -0.1098869863941008 0.39220188579097548 0 -0.12064946039485799 0.36175199786925438 0 -0.1134968953563239 0.38697535243523989 0 -0.12409617984858549 0.37797054131832492 0 -0.1073265901474993 0.37799449046736211 0 -0.1095660833553561 0.385559597085601 0 -0.1134968953563239 0.38697535243523989 0 -0.111770356605617 0.38895807136107857 0 -0.1134968953563239 0.38697535243523989 0 -0.1145906530040092 0.39120460698619619 0 -0.1134968953563239 0.38697535243523989 0 -0.12409617984858549 0.37797054131832492 0 -0.12182170936468199 0.38797141707274679 0 -0.1177472055668977 0.39367980817949938 0 -0.113922824786007 0.39770308352651218 0 -0.1227247137401461 0.39959294009767438 0 -0.12182170936468199 0.38797141707274679 0 -0.1177472055668977 0.39367980817949938 0 -0.1227247137401461 0.39959294009767438 0 -0.12182170936468199 0.38797141707274679 0 -0.1177472055668977 0.39367980817949938 0 -0.1145906530040092 0.39120460698619619 0 -0.1177472055668977 0.39367980817949938 0 -0.1145906530040092 0.39120460698619619 0 -0.113922824786007 0.39770308352651218 0 -0.1071323807826971 0.39848149802177252 0 -0.113922824786007 0.39770308352651218 0 -0.1098869863941008 0.39220188579097548 0 -0.111770356605617 0.38895807136107857 0 -0.1145906530040092 0.39120460698619619 0 -0.1098869863941008 0.39220188579097548 0 -0.1145906530040092 0.39120460698619619 0 -0.113922824786007 0.39770308352651218 0 -0.1098869863941008 0.39220188579097548 0 -0.113922824786007 0.39770308352651218 0 -0.110215867919171 0.40298479214337818 0 -0.1156211577823493 0.40588521031978753 0 -0.110215867919171 0.40298479214337818 0 -0.1156211577823493 0.40588521031978753 0 -0.11053070609709779 0.40838516378315481 0 -0.1071323807826971 0.39848149802177252 0 -0.113922824786007 0.39770308352651218 0 -0.110215867919171 0.40298479214337818 0 -0.113922824786007 0.39770308352651218 0 -0.1156211577823493 0.40588521031978753 0 -0.1227247137401461 0.39959294009767438 0 -0.1156211577823493 0.40588521031978753 0 -0.1227247137401461 0.39959294009767438 0 -0.1236455351503008 0.40951412160870387 0 -0.1152835438849148 0.41447652666147639 0 -0.1115224899601036 0.42969771739301132 0 -0.10525004941993001 0.41226193517352111 0 -0.1156211577823493 0.40588521031978753 0 -0.1236455351503008 0.40951412160870387 0 -0.1152835438849148 0.41447652666147639 0 -0.12583354385699089 0.42060104052817121 0 -0.1236455351503008 0.40951412160870387 0 -0.1152835438849148 0.41447652666147639 0 -0.12583354385699089 0.42060104052817121 0 -0.1152835438849148 0.41447652666147639 0 -0.1115224899601036 0.42969771739301132 0 -0.1156211577823493 0.40588521031978753 0 -0.1152835438849148 0.41447652666147639 0 -0.11053070609709779 0.40838516378315481 0 -0.1152835438849148 0.41447652666147639 0 -0.11053070609709779 0.40838516378315481 0 -0.10525004941993001 0.41226193517352111 0 -0.12653184718620369 0.4336263234919227 0 -0.1115224899601036 0.42969771739301132 0 -0.1177949305002824 0.44713349961249971 0 -0.12653184718620369 0.4336263234919227 0 -0.12583354385699089 0.42060104052817121 0 -0.1115224899601036 0.42969771739301132 0 -0.10011511243938651 0.42414974138102107 0 -0.099387962445081843 0.40910799399308889 0 -0.089209841534809292 0.43265639090057739 0 -0.1115224899601036 0.42969771739301132 0 -0.10011511243938651 0.42414974138102107 0 -0.10525004941993001 0.41226193517352111 0 -0.1115224899601036 0.42969771739301132 0 -0.10353443919384681 0.43653209462802589 0 -0.10011511243938651 0.42414974138102107 0 -0.10353443919384681 0.43653209462802589 0 -0.10011511243938651 0.42414974138102107 0 -0.089209841534809292 0.43265639090057739 0 -0.1115224899601036 0.42969771739301132 0 -0.10525004941993001 0.41226193517352111 0 -0.099387962445081843 0.40910799399308889 0 -0.089209841534809292 0.43265639090057739 0 -0.10525004941993001 0.41226193517352111 0 -0.1062829114791239 0.4063173546176107 0 -0.099387962445081843 0.40910799399308889 0 -0.11053070609709779 0.40838516378315481 0 -0.10525004941993001 0.41226193517352111 0 -0.1062829114791239 0.4063173546176107 0 -0.10011511243938651 0.42414974138102107 0 -0.10525004941993001 0.41226193517352111 0 -0.099387962445081843 0.40910799399308889 0 -0.099387962445081843 0.40910799399308889 0 -0.091003927257174946 0.41849464443898471 0 -0.092236131645059005 0.40620230976523353 0 -0.099387962445081843 0.40910799399308889 0 -0.091003927257174946 0.41849464443898471 0 -0.089209841534809292 0.43265639090057739 0 -0.083181773403748688 0.42601188309703991 0 -0.092236131645059005 0.40620230976523353 0 -0.082687394812680753 0.41298560074296392 0 -0.083181773403748688 0.42601188309703991 0 -0.092236131645059005 0.40620230976523353 0 -0.091003927257174946 0.41849464443898471 0 -0.083181773403748688 0.42601188309703991 0 -0.092236131645059005 0.40620230976523353 0 -0.082687394812680753 0.41298560074296392 0 -0.083561060598767514 0.40596050324180499 0 -0.092236131645059005 0.40620230976523353 0 -0.082687394812680753 0.41298560074296392 0 -0.083181773403748688 0.42601188309703991 0 -0.072528074783786117 0.41426872059824033 0 -0.082687394812680753 0.41298560074296392 0 -0.078117185115211984 0.40786305820790569 0 -0.083561060598767514 0.40596050324180499 0 -0.091003927257174946 0.41849464443898471 0 -0.089209841534809292 0.43265639090057739 0 -0.083181773403748688 0.42601188309703991 0 -0.089209841534809292 0.43265639090057739 0 -0.083181773403748688 0.42601188309703991 0 -0.089209841534809292 0.43265639090057739 0 -0.083181773403748688 0.42601188309703991 0 -0.079149693293618234 0.43483346763042741 0 -0.083181773403748688 0.42601188309703991 0 -0.079149693293618234 0.43483346763042741 0 -0.083181773403748688 0.42601188309703991 0 -0.079149693293618234 0.43483346763042741 0 -0.066791245495585266 0.42526780044426132 0 -0.079149693293618234 0.43483346763042741 0 -0.066791245495585266 0.42526780044426132 0 -0.061698169792609281 0.44011466250837472 0 -0.079149693293618234 0.43483346763042741 0 -0.066791245495585266 0.42526780044426132 0 -0.083181773403748688 0.42601188309703991 0 -0.066791245495585266 0.42526780044426132 0 -0.072528074783786117 0.41426872059824033 0 -0.082687394812680753 0.41298560074296392 0 -0.078117185115211984 0.40786305820790569 0 -0.072528074783786117 0.41426872059824033 0 -0.078117185115211984 0.40786305820790569 0 -0.072528074783786117 0.41426872059824033 0 -0.072641434039588226 0.40435679660259488 0 -0.083181773403748688 0.42601188309703991 0 -0.072528074783786117 0.41426872059824033 0 -0.066791245495585266 0.42526780044426132 0 -0.072528074783786117 0.41426872059824033 0 -0.062254787702593913 0.41179277406868198 0 -0.072528074783786117 0.41426872059824033 0 -0.061874376163823117 0.40252555809944113 0 -0.072528074783786117 0.41426872059824033 0 -0.061874376163823117 0.40252555809944113 0 -0.062254787702593913 0.41179277406868198 0 -0.072528074783786117 0.41426872059824033 0 -0.072641434039588226 0.40435679660259488 0 -0.061874376163823117 0.40252555809944113 0 -0.071986596115658302 0.39495829288983392 0 -0.072641434039588226 0.40435679660259488 0 -0.061874376163823117 0.40252555809944113 0 -0.071986596115658302 0.39495829288983392 0 -0.068603448285188551 0.38461821436657051 0 -0.060783872192197129 0.39236200885398209 0 -0.071986596115658302 0.39495829288983392 0 -0.061874376163823117 0.40252555809944113 0 -0.060783872192197129 0.39236200885398209 0 -0.071986596115658302 0.39495829288983392 0 -0.079167961341237381 0.40174366985392479 0 -0.082971165670244235 0.39339195997946219 0 -0.071986596115658302 0.39495829288983392 0 -0.082971165670244235 0.39339195997946219 0 -0.079163886241576914 0.38428213297514141 0 -0.071986596115658302 0.39495829288983392 0 -0.072641434039588226 0.40435679660259488 0 -0.079167961341237381 0.40174366985392479 0 -0.078117185115211984 0.40786305820790569 0 -0.072641434039588226 0.40435679660259488 0 -0.079167961341237381 0.40174366985392479 0 -0.078117185115211984 0.40786305820790569 0 -0.083561060598767514 0.40596050324180499 0 -0.079167961341237381 0.40174366985392479 0 -0.079167961341237381 0.40174366985392479 0 -0.082971165670244235 0.39339195997946219 0 -0.086063653401424134 0.40058319427536843 0 -0.083561060598767514 0.40596050324180499 0 -0.079167961341237381 0.40174366985392479 0 -0.086063653401424134 0.40058319427536843 0 -0.082971165670244235 0.39339195997946219 0 -0.090652595520233845 0.3935044995436745 0 -0.086063653401424134 0.40058319427536843 0 -0.082971165670244235 0.39339195997946219 0 -0.090652595520233845 0.3935044995436745 0 -0.090792301401334943 0.38527997033883032 0 -0.090652595520233845 0.3935044995436745 0 -0.092236131645059005 0.40620230976523353 0 -0.086063653401424134 0.40058319427536843 0 -0.083561060598767514 0.40596050324180499 0 -0.092236131645059005 0.40620230976523353 0 -0.086063653401424134 0.40058319427536843 0 -0.071119897719893146 0.37135249078060723 0 -0.088942563050748852 0.3752687555785052 0 -0.079163886241576914 0.38428213297514141 0 -0.088942563050748852 0.3752687555785052 0 -0.090792301401334943 0.38527997033883032 0 -0.079163886241576914 0.38428213297514141 0 -0.097922465712378837 0.37968505039470007 0 -0.088942563050748852 0.3752687555785052 0 -0.090792301401334943 0.38527997033883032 0 -0.082971165670244235 0.39339195997946219 0 -0.090792301401334943 0.38527997033883032 0 -0.079163886241576914 0.38428213297514141 0 -0.071119897719893146 0.37135249078060723 0 -0.079163886241576914 0.38428213297514141 0 -0.068603448285188551 0.38461821436657051 0 -0.071119897719893146 0.37135249078060723 0 -0.068603448285188551 0.38461821436657051 0 -0.053708497611622469 0.37787195086485448 0 -0.071986596115658302 0.39495829288983392 0 -0.079163886241576914 0.38428213297514141 0 -0.068603448285188551 0.38461821436657051 0 -0.068603448285188551 0.38461821436657051 0 -0.053708497611622469 0.37787195086485448 0 -0.060783872192197129 0.39236200885398209 0 -0.053708497611622469 0.37787195086485448 0 -0.060783872192197129 0.39236200885398209 0 -0.048242705857822907 0.3906678074368094 0 -0.055647444372222611 0.4011996579433722 0 -0.037485280635196593 0.39790103232197221 0 -0.054432797697552229 0.41570213325809541 0 -0.055647444372222611 0.4011996579433722 0 -0.048242705857822907 0.3906678074368094 0 -0.037485280635196593 0.39790103232197221 0 -0.061874376163823117 0.40252555809944113 0 -0.055647444372222611 0.4011996579433722 0 -0.060783872192197129 0.39236200885398209 0 -0.061874376163823117 0.40252555809944113 0 -0.055647444372222611 0.4011996579433722 0 -0.062254787702593913 0.41179277406868198 0 -0.055647444372222611 0.4011996579433722 0 -0.060783872192197129 0.39236200885398209 0 -0.048242705857822907 0.3906678074368094 0 -0.042006112939618007 0.4060836494028065 0 -0.029579428181683531 0.39646516554751809 0 -0.033599638975139678 0.41436281184786511 0 -0.055647444372222611 0.4011996579433722 0 -0.037485280635196593 0.39790103232197221 0 -0.037485280635196593 0.39790103232197221 0 -0.029579428181683531 0.39646516554751809 0 -0.042006112939618007 0.4060836494028065 0 -0.037485280635196593 0.39790103232197221 0 -0.029579428181683531 0.39646516554751809 0 -0.042006112939618007 0.4060836494028065 0 -0.029579428181683531 0.39646516554751809 0 -0.048242705857822907 0.3906678074368094 0 -0.037485280635196593 0.39790103232197221 0 -0.035239545781749197 0.38016752181997299 0 -0.053708497611622469 0.37787195086485448 0 -0.048242705857822907 0.3906678074368094 0 -0.035239545781749197 0.38016752181997299 0 -0.037485280635196593 0.39790103232197221 0 -0.01859800525147505 0.37806247459832981 0 -0.02461527641272131 0.3926228202579205 0 -0.037485280635196593 0.39790103232197221 0 -0.035239545781749197 0.38016752181997299 0 -0.01859800525147505 0.37806247459832981 0 -0.021900420160448769 0.36714355059229342 0 -0.035239545781749197 0.38016752181997299 0 -0.01859800525147505 0.37806247459832981 0 -0.037485280635196593 0.39790103232197221 0 -0.01859800525147505 0.37806247459832981 0 -0.01859800525147505 0.37806247459832981 0 -0.02461527641272131 0.3926228202579205 0 -0.01003897335495451 0.38144946724421358 0 -0.02461527641272131 0.3926228202579205 0 -0.012463636938452861 0.39259788852077743 0 -0.01003897335495451 0.38144946724421358 0 -0.01859800525147505 0.37806247459832981 0 -0.02461527641272131 0.3926228202579205 0 -0.02461527641272131 0.3926228202579205 0 -0.01003897335495451 0.38144946724421358 0 -0.025929204380663481 0.39580220919891418 0 -0.033599638975139678 0.41436281184786511 0 -0.025929204380663481 0.39580220919891418 0 -0.02327427339818821 0.40627712787871978 0 -0.033599638975139678 0.41436281184786511 0 -0.037485280635196593 0.39790103232197221 0 -0.029579428181683531 0.39646516554751809 0 -0.02461527641272131 0.3926228202579205 0 -0.029579428181683531 0.39646516554751809 0 -0.025929204380663481 0.39580220919891418 0 -0.033599638975139678 0.41436281184786511 0 -0.029579428181683531 0.39646516554751809 0 -0.025929204380663481 0.39580220919891418 0 -0.029579428181683531 0.39646516554751809 0 -0.025929204380663481 0.39580220919891418 0 -0.02461527641272131 0.3926228202579205 0 -0.029579428181683531 0.39646516554751809 0 -0.02461527641272131 0.3926228202579205 0 -0.025929204380663481 0.39580220919891418 0 -0.02461527641272131 0.3926228202579205 0 -0.025929204380663481 0.39580220919891418 0 -0.01722739249154371 0.39896018905207242 0 -0.02327427339818821 0.40627712787871978 0 -0.01722739249154371 0.39896018905207242 0 -0.01598469003716177 0.40765469296236212 0 -0.02327427339818821 0.40627712787871978 0 -0.025929204380663481 0.39580220919891418 0 -0.012463636938452861 0.39259788852077743 0 -0.01084312041485583 0.3930622634624481 0 -0.025929204380663481 0.39580220919891418 0 -0.02461527641272131 0.3926228202579205 0 -0.012463636938452861 0.39259788852077743 0 -0.025929204380663481 0.39580220919891418 0 -0.01722739249154371 0.39896018905207242 0 -0.01084312041485583 0.3930622634624481 0 -0.025929204380663481 0.39580220919891418 0 -0.01084312041485583 0.3930622634624481 0 -0.01722739249154371 0.39896018905207242 0 -0.0090007741844264372 0.39272765517639308 0 -0.01084312041485583 0.3930622634624481 0 -0.012463636938452861 0.39259788852077743 0 -0.01084312041485583 0.3930622634624481 0 -0.012463636938452861 0.39259788852077743 0 -0.0090007741844264372 0.39272765517639308 0 -0.01084312041485583 0.3930622634624481 0 -0.0090007741844264372 0.39272765517639308 0 -0.01084312041485583 0.3930622634624481 0 -0.01722739249154371 0.39896018905207242 0 -0.0090007741844264372 0.39272765517639308 0 -0.01598469003716177 0.40765469296236212 0 -0.0090007741844264372 0.39272765517639308 0 -0.00096327236351288715 0.3958934310536153 0 -0.0012936573118222481 0.40743927955417442 0 -0.0090007741844264372 0.39272765517639308 0 -0.00096327236351288715 0.3958934310536153 0 -0.0090007741844264372 0.39272765517639308 0 -0.00096327236351288715 0.3958934310536153 0 -0.0031329232034019191 0.39166193173788189 0 -0.0090007741844264372 0.39272765517639308 0 -0.0031329232034019191 0.39166193173788189 0 -0.00096327236351288715 0.3958934310536153 0 -0.0031329232034019191 0.39166193173788189 0 -0.0090007741844264372 0.39272765517639308 0 -0.0031329232034019191 0.39166193173788189 0 -0.01003897335495451 0.38144946724421358 0 -0.0031329232034019191 0.39166193173788189 0 -0.010404342119991141 0.37748038528613848 0 -0.0031329232034019191 0.39166193173788189 0 -0.0003215519375964703 0.38162524250019381 0 -0.010404342119991141 0.37748038528613848 0 -0.0022610491863152291 0.37261641259158551 0 -0.0003215519375964703 0.38162524250019381 0 -0.010404342119991141 0.37748038528613848 0 -0.01003897335495451 0.38144946724421358 0 -0.010404342119991141 0.37748038528613848 0 -0.01859800525147505 0.37806247459832981 0 -0.010404342119991141 0.37748038528613848 0 -0.011540410179137321 0.37526469641744048 0 -0.01859800525147505 0.37806247459832981 0 -0.01003897335495451 0.38144946724421358 0 -0.010404342119991141 0.37748038528613848 0 -0.010404342119991141 0.37748038528613848 0 -0.011540410179137321 0.37526469641744048 0 -0.0090007741844264372 0.39272765517639308 0 -0.01003897335495451 0.38144946724421358 0 -0.0031329232034019191 0.39166193173788189 0 -0.01003897335495451 0.38144946724421358 0 -0.010404342119991141 0.37748038528613848 0 -0.012463636938452861 0.39259788852077743 0 -0.0090007741844264372 0.39272765517639308 0 -0.01003897335495451 0.38144946724421358 0 -0.0065013633511284028 0.41987930959671688 0 -0.0040835047796066171 0.44614504370355579 0 -0.0065013633511284028 0.41987930959671688 0 -0.02152265054074632 0.42435258902347839 0 -0.018391439556199391 0.44074267982512522 0 -0.0065013633511284028 0.41987930959671688 0 -0.018391439556199391 0.44074267982512522 0 -0.0040835047796066171 0.44614504370355579 0 -0.0065013633511284028 0.41987930959671688 0 -0.0040835047796066171 0.44614504370355579 0 0.0068076146682195778 0.43247067270718242 0 -0.0090007741844264372 0.39272765517639308 0 -0.0065013633511284028 0.41987930959671688 0 -0.0090007741844264372 0.39272765517639308 0 -0.0065013633511284028 0.41987930959671688 0 -0.0012936573118222481 0.40743927955417442 0 -0.0065013633511284028 0.41987930959671688 0 -0.022731357952027791 0.41457959356100088 0 -0.01598469003716177 0.40765469296236212 0 -0.0090007741844264372 0.39272765517639308 0 -0.0065013633511284028 0.41987930959671688 0 -0.01598469003716177 0.40765469296236212 0 -0.0065013633511284028 0.41987930959671688 0 -0.022731357952027791 0.41457959356100088 0 -0.02152265054074632 0.42435258902347839 0 -0.022731357952027791 0.41457959356100088 0 -0.01598469003716177 0.40765469296236212 0 -0.02327427339818821 0.40627712787871978 0 -0.022731357952027791 0.41457959356100088 0 -0.02327427339818821 0.40627712787871978 0 -0.033599638975139678 0.41436281184786511 0 -0.022731357952027791 0.41457959356100088 0 -0.02152265054074632 0.42435258902347839 0 -0.033599638975139678 0.41436281184786511 0 -0.02152265054074632 0.42435258902347839 0 -0.035257659937889048 0.42403256688703461 0 -0.033599638975139678 0.41436281184786511 0 -0.02152265054074632 0.42435258902347839 0 -0.03269937433279238 0.43534031594669498 0 -0.035257659937889048 0.42403256688703461 0 -0.02152265054074632 0.42435258902347839 0 -0.03269937433279238 0.43534031594669498 0 -0.018391439556199391 0.44074267982512522 0 -0.03269937433279238 0.43534031594669498 0 -0.035257659937889048 0.42403256688703461 0 -0.044693250719756029 0.42822586984636268 0 -0.044693250719756029 0.42822586984636268 0 -0.043773385121010887 0.4178812477707714 0 -0.050690394756234797 0.42221086008001862 0 -0.035257659937889048 0.42403256688703461 0 -0.044693250719756029 0.42822586984636268 0 -0.043773385121010887 0.4178812477707714 0 -0.03269937433279238 0.43534031594669498 0 -0.044693250719756029 0.42822586984636268 0 -0.047046964944553432 0.44016493566752918 0 -0.037485280635196593 0.39790103232197221 0 -0.054432797697552229 0.41570213325809541 0 -0.042006112939618007 0.4060836494028065 0 -0.037485280635196593 0.39790103232197221 0 -0.054432797697552229 0.41570213325809541 0 -0.035257659937889048 0.42403256688703461 0 -0.033599638975139678 0.41436281184786511 0 -0.043773385121010887 0.4178812477707714 0 -0.042006112939618007 0.4060836494028065 0 -0.033599638975139678 0.41436281184786511 0 -0.043773385121010887 0.4178812477707714 0 -0.042006112939618007 0.4060836494028065 0 -0.043773385121010887 0.4178812477707714 0 -0.054432797697552229 0.41570213325809541 0 -0.042006112939618007 0.4060836494028065 0 -0.054432797697552229 0.41570213325809541 0 -0.043773385121010887 0.4178812477707714 0 -0.054432797697552229 0.41570213325809541 0 -0.050690394756234797 0.42221086008001862 0 -0.054432797697552229 0.41570213325809541 0 -0.057375021314094179 0.41879254581717479 0 -0.050690394756234797 0.42221086008001862 0 -0.066791245495585266 0.42526780044426132 0 -0.054432797697552229 0.41570213325809541 0 -0.062254787702593913 0.41179277406868198 0 -0.066791245495585266 0.42526780044426132 0 -0.054432797697552229 0.41570213325809541 0 -0.066791245495585266 0.42526780044426132 0 -0.054432797697552229 0.41570213325809541 0 -0.057375021314094179 0.41879254581717479 0 -0.057375021314094179 0.41879254581717479 0 -0.050690394756234797 0.42221086008001862 0 -0.056059771477729767 0.42446569252963767 0 -0.054432797697552229 0.41570213325809541 0 -0.057375021314094179 0.41879254581717479 0 -0.055647444372222611 0.4011996579433722 0 -0.054432797697552229 0.41570213325809541 0 -0.062254787702593913 0.41179277406868198 0 -0.044693250719756029 0.42822586984636268 0 -0.056410859879968488 0.43027871349012009 0 -0.047046964944553432 0.44016493566752918 0 -0.044693250719756029 0.42822586984636268 0 -0.050690394756234797 0.42221086008001862 0 -0.056410859879968488 0.43027871349012009 0 -0.050690394756234797 0.42221086008001862 0 -0.056059771477729767 0.42446569252963767 0 -0.056410859879968488 0.43027871349012009 0 -0.066791245495585266 0.42526780044426132 0 -0.057375021314094179 0.41879254581717479 0 -0.056059771477729767 0.42446569252963767 0 -0.066791245495585266 0.42526780044426132 0 -0.056059771477729767 0.42446569252963767 0 -0.056410859879968488 0.43027871349012009 0 -0.056410859879968488 0.43027871349012009 0 -0.061698169792609281 0.44011466250837472 0 -0.047046964944553432 0.44016493566752918 0 -0.066791245495585266 0.42526780044426132 0 -0.056410859879968488 0.43027871349012009 0 -0.061698169792609281 0.44011466250837472 0 -0.061698169792609281 0.44011466250837472 0 -0.049469425686008602 0.45573136760037952 0 -0.070826258472084999 0.45304389050916249 0 -0.061698169792609281 0.44011466250837472 0 -0.047046964944553432 0.44016493566752918 0 -0.049469425686008602 0.45573136760037952 0 -0.049469425686008602 0.45573136760037952 0 -0.070826258472084999 0.45304389050916249 0 -0.049469425686008602 0.45573136760037952 0 -0.060095148068359118 0.47652194525458169 0 -0.070826258472084999 0.45304389050916249 0 -0.049469425686008602 0.45573136760037952 0 -0.03542389645848687 0.44663286776537542 0 -0.028112592899931722 0.45841884469159272 0 -0.049469425686008602 0.45573136760037952 0 -0.028112592899931722 0.45841884469159272 0 -0.039712700263529979 0.47522822868483922 0 -0.049469425686008602 0.45573136760037952 0 -0.028112592899931722 0.45841884469159272 0 -0.047046964944553432 0.44016493566752918 0 -0.049469425686008602 0.45573136760037952 0 -0.03542389645848687 0.44663286776537542 0 -0.03269937433279238 0.43534031594669498 0 -0.047046964944553432 0.44016493566752918 0 -0.03542389645848687 0.44663286776537542 0 -0.018391439556199391 0.44074267982512522 0 -0.028112592899931722 0.45841884469159272 0 -0.01433582433739812 0.45160322250076979 0 -0.03269937433279238 0.43534031594669498 0 -0.018391439556199391 0.44074267982512522 0 -0.03269937433279238 0.43534031594669498 0 -0.03542389645848687 0.44663286776537542 0 -0.018391439556199391 0.44074267982512522 0 -0.03542389645848687 0.44663286776537542 0 -0.018391439556199391 0.44074267982512522 0 -0.028112592899931722 0.45841884469159272 0 -0.028112592899931722 0.45841884469159272 0 -0.0067557601138549112 0.46110632178280592 0 -0.01433582433739812 0.45160322250076979 0 -0.028112592899931722 0.45841884469159272 0 -0.013587052136240769 0.46869913076403918 0 -0.02145399422221007 0.47672926385951381 0 -0.028112592899931722 0.45841884469159272 0 -0.0067557601138549112 0.46110632178280592 0 -0.028112592899931722 0.45841884469159272 0 -0.013587052136240769 0.46869913076403918 0 -0.0067557601138549112 0.46110632178280592 0 -0.002061053709250524 0.46811537839715339 0 -0.0040835047796066171 0.44614504370355579 0 -0.002061053709250524 0.46811537839715339 0 -0.0067557601138549112 0.46110632178280592 0 -0.0040835047796066171 0.44614504370355579 0 -0.013587052136240769 0.46869913076403918 0 -0.002061053709250524 0.46811537839715339 0 -0.0067557601138549112 0.46110632178280592 0 -0.018391439556199391 0.44074267982512522 0 -0.0040835047796066171 0.44614504370355579 0 -0.018391439556199391 0.44074267982512522 0 -0.0040835047796066171 0.44614504370355579 0 -0.01433582433739812 0.45160322250076979 0 -0.0067557601138549112 0.46110632178280592 0 -0.0040835047796066171 0.44614504370355579 0 -0.01433582433739812 0.45160322250076979 0 -0.01283867411665021 0.49001739572296621 0 -3.8602638893346641e-05 0.490085713090751 0 0.0049407681439812556 0.5 0 -0.01283867411665021 0.49001739572296621 0 -0.022211634760328721 0.5 0 0.0049407681439812556 0.5 0 -0.01283867411665021 0.49001739572296621 0 -3.8602638893346641e-05 0.490085713090751 0 -0.0095518597359566422 0.47912584508913059 0 -0.002061053709250524 0.46811537839715339 0 -3.8602638893346641e-05 0.490085713090751 0 -0.002061053709250524 0.46811537839715339 0 -3.8602638893346641e-05 0.490085713090751 0 -0.0095518597359566422 0.47912584508913059 0 -0.013587052136240769 0.46869913076403918 0 -0.002061053709250524 0.46811537839715339 0 -0.0095518597359566422 0.47912584508913059 0 -0.013587052136240769 0.46869913076403918 0 -0.0095518597359566422 0.47912584508913059 0 -0.02145399422221007 0.47672926385951381 0 -0.01283867411665021 0.49001739572296621 0 -0.0095518597359566422 0.47912584508913059 0 -0.02145399422221007 0.47672926385951381 0 -0.01283867411665021 0.49001739572296621 0 -0.02145399422221007 0.47672926385951381 0 -0.029145994929535089 0.48633100241129412 0 -0.02145399422221007 0.47672926385951381 0 -0.029145994929535089 0.48633100241129412 0 -0.039712700263529979 0.47522822868483922 0 -0.028112592899931722 0.45841884469159272 0 -0.02145399422221007 0.47672926385951381 0 -0.039712700263529979 0.47522822868483922 0 -0.01283867411665021 0.49001739572296621 0 -0.029145994929535089 0.48633100241129412 0 -0.022211634760328721 0.5 0 -0.029145994929535089 0.48633100241129412 0 -0.039712700263529979 0.47522822868483922 0 -0.049364037664638719 0.50000000000000355 0 -0.029145994929535089 0.48633100241129412 0 -0.022211634760328721 0.5 0 -0.049364037664638719 0.50000000000000355 0 -0.039712700263529979 0.47522822868483922 0 -0.060095148068359118 0.47652194525458169 0 -0.049364037664638719 0.50000000000000355 0 -0.049469425686008602 0.45573136760037952 0 -0.039712700263529979 0.47522822868483922 0 -0.060095148068359118 0.47652194525458169 0 -0.060095148068359118 0.47652194525458169 0 -0.049364037664638719 0.50000000000000355 0 -0.060095148068359118 0.47652194525458169 0 -0.049364037664638719 0.50000000000000355 0 -0.067179069110551326 0.48362742747975912 0 -0.049364037664638719 0.50000000000000355 0 -0.074475120360495667 0.49020307857733819 0 -0.067179069110551326 0.48362742747975912 0 -0.049364037664638719 0.50000000000000355 0 -0.074475120360495667 0.49020307857733819 0 -0.079136723794032582 0.5 0 -0.074475120360495667 0.49020307857733819 0 -0.082061805940015248 0.47973778257026178 0 -0.067179069110551326 0.48362742747975912 0 -0.074475120360495667 0.49020307857733819 0 -0.079136723794032582 0.5 0 -0.091310698127382905 0.4887801101240814 0 -0.079136723794032582 0.5 0 -0.091310698127382905 0.4887801101240814 0 -0.1089094099234266 0.49999999999999611 0 -0.074475120360495667 0.49020307857733819 0 -0.091310698127382905 0.4887801101240814 0 -0.082061805940015248 0.47973778257026178 0 -0.082061805940015248 0.47973778257026178 0 -0.085636763122788742 0.46945410066076743 0 -0.096431234070224831 0.47590385298343812 0 -0.085636763122788742 0.46945410066076743 0 -0.093787834947026846 0.46105318685001118 0 -0.096431234070224831 0.47590385298343812 0 -0.091310698127382905 0.4887801101240814 0 -0.082061805940015248 0.47973778257026178 0 -0.096431234070224831 0.47590385298343812 0 -0.082061805940015248 0.47973778257026178 0 -0.085636763122788742 0.46945410066076743 0 -0.074063769005643543 0.46769878533178488 0 -0.060095148068359118 0.47652194525458169 0 -0.067179069110551326 0.48362742747975912 0 -0.074063769005643543 0.46769878533178488 0 -0.082061805940015248 0.47973778257026178 0 -0.067179069110551326 0.48362742747975912 0 -0.074063769005643543 0.46769878533178488 0 -0.067179069110551326 0.48362742747975912 0 -0.074063769005643543 0.46769878533178488 0 -0.060095148068359118 0.47652194525458169 0 -0.070826258472084999 0.45304389050916249 0 -0.060095148068359118 0.47652194525458169 0 -0.074063769005643543 0.46769878533178488 0 -0.070826258472084999 0.45304389050916249 0 -0.074063769005643543 0.46769878533178488 0 -0.070826258472084999 0.45304389050916249 0 -0.080948468900731443 0.45177014318380881 0 -0.074063769005643543 0.46769878533178488 0 -0.080948468900731443 0.45177014318380881 0 -0.079149693293618234 0.43483346763042741 0 -0.070826258472084999 0.45304389050916249 0 -0.080948468900731443 0.45177014318380881 0 -0.079149693293618234 0.43483346763042741 0 -0.061698169792609281 0.44011466250837472 0 -0.070826258472084999 0.45304389050916249 0 -0.079149693293618234 0.43483346763042741 0 -0.070826258472084999 0.45304389050916249 0 -0.070826258472084999 0.45304389050916249 0 -0.080948468900731443 0.45177014318380881 0 -0.089209841534809292 0.43265639090057739 0 -0.079149693293618234 0.43483346763042741 0 -0.080948468900731443 0.45177014318380881 0 -0.089209841534809292 0.43265639090057739 0 -0.080948468900731443 0.45177014318380881 0 -0.080948468900731443 0.45177014318380881 0 -0.103927038794305 0.44887859176340777 0 -0.089209841534809292 0.43265639090057739 0 -0.080948468900731443 0.45177014318380881 0 -0.103927038794305 0.44887859176340777 0 -0.074063769005643543 0.46769878533178488 0 -0.080948468900731443 0.45177014318380881 0 -0.083609208994047557 0.46249405400659238 0 -0.080948468900731443 0.45177014318380881 0 -0.093787834947026846 0.46105318685001118 0 -0.103927038794305 0.44887859176340777 0 -0.085636763122788742 0.46945410066076743 0 -0.074063769005643543 0.46769878533178488 0 -0.083609208994047557 0.46249405400659238 0 -0.080948468900731443 0.45177014318380881 0 -0.083609208994047557 0.46249405400659238 0 -0.093787834947026846 0.46105318685001118 0 -0.085636763122788742 0.46945410066076743 0 -0.083609208994047557 0.46249405400659238 0 -0.093787834947026846 0.46105318685001118 0 -0.093787834947026846 0.46105318685001118 0 -0.10437053234044991 0.46476617513246138 0 -0.103927038794305 0.44887859176340777 0 -0.10437053234044991 0.46476617513246138 0 -0.103927038794305 0.44887859176340777 0 -0.1162510199406788 0.46246284249139952 0 -0.093787834947026846 0.46105318685001118 0 -0.10437053234044991 0.46476617513246138 0 -0.096431234070224831 0.47590385298343812 0 -0.089209841534809292 0.43265639090057739 0 -0.103927038794305 0.44887859176340777 0 -0.10353443919384681 0.43653209462802589 0 -0.089209841534809292 0.43265639090057739 0 -0.103927038794305 0.44887859176340777 0 -0.10353443919384681 0.43653209462802589 0 -0.103927038794305 0.44887859176340777 0 -0.1177949305002824 0.44713349961249971 0 -0.1115224899601036 0.42969771739301132 0 -0.10353443919384681 0.43653209462802589 0 -0.1177949305002824 0.44713349961249971 0 -0.1115224899601036 0.42969771739301132 0 -0.1177949305002824 0.44713349961249971 0 -0.103927038794305 0.44887859176340777 0 -0.1177949305002824 0.44713349961249971 0 -0.1162510199406788 0.46246284249139952 0 -0.103927038794305 0.44887859176340777 0 -0.1177949305002824 0.44713349961249971 0 -0.12773902584999411 0.47477554416868678 0 -0.1177949305002824 0.44713349961249971 0 -0.12773902584999411 0.47477554416868678 0 -0.1177949305002824 0.44713349961249971 0 -0.1162510199406788 0.46246284249139952 0 -0.10437053234044991 0.46476617513246138 0 -0.1162510199406788 0.46246284249139952 0 -0.1114555339500142 0.4755324015740513 0 -0.103927038794305 0.44887859176340777 0 -0.1162510199406788 0.46246284249139952 0 -0.12773902584999411 0.47477554416868678 0 -0.1114555339500142 0.4755324015740513 0 -0.1183242178867096 0.48738777208434098 0 -0.12773902584999411 0.47477554416868678 0 -0.1162510199406788 0.46246284249139952 0 -0.1114555339500142 0.4755324015740513 0 -0.1114555339500142 0.4755324015740513 0 -0.1183242178867096 0.48738777208434098 0 -0.1052862187915513 0.48552082735318131 0 -0.12773902584999411 0.47477554416868678 0 -0.1183242178867096 0.48738777208434098 0 -0.13681340504149711 0.49999999999999861 0 -0.1243666693260226 0.49519803337158957 0 -0.1089094099234266 0.49999999999999611 0 -0.13167946935475039 0.48572897040798302 0 -0.1183242178867096 0.48738777208434098 0 -0.1243666693260226 0.49519803337158957 0 -0.1183242178867096 0.48738777208434098 0 -0.1243666693260226 0.49519803337158957 0 -0.1089094099234266 0.49999999999999611 0 -0.1183242178867096 0.48738777208434098 0 -0.1089094099234266 0.49999999999999611 0 -0.1183242178867096 0.48738777208434098 0 -0.1052862187915513 0.48552082735318131 0 -0.1089094099234266 0.49999999999999611 0 -0.091310698127382905 0.4887801101240814 0 -0.1052862187915513 0.48552082735318131 0 -0.1089094099234266 0.49999999999999611 0 -0.091310698127382905 0.4887801101240814 0 -0.1052862187915513 0.48552082735318131 0 -0.096431234070224831 0.47590385298343812 0 -0.10437053234044991 0.46476617513246138 0 -0.1114555339500142 0.4755324015740513 0 -0.096431234070224831 0.47590385298343812 0 -0.1114555339500142 0.4755324015740513 0 -0.1052862187915513 0.48552082735318131 0 -0.096431234070224831 0.47590385298343812 0 -0.16950353664004791 0.083960283778176326 0 -0.16278934326379399 0.099458365884732031 0 -0.1537907613304674 0.081601868884644546 0 -0.16950353664004791 0.083960283778176326 0 -0.17315421284170851 0.094995473773181502 0 -0.16278934326379399 0.099458365884732031 0 -0.16950353664004791 0.083960283778176326 0 -0.16648094192682 0.066748487497553133 0 -0.1537907613304674 0.081601868884644546 0 -0.16950353664004791 0.083960283778176326 0 -0.16648094192682 0.066748487497553133 0 -0.1814478137091585 0.072275704630827858 0 -0.18175984194239941 0.099352010489785106 0 -0.19273221827490131 0.083225874210055478 0 -0.17971952468164309 0.086761869376405273 0 -0.18175984194239941 0.099352010489785106 0 -0.19273221827490131 0.083225874210055478 0 -0.1814478137091585 0.072275704630827858 0 -0.17971952468164309 0.086761869376405273 0 -0.19273221827490131 0.083225874210055478 0 -0.16950353664004791 0.083960283778176326 0 -0.1814478137091585 0.072275704630827858 0 -0.17971952468164309 0.086761869376405273 0 -0.16950353664004791 0.083960283778176326 0 -0.17971952468164309 0.086761869376405273 0 -0.17315421284170851 0.094995473773181502 0 -0.17971952468164309 0.086761869376405273 0 -0.18175984194239941 0.099352010489785106 0 -0.17315421284170851 0.094995473773181502 0 -0.18175984194239941 0.099352010489785106 0 -0.1707874656098971 0.1154781467695144 0 -0.1922361973838978 0.10624516933518161 0 -0.18175984194239941 0.099352010489785106 0 -0.1707874656098971 0.1154781467695144 0 -0.17089716755150089 0.10369667682959539 0 -0.18175984194239941 0.099352010489785106 0 -0.1707874656098971 0.1154781467695144 0 -0.18175984194239941 0.099352010489785106 0 -0.17315421284170851 0.094995473773181502 0 -0.17089716755150089 0.10369667682959539 0 -0.1707874656098971 0.1154781467695144 0 -0.18821314094435049 0.12350496107035321 0 -0.1922361973838978 0.10624516933518161 0 -0.1690207517294959 0.1162386593052924 0 -0.1707874656098971 0.1154781467695144 0 -0.18821314094435049 0.12350496107035321 0 -0.17513385666475381 0.12352913862046951 0 -0.1690207517294959 0.1162386593052924 0 -0.18821314094435049 0.12350496107035321 0 -0.1707874656098971 0.1154781467695144 0 -0.1922361973838978 0.10624516933518161 0 -0.1690207517294959 0.1162386593052924 0 -0.18821314094435049 0.12350496107035321 0 -0.1690207517294959 0.1162386593052924 0 -0.15041851245920551 0.1091957902528473 0 -0.1690207517294959 0.1162386593052924 0 -0.16699817859568911 0.10910776217917501 0 -0.15041851245920551 0.1091957902528473 0 -0.1690207517294959 0.1162386593052924 0 -0.15842094703900811 0.1336532583166139 0 -0.17513385666475381 0.12352913862046951 0 -0.1690207517294959 0.1162386593052924 0 -0.16901979494774891 0.12916508306652211 0 -0.1707874656098971 0.1154781467695144 0 -0.17089716755150089 0.10369667682959539 0 -0.16699817859568911 0.10910776217917501 0 -0.1690207517294959 0.1162386593052924 0 -0.1707874656098971 0.1154781467695144 0 -0.16699817859568911 0.10910776217917501 0 -0.1690207517294959 0.1162386593052924 0 -0.1707874656098971 0.1154781467695144 0 -0.16699817859568911 0.10910776217917501 0 -0.16278934326379399 0.099458365884732031 0 -0.15041851245920551 0.1091957902528473 0 -0.17315421284170851 0.094995473773181502 0 -0.17089716755150089 0.10369667682959539 0 -0.16278934326379399 0.099458365884732031 0 -0.17089716755150089 0.10369667682959539 0 -0.16699817859568911 0.10910776217917501 0 -0.16278934326379399 0.099458365884732031 0 -0.15041851245920551 0.1091957902528473 0 -0.14486798896103339 0.095767954482096032 0 -0.13181627318891531 0.1021529212004019 0 -0.16278934326379399 0.099458365884732031 0 -0.15041851245920551 0.1091957902528473 0 -0.14486798896103339 0.095767954482096032 0 -0.15041851245920551 0.1091957902528473 0 -0.13181627318891531 0.1021529212004019 0 -0.1690207517294959 0.1162386593052924 0 -0.15041851245920551 0.1091957902528473 0 -0.1419755228739781 0.12788074567013849 0 -0.1690207517294959 0.1162386593052924 0 -0.15325468399262471 0.1286353458688583 0 -0.1419755228739781 0.12788074567013849 0 -0.15041851245920551 0.1091957902528473 0 -0.13787417151929621 0.1145098150413438 0 -0.1419755228739781 0.12788074567013849 0 -0.1690207517294959 0.1162386593052924 0 -0.1419755228739781 0.12788074567013849 0 -0.13787417151929621 0.1145098150413438 0 -0.12689466929456741 0.1202751061046955 0 -0.13181627318891531 0.1021529212004019 0 -0.12689466929456741 0.1202751061046955 0 -0.13181627318891531 0.1021529212004019 0 -0.13787417151929621 0.1145098150413438 0 -0.12689466929456741 0.1202751061046955 0 -0.1419755228739781 0.12788074567013849 0 -0.13181627318891531 0.1021529212004019 0 -0.13034342388337139 0.1015952956026332 0 -0.13683911945646421 0.083657944611388896 0 -0.15041851245920551 0.1091957902528473 0 -0.13787417151929621 0.1145098150413438 0 -0.13181627318891531 0.1021529212004019 0 -0.12689466929456741 0.1202751061046955 0 -0.13034342388337139 0.1015952956026332 0 -0.1228279476963066 0.1016733655911974 0 -0.14486798896103339 0.095767954482096032 0 -0.13181627318891531 0.1021529212004019 0 -0.13683911945646421 0.083657944611388896 0 -0.12689466929456741 0.1202751061046955 0 -0.13181627318891531 0.1021529212004019 0 -0.13034342388337139 0.1015952956026332 0 -0.13181627318891531 0.1021529212004019 0 -0.13034342388337139 0.1015952956026332 0 -0.13034342388337139 0.1015952956026332 0 -0.1233716746509252 0.088925773134263211 0 -0.1228279476963066 0.1016733655911974 0 -0.13181627318891531 0.1021529212004019 0 -0.13683911945646421 0.083657944611388896 0 -0.13034342388337139 0.1015952956026332 0 -0.13683911945646421 0.083657944611388896 0 -0.1233716746509252 0.088925773134263211 0 -0.13683911945646421 0.083657944611388896 0 -0.11947296242619 0.070529167400145018 0 -0.1233716746509252 0.088925773134263211 0 -0.14486798896103339 0.095767954482096032 0 -0.13683911945646421 0.083657944611388896 0 -0.1537907613304674 0.081601868884644546 0 -0.16278934326379399 0.099458365884732031 0 -0.14486798896103339 0.095767954482096032 0 -0.1537907613304674 0.081601868884644546 0 -0.16648094192682 0.066748487497553133 0 -0.1537907613304674 0.081601868884644546 0 -0.14186196572401319 0.065162968022376005 0 -0.13683911945646421 0.083657944611388896 0 -0.1537907613304674 0.081601868884644546 0 -0.14186196572401319 0.065162968022376005 0 -0.13683911945646421 0.083657944611388896 0 -0.14186196572401319 0.065162968022376005 0 -0.11947296242619 0.070529167400145018 0 -0.13683911945646421 0.083657944611388896 0 -0.14186196572401319 0.065162968022376005 0 -0.14186196572401319 0.065162968022376005 0 -0.12900246533646781 0.044772139336155058 0 -0.11947296242619 0.070529167400145018 0 -0.14774542860228229 0.020521376041276271 0 -0.15798081843199849 0.045775688440385577 0 -0.12900246533646781 0.044772139336155058 0 -0.14774542860228229 0.020521376041276271 0 -0.15798081843199849 0.045775688440385577 0 -0.12900246533646781 0.044772139336155058 0 -0.15798081843199849 0.045775688440385577 0 -0.16648094192682 0.066748487497553133 0 -0.14186196572401319 0.065162968022376005 0 -0.15798081843199849 0.045775688440385577 0 -0.14186196572401319 0.065162968022376005 0 -0.12900246533646781 0.044772139336155058 0 -0.15798081843199849 0.045775688440385577 0 -0.1375100387725828 -0.00473293635783981 0 -0.12955085303500799 0.0098063046611244729 0 -0.115421237406118 0.0038974226475877302 0 -0.1375100387725828 -0.00473293635783981 0 -0.12955085303500799 0.0098063046611244729 0 -0.14774542860228229 0.020521376041276271 0 -0.12955085303500799 0.0098063046611244729 0 -0.12544455639611121 0.023474182686157759 0 -0.14774542860228229 0.020521376041276271 0 -0.12900246533646781 0.044772139336155058 0 -0.12544455639611121 0.023474182686157759 0 -0.14774542860228229 0.020521376041276271 0 -0.1375100387725828 -0.00473293635783981 0 -0.14774542860228229 0.020521376041276271 0 -0.1532190245587064 0.0036016463931156698 0 -0.1375100387725828 -0.00473293635783981 0 -0.14774542860228229 0.020521376041276271 0 -0.14774542860228229 0.020521376041276271 0 -0.1532190245587064 0.0036016463931156698 0 -0.15881869600956619 0.01231291718454039 0 -0.1532190245587064 0.0036016463931156698 0 -0.15881869600956619 0.01231291718454039 0 -0.1708180620307255 0.001049905003496544 0 -0.1708180620307255 0.001049905003496544 0 -0.1634922688465508 0.024078741300273081 0 -0.15881869600956619 0.01231291718454039 0 -0.1708180620307255 0.001049905003496544 0 -0.1634922688465508 0.024078741300273081 0 -0.1708180620307255 0.001049905003496544 0 -0.1634922688465508 0.024078741300273081 0 -0.179037753892789 0.01339034060599459 0 -0.14774542860228229 0.020521376041276271 0 -0.1634922688465508 0.024078741300273081 0 -0.15798081843199849 0.045775688440385577 0 -0.14774542860228229 0.020521376041276271 0 -0.15881869600956619 0.01231291718454039 0 -0.1634922688465508 0.024078741300273081 0 -0.1634922688465508 0.024078741300273081 0 -0.17937241905467821 0.029742944281657361 0 -0.179037753892789 0.01339034060599459 0 -0.17937241905467821 0.029742944281657361 0 -0.179037753892789 0.01339034060599459 0 -0.19394960023047031 0.016032532025989411 0 -0.18906504466313809 -0.0053416003071723702 0 -0.179037753892789 0.01339034060599459 0 -0.19394960023047031 0.016032532025989411 0 -0.18906504466313809 -0.0053416003071723702 0 -0.1708180620307255 0.001049905003496544 0 -0.179037753892789 0.01339034060599459 0 -0.16648094192682 0.066748487497553133 0 -0.15798081843199849 0.045775688440385577 0 -0.16648094192682 0.066748487497553133 0 -0.15798081843199849 0.045775688440385577 0 -0.18196731176244091 0.046606364490730121 0 -0.1634922688465508 0.024078741300273081 0 -0.17937241905467821 0.029742944281657361 0 -0.15798081843199849 0.045775688440385577 0 -0.15798081843199849 0.045775688440385577 0 -0.18196731176244091 0.046606364490730121 0 -0.17937241905467821 0.029742944281657361 0 -0.15798081843199849 0.045775688440385577 0 -0.18196731176244091 0.046606364490730121 0 -0.17937241905467821 0.029742944281657361 0 -0.18196731176244091 0.046606364490730121 0 -0.19890577069119059 0.032993350248870817 0 -0.1814478137091585 0.072275704630827858 0 -0.18196731176244091 0.046606364490730121 0 -0.19718169883994061 0.064603185924833564 0 -0.16648094192682 0.066748487497553133 0 -0.1814478137091585 0.072275704630827858 0 -0.18196731176244091 0.046606364490730121 0 -0.18196731176244091 0.046606364490730121 0 -0.20595380509288291 0.047437040541084309 0 -0.19718169883994061 0.064603185924833564 0 -0.18196731176244091 0.046606364490730121 0 -0.20595380509288291 0.047437040541084309 0 -0.18196731176244091 0.046606364490730121 0 -0.19890577069119059 0.032993350248870817 0 -0.20595380509288291 0.047437040541084309 0 -0.20595380509288291 0.047437040541084309 0 -0.22994029842332489 0.048267716591442272 0 -0.21980173442879231 0.035585427752517343 0 -0.19890577069119059 0.032993350248870817 0 -0.20595380509288291 0.047437040541084309 0 -0.21980173442879231 0.035585427752517343 0 -0.20595380509288291 0.047437040541084309 0 -0.22994029842332489 0.048267716591442272 0 -0.21355235708313189 0.061086829713071 0 -0.20595380509288291 0.047437040541084309 0 -0.19718169883994061 0.064603185924833564 0 -0.21355235708313189 0.061086829713071 0 -0.20595380509288291 0.047437040541084309 0 -0.22994029842332489 0.048267716591442272 0 -0.18906504466313809 -0.0053416003071723702 0 -0.19394960023047031 0.016032532025989411 0 -0.20845065687622341 0.00034172042793286981 0 -0.19890577069119059 0.032993350248870817 0 -0.19394960023047031 0.016032532025989411 0 -0.2123897535778792 0.02255579240124643 0 -0.17937241905467821 0.029742944281657361 0 -0.19890577069119059 0.032993350248870817 0 -0.19394960023047031 0.016032532025989411 0 -0.19890577069119059 0.032993350248870817 0 -0.2123897535778792 0.02255579240124643 0 -0.21980173442879231 0.035585427752517343 0 -0.19394960023047031 0.016032532025989411 0 -0.2123897535778792 0.02255579240124643 0 -0.20845065687622341 0.00034172042793286981 0 -0.2123897535778792 0.02255579240124643 0 -0.20845065687622341 0.00034172042793286981 0 -0.22279273163251881 0.0092344643629644792 0 -0.22279273163251881 0.0092344643629644792 0 -0.2432637047602107 0.013675888509439909 0 -0.23556882495632811 0.00032806392891222239 0 -0.2123897535778792 0.02255579240124643 0 -0.2343716300870711 0.027633053631002699 0 -0.21980173442879231 0.035585427752517343 0 -0.2123897535778792 0.02255579240124643 0 -0.22279273163251881 0.0092344643629644792 0 -0.2343716300870711 0.027633053631002699 0 -0.22279273163251881 0.0092344643629644792 0 -0.2343716300870711 0.027633053631002699 0 -0.2432637047602107 0.013675888509439909 0 -0.2514308507817738 0.031339817910523912 0 -0.2343716300870711 0.027633053631002699 0 -0.2432637047602107 0.013675888509439909 0 -0.25080528299249649 -0.001461169191011345 0 -0.2432637047602107 0.013675888509439909 0 -0.23556882495632811 0.00032806392891222239 0 -0.22994029842332489 0.048267716591442272 0 -0.22550604244958211 0.068915996711836014 0 -0.22994029842332489 0.048267716591442272 0 -0.24139748063478941 0.062976940995822323 0 -0.22550604244958211 0.068915996711836014 0 -0.21355235708313189 0.061086829713071 0 -0.22994029842332489 0.048267716591442272 0 -0.22550604244958211 0.068915996711836014 0 -0.2343716300870711 0.027633053631002699 0 -0.22994029842332489 0.048267716591442272 0 -0.2343716300870711 0.027633053631002699 0 -0.22994029842332489 0.048267716591442272 0 -0.21980173442879231 0.035585427752517343 0 -0.2514308507817738 0.031339817910523912 0 -0.2343716300870711 0.027633053631002699 0 -0.22994029842332489 0.048267716591442272 0 -0.25991768517992653 0.049305863222038747 0 -0.2514308507817738 0.031339817910523912 0 -0.22994029842332489 0.048267716591442272 0 -0.25991768517992653 0.049305863222038747 0 -0.22994029842332489 0.048267716591442272 0 -0.24139748063478941 0.062976940995822323 0 -0.25991768517992653 0.049305863222038747 0 -0.22994029842332489 0.048267716591442272 0 -0.24139748063478941 0.062976940995822323 0 -0.23808824350239399 0.077441097232647221 0 -0.22550604244958211 0.068915996711836014 0 -0.25622419186420398 0.071140944602872444 0 -0.24139748063478941 0.062976940995822323 0 -0.23808824350239399 0.077441097232647221 0 -0.2561904291871071 0.097300361768699717 0 -0.23808824350239399 0.077441097232647221 0 -0.23436013426479541 0.092094926277989167 0 -0.2561904291871071 0.097300361768699717 0 -0.23808824350239399 0.077441097232647221 0 -0.22975655167314751 0.082004074263674412 0 -0.2210717864758184 0.089564276832225259 0 -0.22550604244958211 0.068915996711836014 0 -0.2210717864758184 0.089564276832225259 0 -0.22550604244958211 0.068915996711836014 0 -0.23436013426479541 0.092094926277989167 0 -0.22975655167314751 0.082004074263674412 0 -0.2210717864758184 0.089564276832225259 0 -0.23808824350239399 0.077441097232647221 0 -0.23436013426479541 0.092094926277989167 0 -0.22975655167314751 0.082004074263674412 0 -0.23808824350239399 0.077441097232647221 0 -0.22975655167314751 0.082004074263674412 0 -0.22550604244958211 0.068915996711836014 0 -0.21355235708313189 0.061086829713071 0 -0.20917994060992889 0.076210208796162637 0 -0.19718169883994061 0.064603185924833564 0 -0.21355235708313189 0.061086829713071 0 -0.22550604244958211 0.068915996711836014 0 -0.20917994060992889 0.076210208796162637 0 -0.20917994060992889 0.076210208796162637 0 -0.20832909161052329 0.087649466686977831 0 -0.19273221827490131 0.083225874210055478 0 -0.2210717864758184 0.089564276832225259 0 -0.22550604244958211 0.068915996711836014 0 -0.20917994060992889 0.076210208796162637 0 -0.2210717864758184 0.089564276832225259 0 -0.20917994060992889 0.076210208796162637 0 -0.20832909161052329 0.087649466686977831 0 -0.2210717864758184 0.089564276832225259 0 -0.20832909161052329 0.087649466686977831 0 -0.21368492915789861 0.097012191900849268 0 -0.20832909161052329 0.087649466686977831 0 -0.20006065602699041 0.094031780701986659 0 -0.21368492915789861 0.097012191900849268 0 -0.18175984194239941 0.099352010489785106 0 -0.19273221827490131 0.083225874210055478 0 -0.1916972284070472 0.095713708684252205 0 -0.20832909161052329 0.087649466686977831 0 -0.19273221827490131 0.083225874210055478 0 -0.20006065602699041 0.094031780701986659 0 -0.19273221827490131 0.083225874210055478 0 -0.1916972284070472 0.095713708684252205 0 -0.20006065602699041 0.094031780701986659 0 -0.1814478137091585 0.072275704630827858 0 -0.19273221827490131 0.083225874210055478 0 -0.19718169883994061 0.064603185924833564 0 -0.20917994060992889 0.076210208796162637 0 -0.19273221827490131 0.083225874210055478 0 -0.19718169883994061 0.064603185924833564 0 -0.18821314094435049 0.12350496107035321 0 -0.1922361973838978 0.10624516933518161 0 -0.20316244945238979 0.1160671223497196 0 -0.18821314094435049 0.12350496107035321 0 -0.20316244945238979 0.1160671223497196 0 -0.20641217083747879 0.1303951737246733 0 -0.1922361973838978 0.10624516933518161 0 -0.20643027662406019 0.10738426013459131 0 -0.20316244945238979 0.1160671223497196 0 -0.1922361973838978 0.10624516933518161 0 -0.21368492915789861 0.097012191900849268 0 -0.1922361973838978 0.10624516933518161 0 -0.20006065602699041 0.094031780701986659 0 -0.21368492915789861 0.097012191900849268 0 -0.1922361973838978 0.10624516933518161 0 -0.1916972284070472 0.095713708684252205 0 -0.20006065602699041 0.094031780701986659 0 -0.18175984194239941 0.099352010489785106 0 -0.1922361973838978 0.10624516933518161 0 -0.1916972284070472 0.095713708684252205 0 -0.1922361973838978 0.10624516933518161 0 -0.20643027662406019 0.10738426013459131 0 -0.21368492915789861 0.097012191900849268 0 -0.2210717864758184 0.089564276832225259 0 -0.21368492915789861 0.097012191900849268 0 -0.2166375305020547 0.1102125569526145 0 -0.20643027662406019 0.10738426013459131 0 -0.21368492915789861 0.097012191900849268 0 -0.2166375305020547 0.1102125569526145 0 -0.20643027662406019 0.10738426013459131 0 -0.2166375305020547 0.1102125569526145 0 -0.20316244945238979 0.1160671223497196 0 -0.2166375305020547 0.1102125569526145 0 -0.20316244945238979 0.1160671223497196 0 -0.21233576659766751 0.12034124729641001 0 -0.20316244945238979 0.1160671223497196 0 -0.21233576659766751 0.12034124729641001 0 -0.20641217083747879 0.1303951737246733 0 -0.2166375305020547 0.1102125569526145 0 -0.21233576659766751 0.12034124729641001 0 -0.22313091559874659 0.1246901361586325 0 -0.2166375305020547 0.1102125569526145 0 -0.22313091559874659 0.1246901361586325 0 -0.22850810955014669 0.1125633243478921 0 -0.22313091559874659 0.1246901361586325 0 -0.22850810955014669 0.1125633243478921 0 -0.2372880321199225 0.12061112332891059 0 -0.2210717864758184 0.089564276832225259 0 -0.2166375305020547 0.1102125569526145 0 -0.22751803377271429 0.1018172743921988 0 -0.2210717864758184 0.089564276832225259 0 -0.2166375305020547 0.1102125569526145 0 -0.2166375305020547 0.1102125569526145 0 -0.22850810955014669 0.1125633243478921 0 -0.22751803377271429 0.1018172743921988 0 -0.22850810955014669 0.1125633243478921 0 -0.22751803377271429 0.1018172743921988 0 -0.2379660357572955 0.105485530907104 0 -0.23436013426479541 0.092094926277989167 0 -0.2210717864758184 0.089564276832225259 0 -0.22751803377271429 0.1018172743921988 0 -0.23436013426479541 0.092094926277989167 0 -0.22751803377271429 0.1018172743921988 0 -0.2379660357572955 0.105485530907104 0 -0.25243723761715509 0.1184612761912272 0 -0.2561904291871071 0.097300361768699717 0 -0.2379660357572955 0.105485530907104 0 -0.2561904291871071 0.097300361768699717 0 -0.23436013426479541 0.092094926277989167 0 -0.2379660357572955 0.105485530907104 0 -0.22850810955014669 0.1125633243478921 0 -0.2379660357572955 0.105485530907104 0 -0.2372880321199225 0.12061112332891059 0 -0.25243723761715509 0.1184612761912272 0 -0.2379660357572955 0.105485530907104 0 -0.2372880321199225 0.12061112332891059 0 -0.25243723761715509 0.1184612761912272 0 -0.2372880321199225 0.12061112332891059 0 -0.24822770506743089 0.13226351280279799 0 -0.24822770506743089 0.13226351280279799 0 -0.23552240426024529 0.13553039889476029 0 -0.2486418601058053 0.14588316763779119 0 -0.2372880321199225 0.12061112332891059 0 -0.24822770506743089 0.13226351280279799 0 -0.23552240426024529 0.13553039889476029 0 -0.22313091559874659 0.1246901361586325 0 -0.23552240426024529 0.13553039889476029 0 -0.22007986067719479 0.14208134198977701 0 -0.22313091559874659 0.1246901361586325 0 -0.2372880321199225 0.12061112332891059 0 -0.23552240426024529 0.13553039889476029 0 -0.22007986067719479 0.14208134198977701 0 -0.23534890461255201 0.14901467307774799 0 -0.22207674182837131 0.16289576022627589 0 -0.23552240426024529 0.13553039889476029 0 -0.22007986067719479 0.14208134198977701 0 -0.23534890461255201 0.14901467307774799 0 -0.23552240426024529 0.13553039889476029 0 -0.23534890461255201 0.14901467307774799 0 -0.2486418601058053 0.14588316763779119 0 -0.23534890461255201 0.14901467307774799 0 -0.2486418601058053 0.14588316763779119 0 -0.24973542440397539 0.160383733048482 0 -0.23534890461255201 0.14901467307774799 0 -0.24973542440397539 0.160383733048482 0 -0.22207674182837131 0.16289576022627589 0 -0.24973542440397539 0.160383733048482 0 -0.23732217572843761 0.1710814256584938 0 -0.22207674182837131 0.16289576022627589 0 -0.24973542440397539 0.160383733048482 0 -0.22207674182837131 0.16289576022627589 0 -0.24973542440397539 0.160383733048482 0 -0.23732217572843761 0.1710814256584938 0 -0.24909571377703479 0.17248015911507039 0 -0.25256760962850472 0.17926709109071021 0 -0.23208172359585419 0.1817457248209684 0 -0.25256760962850472 0.17926709109071021 0 -0.23208172359585419 0.1817457248209684 0 -0.23620726628271671 0.19941210955632641 0 -0.25256760962850472 0.17926709109071021 0 -0.23732217572843761 0.1710814256584938 0 -0.23208172359585419 0.1817457248209684 0 -0.25256760962850472 0.17926709109071021 0 -0.23732217572843761 0.1710814256584938 0 -0.25256760962850472 0.17926709109071021 0 -0.23732217572843761 0.1710814256584938 0 -0.24909571377703479 0.17248015911507039 0 -0.23208172359585419 0.1817457248209684 0 -0.21159583756320369 0.18422435855122721 0 -0.23732217572843761 0.1710814256584938 0 -0.23208172359585419 0.1817457248209684 0 -0.220180604131053 0.17434750430640841 0 -0.23208172359585419 0.1817457248209684 0 -0.220180604131053 0.17434750430640841 0 -0.21159583756320369 0.18422435855122721 0 -0.23732217572843761 0.1710814256584938 0 -0.220180604131053 0.17434750430640841 0 -0.22207674182837131 0.16289576022627589 0 -0.23732217572843761 0.1710814256584938 0 -0.22207674182837131 0.16289576022627589 0 -0.22207674182837131 0.16289576022627589 0 -0.20636772562444369 0.16432249035099381 0 -0.22207674182837131 0.16289576022627589 0 -0.20636772562444369 0.16432249035099381 0 -0.19798802692577519 0.14996190985657129 0 -0.220180604131053 0.17434750430640841 0 -0.22207674182837131 0.16289576022627589 0 -0.20636772562444369 0.16432249035099381 0 -0.22207674182837131 0.16289576022627589 0 -0.19798802692577519 0.14996190985657129 0 -0.220180604131053 0.17434750430640841 0 -0.20636772562444369 0.16432249035099381 0 -0.20725048044460961 0.17472822779503441 0 -0.20636772562444369 0.16432249035099381 0 -0.20725048044460961 0.17472822779503441 0 -0.1969006946403703 0.17612126822273191 0 -0.220180604131053 0.17434750430640841 0 -0.21159583756320369 0.18422435855122721 0 -0.20725048044460961 0.17472822779503441 0 -0.21159583756320369 0.18422435855122721 0 -0.20725048044460961 0.17472822779503441 0 -0.1969006946403703 0.17612126822273191 0 -0.21159583756320369 0.18422435855122721 0 -0.1911099515305531 0.1867029922814851 0 -0.21159583756320369 0.18422435855122721 0 -0.1969006946403703 0.17612126822273191 0 -0.1911099515305531 0.1867029922814851 0 -0.1969006946403703 0.17612126822273191 0 -0.1906587094205161 0.16574922047571281 0 -0.18171497539751361 0.17634674098194569 0 -0.1969006946403703 0.17612126822273191 0 -0.1911099515305531 0.1867029922814851 0 -0.18171497539751361 0.17634674098194569 0 -0.1969006946403703 0.17612126822273191 0 -0.1911099515305531 0.1867029922814851 0 -0.20636772562444369 0.16432249035099381 0 -0.1969006946403703 0.17612126822273191 0 -0.1906587094205161 0.16574922047571281 0 -0.20636772562444369 0.16432249035099381 0 -0.1906587094205161 0.16574922047571281 0 -0.19798802692577519 0.14996190985657129 0 -0.20636772562444369 0.16432249035099381 0 -0.1906587094205161 0.16574922047571281 0 -0.1906587094205161 0.16574922047571281 0 -0.19798802692577519 0.14996190985657129 0 -0.18351303642030439 0.1539838633221178 0 -0.19798802692577519 0.14996190985657129 0 -0.19303710013026301 0.13500070205148501 0 -0.17389931202318079 0.137028059486864 0 -0.18821314094435049 0.12350496107035321 0 -0.19303710013026301 0.13500070205148501 0 -0.20641217083747879 0.1303951737246733 0 -0.19798802692577519 0.14996190985657129 0 -0.19303710013026301 0.13500070205148501 0 -0.20641217083747879 0.1303951737246733 0 -0.18821314094435049 0.12350496107035321 0 -0.20641217083747879 0.1303951737246733 0 -0.18821314094435049 0.12350496107035321 0 -0.19303710013026301 0.13500070205148501 0 -0.18284927956541019 0.12984089325050241 0 -0.22313091559874659 0.1246901361586325 0 -0.22007986067719479 0.14208134198977701 0 -0.20641217083747879 0.1303951737246733 0 -0.21233576659766751 0.12034124729641001 0 -0.22313091559874659 0.1246901361586325 0 -0.20641217083747879 0.1303951737246733 0 -0.22007986067719479 0.14208134198977701 0 -0.19798802692577519 0.14996190985657129 0 -0.20641217083747879 0.1303951737246733 0 -0.22007986067719479 0.14208134198977701 0 -0.22207674182837131 0.16289576022627589 0 -0.19798802692577519 0.14996190985657129 0 -0.22983146302123131 0.25737430153518798 0 -0.23025779861614681 0.2338158306436075 0 -0.20938706557945219 0.23843414291351139 0 -0.25124147401774211 0.23762226217384569 0 -0.22983146302123131 0.25737430153518798 0 -0.23025779861614681 0.2338158306436075 0 -0.25124147401774211 0.23762226217384569 0 -0.23025779861614681 0.2338158306436075 0 -0.24337552138156279 0.21795896149778779 0 -0.23025779861614681 0.2338158306436075 0 -0.22374790850985349 0.2148745964300191 0 -0.24337552138156279 0.21795896149778779 0 -0.23025779861614681 0.2338158306436075 0 -0.22374790850985349 0.2148745964300191 0 -0.20938706557945219 0.23843414291351139 0 -0.22374790850985349 0.2148745964300191 0 -0.23620726628271671 0.19941210955632641 0 -0.2145826447776536 0.20031533285518929 0 -0.22374790850985349 0.2148745964300191 0 -0.24337552138156279 0.21795896149778779 0 -0.23620726628271671 0.19941210955632641 0 -0.25452127516851919 0.20182214795708131 0 -0.24337552138156279 0.21795896149778779 0 -0.23620726628271671 0.19941210955632641 0 -0.25452127516851919 0.20182214795708131 0 -0.25256760962850472 0.17926709109071021 0 -0.23620726628271671 0.19941210955632641 0 -0.23208172359585419 0.1817457248209684 0 -0.23620726628271671 0.19941210955632641 0 -0.2145826447776536 0.20031533285518929 0 -0.23208172359585419 0.1817457248209684 0 -0.21159583756320369 0.18422435855122721 0 -0.2145826447776536 0.20031533285518929 0 -0.21159583756320369 0.18422435855122721 0 -0.1911099515305531 0.1867029922814851 0 -0.2145826447776536 0.20031533285518929 0 -0.1911099515305531 0.1867029922814851 0 -0.20146880307334419 0.21300918299757379 0 -0.17885310182097211 0.20910056699628371 0 -0.1911099515305531 0.1867029922814851 0 -0.2145826447776536 0.20031533285518929 0 -0.20146880307334419 0.21300918299757379 0 -0.20146880307334419 0.21300918299757379 0 -0.1911321462215809 0.22862746650895341 0 -0.17885310182097211 0.20910056699628371 0 -0.22374790850985349 0.2148745964300191 0 -0.2145826447776536 0.20031533285518929 0 -0.20146880307334419 0.21300918299757379 0 -0.22374790850985349 0.2148745964300191 0 -0.20146880307334419 0.21300918299757379 0 -0.20938706557945219 0.23843414291351139 0 -0.20146880307334419 0.21300918299757379 0 -0.1911321462215809 0.22862746650895341 0 -0.20938706557945219 0.23843414291351139 0 -0.18712962382411741 0.25008585919168602 0 -0.1911321462215809 0.22862746650895341 0 -0.20938706557945219 0.23843414291351139 0 -0.15849465336154589 0.24630261166939491 0 -0.1665962521113924 0.23149814171108299 0 -0.1496048439609072 0.23181875741082089 0 -0.16076302832828671 0.25712584943817529 0 -0.15849465336154589 0.24630261166939491 0 -0.17201299137271389 0.24603671229643051 0 -0.15849465336154589 0.24630261166939491 0 -0.1665962521113924 0.23149814171108299 0 -0.15849465336154589 0.24630261166939491 0 -0.17065738987400381 0.23804144460663909 0 -0.1665962521113924 0.23149814171108299 0 -0.15849465336154589 0.24630261166939491 0 -0.17065738987400381 0.23804144460663909 0 -0.17201299137271389 0.24603671229643051 0 -0.18712962382411741 0.25008585919168602 0 -0.17201299137271389 0.24603671229643051 0 -0.17629250141804129 0.23352981389180841 0 -0.18712962382411741 0.25008585919168602 0 -0.1911321462215809 0.22862746650895341 0 -0.17629250141804129 0.23352981389180841 0 -0.17065738987400381 0.23804144460663909 0 -0.17201299137271389 0.24603671229643051 0 -0.17629250141804129 0.23352981389180841 0 -0.1665962521113924 0.23149814171108299 0 -0.17885310182097211 0.20910056699628371 0 -0.17629250141804129 0.23352981389180841 0 -0.1665962521113924 0.23149814171108299 0 -0.17885310182097211 0.20910056699628371 0 -0.1911321462215809 0.22862746650895341 0 -0.17629250141804129 0.23352981389180841 0 -0.17885310182097211 0.20910056699628371 0 -0.1665962521113924 0.23149814171108299 0 -0.14917948916683119 0.2126908445710968 0 -0.1665962521113924 0.23149814171108299 0 -0.16419889258216841 0.21260936267612041 0 -0.14917948916683119 0.2126908445710968 0 -0.17065738987400381 0.23804144460663909 0 -0.17629250141804129 0.23352981389180841 0 -0.1665962521113924 0.23149814171108299 0 -0.1665962521113924 0.23149814171108299 0 -0.16419889258216841 0.21260936267612041 0 -0.17885310182097211 0.20910056699628371 0 -0.15858511554219981 0.20582412575343259 0 -0.16778050426944599 0.20393313434870569 0 -0.16419889258216841 0.21260936267612041 0 -0.15858511554219981 0.20582412575343259 0 -0.16419889258216841 0.21260936267612041 0 -0.14917948916683119 0.2126908445710968 0 -0.16778050426944599 0.20393313434870569 0 -0.16419889258216841 0.21260936267612041 0 -0.17885310182097211 0.20910056699628371 0 -0.16778050426944599 0.20393313434870569 0 -0.17885310182097211 0.20910056699628371 0 -0.17671411005531931 0.1972752902695635 0 -0.1911099515305531 0.1867029922814851 0 -0.17885310182097211 0.20910056699628371 0 -0.1911099515305531 0.1867029922814851 0 -0.16911288260030569 0.18936446745177879 0 -0.1911099515305531 0.1867029922814851 0 -0.17671411005531931 0.1972752902695635 0 -0.16911288260030569 0.18936446745177879 0 -0.1911099515305531 0.1867029922814851 0 -0.17885310182097211 0.20910056699628371 0 -0.17671411005531931 0.1972752902695635 0 -0.16911288260030569 0.18936446745177879 0 -0.14956059555773449 0.1917301429265986 0 -0.15695242546149549 0.181703584166789 0 -0.16911288260030569 0.18936446745177879 0 -0.14956059555773449 0.1917301429265986 0 -0.16911288260030569 0.18936446745177879 0 -0.16045789696562271 0.19710748512419499 0 -0.14956059555773449 0.1917301429265986 0 -0.16778050426944599 0.20393313434870569 0 -0.16911288260030569 0.18936446745177879 0 -0.16045789696562271 0.19710748512419499 0 -0.16778050426944599 0.20393313434870569 0 -0.17671411005531931 0.1972752902695635 0 -0.16911288260030569 0.18936446745177879 0 -0.16778050426944599 0.20393313434870569 0 -0.16911288260030569 0.18936446745177879 0 -0.15858511554219981 0.20582412575343259 0 -0.16045789696562271 0.19710748512419499 0 -0.15311605888416521 0.19668605011714241 0 -0.15858511554219981 0.20582412575343259 0 -0.16778050426944599 0.20393313434870569 0 -0.16045789696562271 0.19710748512419499 0 -0.14956059555773449 0.1917301429265986 0 -0.13176272622226981 0.19388354743111069 0 -0.15311605888416521 0.19668605011714241 0 -0.13176272622226981 0.19388354743111069 0 -0.14917948916683119 0.2126908445710968 0 -0.14956059555773449 0.1917301429265986 0 -0.13176272622226981 0.19388354743111069 0 -0.14522780589645909 0.1856907321758747 0 -0.14956059555773449 0.1917301429265986 0 -0.15311605888416521 0.19668605011714241 0 -0.13176272622226981 0.19388354743111069 0 -0.16045789696562271 0.19710748512419499 0 -0.14956059555773449 0.1917301429265986 0 -0.15311605888416521 0.19668605011714241 0 -0.14956059555773449 0.1917301429265986 0 -0.15311605888416521 0.19668605011714241 0 -0.14956059555773449 0.1917301429265986 0 -0.14522780589645909 0.1856907321758747 0 -0.12835392497953199 0.19020259144248411 0 -0.14522780589645909 0.1856907321758747 0 -0.13176272622226981 0.19388354743111069 0 -0.12835392497953199 0.19020259144248411 0 -0.14522780589645909 0.1856907321758747 0 -0.12906667623787199 0.19420974862246551 0 -0.12657544630285281 0.21477689418317639 0 -0.1249858597515216 0.19470349584794391 0 -0.13176272622226981 0.19388354743111069 0 -0.12906667623787199 0.19420974862246551 0 -0.12657544630285281 0.21477689418317639 0 -0.13176272622226981 0.19388354743111069 0 -0.12906667623787199 0.19420974862246551 0 -0.12835392497953199 0.19020259144248411 0 -0.13176272622226981 0.19388354743111069 0 -0.12906667623787199 0.19420974862246551 0 -0.13176272622226981 0.19388354743111069 0 -0.12835392497953199 0.19020259144248411 0 -0.12906667623787199 0.19420974862246551 0 -0.1271229678727778 0.19184757747738859 0 -0.1249858597515216 0.19470349584794391 0 -0.12906667623787199 0.19420974862246551 0 -0.12835392497953199 0.19020259144248411 0 -0.12906667623787199 0.19420974862246551 0 -0.1271229678727778 0.19184757747738859 0 -0.12835392497953199 0.19020259144248411 0 -0.12906667623787199 0.19420974862246551 0 -0.1249858597515216 0.19470349584794391 0 -0.1271229678727778 0.19184757747738859 0 -0.1249858597515216 0.19470349584794391 0 -0.1271229678727778 0.19184757747738859 0 -0.12835392497953199 0.19020259144248411 0 -0.12906667623787199 0.19420974862246551 0 -0.12657544630285281 0.21477689418317639 0 -0.13176272622226981 0.19388354743111069 0 -0.12657544630285281 0.21477689418317639 0 -0.14917948916683119 0.2126908445710968 0 -0.13176272622226981 0.19388354743111069 0 -0.14917948916683119 0.2126908445710968 0 -0.12657544630285281 0.21477689418317639 0 -0.14917948916683119 0.2126908445710968 0 -0.13671735525740511 0.22685238803991151 0 -0.15858511554219981 0.20582412575343259 0 -0.15311605888416521 0.19668605011714241 0 -0.14917948916683119 0.2126908445710968 0 -0.1496048439609072 0.23181875741082089 0 -0.13671735525740511 0.22685238803991151 0 -0.1417636236240036 0.24415226059194911 0 -0.1665962521113924 0.23149814171108299 0 -0.14917948916683119 0.2126908445710968 0 -0.1496048439609072 0.23181875741082089 0 -0.14917948916683119 0.2126908445710968 0 -0.1496048439609072 0.23181875741082089 0 -0.13671735525740511 0.22685238803991151 0 -0.12657544630285281 0.21477689418317639 0 -0.1240842163678311 0.23534403974388701 0 -0.12657544630285281 0.21477689418317639 0 -0.13671735525740511 0.22685238803991151 0 -0.1240842163678311 0.23534403974388701 0 -0.13216156808548279 0.26400713188352481 0 -0.1417636236240036 0.24415226059194911 0 -0.1240842163678311 0.23534403974388701 0 -0.13671735525740511 0.22685238803991151 0 -0.1417636236240036 0.24415226059194911 0 -0.1240842163678311 0.23534403974388701 0 -0.13216156808548279 0.26400713188352481 0 -0.1240842163678311 0.23534403974388701 0 -0.15849465336154589 0.24630261166939491 0 -0.1496048439609072 0.23181875741082089 0 -0.1417636236240036 0.24415226059194911 0 -0.1630394102968121 0.14925900901352129 0 -0.17389931202318079 0.137028059486864 0 -0.17150609731174629 0.16319626346932159 0 -0.1630394102968121 0.14925900901352129 0 -0.16737794586855209 0.13839371935929901 0 -0.17389931202318079 0.137028059486864 0 -0.1630394102968121 0.14925900901352129 0 -0.15842094703900811 0.1336532583166139 0 -0.16737794586855209 0.13839371935929901 0 -0.1690207517294959 0.1162386593052924 0 -0.15842094703900811 0.1336532583166139 0 -0.16901979494774891 0.12916508306652211 0 -0.1690207517294959 0.1162386593052924 0 -0.15842094703900811 0.1336532583166139 0 -0.15325468399262471 0.1286353458688583 0 -0.15842094703900811 0.1336532583166139 0 -0.16901979494774891 0.12916508306652211 0 -0.16709793706050041 0.1345162368343755 0 -0.15842094703900811 0.1336532583166139 0 -0.16737794586855209 0.13839371935929901 0 -0.16709793706050041 0.1345162368343755 0 -0.16901979494774891 0.12916508306652211 0 -0.16709793706050041 0.1345162368343755 0 -0.17389931202318079 0.137028059486864 0 -0.16737794586855209 0.13839371935929901 0 -0.16709793706050041 0.1345162368343755 0 -0.17389931202318079 0.137028059486864 0 -0.19303710013026301 0.13500070205148501 0 -0.17389931202318079 0.137028059486864 0 -0.18284927956541019 0.12984089325050241 0 -0.17513385666475381 0.12352913862046951 0 -0.17389931202318079 0.137028059486864 0 -0.17513385666475381 0.12352913862046951 0 -0.17389931202318079 0.137028059486864 0 -0.18284927956541019 0.12984089325050241 0 -0.17513385666475381 0.12352913862046951 0 -0.16901979494774891 0.12916508306652211 0 -0.17389931202318079 0.137028059486864 0 -0.17513385666475381 0.12352913862046951 0 -0.18821314094435049 0.12350496107035321 0 -0.18284927956541019 0.12984089325050241 0 -0.17389931202318079 0.137028059486864 0 -0.18351303642030439 0.1539838633221178 0 -0.17150609731174629 0.16319626346932159 0 -0.17389931202318079 0.137028059486864 0 -0.17150609731174629 0.16319626346932159 0 -0.19798802692577519 0.14996190985657129 0 -0.17389931202318079 0.137028059486864 0 -0.18351303642030439 0.1539838633221178 0 -0.19798802692577519 0.14996190985657129 0 -0.17389931202318079 0.137028059486864 0 -0.1906587094205161 0.16574922047571281 0 -0.18171497539751361 0.17634674098194569 0 -0.17150609731174629 0.16319626346932159 0 -0.1906587094205161 0.16574922047571281 0 -0.18351303642030439 0.1539838633221178 0 -0.17150609731174629 0.16319626346932159 0 -0.16911288260030569 0.18936446745177879 0 -0.18171497539751361 0.17634674098194569 0 -0.17150609731174629 0.16319626346932159 0 -0.1911099515305531 0.1867029922814851 0 -0.16911288260030569 0.18936446745177879 0 -0.18171497539751361 0.17634674098194569 0 -0.16911288260030569 0.18936446745177879 0 -0.17150609731174629 0.16319626346932159 0 -0.16911288260030569 0.18936446745177879 0 -0.17150609731174629 0.16319626346932159 0 -0.15872159440975281 0.16975713207202811 0 -0.16911288260030569 0.18936446745177879 0 -0.15695242546149549 0.181703584166789 0 -0.15872159440975281 0.16975713207202811 0 -0.1630394102968121 0.14925900901352129 0 -0.17150609731174629 0.16319626346932159 0 -0.1578970707717251 0.15899892771701429 0 -0.17150609731174629 0.16319626346932159 0 -0.15872159440975281 0.16975713207202811 0 -0.1578970707717251 0.15899892771701429 0 -0.1578970707717251 0.15899892771701429 0 -0.14939046881352031 0.16209046581300579 0 -0.1468277830267937 0.15069176821719421 0 -0.13523461901457931 0.16773027811777461 0 -0.1468277830267937 0.15069176821719421 0 -0.15872159440975281 0.16975713207202811 0 -0.1578970707717251 0.15899892771701429 0 -0.14939046881352031 0.16209046581300579 0 -0.14939046881352031 0.16209046581300579 0 -0.13523461901457931 0.16773027811777461 0 -0.1468277830267937 0.15069176821719421 0 -0.15872159440975281 0.16975713207202811 0 -0.14939046881352031 0.16209046581300579 0 -0.14978270365271529 0.17514476603953771 0 -0.14939046881352031 0.16209046581300579 0 -0.13862122368235091 0.17648191596998891 0 -0.14939046881352031 0.16209046581300579 0 -0.14978270365271529 0.17514476603953771 0 -0.13862122368235091 0.17648191596998891 0 -0.14939046881352031 0.16209046581300579 0 -0.13862122368235091 0.17648191596998891 0 -0.13523461901457931 0.16773027811777461 0 -0.15695242546149549 0.181703584166789 0 -0.14522780589645909 0.1856907321758747 0 -0.15695242546149549 0.181703584166789 0 -0.14978270365271529 0.17514476603953771 0 -0.14522780589645909 0.1856907321758747 0 -0.14956059555773449 0.1917301429265986 0 -0.15695242546149549 0.181703584166789 0 -0.14522780589645909 0.1856907321758747 0 -0.15695242546149549 0.181703584166789 0 -0.15872159440975281 0.16975713207202811 0 -0.14978270365271529 0.17514476603953771 0 -0.14978270365271529 0.17514476603953771 0 -0.14522780589645909 0.1856907321758747 0 -0.13862122368235091 0.17648191596998891 0 -0.14522780589645909 0.1856907321758747 0 -0.13862122368235091 0.17648191596998891 0 -0.12835392497953199 0.19020259144248411 0 -0.14522780589645909 0.1856907321758747 0 -0.13862122368235091 0.17648191596998891 0 -0.12835392497953199 0.19020259144248411 0 -0.13862122368235091 0.17648191596998891 0 -0.1273225938786946 0.1742532673115508 0 -0.12835392497953199 0.19020259144248411 0 -0.13862122368235091 0.17648191596998891 0 -0.135961071715828 0.1567891266946089 0 -0.13523461901457931 0.16773027811777461 0 -0.1468277830267937 0.15069176821719421 0 -0.135961071715828 0.1567891266946089 0 -0.13523461901457931 0.16773027811777461 0 -0.12883153747101969 0.1628362186772481 0 -0.13862122368235091 0.17648191596998891 0 -0.12883153747101969 0.1628362186772481 0 -0.13862122368235091 0.17648191596998891 0 -0.13523461901457931 0.16773027811777461 0 -0.12883153747101969 0.1628362186772481 0 -0.13862122368235091 0.17648191596998891 0 -0.1273225938786946 0.1742532673115508 0 -0.12883153747101969 0.1628362186772481 0 -0.135961071715828 0.1567891266946089 0 -0.12883153747101969 0.1628362186772481 0 -0.13023517400705761 0.1559927433892537 0 -0.13215742716996509 0.14482887999050409 0 -0.13537222012147451 0.13303794867886701 0 -0.1190418512596908 0.1491905213845055 0 -0.12907535617317961 0.15063118806896711 0 -0.13023517400705761 0.1559927433892537 0 -0.1190418512596908 0.1491905213845055 0 -0.12883153747101969 0.1628362186772481 0 -0.13023517400705761 0.1559927433892537 0 -0.1190418512596908 0.1491905213845055 0 -0.12907535617317961 0.15063118806896711 0 -0.13215742716996509 0.14482887999050409 0 -0.1344266767690149 0.1514758128730902 0 -0.12907535617317961 0.15063118806896711 0 -0.13023517400705761 0.1559927433892537 0 -0.1344266767690149 0.1514758128730902 0 -0.12907535617317961 0.15063118806896711 0 -0.13215742716996509 0.14482887999050409 0 -0.1190418512596908 0.1491905213845055 0 -0.13215742716996509 0.14482887999050409 0 -0.13745915243373341 0.14545827991984969 0 -0.13537222012147451 0.13303794867886701 0 -0.13745915243373341 0.14545827991984969 0 -0.143849770948381 0.14580079125303891 0 -0.13537222012147451 0.13303794867886701 0 -0.13215742716996509 0.14482887999050409 0 -0.13745915243373341 0.14545827991984969 0 -0.1344266767690149 0.1514758128730902 0 -0.13745915243373341 0.14545827991984969 0 -0.13977034451951231 0.15097114425457789 0 -0.143849770948381 0.14580079125303891 0 -0.135961071715828 0.1567891266946089 0 -0.13023517400705761 0.1559927433892537 0 -0.1344266767690149 0.1514758128730902 0 -0.13745915243373341 0.14545827991984969 0 -0.1344266767690149 0.1514758128730902 0 -0.13977034451951231 0.15097114425457789 0 -0.135961071715828 0.1567891266946089 0 -0.1344266767690149 0.1514758128730902 0 -0.13977034451951231 0.15097114425457789 0 -0.15842094703900811 0.1336532583166139 0 -0.1468277830267937 0.15069176821719421 0 -0.1630394102968121 0.14925900901352129 0 -0.1578970707717251 0.15899892771701429 0 -0.1468277830267937 0.15069176821719421 0 -0.135961071715828 0.1567891266946089 0 -0.13977034451951231 0.15097114425457789 0 -0.1468277830267937 0.15069176821719421 0 -0.1630394102968121 0.14925900901352129 0 -0.15842094703900811 0.1336532583166139 0 -0.1468277830267937 0.15069176821719421 0 -0.15842094703900811 0.1336532583166139 0 -0.1468277830267937 0.15069176821719421 0 -0.143849770948381 0.14580079125303891 0 -0.13977034451951231 0.15097114425457789 0 -0.1468277830267937 0.15069176821719421 0 -0.143849770948381 0.14580079125303891 0 -0.15842094703900811 0.1336532583166139 0 -0.15325468399262471 0.1286353458688583 0 -0.14360151432801699 0.13676872018338801 0 -0.15842094703900811 0.1336532583166139 0 -0.143849770948381 0.14580079125303891 0 -0.14360151432801699 0.13676872018338801 0 -0.143849770948381 0.14580079125303891 0 -0.14360151432801699 0.13676872018338801 0 -0.13537222012147451 0.13303794867886701 0 -0.15325468399262471 0.1286353458688583 0 -0.14360151432801699 0.13676872018338801 0 -0.1419755228739781 0.12788074567013849 0 -0.14360151432801699 0.13676872018338801 0 -0.1419755228739781 0.12788074567013849 0 -0.13537222012147451 0.13303794867886701 0 -0.12689466929456741 0.1202751061046955 0 -0.13537222012147451 0.13303794867886701 0 -0.1190418512596908 0.1491905213845055 0 -0.12689466929456741 0.1202751061046955 0 -0.1419755228739781 0.12788074567013849 0 -0.13537222012147451 0.13303794867886701 0 -0.143849770948381 0.14580079125303891 0 -0.13537222012147451 0.13303794867886701 0 -0.12689466929456741 0.1202751061046955 0 -0.13537222012147451 0.13303794867886701 0 -0.12689466929456741 0.1202751061046955 0 -0.1190418512596908 0.1491905213845055 0 -0.1157435997659011 0.1313513530565053 0 -0.1088042455319994 0.13492047577253419 0 -0.1190418512596908 0.1491905213845055 0 -0.12689466929456741 0.1202751061046955 0 -0.1157435997659011 0.1313513530565053 0 -0.1190418512596908 0.1491905213845055 0 -0.1157435997659011 0.1313513530565053 0 -0.1088042455319994 0.13492047577253419 0 -0.1082336329773475 0.1210193089642863 0 -0.1088042455319994 0.13492047577253419 0 -0.093617406066645023 0.1272302641662767 0 -0.1082336329773475 0.1210193089642863 0 -0.1088042455319994 0.13492047577253419 0 -0.098774392974564751 0.14553022138883581 0 -0.093617406066645023 0.1272302641662767 0 -0.098774392974564751 0.14553022138883581 0 -0.093617406066645023 0.1272302641662767 0 -0.098774392974564751 0.14553022138883581 0 -0.1039313798824805 0.1638301786113959 0 -0.098774392974564751 0.14553022138883581 0 -0.1039313798824805 0.1638301786113959 0 -0.098813618493943003 0.15830382107687391 0 -0.098774392974564751 0.14553022138883581 0 -0.10871053515376029 0.15132090565521189 0 -0.1039313798824805 0.1638301786113959 0 -0.1088042455319994 0.13492047577253419 0 -0.098774392974564751 0.14553022138883581 0 -0.10871053515376029 0.15132090565521189 0 -0.098774392974564751 0.14553022138883581 0 -0.098813618493943003 0.15830382107687391 0 -0.090745743737697893 0.1517150561766957 0 -0.1088042455319994 0.13492047577253419 0 -0.10871053515376029 0.15132090565521189 0 -0.1190418512596908 0.1491905213845055 0 -0.10871053515376029 0.15132090565521189 0 -0.1190418512596908 0.1491905213845055 0 -0.1161984957131246 0.15966024143302171 0 -0.1088042455319994 0.13492047577253419 0 -0.1190418512596908 0.1491905213845055 0 -0.12883153747101969 0.1628362186772481 0 -0.1190418512596908 0.1491905213845055 0 -0.1190418512596908 0.1491905213845055 0 -0.1161984957131246 0.15966024143302171 0 -0.1161984957131246 0.15966024143302171 0 -0.11614265243100561 0.17701638502694059 0 -0.1039313798824805 0.1638301786113959 0 -0.12883153747101969 0.1628362186772481 0 -0.1190418512596908 0.1491905213845055 0 -0.1161984957131246 0.15966024143302171 0 -0.1273225938786946 0.1742532673115508 0 -0.1161984957131246 0.15966024143302171 0 -0.11614265243100561 0.17701638502694059 0 -0.1273225938786946 0.1742532673115508 0 -0.12883153747101969 0.1628362186772481 0 -0.1161984957131246 0.15966024143302171 0 -0.11614265243100561 0.17701638502694059 0 -0.1039313798824805 0.1638301786113959 0 -0.10871053515376029 0.15132090565521189 0 -0.1161984957131246 0.15966024143302171 0 -0.1039313798824805 0.1638301786113959 0 -0.11614265243100561 0.17701638502694059 0 -0.1085479116380825 0.180212289939676 0 -0.1039313798824805 0.1638301786113959 0 -0.12835392497953199 0.19020259144248411 0 -0.1273225938786946 0.1742532673115508 0 -0.11614265243100561 0.17701638502694059 0 -0.12835392497953199 0.19020259144248411 0 -0.11866638006301559 0.18717464903088921 0 -0.11614265243100561 0.17701638502694059 0 -0.12835392497953199 0.19020259144248411 0 -0.11614265243100561 0.17701638502694059 0 -0.11866638006301559 0.18717464903088921 0 -0.11614265243100561 0.17701638502694059 0 -0.1085479116380825 0.180212289939676 0 -0.1085479116380825 0.180212289939676 0 -0.1039313798824805 0.1638301786113959 0 -0.1085479116380825 0.180212289939676 0 -0.093988955290101886 0.16996087176906591 0 -0.093629291371033707 0.18585403999198449 0 -0.1085479116380825 0.180212289939676 0 -0.1039313798824805 0.1638301786113959 0 -0.093988955290101886 0.16996087176906591 0 -0.093988955290101886 0.16996087176906591 0 -0.098813618493943003 0.15830382107687391 0 -0.089146463425543582 0.1601306205480903 0 -0.1039313798824805 0.1638301786113959 0 -0.093988955290101886 0.16996087176906591 0 -0.098813618493943003 0.15830382107687391 0 -0.1039313798824805 0.1638301786113959 0 -0.098813618493943003 0.15830382107687391 0 -0.098813618493943003 0.15830382107687391 0 -0.089146463425543582 0.1601306205480903 0 -0.090745743737697893 0.1517150561766957 0 -0.093988955290101886 0.16996087176906591 0 -0.089146463425543582 0.1601306205480903 0 -0.082866078242106719 0.166701814154537 0 -0.082866078242106719 0.166701814154537 0 -0.080262638548480925 0.17686996886511719 0 -0.073103057916342223 0.16544701101308579 0 -0.093988955290101886 0.16996087176906591 0 -0.082866078242106719 0.166701814154537 0 -0.080262638548480925 0.17686996886511719 0 -0.082866078242106719 0.166701814154537 0 -0.073103057916342223 0.16544701101308579 0 -0.080463741902399813 0.15368002890192969 0 -0.089146463425543582 0.1601306205480903 0 -0.082866078242106719 0.166701814154537 0 -0.080463741902399813 0.15368002890192969 0 -0.093988955290101886 0.16996087176906591 0 -0.093629291371033707 0.18585403999198449 0 -0.080262638548480925 0.17686996886511719 0 -0.093629291371033707 0.18585403999198449 0 -0.080262638548480925 0.17686996886511719 0 -0.072591036011259769 0.19370016856559069 0 -0.080262638548480925 0.17686996886511719 0 -0.064958516309289796 0.17626354178758361 0 -0.072591036011259769 0.19370016856559069 0 -0.080262638548480925 0.17686996886511719 0 -0.064958516309289796 0.17626354178758361 0 -0.073103057916342223 0.16544701101308579 0 -0.073103057916342223 0.16544701101308579 0 -0.066743667129655293 0.1513547900672958 0 -0.080463741902399813 0.15368002890192969 0 -0.064958516309289796 0.17626354178758361 0 -0.073103057916342223 0.16544701101308579 0 -0.062127284559112872 0.16292446047554421 0 -0.073103057916342223 0.16544701101308579 0 -0.066743667129655293 0.1513547900672958 0 -0.062127284559112872 0.16292446047554421 0 -0.066743667129655293 0.1513547900672958 0 -0.073000147476216831 0.13954615732032141 0 -0.080463741902399813 0.15368002890192969 0 -0.066743667129655293 0.1513547900672958 0 -0.073000147476216831 0.13954615732032141 0 -0.058083801747256809 0.13850691521610289 0 -0.065269164148754166 0.12739059252094681 0 -0.073000147476216831 0.13954615732032141 0 -0.058083801747256809 0.13850691521610289 0 -0.065269164148754166 0.12739059252094681 0 -0.073000147476216831 0.13954615732032141 0 -0.079734495329115654 0.1263964974910608 0 -0.073000147476216831 0.13954615732032141 0 -0.079734495329115654 0.1263964974910608 0 -0.086530501892038328 0.14093058896774879 0 -0.098774392974564751 0.14553022138883581 0 -0.093617406066645023 0.1272302641662767 0 -0.086530501892038328 0.14093058896774879 0 -0.079734495329115654 0.1263964974910608 0 -0.093617406066645023 0.1272302641662767 0 -0.086530501892038328 0.14093058896774879 0 -0.098774392974564751 0.14553022138883581 0 -0.086530501892038328 0.14093058896774879 0 -0.090745743737697893 0.1517150561766957 0 -0.089146463425543582 0.1601306205480903 0 -0.090745743737697893 0.1517150561766957 0 -0.080463741902399813 0.15368002890192969 0 -0.086530501892038328 0.14093058896774879 0 -0.090745743737697893 0.1517150561766957 0 -0.080463741902399813 0.15368002890192969 0 -0.073000147476216831 0.13954615732032141 0 -0.086530501892038328 0.14093058896774879 0 -0.080463741902399813 0.15368002890192969 0 -0.10625519902310331 0.24894121247517381 0 -0.1024673648888018 0.22479602252738659 0 -0.088923442773677641 0.2428954043945287 0 -0.1216953518658548 0.25506607473002069 0 -0.1240842163678311 0.23534403974388701 0 -0.10625519902310331 0.24894121247517381 0 -0.1240842163678311 0.23534403974388701 0 -0.1024673648888018 0.22479602252738659 0 -0.1216953518658548 0.25506607473002069 0 -0.10625519902310331 0.24894121247517381 0 -0.1240842163678311 0.23534403974388701 0 -0.1240842163678311 0.23534403974388701 0 -0.1024673648888018 0.22479602252738659 0 -0.1160112870039221 0.20669664066024171 0 -0.1240842163678311 0.23534403974388701 0 -0.1160112870039221 0.20669664066024171 0 -0.12657544630285281 0.21477689418317639 0 -0.1240842163678311 0.23534403974388701 0 -0.1160112870039221 0.20669664066024171 0 -0.1024673648888018 0.22479602252738659 0 -0.1023494047448546 0.210590544682556 0 -0.083970171605080635 0.22308712736554079 0 -0.1024673648888018 0.22479602252738659 0 -0.088923442773677641 0.2428954043945287 0 -0.1023494047448546 0.210590544682556 0 -0.1131644433936804 0.1965944012679571 0 -0.089439425290488789 0.20466248042148519 0 -0.1024673648888018 0.22479602252738659 0 -0.1160112870039221 0.20669664066024171 0 -0.1024673648888018 0.22479602252738659 0 -0.1023494047448546 0.210590544682556 0 -0.1160112870039221 0.20669664066024171 0 -0.12657544630285281 0.21477689418317639 0 -0.1160112870039221 0.20669664066024171 0 -0.1249858597515216 0.19470349584794391 0 -0.1023494047448546 0.210590544682556 0 -0.1160112870039221 0.20669664066024171 0 -0.1131644433936804 0.1965944012679571 0 -0.1160112870039221 0.20669664066024171 0 -0.1131644433936804 0.1965944012679571 0 -0.1178312025756536 0.19556915401748801 0 -0.1160112870039221 0.20669664066024171 0 -0.1131644433936804 0.1965944012679571 0 -0.1085479116380825 0.180212289939676 0 -0.1131644433936804 0.1965944012679571 0 -0.11866638006301559 0.18717464903088921 0 -0.1085479116380825 0.180212289939676 0 -0.1131644433936804 0.1965944012679571 0 -0.1160112870039221 0.20669664066024171 0 -0.1249858597515216 0.19470349584794391 0 -0.1160112870039221 0.20669664066024171 0 -0.1178312025756536 0.19556915401748801 0 -0.1249858597515216 0.19470349584794391 0 -0.1271229678727778 0.19184757747738859 0 -0.1131644433936804 0.1965944012679571 0 -0.1271229678727778 0.19184757747738859 0 -0.11866638006301559 0.18717464903088921 0 -0.1131644433936804 0.1965944012679571 0 -0.1271229678727778 0.19184757747738859 0 -0.12835392497953199 0.19020259144248411 0 -0.11866638006301559 0.18717464903088921 0 -0.1271229678727778 0.19184757747738859 0 -0.1178312025756536 0.19556915401748801 0 -0.1249858597515216 0.19470349584794391 0 -0.1271229678727778 0.19184757747738859 0 -0.1131644433936804 0.1965944012679571 0 -0.1178312025756536 0.19556915401748801 0 -0.1178312025756536 0.19556915401748801 0 -0.1249858597515216 0.19470349584794391 0 -0.1085479116380825 0.180212289939676 0 -0.093629291371033707 0.18585403999198449 0 -0.1131644433936804 0.1965944012679571 0 -0.1131644433936804 0.1965944012679571 0 -0.089439425290488789 0.20466248042148519 0 -0.093629291371033707 0.18585403999198449 0 -0.1131644433936804 0.1965944012679571 0 -0.089439425290488789 0.20466248042148519 0 -0.093629291371033707 0.18585403999198449 0 -0.072591036011259769 0.19370016856559069 0 -0.089439425290488789 0.20466248042148519 0 -0.072591036011259769 0.19370016856559069 0 -0.065714407187297721 0.21273055957501491 0 -0.049672979496348149 0.2047569725695331 0 -0.065714407187297721 0.21273055957501491 0 -0.089439425290488789 0.20466248042148519 0 -0.072591036011259769 0.19370016856559069 0 -0.065714407187297721 0.21273055957501491 0 -0.089439425290488789 0.20466248042148519 0 -0.1023494047448546 0.210590544682556 0 -0.089439425290488789 0.20466248042148519 0 -0.083970171605080635 0.22308712736554079 0 -0.065714407187297721 0.21273055957501491 0 -0.089439425290488789 0.20466248042148519 0 -0.083970171605080635 0.22308712736554079 0 -0.1024673648888018 0.22479602252738659 0 -0.083970171605080635 0.22308712736554079 0 -0.088923442773677641 0.2428954043945287 0 -0.065714407187297721 0.21273055957501491 0 -0.083970171605080635 0.22308712736554079 0 -0.058684454871330401 0.24089671249510741 0 -0.075379520658553634 0.26099478626167077 0 -0.088923442773677641 0.2428954043945287 0 -0.058684454871330401 0.24089671249510741 0 -0.083970171605080635 0.22308712736554079 0 -0.088923442773677641 0.2428954043945287 0 -0.058684454871330401 0.24089671249510741 0 -0.044684585048828732 0.25364523157778279 0 -0.039338805953962552 0.23628347772565789 0 -0.028224460930672039 0.24786102306797789 0 -0.039338805953962552 0.23628347772565789 0 -0.032401398754507628 0.23070299876854369 0 -0.030915469907283982 0.23726397165681551 0 -0.039338805953962552 0.23628347772565789 0 -0.030915469907283982 0.23726397165681551 0 -0.028224460930672039 0.24786102306797789 0 -0.044684585048828732 0.25364523157778279 0 -0.039338805953962552 0.23628347772565789 0 -0.058684454871330401 0.24089671249510741 0 -0.065714407187297721 0.21273055957501491 0 -0.058684454871330401 0.24089671249510741 0 -0.041989389084106717 0.22079863872854441 0 -0.058684454871330401 0.24089671249510741 0 -0.041989389084106717 0.22079863872854441 0 -0.039338805953962552 0.23628347772565789 0 -0.041989389084106717 0.22079863872854441 0 -0.03818662820858082 0.22209182955403711 0 -0.039338805953962552 0.23628347772565789 0 -0.058684454871330401 0.24089671249510741 0 -0.041989389084106717 0.22079863872854441 0 -0.041989389084106717 0.22079863872854441 0 -0.03818662820858082 0.22209182955403711 0 -0.039338805953962552 0.23628347772565789 0 -0.032401398754507628 0.23070299876854369 0 -0.03818662820858082 0.22209182955403711 0 -0.032401398754507628 0.23070299876854369 0 -0.03818662820858082 0.22209182955403711 0 -0.02804772465065512 0.22136790668136569 0 -0.041989389084106717 0.22079863872854441 0 -0.03818662820858082 0.22209182955403711 0 -0.026952362819696409 0.20269656791651181 0 -0.041989389084106717 0.22079863872854441 0 -0.026952362819696409 0.20269656791651181 0 -0.041989389084106717 0.22079863872854441 0 -0.049672979496348149 0.2047569725695331 0 -0.026952362819696409 0.20269656791651181 0 -0.065714407187297721 0.21273055957501491 0 -0.041989389084106717 0.22079863872854441 0 -0.065714407187297721 0.21273055957501491 0 -0.041989389084106717 0.22079863872854441 0 -0.049672979496348149 0.2047569725695331 0 -0.072591036011259769 0.19370016856559069 0 -0.049672979496348149 0.2047569725695331 0 -0.048344442502479067 0.18894888273032739 0 -0.049672979496348149 0.2047569725695331 0 -0.048344442502479067 0.18894888273032739 0 -0.034380030881867273 0.1907369768074218 0 -0.049672979496348149 0.2047569725695331 0 -0.034380030881867273 0.1907369768074218 0 -0.026952362819696409 0.20269656791651181 0 -0.026952362819696409 0.20269656791651181 0 -0.01033424703650564 0.20373928242107239 0 -0.011915336555286111 0.18459449710447931 0 -0.026952362819696409 0.20269656791651181 0 -0.011915336555286111 0.18459449710447931 0 -0.034380030881867273 0.1907369768074218 0 -0.026952362819696409 0.20269656791651181 0 -0.011915336555286111 0.18459449710447931 0 -0.01033424703650564 0.20373928242107239 0 -0.011915336555286111 0.18459449710447931 0 0.0009353780770335635 0.1938765135825741 0 -0.01033424703650564 0.20373928242107239 0 0.0025859288715124129 0.20777028317643681 0 0.0009353780770335635 0.1938765135825741 0 -0.01033424703650564 0.20373928242107239 0 -0.0076580703121003086 0.21635808264377959 0 0.0025859288715124129 0.20777028317643681 0 -0.01033424703650564 0.20373928242107239 0 -0.0076580703121003086 0.21635808264377959 0 -0.019001019480497001 0.2171397501026531 0 -0.026952362819696409 0.20269656791651181 0 -0.01033424703650564 0.20373928242107239 0 -0.019001019480497001 0.2171397501026531 0 -0.026952362819696409 0.20269656791651181 0 -0.019001019480497001 0.2171397501026531 0 -0.02804772465065512 0.22136790668136569 0 -0.03818662820858082 0.22209182955403711 0 -0.026952362819696409 0.20269656791651181 0 -0.02804772465065512 0.22136790668136569 0 -0.019001019480497001 0.2171397501026531 0 -0.02369721398999371 0.2342083870650826 0 -0.01056041778630981 0.22766728959268959 0 -0.019001019480497001 0.2171397501026531 0 -0.02804772465065512 0.22136790668136569 0 -0.02369721398999371 0.2342083870650826 0 -0.032401398754507628 0.23070299876854369 0 -0.02369721398999371 0.2342083870650826 0 -0.030915469907283982 0.23726397165681551 0 -0.032401398754507628 0.23070299876854369 0 -0.02804772465065512 0.22136790668136569 0 -0.02369721398999371 0.2342083870650826 0 -0.0076580703121003086 0.21635808264377959 0 -0.01056041778630981 0.22766728959268959 0 0.0072853495044526012 0.23207293279701549 0 -0.0076580703121003086 0.21635808264377959 0 -0.019001019480497001 0.2171397501026531 0 -0.01056041778630981 0.22766728959268959 0 -0.01056041778630981 0.22766728959268959 0 -0.0097311346534106127 0.23855729535491729 0 0.0072853495044526012 0.23207293279701549 0 -0.02369721398999371 0.2342083870650826 0 -0.01056041778630981 0.22766728959268959 0 -0.0097311346534106127 0.23855729535491729 0 -0.00011193775520391721 0.25517212070728618 0 -0.0097311346534106127 0.23855729535491729 0 -0.01292667695621828 0.26021059831846272 0 -0.02369721398999371 0.2342083870650826 0 -0.0096905366651163487 0.249625733408574 0 -0.00011193775520391721 0.25517212070728618 0 -0.0097311346534106127 0.23855729535491729 0 0.0072853495044526012 0.23207293279701549 0 -0.02369721398999371 0.2342083870650826 0 -0.0097311346534106127 0.23855729535491729 0 -0.0096905366651163487 0.249625733408574 0 -0.00011193775520391721 0.25517212070728618 0 -0.0097311346534106127 0.23855729535491729 0 -0.0096905366651163487 0.249625733408574 0 -0.01292667695621828 0.26021059831846272 0 -0.02369721398999371 0.2342083870650826 0 -0.01292667695621828 0.26021059831846272 0 -0.02369721398999371 0.2342083870650826 0 -0.028224460930672039 0.24786102306797789 0 -0.02369721398999371 0.2342083870650826 0 -0.030915469907283982 0.23726397165681551 0 -0.028224460930672039 0.24786102306797789 0 -0.031600747622453379 0.14725225309078069 0 -0.04257548176596207 0.15703886073606541 0 -0.030917339192417539 0.16404046649650841 0 -0.044302141794485161 0.142202599087739 0 -0.031600747622453379 0.14725225309078069 0 -0.04257548176596207 0.15703886073606541 0 -0.044302141794485161 0.142202599087739 0 -0.031600747622453379 0.14725225309078069 0 -0.033569907807307502 0.131267506504221 0 -0.044302141794485161 0.142202599087739 0 -0.033569907807307502 0.131267506504221 0 -0.049104755936030822 0.12822692799608601 0 -0.065269164148754166 0.12739059252094681 0 -0.049104755936030822 0.12822692799608601 0 -0.058083801747256809 0.13850691521610289 0 -0.044302141794485161 0.142202599087739 0 -0.049104755936030822 0.12822692799608601 0 -0.058083801747256809 0.13850691521610289 0 -0.066743667129655293 0.1513547900672958 0 -0.058083801747256809 0.13850691521610289 0 -0.054176954652012048 0.15343199721998779 0 -0.044302141794485161 0.142202599087739 0 -0.058083801747256809 0.13850691521610289 0 -0.054176954652012048 0.15343199721998779 0 -0.044302141794485161 0.142202599087739 0 -0.054176954652012048 0.15343199721998779 0 -0.04257548176596207 0.15703886073606541 0 -0.066743667129655293 0.1513547900672958 0 -0.054176954652012048 0.15343199721998779 0 -0.062127284559112872 0.16292446047554421 0 -0.054176954652012048 0.15343199721998779 0 -0.062127284559112872 0.16292446047554421 0 -0.051654226788265041 0.16812496228976809 0 -0.064958516309289796 0.17626354178758361 0 -0.062127284559112872 0.16292446047554421 0 -0.051654226788265041 0.16812496228976809 0 -0.054176954652012048 0.15343199721998779 0 -0.051654226788265041 0.16812496228976809 0 -0.04257548176596207 0.15703886073606541 0 -0.064958516309289796 0.17626354178758361 0 -0.048344442502479067 0.18894888273032739 0 -0.051654226788265041 0.16812496228976809 0 -0.064958516309289796 0.17626354178758361 0 -0.072591036011259769 0.19370016856559069 0 -0.048344442502479067 0.18894888273032739 0 -0.048344442502479067 0.18894888273032739 0 -0.040494086123531947 0.17088506203736259 0 -0.03075097794745019 0.1771343282734921 0 -0.048344442502479067 0.18894888273032739 0 -0.03075097794745019 0.1771343282734921 0 -0.048344442502479067 0.18894888273032739 0 -0.034380030881867273 0.1907369768074218 0 -0.03075097794745019 0.1771343282734921 0 -0.048344442502479067 0.18894888273032739 0 -0.051654226788265041 0.16812496228976809 0 -0.040494086123531947 0.17088506203736259 0 -0.051654226788265041 0.16812496228976809 0 -0.04257548176596207 0.15703886073606541 0 -0.040494086123531947 0.17088506203736259 0 -0.040494086123531947 0.17088506203736259 0 -0.030917339192417539 0.16404046649650841 0 -0.03075097794745019 0.1771343282734921 0 -0.04257548176596207 0.15703886073606541 0 -0.040494086123531947 0.17088506203736259 0 -0.030917339192417539 0.16404046649650841 0 -0.030917339192417539 0.16404046649650841 0 -0.01315751339242139 0.16531977381665661 0 -0.030917339192417539 0.16404046649650841 0 -0.03075097794745019 0.1771343282734921 0 -0.01315751339242139 0.16531977381665661 0 -0.030917339192417539 0.16404046649650841 0 -0.01315751339242139 0.16531977381665661 0 -0.020454653533868619 0.1527705490642445 0 -0.03075097794745019 0.1771343282734921 0 -0.01315751339242139 0.16531977381665661 0 -0.034380030881867273 0.1907369768074218 0 -0.03075097794745019 0.1771343282734921 0 -0.011915336555286111 0.18459449710447931 0 -0.03075097794745019 0.1771343282734921 0 -0.011915336555286111 0.18459449710447931 0 -0.01315751339242139 0.16531977381665661 0 -0.011915336555286111 0.18459449710447931 0 0.0031216897091246188 0.16649242629244701 0 -0.011915336555286111 0.18459449710447931 0 0.0031216897091246188 0.16649242629244701 0 0.0020710030378915268 0.18162716825173669 0 -0.011915336555286111 0.18459449710447931 0 -0.01315751339242139 0.16531977381665661 0 0.0031216897091246188 0.16649242629244701 0 -0.011915336555286111 0.18459449710447931 0 0.0020710030378915268 0.18162716825173669 0 0.0009353780770335635 0.1938765135825741 0 -0.01315751339242139 0.16531977381665661 0 -0.0093356360451499181 0.14900962086430519 0 0.002721816111255361 0.15465631395220419 0 -0.01315751339242139 0.16531977381665661 0 0.0031216897091246188 0.16649242629244701 0 -0.01315751339242139 0.16531977381665661 0 0.002721816111255361 0.15465631395220419 0 0.0031216897091246188 0.16649242629244701 0 -0.01315751339242139 0.16531977381665661 0 0.002721816111255361 0.15465631395220419 0 -0.01315751339242139 0.16531977381665661 0 -0.0093356360451499181 0.14900962086430519 0 -0.020454653533868619 0.1527705490642445 0 -0.0093356360451499181 0.14900962086430519 0 0.0019971322299643119 0.1361079308325148 0 0.002721816111255361 0.15465631395220419 0 -0.031600747622453379 0.14725225309078069 0 -0.020454653533868619 0.1527705490642445 0 -0.01778496164067938 0.13619353665590581 0 -0.031600747622453379 0.14725225309078069 0 -0.030917339192417539 0.16404046649650841 0 -0.020454653533868619 0.1527705490642445 0 -0.0093356360451499181 0.14900962086430519 0 -0.020454653533868619 0.1527705490642445 0 -0.01778496164067938 0.13619353665590581 0 -0.01778496164067938 0.13619353665590581 0 -0.0092761475422675557 0.1226514395717682 0 -0.02290988666224876 0.119120699823567 0 -0.033569907807307502 0.131267506504221 0 -0.01778496164067938 0.13619353665590581 0 -0.02290988666224876 0.119120699823567 0 -0.031600747622453379 0.14725225309078069 0 -0.033569907807307502 0.131267506504221 0 -0.01778496164067938 0.13619353665590581 0 -0.0093356360451499181 0.14900962086430519 0 -0.01778496164067938 0.13619353665590581 0 0.0019971322299643119 0.1361079308325148 0 -0.0092761475422675557 0.1226514395717682 0 0.0052607550463267053 0.1184896750956882 0 0.0019971322299643119 0.1361079308325148 0 -0.01778496164067938 0.13619353665590581 0 -0.0092761475422675557 0.1226514395717682 0 0.0019971322299643119 0.1361079308325148 0 -0.0092761475422675557 0.1226514395717682 0 -0.0089529622721888219 0.1064137428248286 0 0.0052607550463267053 0.1184896750956882 0 -0.0092761475422675557 0.1226514395717682 0 -0.01470784922070407 0.115448094766507 0 -0.0089529622721888219 0.1064137428248286 0 -0.0089529622721888219 0.1064137428248286 0 0.0052607550463267053 0.1184896750956882 0 -0.0089529622721888219 0.1064137428248286 0 -0.0075509514396256729 0.089676379199685144 0 -0.025010797332858711 0.092771053564595696 0 -0.0089529622721888219 0.1064137428248286 0 -0.0075509514396256729 0.089676379199685144 0 0.0091849122842178627 0.091096182324004127 0 -0.01470784922070407 0.115448094766507 0 -0.0089529622721888219 0.1064137428248286 0 -0.021801618826508891 0.1042773437050617 0 -0.021801618826508891 0.1042773437050617 0 -0.025010797332858711 0.092771053564595696 0 -0.039480846162075318 0.1143892101598 0 -0.0089529622721888219 0.1064137428248286 0 -0.021801618826508891 0.1042773437050617 0 -0.025010797332858711 0.092771053564595696 0 -0.0089529622721888219 0.1064137428248286 0 -0.025010797332858711 0.092771053564595696 0 -0.021801618826508891 0.1042773437050617 0 -0.02290988666224876 0.119120699823567 0 -0.039480846162075318 0.1143892101598 0 -0.0092761475422675557 0.1226514395717682 0 -0.01470784922070407 0.115448094766507 0 -0.02290988666224876 0.119120699823567 0 -0.01470784922070407 0.115448094766507 0 -0.021801618826508891 0.1042773437050617 0 -0.02290988666224876 0.119120699823567 0 -0.0088437095779531124 0.072930222867837638 0 -0.023133977355293728 0.076708811153193057 0 -0.012929805140003549 0.058328542974074603 0 -0.0088437095779531124 0.072930222867837638 0 -0.012929805140003549 0.058328542974074603 0 0.00043187230278597959 0.062219037880863803 0 -0.0088437095779531124 0.072930222867837638 0 -0.0075509514396256729 0.089676379199685144 0 0.0093541588554246474 0.072899074274879822 0 -0.0088437095779531124 0.072930222867837638 0 -0.0075509514396256729 0.089676379199685144 0 -0.023133977355293728 0.076708811153193057 0 -0.025010797332858711 0.092771053564595696 0 -0.023133977355293728 0.076708811153193057 0 -0.041068632393528808 0.079128364304363097 0 -0.0075509514396256729 0.089676379199685144 0 -0.025010797332858711 0.092771053564595696 0 -0.023133977355293728 0.076708811153193057 0 -0.023133977355293728 0.076708811153193057 0 -0.041068632393528808 0.079128364304363097 0 -0.027709162013294542 0.061716144348799587 0 -0.023133977355293728 0.076708811153193057 0 -0.027709162013294542 0.061716144348799587 0 -0.012929805140003549 0.058328542974074603 0 -0.041068632393528808 0.079128364304363097 0 -0.043167758284747088 0.057748372527706371 0 -0.027709162013294542 0.061716144348799587 0 -0.025010797332858711 0.092771053564595696 0 -0.041068632393528808 0.079128364304363097 0 -0.048303656808137467 0.089937442601965456 0 -0.025010797332858711 0.092771053564595696 0 -0.041068632393528808 0.079128364304363097 0 -0.041068632393528808 0.079128364304363097 0 -0.048303656808137467 0.089937442601965456 0 -0.057126467454199227 0.065485675044130831 0 -0.048303656808137467 0.089937442601965456 0 -0.061174618777056218 0.079894635633635844 0 -0.057126467454199227 0.065485675044130831 0 -0.048303656808137467 0.089937442601965456 0 -0.06248667545171635 0.092059002101489235 0 -0.061174618777056218 0.079894635633635844 0 -0.041068632393528808 0.079128364304363097 0 -0.057126467454199227 0.065485675044130831 0 -0.041068632393528808 0.079128364304363097 0 -0.057126467454199227 0.065485675044130831 0 -0.043167758284747088 0.057748372527706371 0 -0.048303656808137467 0.089937442601965456 0 -0.057126467454199227 0.065485675044130831 0 -0.033569907807307502 0.131267506504221 0 -0.02290988666224876 0.119120699823567 0 -0.039480846162075318 0.1143892101598 0 -0.033569907807307502 0.131267506504221 0 -0.049104755936030822 0.12822692799608601 0 -0.039480846162075318 0.1143892101598 0 -0.025010797332858711 0.092771053564595696 0 -0.048303656808137467 0.089937442601965456 0 -0.039480846162075318 0.1143892101598 0 -0.048303656808137467 0.089937442601965456 0 -0.039480846162075318 0.1143892101598 0 -0.048303656808137467 0.089937442601965456 0 -0.039480846162075318 0.1143892101598 0 -0.05466882956498216 0.1031382195719205 0 -0.06248667545171635 0.092059002101489235 0 -0.05466882956498216 0.1031382195719205 0 -0.064527746876527819 0.1036792156611152 0 -0.048303656808137467 0.089937442601965456 0 -0.06248667545171635 0.092059002101489235 0 -0.05466882956498216 0.1031382195719205 0 -0.05466882956498216 0.1031382195719205 0 -0.058545222526453888 0.1156262273352328 0 -0.064527746876527819 0.1036792156611152 0 -0.065269164148754166 0.12739059252094681 0 -0.049104755936030822 0.12822692799608601 0 -0.058545222526453888 0.1156262273352328 0 -0.039480846162075318 0.1143892101598 0 -0.05466882956498216 0.1031382195719205 0 -0.058545222526453888 0.1156262273352328 0 -0.049104755936030822 0.12822692799608601 0 -0.039480846162075318 0.1143892101598 0 -0.058545222526453888 0.1156262273352328 0 -0.065269164148754166 0.12739059252094681 0 -0.058545222526453888 0.1156262273352328 0 -0.073022587113212328 0.11380850847357139 0 -0.058545222526453888 0.1156262273352328 0 -0.073022587113212328 0.11380850847357139 0 -0.064527746876527819 0.1036792156611152 0 -0.065269164148754166 0.12739059252094681 0 -0.079734495329115654 0.1263964974910608 0 -0.073022587113212328 0.11380850847357139 0 -0.079734495329115654 0.1263964974910608 0 -0.093617406066645023 0.1272302641662767 0 -0.086967165277827344 0.1094728734974996 0 -0.093617406066645023 0.1272302641662767 0 -0.086967165277827344 0.1094728734974996 0 -0.098968154986228615 0.1104590557093548 0 -0.079734495329115654 0.1263964974910608 0 -0.073022587113212328 0.11380850847357139 0 -0.086967165277827344 0.1094728734974996 0 -0.086967165277827344 0.1094728734974996 0 -0.090099722057974452 0.09370943365126258 0 -0.086967165277827344 0.1094728734974996 0 -0.090099722057974452 0.09370943365126258 0 -0.097215107754451829 0.099402226327291995 0 -0.086967165277827344 0.1094728734974996 0 -0.076296540022142451 0.096355417178665609 0 -0.090099722057974452 0.09370943365126258 0 -0.073022587113212328 0.11380850847357139 0 -0.086967165277827344 0.1094728734974996 0 -0.076296540022142451 0.096355417178665609 0 -0.073022587113212328 0.11380850847357139 0 -0.076296540022142451 0.096355417178665609 0 -0.064527746876527819 0.1036792156611152 0 -0.06248667545171635 0.092059002101489235 0 -0.076296540022142451 0.096355417178665609 0 -0.064527746876527819 0.1036792156611152 0 -0.06248667545171635 0.092059002101489235 0 -0.076296540022142451 0.096355417178665609 0 -0.071526874802675389 0.082061903919597862 0 -0.06248667545171635 0.092059002101489235 0 -0.061174618777056218 0.079894635633635844 0 -0.071526874802675389 0.082061903919597862 0 -0.071526874802675389 0.082061903919597862 0 -0.080178924573005406 0.07491329326183753 0 -0.08226686805878386 0.084997208363277801 0 -0.076296540022142451 0.096355417178665609 0 -0.071526874802675389 0.082061903919597862 0 -0.08226686805878386 0.084997208363277801 0 -0.069815139840965573 0.069925646729425001 0 -0.08252252282608856 0.060368798584457969 0 -0.065299733133692986 0.058541692652645611 0 -0.057126467454199227 0.065485675044130831 0 -0.069815139840965573 0.069925646729425001 0 -0.065299733133692986 0.058541692652645611 0 -0.061174618777056218 0.079894635633635844 0 -0.071526874802675389 0.082061903919597862 0 -0.069815139840965573 0.069925646729425001 0 -0.061174618777056218 0.079894635633635844 0 -0.057126467454199227 0.065485675044130831 0 -0.069815139840965573 0.069925646729425001 0 -0.071526874802675389 0.082061903919597862 0 -0.069815139840965573 0.069925646729425001 0 -0.080178924573005406 0.07491329326183753 0 -0.069815139840965573 0.069925646729425001 0 -0.080178924573005406 0.07491329326183753 0 -0.08252252282608856 0.060368798584457969 0 -0.080178924573005406 0.07491329326183753 0 -0.093232278838119992 0.077945993805025163 0 -0.08252252282608856 0.060368798584457969 0 -0.093232278838119992 0.077945993805025163 0 -0.094509376618158891 0.071519468941699887 0 -0.08252252282608856 0.060368798584457969 0 -0.093232278838119992 0.077945993805025163 0 -0.08252252282608856 0.060368798584457969 0 -0.094509376618158891 0.071519468941699887 0 -0.085010873948040355 0.057219596638452178 0 -0.094509376618158891 0.071519468941699887 0 -0.08252252282608856 0.060368798584457969 0 -0.085010873948040355 0.057219596638452178 0 -0.093232278838119992 0.077945993805025163 0 -0.08226686805878386 0.084997208363277801 0 -0.090099722057974452 0.09370943365126258 0 -0.093232278838119992 0.077945993805025163 0 -0.090099722057974452 0.09370943365126258 0 -0.093232278838119992 0.077945993805025163 0 -0.090099722057974452 0.09370943365126258 0 -0.097215107754451829 0.099402226327291995 0 -0.076296540022142451 0.096355417178665609 0 -0.08226686805878386 0.084997208363277801 0 -0.090099722057974452 0.09370943365126258 0 -0.080178924573005406 0.07491329326183753 0 -0.093232278838119992 0.077945993805025163 0 -0.08226686805878386 0.084997208363277801 0 -0.093232278838119992 0.077945993805025163 0 -0.1107020229563629 0.095897287523197761 0 -0.1088497752697304 0.1035779300813184 0 -0.093232278838119992 0.077945993805025163 0 -0.1088497752697304 0.1035779300813184 0 -0.093232278838119992 0.077945993805025163 0 -0.094509376618158891 0.071519468941699887 0 -0.1107020229563629 0.095897287523197761 0 -0.094509376618158891 0.071519468941699887 0 -0.11947296242619 0.070529167400145018 0 -0.1107020229563629 0.095897287523197761 0 -0.093232278838119992 0.077945993805025163 0 -0.097215107754451829 0.099402226327291995 0 -0.1088497752697304 0.1035779300813184 0 -0.094509376618158891 0.071519468941699887 0 -0.1107020229563629 0.095897287523197761 0 -0.093232278838119992 0.077945993805025163 0 -0.094509376618158891 0.071519468941699887 0 -0.11947296242619 0.070529167400145018 0 -0.1233716746509252 0.088925773134263211 0 -0.1107020229563629 0.095897287523197761 0 -0.12689466929456741 0.1202751061046955 0 -0.1107020229563629 0.095897287523197761 0 -0.1228279476963066 0.1016733655911974 0 -0.12689466929456741 0.1202751061046955 0 -0.1107020229563629 0.095897287523197761 0 -0.12689466929456741 0.1202751061046955 0 -0.1107020229563629 0.095897287523197761 0 -0.1088497752697304 0.1035779300813184 0 -0.1233716746509252 0.088925773134263211 0 -0.1107020229563629 0.095897287523197761 0 -0.1228279476963066 0.1016733655911974 0 -0.12689466929456741 0.1202751061046955 0 -0.11073655813196839 0.1138328502149137 0 -0.1082336329773475 0.1210193089642863 0 -0.12689466929456741 0.1202751061046955 0 -0.11073655813196839 0.1138328502149137 0 -0.1088497752697304 0.1035779300813184 0 -0.12689466929456741 0.1202751061046955 0 -0.1157435997659011 0.1313513530565053 0 -0.1082336329773475 0.1210193089642863 0 -0.11073655813196839 0.1138328502149137 0 -0.1082336329773475 0.1210193089642863 0 -0.098968154986228615 0.1104590557093548 0 -0.093617406066645023 0.1272302641662767 0 -0.1082336329773475 0.1210193089642863 0 -0.098968154986228615 0.1104590557093548 0 -0.086967165277827344 0.1094728734974996 0 -0.098968154986228615 0.1104590557093548 0 -0.097215107754451829 0.099402226327291995 0 -0.11073655813196839 0.1138328502149137 0 -0.098968154986228615 0.1104590557093548 0 -0.1088497752697304 0.1035779300813184 0 -0.098968154986228615 0.1104590557093548 0 -0.097215107754451829 0.099402226327291995 0 -0.1088497752697304 0.1035779300813184 0 -0.093813051593326119 0.024452414055159001 0 -0.1062052671335294 0.01266420165470904 0 -0.085237329863076139 0.01569063650112669 0 -0.1031146896872272 0.028216395943319261 0 -0.1062052671335294 0.01266420165470904 0 -0.11594732073159909 0.015611701518579759 0 -0.1031146896872272 0.028216395943319261 0 -0.1062052671335294 0.01266420165470904 0 -0.1031146896872272 0.028216395943319261 0 -0.093813051593326119 0.024452414055159001 0 -0.090526252368037824 0.033717616739155618 0 -0.093813051593326119 0.024452414055159001 0 -0.1062052671335294 0.01266420165470904 0 -0.1031146896872272 0.028216395943319261 0 -0.093813051593326119 0.024452414055159001 0 -0.1062052671335294 0.01266420165470904 0 -0.10731828618425041 0.0070633426487658807 0 -0.1062052671335294 0.01266420165470904 0 -0.085237329863076139 0.01569063650112669 0 -0.10731828618425041 0.0070633426487658807 0 -0.085237329863076139 0.01569063650112669 0 -0.10731828618425041 0.0070633426487658807 0 -0.1062052671335294 0.01266420165470904 0 -0.1062052671335294 0.01266420165470904 0 -0.115421237406118 0.0038974226475877302 0 -0.10731828618425041 0.0070633426487658807 0 -0.1062052671335294 0.01266420165470904 0 -0.115421237406118 0.0038974226475877302 0 -0.1062052671335294 0.01266420165470904 0 -0.11594732073159909 0.015611701518579759 0 -0.115421237406118 0.0038974226475877302 0 -0.10731828618425041 0.0070633426487658807 0 -0.115421237406118 0.0038974226475877302 0 -0.12955085303500799 0.0098063046611244729 0 -0.11594732073159909 0.015611701518579759 0 -0.115421237406118 0.0038974226475877302 0 -0.12544455639611121 0.023474182686157759 0 -0.1031146896872272 0.028216395943319261 0 -0.11594732073159909 0.015611701518579759 0 -0.12955085303500799 0.0098063046611244729 0 -0.12544455639611121 0.023474182686157759 0 -0.11594732073159909 0.015611701518579759 0 -0.12900246533646781 0.044772139336155058 0 -0.12544455639611121 0.023474182686157759 0 -0.1031146896872272 0.028216395943319261 0 -0.12900246533646781 0.044772139336155058 0 -0.1031146896872272 0.028216395943319261 0 -0.1000241122409372 0.043768590231931907 0 -0.12900246533646781 0.044772139336155058 0 -0.1000241122409372 0.043768590231931907 0 -0.12900246533646781 0.044772139336155058 0 -0.11947296242619 0.070529167400145018 0 -0.1000241122409372 0.043768590231931907 0 -0.094509376618158891 0.071519468941699887 0 -0.1000241122409372 0.043768590231931907 0 -0.094509376618158891 0.071519468941699887 0 -0.11947296242619 0.070529167400145018 0 -0.1000241122409372 0.043768590231931907 0 -0.1031146896872272 0.028216395943319261 0 -0.1000241122409372 0.043768590231931907 0 -0.1031146896872272 0.028216395943319261 0 -0.1000241122409372 0.043768590231931907 0 -0.090526252368037824 0.033717616739155618 0 -0.1000241122409372 0.043768590231931907 0 -0.075512371277925788 0.0429197243352019 0 -0.1000241122409372 0.043768590231931907 0 -0.090526252368037824 0.033717616739155618 0 -0.075512371277925788 0.0429197243352019 0 -0.090526252368037824 0.033717616739155618 0 -0.075512371277925788 0.0429197243352019 0 -0.080167037040772798 0.029230959130165789 0 -0.094509376618158891 0.071519468941699887 0 -0.1000241122409372 0.043768590231931907 0 -0.085010873948040355 0.057219596638452178 0 -0.1000241122409372 0.043768590231931907 0 -0.085010873948040355 0.057219596638452178 0 -0.075512371277925788 0.0429197243352019 0 -0.08252252282608856 0.060368798584457969 0 -0.085010873948040355 0.057219596638452178 0 -0.075512371277925788 0.0429197243352019 0 -0.085010873948040355 0.057219596638452178 0 -0.075512371277925788 0.0429197243352019 0 -0.057126467454199227 0.065485675044130831 0 -0.065299733133692986 0.058541692652645611 0 -0.065395248938669909 0.042569358355905793 0 -0.08252252282608856 0.060368798584457969 0 -0.071812766814062151 0.042791603363887758 0 -0.08252252282608856 0.060368798584457969 0 -0.065299733133692986 0.058541692652645611 0 -0.071812766814062151 0.042791603363887758 0 -0.08252252282608856 0.060368798584457969 0 -0.075512371277925788 0.0429197243352019 0 -0.071812766814062151 0.042791603363887758 0 -0.065299733133692986 0.058541692652645611 0 -0.071812766814062151 0.042791603363887758 0 -0.065395248938669909 0.042569358355905793 0 -0.075512371277925788 0.0429197243352019 0 -0.063156373541900637 0.024317930353484649 0 -0.080167037040772798 0.029230959130165789 0 -0.075512371277925788 0.0429197243352019 0 -0.063156373541900637 0.024317930353484649 0 -0.075512371277925788 0.0429197243352019 0 -0.066507699368472339 0.034084756443696657 0 -0.063156373541900637 0.024317930353484649 0 -0.075512371277925788 0.0429197243352019 0 -0.071812766814062151 0.042791603363887758 0 -0.066507699368472339 0.034084756443696657 0 -0.075512371277925788 0.0429197243352019 0 -0.071812766814062151 0.042791603363887758 0 -0.065395248938669909 0.042569358355905793 0 -0.067442436762481017 0.036895728622416198 0 -0.071812766814062151 0.042791603363887758 0 -0.065395248938669909 0.042569358355905793 0 -0.071812766814062151 0.042791603363887758 0 -0.065395248938669909 0.042569358355905793 0 -0.067442436762481017 0.036895728622416198 0 -0.071812766814062151 0.042791603363887758 0 -0.067442436762481017 0.036895728622416198 0 -0.066507699368472339 0.034084756443696657 0 -0.071812766814062151 0.042791603363887758 0 -0.066507699368472339 0.034084756443696657 0 -0.062814785884517652 0.036261248234961879 0 -0.067442436762481017 0.036895728622416198 0 -0.066507699368472339 0.034084756443696657 0 -0.062814785884517652 0.036261248234961879 0 -0.066507699368472339 0.034084756443696657 0 -0.058498062740564932 0.032253973093224503 0 -0.065395248938669909 0.042569358355905793 0 -0.062814785884517652 0.036261248234961879 0 -0.067442436762481017 0.036895728622416198 0 -0.063156373541900637 0.024317930353484649 0 -0.085237329863076139 0.01569063650112669 0 -0.067890307440504005 0.0078820811303739208 0 -0.066507699368472339 0.034084756443696657 0 -0.063156373541900637 0.024317930353484649 0 -0.058498062740564932 0.032253973093224503 0 -0.063156373541900637 0.024317930353484649 0 -0.085237329863076139 0.01569063650112669 0 -0.063156373541900637 0.024317930353484649 0 -0.080167037040772798 0.029230959130165789 0 -0.085237329863076139 0.01569063650112669 0 -0.093813051593326119 0.024452414055159001 0 -0.080167037040772798 0.029230959130165789 0 -0.085237329863076139 0.01569063650112669 0 -0.093813051593326119 0.024452414055159001 0 -0.090526252368037824 0.033717616739155618 0 -0.080167037040772798 0.029230959130165789 0 -0.10731828618425041 0.0070633426487658807 0 -0.085237329863076139 0.01569063650112669 0 -0.084050593584032163 0.001111998914709314 0 -0.085237329863076139 0.01569063650112669 0 -0.084050593584032163 0.001111998914709314 0 -0.067890307440504005 0.0078820811303739208 0 -0.070579892718384968 -0.0045875830928024802 0 -0.084050593584032163 0.001111998914709314 0 -0.067890307440504005 0.0078820811303739208 0 -0.070579892718384968 -0.0045875830928024802 0 -0.067890307440504005 0.0078820811303739208 0 -0.055871588299595161 0.001039935613227596 0 -0.049681641572250398 0.0023134901883178609 0 -0.054814495516904753 0.01175934141904107 0 -0.038576907831823763 0.016153573594112909 0 -0.067890307440504005 0.0078820811303739208 0 -0.055871588299595161 0.001039935613227596 0 -0.054814495516904753 0.01175934141904107 0 -0.063156373541900637 0.024317930353484649 0 -0.067890307440504005 0.0078820811303739208 0 -0.054814495516904753 0.01175934141904107 0 -0.055871588299595161 0.001039935613227596 0 -0.049681641572250398 0.0023134901883178609 0 -0.054814495516904753 0.01175934141904107 0 -0.055871588299595161 0.001039935613227596 0 -0.049681641572250398 0.0023134901883178609 0 -0.063156373541900637 0.024317930353484649 0 -0.041792562050445667 0.03266502713961851 0 -0.063156373541900637 0.024317930353484649 0 -0.054814495516904753 0.01175934141904107 0 -0.041792562050445667 0.03266502713961851 0 -0.063156373541900637 0.024317930353484649 0 -0.054814495516904753 0.01175934141904107 0 -0.063156373541900637 0.024317930353484649 0 -0.058498062740564932 0.032253973093224503 0 -0.041792562050445667 0.03266502713961851 0 -0.054814495516904753 0.01175934141904107 0 -0.038576907831823763 0.016153573594112909 0 -0.041792562050445667 0.03266502713961851 0 -0.038576907831823763 0.016153573594112909 0 -0.041792562050445667 0.03266502713961851 0 -0.02042875055899325 0.04101212392575887 0 -0.049681641572250398 0.0023134901883178609 0 -0.024590202787005008 0.0074759444174279993 0 -0.049681641572250398 0.0023134901883178609 0 -0.038576907831823763 0.016153573594112909 0 -0.02247093340625177 0.011299078971399741 0 -0.033170396118065902 -0.0054912752601619817 0 -0.049681641572250398 0.0023134901883178609 0 -0.024590202787005008 0.0074759444174279993 0 -0.049681641572250398 0.0023134901883178609 0 -0.02247093340625177 0.011299078971399741 0 -0.024590202787005008 0.0074759444174279993 0 -0.049681641572250398 0.0023134901883178609 0 -0.02247093340625177 0.011299078971399741 0 -0.057126467454199227 0.065485675044130831 0 -0.065395248938669909 0.042569358355905793 0 -0.065395248938669909 0.042569358355905793 0 -0.042911999748831607 0.041790741140832741 0 -0.043167758284747088 0.057748372527706371 0 -0.057126467454199227 0.065485675044130831 0 -0.065395248938669909 0.042569358355905793 0 -0.043167758284747088 0.057748372527706371 0 -0.057126467454199227 0.065485675044130831 0 -0.065299733133692986 0.058541692652645611 0 -0.058498062740564932 0.032253973093224503 0 -0.054242070367311677 0.037063946024785917 0 -0.041792562050445667 0.03266502713961851 0 -0.065395248938669909 0.042569358355905793 0 -0.042911999748831607 0.041790741140832741 0 -0.065395248938669909 0.042569358355905793 0 -0.054242070367311677 0.037063946024785917 0 -0.042911999748831607 0.041790741140832741 0 -0.065395248938669909 0.042569358355905793 0 -0.062814785884517652 0.036261248234961879 0 -0.054242070367311677 0.037063946024785917 0 -0.062814785884517652 0.036261248234961879 0 -0.058498062740564932 0.032253973093224503 0 -0.054242070367311677 0.037063946024785917 0 -0.042911999748831607 0.041790741140832741 0 -0.02042875055899325 0.04101212392575887 0 -0.041792562050445667 0.03266502713961851 0 -0.042911999748831607 0.041790741140832741 0 -0.02042875055899325 0.04101212392575887 0 -0.054242070367311677 0.037063946024785917 0 -0.041792562050445667 0.03266502713961851 0 -0.042911999748831607 0.041790741140832741 0 -0.042911999748831607 0.041790741140832741 0 -0.043167758284747088 0.057748372527706371 0 -0.027709162013294542 0.061716144348799587 0 -0.027709162013294542 0.061716144348799587 0 -0.02042875055899325 0.04101212392575887 0 -0.012929805140003549 0.058328542974074603 0 -0.042911999748831607 0.041790741140832741 0 -0.027709162013294542 0.061716144348799587 0 -0.02042875055899325 0.04101212392575887 0 -0.041792562050445667 0.03266502713961851 0 -0.02042875055899325 0.04101212392575887 0 -0.02042875055899325 0.04101212392575887 0 -0.001444375107356517 0.048429546579121123 0 -0.02042875055899325 0.04101212392575887 0 -0.0076280052074238066 0.030320507795764149 0 0.0061012299912522883 0.040093364390729642 0 -0.02042875055899325 0.04101212392575887 0 0.0061012299912522883 0.040093364390729642 0 -0.02042875055899325 0.04101212392575887 0 -0.001444375107356517 0.048429546579121123 0 0.0061012299912522883 0.040093364390729642 0 -0.02042875055899325 0.04101212392575887 0 -0.001444375107356517 0.048429546579121123 0 -0.012929805140003549 0.058328542974074603 0 -0.001444375107356517 0.048429546579121123 0 -0.012929805140003549 0.058328542974074603 0 0.00043187230278597959 0.062219037880863803 0 -0.01755367451007064 0.0041220805399305666 0 -0.024590202787005008 0.0074759444174279993 0 -0.010662241326485531 0.0061979400562718039 0 -0.01822927046639845 -0.00031441950359401032 0 -0.01755367451007064 0.0041220805399305666 0 -0.012631440974003309 0.0026776376036983592 0 -0.01822927046639845 -0.00031441950359401032 0 -0.01755367451007064 0.0041220805399305666 0 -0.022079941108490271 0.0026935897922726868 0 -0.01822927046639845 -0.00031441950359401032 0 -0.025697331113898651 -0.001019181671247186 0 -0.022079941108490271 0.0026935897922726868 0 -0.01755367451007064 0.0041220805399305666 0 -0.022079941108490271 0.0026935897922726868 0 -0.024590202787005008 0.0074759444174279993 0 -0.025697331113898651 -0.001019181671247186 0 -0.022079941108490271 0.0026935897922726868 0 -0.024590202787005008 0.0074759444174279993 0 -0.033170396118065902 -0.0054912752601619817 0 -0.025697331113898651 -0.001019181671247186 0 -0.024590202787005008 0.0074759444174279993 0 -0.02042875055899325 0.04101212392575887 0 -0.02247093340625177 0.011299078971399741 0 -0.0076280052074238066 0.030320507795764149 0 -0.038576907831823763 0.016153573594112909 0 -0.02042875055899325 0.04101212392575887 0 -0.02247093340625177 0.011299078971399741 0 -0.02247093340625177 0.011299078971399741 0 0.0047397747597468579 0.02028466775448165 0 -0.02247093340625177 0.011299078971399741 0 -0.0076280052074238066 0.030320507795764149 0 0.0047397747597468579 0.02028466775448165 0 -0.02247093340625177 0.011299078971399741 0 -0.024590202787005008 0.0074759444174279993 0 0.00050123599824037496 0.01263839864653811 0 -0.0034105548651160531 0.0070943989052221611 0 0.00097706910384243086 0.0048010759762974649 0 0.00050123599824037496 0.01263839864653811 0 -0.024590202787005008 0.0074759444174279993 0 0.00050123599824037496 0.01263839864653811 0 -0.02247093340625177 0.011299078971399741 0 0.00050123599824037496 0.01263839864653811 0 0.0047397747597468579 0.02028466775448165 0 -0.010662241326485531 0.0061979400562718039 0 -0.0034105548651160531 0.0070943989052221611 0 0.00050123599824037496 0.01263839864653811 0 -0.024590202787005008 0.0074759444174279993 0 -0.010662241326485531 0.0061979400562718039 0 0.00050123599824037496 0.01263839864653811 0 -0.01822927046639845 -0.00031441950359401032 0 -0.01066505372454833 -0.001757425859714128 0 -0.012631440974003309 0.0026776376036983592 0 -0.01755367451007064 0.0041220805399305666 0 -0.012631440974003309 0.0026776376036983592 0 -0.010662241326485531 0.0061979400562718039 0 -0.012631440974003309 0.0026776376036983592 0 -0.010662241326485531 0.0061979400562718039 0 -0.0062888108209585569 0.0031791802248136341 0 -0.01066505372454833 -0.001757425859714128 0 -0.012631440974003309 0.0026776376036983592 0 -0.0062888108209585569 0.0031791802248136341 0 -0.0034533735751615269 -0.0031200744777948779 0 -0.0062888108209585569 0.0031791802248136341 0 0.00097706910384243086 0.0048010759762974649 0 -0.010662241326485531 0.0061979400562718039 0 -0.0062888108209585569 0.0031791802248136341 0 -0.0034105548651160531 0.0070943989052221611 0 -0.0062888108209585569 0.0031791802248136341 0 -0.0034105548651160531 0.0070943989052221611 0 0.00097706910384243086 0.0048010759762974649 0 0.00050123599824037496 0.01263839864653811 0 0.025592674783485769 0.01780085287564822 0 -0.0034533735751615269 -0.0031200744777948779 0 0.00097706910384243086 0.0048010759762974649 0 0.00571793613220767 -0.0013933726199292439 0 0.00097706910384243086 0.0048010759762974649 0 0.0091585281681367398 0.0083337981008286544 0 0.00571793613220767 -0.0013933726199292439 0 0.0091585281681367398 0.0083337981008286544 0 0.00050123599824037496 0.01263839864653811 0 0.025592674783485769 0.01780085287564822 0 0.0091585281681367398 0.0083337981008286544 0 0.01679191874188429 0.00036989283620795388 0 0.00571793613220767 -0.0013933726199292439 0 0.0091585281681367398 0.0083337981008286544 0 0.01679191874188429 0.00036989283620795388 0 0.017698640036327751 0.0090967917295277992 0 0.00097706910384243086 0.0048010759762974649 0 0.0091585281681367398 0.0083337981008286544 0 0.00050123599824037496 0.01263839864653811 0 0.00050123599824037496 0.01263839864653811 0 0.0047397747597468579 0.02028466775448165 0 0.025592674783485769 0.01780085287564822 0 0.0047397747597468579 0.02028466775448165 0 0.0061012299912522883 0.040093364390729642 0 0.031950482925745399 0.02927025653756353 0 -0.0076280052074238066 0.030320507795764149 0 0.0047397747597468579 0.02028466775448165 0 0.0061012299912522883 0.040093364390729642 0 0.0047397747597468579 0.02028466775448165 0 0.025592674783485769 0.01780085287564822 0 0.031950482925745399 0.02927025653756353 0 0.0047397747597468579 0.02028466775448165 0 0.031950482925745399 0.02927025653756353 0 0.0091585281681367398 0.0083337981008286544 0 0.025592674783485769 0.01780085287564822 0 0.017698640036327751 0.0090967917295277992 0 0.025592674783485769 0.01780085287564822 0 0.025078273924940199 0.0072064635505199662 0 0.035644275458993561 0.010013987806638159 0 0.025078273924940199 0.0072064635505199662 0 0.035644275458993561 0.010013987806638159 0 0.02966386060400961 -0.001249207495422295 0 0.025078273924940199 0.0072064635505199662 0 0.01679191874188429 0.00036989283620795388 0 0.02966386060400961 -0.001249207495422295 0 0.025078273924940199 0.0072064635505199662 0 0.01679191874188429 0.00036989283620795388 0 0.017698640036327751 0.0090967917295277992 0 0.025592674783485769 0.01780085287564822 0 0.025078273924940199 0.0072064635505199662 0 0.017698640036327751 0.0090967917295277992 0 -0.001444375107356517 0.048429546579121123 0 0.00043187230278597959 0.062219037880863803 0 0.017540000344276972 0.055846969232491488 0 -0.001444375107356517 0.048429546579121123 0 0.0061012299912522883 0.040093364390729642 0 0.017540000344276972 0.055846969232491488 0 -0.001444375107356517 0.048429546579121123 0 0.017540000344276972 0.055846969232491488 0 0.0061012299912522883 0.040093364390729642 0 0.017540000344276972 0.055846969232491488 0 0.032631210541497313 0.039174604855692387 0 0.0061012299912522883 0.040093364390729642 0 0.032631210541497313 0.039174604855692387 0 0.0061012299912522883 0.040093364390729642 0 0.032631210541497313 0.039174604855692387 0 0.031950482925745399 0.02927025653756353 0 0.045460661397028521 0.060461061322351961 0 0.032631210541497313 0.039174604855692387 0 0.060219126456884257 0.044233063584133557 0 0.017540000344276972 0.055846969232491488 0 0.045460661397028521 0.060461061322351961 0 0.032631210541497313 0.039174604855692387 0 0.032631210541497313 0.039174604855692387 0 0.059161191091742268 0.038255845320650288 0 0.031950482925745399 0.02927025653756353 0 0.032631210541497313 0.039174604855692387 0 0.059161191091742268 0.038255845320650288 0 0.059161191091742268 0.038255845320650288 0 0.031950482925745399 0.02927025653756353 0 0.032631210541497313 0.039174604855692387 0 0.059161191091742268 0.038255845320650288 0 0.060219126456884257 0.044233063584133557 0 0.061944659138717967 0.038159451061949408 0 0.059161191091742268 0.038255845320650288 0 0.050684113568731162 0.022963307104758329 0 0.061944659138717967 0.038159451061949408 0 0.059161191091742268 0.038255845320650288 0 0.061944659138717967 0.038159451061949408 0 0.059161191091742268 0.038255845320650288 0 0.060219126456884257 0.044233063584133557 0 0.061944659138717967 0.038159451061949408 0 0.060219126456884257 0.044233063584133557 0 0.06359853595343383 0.045143500821525892 0 0.061944659138717967 0.038159451061949408 0 0.060219126456884257 0.044233063584133557 0 0.045460661397028521 0.060461061322351961 0 0.060219126456884257 0.044233063584133557 0 0.06359853595343383 0.045143500821525892 0 0.045460661397028521 0.060461061322351961 0 0.06359853595343383 0.045143500821525892 0 0.045460661397028521 0.060461061322351961 0 0.06359853595343383 0.045143500821525892 0 0.064078299002631331 0.064109116041237729 0 0.035644275458993561 0.010013987806638159 0 0.050684113568731162 0.022963307104758329 0 0.049953576743535941 0.0106210768960423 0 0.035644275458993561 0.010013987806638159 0 0.049953576743535941 0.0106210768960423 0 0.043198558762618321 -0.00023829520029129079 0 0.035644275458993561 0.010013987806638159 0 0.02966386060400961 -0.001249207495422295 0 0.043198558762618321 -0.00023829520029129079 0 0.025592674783485769 0.01780085287564822 0 0.035644275458993561 0.010013987806638159 0 0.050684113568731162 0.022963307104758329 0 0.025592674783485769 0.01780085287564822 0 0.050684113568731162 0.022963307104758329 0 0.025592674783485769 0.01780085287564822 0 0.031950482925745399 0.02927025653756353 0 0.050684113568731162 0.022963307104758329 0 0.050684113568731162 0.022963307104758329 0 0.049953576743535941 0.0106210768960423 0 0.068293701854848454 0.01581178662734219 0 0.059161191091742268 0.038255845320650288 0 0.031950482925745399 0.02927025653756353 0 0.050684113568731162 0.022963307104758329 0 0.061944659138717967 0.038159451061949408 0 0.050684113568731162 0.022963307104758329 0 0.068293701854848454 0.01581178662734219 0 0.049953576743535941 0.0106210768960423 0 0.058658900776209 0.0023639840925378359 0 0.068293701854848454 0.01581178662734219 0 0.049953576743535941 0.0106210768960423 0 0.058658900776209 0.0023639840925378359 0 0.043198558762618321 -0.00023829520029129079 0 0.058658900776209 0.0023639840925378359 0 0.068293701854848454 0.01581178662734219 0 0.074642744570978817 -0.0065358778072650706 0 0.08687224249779596 0.01812653523579285 0 0.068293701854848454 0.01581178662734219 0 0.074642744570978817 -0.0065358778072650706 0 0.068293701854848454 0.01581178662734219 0 0.074642744570978817 -0.0065358778072650706 0 0.08687224249779596 0.01812653523579285 0 0.094732376142176083 0.00044397642212032562 0 0.074642744570978817 -0.0065358778072650706 0 0.08687224249779596 0.01812653523579285 0 0.084042936347180325 0.037394165808357492 0 0.1061412135556427 0.036628880554766013 0 0.08687224249779596 0.01812653523579285 0 0.075288384959635662 0.027372984683360371 0 0.084042936347180325 0.037394165808357492 0 0.061944659138717967 0.038159451061949408 0 0.068293701854848454 0.01581178662734219 0 0.075288384959635662 0.027372984683360371 0 0.061944659138717967 0.038159451061949408 0 0.068293701854848454 0.01581178662734219 0 0.08687224249779596 0.01812653523579285 0 0.068293701854848454 0.01581178662734219 0 0.075288384959635662 0.027372984683360371 0 0.061944659138717967 0.038159451061949408 0 0.080229434857976803 0.045213053994165052 0 0.061944659138717967 0.038159451061949408 0 0.084042936347180325 0.037394165808357492 0 0.061944659138717967 0.038159451061949408 0 0.084042936347180325 0.037394165808357492 0 0.080229434857976803 0.045213053994165052 0 0.061944659138717967 0.038159451061949408 0 0.06359853595343383 0.045143500821525892 0 0.080229434857976803 0.045213053994165052 0 0.061944659138717967 0.038159451061949408 0 0.075288384959635662 0.027372984683360371 0 0.084042936347180325 0.037394165808357492 0 0.06359853595343383 0.045143500821525892 0 0.077522728354274567 0.055725763507259753 0 0.064078299002631331 0.064109116041237729 0 0.06359853595343383 0.045143500821525892 0 0.077522728354274567 0.055725763507259753 0 0.080229434857976803 0.045213053994165052 0 0.099194835758529831 0.062268641479350142 0 0.098777987081433108 0.051338203761849069 0 0.080929384875897931 0.072824942917520646 0 0.098777987081433108 0.051338203761849069 0 0.080929384875897931 0.072824942917520646 0 0.077522728354274567 0.055725763507259753 0 0.080229434857976803 0.045213053994165052 0 0.098777987081433108 0.051338203761849069 0 0.080229434857976803 0.045213053994165052 0 0.098777987081433108 0.051338203761849069 0 0.077522728354274567 0.055725763507259753 0 0.098777987081433108 0.051338203761849069 0 0.080929384875897931 0.072824942917520646 0 0.080229434857976803 0.045213053994165052 0 0.095852469058047174 0.042051949121570668 0 0.098777987081433108 0.051338203761849069 0 0.084042936347180325 0.037394165808357492 0 0.080229434857976803 0.045213053994165052 0 0.095852469058047174 0.042051949121570668 0 0.084042936347180325 0.037394165808357492 0 0.095852469058047174 0.042051949121570668 0 0.1061412135556427 0.036628880554766013 0 0.084042936347180325 0.037394165808357492 0 0.1061412135556427 0.036628880554766013 0 0.095852469058047174 0.042051949121570668 0 0.1073170387480753 0.041058610229247533 0 0.098777987081433108 0.051338203761849069 0 0.1073170387480753 0.041058610229247533 0 0.098777987081433108 0.051338203761849069 0 0.095852469058047174 0.042051949121570668 0 0.1073170387480753 0.041058610229247533 0 0.1061412135556427 0.036628880554766013 0 0.098777987081433108 0.051338203761849069 0 0.10871366276868109 0.054619187684174161 0 0.1073170387480753 0.041058610229247533 0 0.098777987081433108 0.051338203761849069 0 0.10871366276868109 0.054619187684174161 0 0.099194835758529831 0.062268641479350142 0 0.098777987081433108 0.051338203761849069 0 0.10871366276868109 0.054619187684174161 0 0.099194835758529831 0.062268641479350142 0 0.10871366276868109 0.054619187684174161 0 0.1117894903281469 0.063165623032043844 0 0.099194835758529831 0.062268641479350142 0 0.10871366276868109 0.054619187684174161 0 0.11808142358376431 0.060417170726520607 0 0.12465995933422511 0.041804535348110183 0 0.1117894903281469 0.063165623032043844 0 0.11808142358376431 0.060417170726520607 0 0.12465995933422511 0.041804535348110183 0 0.12849850991573211 0.039529689355893148 0 0.1104538144873209 0.055193824980213982 0 0.12465995933422511 0.041804535348110183 0 0.1117894903281469 0.063165623032043844 0 0.10871366276868109 0.054619187684174161 0 0.1104538144873209 0.055193824980213982 0 0.12465995933422511 0.041804535348110183 0 0.11808142358376431 0.060417170726520607 0 0.12849850991573211 0.039529689355893148 0 0.12601268130434359 0.05520451676938741 0 0.12465995933422511 0.041804535348110183 0 0.1117894903281469 0.063165623032043844 0 0.10871366276868109 0.054619187684174161 0 0.12465995933422511 0.041804535348110183 0 0.11808142358376431 0.060417170726520607 0 0.12849850991573211 0.039529689355893148 0 0.10871366276868109 0.054619187684174161 0 0.1104538144873209 0.055193824980213982 0 0.1117894903281469 0.063165623032043844 0 0.10871366276868109 0.054619187684174161 0 0.1104538144873209 0.055193824980213982 0 0.11808142358376431 0.060417170726520607 0 0.1223337053199457 0.065203318772059468 0 0.12601268130434359 0.05520451676938741 0 0.1061412135556427 0.036628880554766013 0 0.1183733251405233 0.025567995666182161 0 0.1282394907641051 0.035863595301175187 0 0.1073170387480753 0.041058610229247533 0 0.1061412135556427 0.036628880554766013 0 0.12465995933422511 0.041804535348110183 0 0.1073170387480753 0.041058610229247533 0 0.10871366276868109 0.054619187684174161 0 0.12465995933422511 0.041804535348110183 0 0.1061412135556427 0.036628880554766013 0 0.12465995933422511 0.041804535348110183 0 0.1282394907641051 0.035863595301175187 0 0.1061412135556427 0.036628880554766013 0 0.1282394907641051 0.035863595301175187 0 0.1183733251405233 0.025567995666182161 0 0.12558367300033579 0.022767244629745529 0 0.1282394907641051 0.035863595301175187 0 0.1061412135556427 0.036628880554766013 0 0.1183733251405233 0.025567995666182161 0 0.1067902787631192 0.01528207395691712 0 0.1183733251405233 0.025567995666182161 0 0.12208056491605811 0.014528897861411091 0 0.1067902787631192 0.01528207395691712 0 0.1183733251405233 0.025567995666182161 0 0.12208056491605811 0.014528897861411091 0 0.12558367300033579 0.022767244629745529 0 0.12208056491605811 0.014528897861411091 0 0.12949372161206399 0.002034182974538255 0 0.1104806879240797 -0.0035401757462522961 0 0.12208056491605811 0.014528897861411091 0 0.1067902787631192 0.01528207395691712 0 0.1104806879240797 -0.0035401757462522961 0 0.1067902787631192 0.01528207395691712 0 0.094732376142176083 0.00044397642212032562 0 0.1104806879240797 -0.0035401757462522961 0 0.08687224249779596 0.01812653523579285 0 0.1067902787631192 0.01528207395691712 0 0.094732376142176083 0.00044397642212032562 0 0.08687224249779596 0.01812653523579285 0 0.1061412135556427 0.036628880554766013 0 0.1067902787631192 0.01528207395691712 0 0.097247250919828554 0.1021921334677756 0 0.1127206095942747 0.11042342952170831 0 0.1164167327840096 0.099056389045264717 0 0.097247250919828554 0.1021921334677756 0 0.1164167327840096 0.099056389045264717 0 0.1134251637166387 0.090507951778894466 0 0.097247250919828554 0.1021921334677756 0 0.1031758009652389 0.1181902088003204 0 0.1127206095942747 0.11042342952170831 0 0.097247250919828554 0.1021921334677756 0 0.1031758009652389 0.1181902088003204 0 0.086830164587860595 0.1230796148384033 0 0.1031758009652389 0.1181902088003204 0 0.1127206095942747 0.11042342952170831 0 0.1203304346491972 0.1247311024736667 0 0.1127206095942747 0.11042342952170831 0 0.1203304346491972 0.1247311024736667 0 0.1264328286530991 0.107947313821514 0 0.1127206095942747 0.11042342952170831 0 0.1164167327840096 0.099056389045264717 0 0.1264328286530991 0.107947313821514 0 0.1164167327840096 0.099056389045264717 0 0.12853839693713259 0.089957381944641202 0 0.1264328286530991 0.107947313821514 0 0.1164167327840096 0.099056389045264717 0 0.1134251637166387 0.090507951778894466 0 0.12853839693713259 0.089957381944641202 0 0.11725910069042619 0.080029202339642724 0 0.1134251637166387 0.090507951778894466 0 0.12853839693713259 0.089957381944641202 0 0.11725910069042619 0.080029202339642724 0 0.1134251637166387 0.090507951778894466 0 0.1076643372517964 0.081304652097148072 0 0.11808142358376431 0.060417170726520607 0 0.1117894903281469 0.063165623032043844 0 0.1076643372517964 0.081304652097148072 0 0.11808142358376431 0.060417170726520607 0 0.1076643372517964 0.081304652097148072 0 0.11808142358376431 0.060417170726520607 0 0.1178505321952434 0.071950227737262645 0 0.1076643372517964 0.081304652097148072 0 0.11808142358376431 0.060417170726520607 0 0.1223337053199457 0.065203318772059468 0 0.1178505321952434 0.071950227737262645 0 0.1223337053199457 0.065203318772059468 0 0.1178505321952434 0.071950227737262645 0 0.1263994410961542 0.069272168535292278 0 0.11725910069042619 0.080029202339642724 0 0.1178505321952434 0.071950227737262645 0 0.1263994410961542 0.069272168535292278 0 0.11725910069042619 0.080029202339642724 0 0.1178505321952434 0.071950227737262645 0 0.1076643372517964 0.081304652097148072 0 0.1117894903281469 0.063165623032043844 0 0.098919021322067882 0.084526710715977199 0 0.093403068749050314 0.073327615386845499 0 0.099194835758529831 0.062268641479350142 0 0.1117894903281469 0.063165623032043844 0 0.093403068749050314 0.073327615386845499 0 0.1117894903281469 0.063165623032043844 0 0.098919021322067882 0.084526710715977199 0 0.1117894903281469 0.063165623032043844 0 0.1076643372517964 0.081304652097148072 0 0.098919021322067882 0.084526710715977199 0 0.097247250919828554 0.1021921334677756 0 0.1134251637166387 0.090507951778894466 0 0.1076643372517964 0.081304652097148072 0 0.097247250919828554 0.1021921334677756 0 0.1076643372517964 0.081304652097148072 0 0.097247250919828554 0.1021921334677756 0 0.1076643372517964 0.081304652097148072 0 0.098919021322067882 0.084526710715977199 0 0.098919021322067882 0.084526710715977199 0 0.081651131499346871 0.091804376432238474 0 0.088725651611590753 0.080620911363145462 0 0.097247250919828554 0.1021921334677756 0 0.098919021322067882 0.084526710715977199 0 0.081651131499346871 0.091804376432238474 0 0.081651131499346871 0.091804376432238474 0 0.088725651611590753 0.080620911363145462 0 0.080929384875897931 0.072824942917520646 0 0.098919021322067882 0.084526710715977199 0 0.088725651611590753 0.080620911363145462 0 0.093403068749050314 0.073327615386845499 0 0.099194835758529831 0.062268641479350142 0 0.093403068749050314 0.073327615386845499 0 0.080929384875897931 0.072824942917520646 0 0.088725651611590753 0.080620911363145462 0 0.093403068749050314 0.073327615386845499 0 0.080929384875897931 0.072824942917520646 0 0.080929384875897931 0.072824942917520646 0 0.064078299002631331 0.064109116041237729 0 0.051849273738451072 0.077188194534356436 0 0.077522728354274567 0.055725763507259753 0 0.080929384875897931 0.072824942917520646 0 0.064078299002631331 0.064109116041237729 0 0.080929384875897931 0.072824942917520646 0 0.063080782670363753 0.094311682073193084 0 0.081651131499346871 0.091804376432238474 0 0.080929384875897931 0.072824942917520646 0 0.063080782670363753 0.094311682073193084 0 0.080929384875897931 0.072824942917520646 0 0.063080782670363753 0.094311682073193084 0 0.051849273738451072 0.077188194534356436 0 0.063080782670363753 0.094311682073193084 0 0.079070426215555767 0.1062909195466962 0 0.066542801400378992 0.1200667909218705 0 0.081651131499346871 0.091804376432238474 0 0.063080782670363753 0.094311682073193084 0 0.079070426215555767 0.1062909195466962 0 0.097247250919828554 0.1021921334677756 0 0.081651131499346871 0.091804376432238474 0 0.079070426215555767 0.1062909195466962 0 0.097247250919828554 0.1021921334677756 0 0.079070426215555767 0.1062909195466962 0 0.086830164587860595 0.1230796148384033 0 0.097247250919828554 0.1021921334677756 0 0.086830164587860595 0.1230796148384033 0 0.079070426215555767 0.1062909195466962 0 0.086830164587860595 0.1230796148384033 0 0.066542801400378992 0.1200667909218705 0 0.066542801400378992 0.1200667909218705 0 0.045232180464829699 0.1157984212288654 0 0.05209094167211873 0.1343773302300659 0 0.063080782670363753 0.094311682073193084 0 0.066542801400378992 0.1200667909218705 0 0.045232180464829699 0.1157984212288654 0 0.063080782670363753 0.094311682073193084 0 0.045232180464829699 0.1157984212288654 0 0.063080782670363753 0.094311682073193084 0 0.045232180464829699 0.1157984212288654 0 0.041647316927421379 0.091903201512506486 0 0.033642105335764408 0.105347315062605 0 0.045232180464829699 0.1157984212288654 0 0.041647316927421379 0.091903201512506486 0 0.033642105335764408 0.105347315062605 0 0.041647316927421379 0.091903201512506486 0 0.021490049830675359 0.099576454770123543 0 0.033642105335764408 0.105347315062605 0 0.045232180464829699 0.1157984212288654 0 0.0204822610977578 0.1150710310683363 0 0.045460661397028521 0.060461061322351961 0 0.064078299002631331 0.064109116041237729 0 0.051849273738451072 0.077188194534356436 0 0.063080782670363753 0.094311682073193084 0 0.051849273738451072 0.077188194534356436 0 0.041647316927421379 0.091903201512506486 0 0.051849273738451072 0.077188194534356436 0 0.041647316927421379 0.091903201512506486 0 0.027322786840623191 0.075778621823178044 0 0.045460661397028521 0.060461061322351961 0 0.051849273738451072 0.077188194534356436 0 0.027322786840623191 0.075778621823178044 0 0.045460661397028521 0.060461061322351961 0 0.027322786840623191 0.075778621823178044 0 0.017540000344276972 0.055846969232491488 0 0.045460661397028521 0.060461061322351961 0 0.027322786840623191 0.075778621823178044 0 0.017540000344276972 0.055846969232491488 0 0.027322786840623191 0.075778621823178044 0 0.0093541588554246474 0.072899074274879822 0 0.027322786840623191 0.075778621823178044 0 0.0091849122842178627 0.091096182324004127 0 0.021490049830675359 0.099576454770123543 0 0.027322786840623191 0.075778621823178044 0 0.0091849122842178627 0.091096182324004127 0 0.041647316927421379 0.091903201512506486 0 0.027322786840623191 0.075778621823178044 0 0.021490049830675359 0.099576454770123543 0 0.027322786840623191 0.075778621823178044 0 0.0091849122842178627 0.091096182324004127 0 0.0093541588554246474 0.072899074274879822 0 -0.0075509514396256729 0.089676379199685144 0 0.0091849122842178627 0.091096182324004127 0 0.0093541588554246474 0.072899074274879822 0 0.00043187230278597959 0.062219037880863803 0 0.017540000344276972 0.055846969232491488 0 0.0093541588554246474 0.072899074274879822 0 -0.0088437095779531124 0.072930222867837638 0 0.00043187230278597959 0.062219037880863803 0 0.0093541588554246474 0.072899074274879822 0 0.045232180464829699 0.1157984212288654 0 0.0204822610977578 0.1150710310683363 0 0.027916090425737072 0.1377375811490168 0 0.0204822610977578 0.1150710310683363 0 0.019474472364841081 0.1305656073665491 0 0.033642105335764408 0.105347315062605 0 0.0204822610977578 0.1150710310683363 0 0.021490049830675359 0.099576454770123543 0 0.0204822610977578 0.1150710310683363 0 0.021490049830675359 0.099576454770123543 0 0.0204822610977578 0.1150710310683363 0 0.021490049830675359 0.099576454770123543 0 0.0094930031973578261 0.10612941721659611 0 -0.0089529622721888219 0.1064137428248286 0 0.0091849122842178627 0.091096182324004127 0 0.0094930031973578261 0.10612941721659611 0 -0.0089529622721888219 0.1064137428248286 0 0.0091849122842178627 0.091096182324004127 0 0.0091849122842178627 0.091096182324004127 0 0.021490049830675359 0.099576454770123543 0 0.0094930031973578261 0.10612941721659611 0 -0.0089529622721888219 0.1064137428248286 0 0.0094930031973578261 0.10612941721659611 0 0.0052607550463267053 0.1184896750956882 0 0.0204822610977578 0.1150710310683363 0 0.0094930031973578261 0.10612941721659611 0 0.0052607550463267053 0.1184896750956882 0 0.0052607550463267053 0.1184896750956882 0 0.019474472364841081 0.1305656073665491 0 0.0204822610977578 0.1150710310683363 0 0.0052607550463267053 0.1184896750956882 0 0.019474472364841081 0.1305656073665491 0 0.0019971322299643119 0.1361079308325148 0 0.019474472364841081 0.1305656073665491 0 0.018601145614931688 0.1439928540877515 0 0.0052607550463267053 0.1184896750956882 0 0.0019971322299643119 0.1361079308325148 0 0.019474472364841081 0.1305656073665491 0 0.0204822610977578 0.1150710310683363 0 0.019474472364841081 0.1305656073665491 0 0.027916090425737072 0.1377375811490168 0 0.019474472364841081 0.1305656073665491 0 0.025861850606585999 0.139117066590035 0 0.018601145614931688 0.1439928540877515 0 0.019474472364841081 0.1305656073665491 0 0.018601145614931688 0.1439928540877515 0 0.019474472364841081 0.1305656073665491 0 0.025861850606585999 0.139117066590035 0 0.027916090425737072 0.1377375811490168 0 0.019474472364841081 0.1305656073665491 0 0.027916090425737072 0.1377375811490168 0 0.025861850606585999 0.139117066590035 0 0.027916090425737072 0.1377375811490168 0 0.0260189017479798 0.1444791677117577 0 0.025861850606585999 0.139117066590035 0 0.027916090425737072 0.1377375811490168 0 0.027916090425737072 0.1377375811490168 0 0.030977234854835421 0.1356819281851161 0 0.01832841313989942 0.14818606840475659 0 0.017072380779464179 0.1674973472532946 0 0.031969252819696523 0.1528759547032221 0 0.0260189017479798 0.1444791677117577 0 0.01832841313989942 0.14818606840475659 0 0.031969252819696523 0.1528759547032221 0 0.027916090425737072 0.1377375811490168 0 0.0260189017479798 0.1444791677117577 0 0.031969252819696523 0.1528759547032221 0 0.025861850606585999 0.139117066590035 0 0.01832841313989942 0.14818606840475659 0 0.025861850606585999 0.139117066590035 0 0.018601145614931688 0.1439928540877515 0 0.01832841313989942 0.14818606840475659 0 0.025861850606585999 0.139117066590035 0 0.0260189017479798 0.1444791677117577 0 0.01832841313989942 0.14818606840475659 0 0.025861850606585999 0.139117066590035 0 0.018601145614931688 0.1439928540877515 0 0.018601145614931688 0.1439928540877515 0 0.01832841313989942 0.14818606840475659 0 0.018601145614931688 0.1439928540877515 0 0.01832841313989942 0.14818606840475659 0 0.002721816111255361 0.15465631395220419 0 0.018601145614931688 0.1439928540877515 0 0.002721816111255361 0.15465631395220419 0 0.0019971322299643119 0.1361079308325148 0 0.018601145614931688 0.1439928540877515 0 0.002721816111255361 0.15465631395220419 0 0.01832841313989942 0.14818606840475659 0 0.0031216897091246188 0.16649242629244701 0 0.01832841313989942 0.14818606840475659 0 0.0031216897091246188 0.16649242629244701 0 0.017072380779464179 0.1674973472532946 0 0.01832841313989942 0.14818606840475659 0 0.002721816111255361 0.15465631395220419 0 0.0031216897091246188 0.16649242629244701 0 0.0031216897091246188 0.16649242629244701 0 0.01039058711036667 0.1751580924433748 0 0.017072380779464179 0.1674973472532946 0 0.0031216897091246188 0.16649242629244701 0 0.017072380779464179 0.1674973472532946 0 0.01039058711036667 0.1751580924433748 0 0.01602375281203795 0.18361981967138491 0 0.017072380779464179 0.1674973472532946 0 0.0020710030378915268 0.18162716825173669 0 0.01039058711036667 0.1751580924433748 0 0.0078226968482189123 0.18801431183580819 0 0.0031216897091246188 0.16649242629244701 0 0.0020710030378915268 0.18162716825173669 0 0.01039058711036667 0.1751580924433748 0 0.01602375281203795 0.18361981967138491 0 0.0078226968482189123 0.18801431183580819 0 0.01466428434445716 0.1886907298920229 0 0.01039058711036667 0.1751580924433748 0 0.01602375281203795 0.18361981967138491 0 0.0078226968482189123 0.18801431183580819 0 0.01602375281203795 0.18361981967138491 0 0.024177881868064129 0.17672921773975539 0 0.017072380779464179 0.1674973472532946 0 0.01602375281203795 0.18361981967138491 0 0.017072380779464179 0.1674973472532946 0 0.02207992402376658 0.18587455697647459 0 0.01602375281203795 0.18361981967138491 0 0.024177881868064129 0.17672921773975539 0 0.02207992402376658 0.18587455697647459 0 0.01602375281203795 0.18361981967138491 0 0.01466428434445716 0.1886907298920229 0 0.02207992402376658 0.18587455697647459 0 0.034009966922591867 0.18304017656085469 0 0.030724493098632791 0.19237587755069729 0 0.02207992402376658 0.18587455697647459 0 0.024177881868064129 0.17672921773975539 0 0.034009966922591867 0.18304017656085469 0 0.024177881868064129 0.17672921773975539 0 0.017072380779464179 0.1674973472532946 0 0.042133074386376777 0.16930256365239391 0 0.01832841313989942 0.14818606840475659 0 0.017072380779464179 0.1674973472532946 0 0.017072380779464179 0.1674973472532946 0 0.042133074386376777 0.16930256365239391 0 0.017072380779464179 0.1674973472532946 0 0.042133074386376777 0.16930256365239391 0 0.031969252819696523 0.1528759547032221 0 0.042133074386376777 0.16930256365239391 0 0.047554929209512632 0.15442268060025621 0 0.031969252819696523 0.1528759547032221 0 0.024177881868064129 0.17672921773975539 0 0.042133074386376777 0.16930256365239391 0 0.034009966922591867 0.18304017656085469 0 0.042133074386376777 0.16930256365239391 0 0.034009966922591867 0.18304017656085469 0 0.049455286456484802 0.18314464057356269 0 0.034009966922591867 0.18304017656085469 0 0.049455286456484802 0.18314464057356269 0 0.039083473764486718 0.1911664268125394 0 0.042133074386376777 0.16930256365239391 0 0.049455286456484802 0.18314464057356269 0 0.067193767993289244 0.17110778005149421 0 0.049455286456484802 0.18314464057356269 0 0.06768265214528027 0.19006365998821859 0 0.067193767993289244 0.17110778005149421 0 0.047554929209512632 0.15442268060025621 0 0.067193767993289244 0.17110778005149421 0 0.042133074386376777 0.16930256365239391 0 0.047554929209512632 0.15442268060025621 0 0.067193767993289244 0.17110778005149421 0 0.042133074386376777 0.16930256365239391 0 0.067193767993289244 0.17110778005149421 0 0.047554929209512632 0.15442268060025621 0 0.05209094167211873 0.1343773302300659 0 0.073344225748019368 0.1449630040037922 0 0.045232180464829699 0.1157984212288654 0 0.027916090425737072 0.1377375811490168 0 0.045232180464829699 0.1157984212288654 0 0.027916090425737072 0.1377375811490168 0 0.030977234854835421 0.1356819281851161 0 0.045232180464829699 0.1157984212288654 0 0.030977234854835421 0.1356819281851161 0 0.05209094167211873 0.1343773302300659 0 0.030977234854835421 0.1356819281851161 0 0.047554929209512632 0.15442268060025621 0 0.05209094167211873 0.1343773302300659 0 0.027916090425737072 0.1377375811490168 0 0.047554929209512632 0.15442268060025621 0 0.027916090425737072 0.1377375811490168 0 0.030977234854835421 0.1356819281851161 0 0.047554929209512632 0.15442268060025621 0 0.027916090425737072 0.1377375811490168 0 0.047554929209512632 0.15442268060025621 0 0.031969252819696523 0.1528759547032221 0 0.024609805517523332 0.23701907883569009 0 0.013952484265132001 0.24694206511524761 0 0.025270477969434019 0.25866575055641922 0 0.024609805517523332 0.23701907883569009 0 0.040806943675022668 0.2451528941337994 0 0.025270477969434019 0.25866575055641922 0 -0.00011193775520391721 0.25517212070728618 0 0.013952484265132001 0.24694206511524761 0 0.0072853495044526012 0.23207293279701549 0 0.024609805517523332 0.23701907883569009 0 0.013952484265132001 0.24694206511524761 0 0.0072853495044526012 0.23207293279701549 0 -0.00011193775520391721 0.25517212070728618 0 0.0072853495044526012 0.23207293279701549 0 0.0072853495044526012 0.23207293279701549 0 0.019458209429823878 0.22453700804255311 0 0.014682636764109599 0.208973744886745 0 0.0072853495044526012 0.23207293279701549 0 0.014682636764109599 0.208973744886745 0 0.019458209429823878 0.22453700804255311 0 0.014682636764109599 0.208973744886745 0 0.032637491880371523 0.22325917055209549 0 0.024609805517523332 0.23701907883569009 0 0.0072853495044526012 0.23207293279701549 0 0.019458209429823878 0.22453700804255311 0 0.024609805517523332 0.23701907883569009 0 0.019458209429823878 0.22453700804255311 0 0.032637491880371523 0.22325917055209549 0 0.02446804008572136 0.2013654469703913 0 0.032637491880371523 0.22325917055209549 0 0.014682636764109599 0.208973744886745 0 0.02446804008572136 0.2013654469703913 0 0.032637491880371523 0.22325917055209549 0 0.0072853495044526012 0.23207293279701549 0 0.0025859288715124129 0.20777028317643681 0 0.014682636764109599 0.208973744886745 0 -0.0076580703121003086 0.21635808264377959 0 0.0072853495044526012 0.23207293279701549 0 0.0025859288715124129 0.20777028317643681 0 0.0025859288715124129 0.20777028317643681 0 0.014682636764109599 0.208973744886745 0 0.012730763693805189 0.197254231084424 0 0.0025859288715124129 0.20777028317643681 0 0.012730763693805189 0.197254231084424 0 0.0009353780770335635 0.1938765135825741 0 0.012730763693805189 0.197254231084424 0 0.0009353780770335635 0.1938765135825741 0 0.0078226968482189123 0.18801431183580819 0 0.0020710030378915268 0.18162716825173669 0 0.0009353780770335635 0.1938765135825741 0 0.0078226968482189123 0.18801431183580819 0 0.012730763693805189 0.197254231084424 0 0.0078226968482189123 0.18801431183580819 0 0.01466428434445716 0.1886907298920229 0 0.02207992402376658 0.18587455697647459 0 0.012730763693805189 0.197254231084424 0 0.01466428434445716 0.1886907298920229 0 0.02207992402376658 0.18587455697647459 0 0.014682636764109599 0.208973744886745 0 0.02446804008572136 0.2013654469703913 0 0.02207992402376658 0.18587455697647459 0 0.014682636764109599 0.208973744886745 0 0.012730763693805189 0.197254231084424 0 0.02207992402376658 0.18587455697647459 0 0.014682636764109599 0.208973744886745 0 0.02446804008572136 0.2013654469703913 0 0.030724493098632791 0.19237587755069729 0 0.035196681317143763 0.19969593766102131 0 0.02207992402376658 0.18587455697647459 0 0.02446804008572136 0.2013654469703913 0 0.030724493098632791 0.19237587755069729 0 0.035196681317143763 0.19969593766102131 0 0.039083473764486718 0.1911664268125394 0 0.052413793173919733 0.19906617387730741 0 0.035196681317143763 0.19969593766102131 0 0.052413793173919733 0.19906617387730741 0 0.039893818274122 0.2080804941205408 0 0.030724493098632791 0.19237587755069729 0 0.035196681317143763 0.19969593766102131 0 0.039083473764486718 0.1911664268125394 0 0.034009966922591867 0.18304017656085469 0 0.030724493098632791 0.19237587755069729 0 0.039083473764486718 0.1911664268125394 0 0.02446804008572136 0.2013654469703913 0 0.035196681317143763 0.19969593766102131 0 0.039893818274122 0.2080804941205408 0 0.049455286456484802 0.18314464057356269 0 0.052413793173919733 0.19906617387730741 0 0.06768265214528027 0.19006365998821859 0 0.049455286456484802 0.18314464057356269 0 0.039083473764486718 0.1911664268125394 0 0.052413793173919733 0.19906617387730741 0 0.052413793173919733 0.19906617387730741 0 0.039893818274122 0.2080804941205408 0 0.063217585045620917 0.22566121662373109 0 0.02446804008572136 0.2013654469703913 0 0.039893818274122 0.2080804941205408 0 0.032637491880371523 0.22325917055209549 0 0.040806943675022668 0.2451528941337994 0 0.072094824325247012 0.24298574325024011 0 0.063217585045620917 0.22566121662373109 0 0.040806943675022668 0.2451528941337994 0 0.072094824325247012 0.24298574325024011 0 0.057971352645957361 0.25638246478144561 0 0.032637491880371523 0.22325917055209549 0 0.040806943675022668 0.2451528941337994 0 0.039893818274122 0.2080804941205408 0 0.032637491880371523 0.22325917055209549 0 0.063217585045620917 0.22566121662373109 0 0.032637491880371523 0.22325917055209549 0 0.040806943675022668 0.2451528941337994 0 0.063217585045620917 0.22566121662373109 0 0.040806943675022668 0.2451528941337994 0 0.063217585045620917 0.22566121662373109 0 0.024609805517523332 0.23701907883569009 0 0.032637491880371523 0.22325917055209549 0 0.040806943675022668 0.2451528941337994 0 0.072094824325247012 0.24298574325024011 0 0.084867254655975291 0.2250628348518213 0 0.10545751563756051 0.2452700731161146 0 0.072094824325247012 0.24298574325024011 0 0.10545751563756051 0.2452700731161146 0 0.080502269182564701 0.26054306283585799 0 0.063217585045620917 0.22566121662373109 0 0.084867254655975291 0.2250628348518213 0 0.07356143448173319 0.20710793149761181 0 0.072094824325247012 0.24298574325024011 0 0.063217585045620917 0.22566121662373109 0 0.084867254655975291 0.2250628348518213 0 0.08993806664128895 0.20814308881565499 0 0.07356143448173319 0.20710793149761181 0 0.082031805010512132 0.19673799706412159 0 0.084867254655975291 0.2250628348518213 0 0.08993806664128895 0.20814308881565499 0 0.07356143448173319 0.20710793149761181 0 0.084867254655975291 0.2250628348518213 0 0.08993806664128895 0.20814308881565499 0 0.1049341018044013 0.2212089558075753 0 0.052413793173919733 0.19906617387730741 0 0.063217585045620917 0.22566121662373109 0 0.07356143448173319 0.20710793149761181 0 0.07356143448173319 0.20710793149761181 0 0.06768265214528027 0.19006365998821859 0 0.082031805010512132 0.19673799706412159 0 0.052413793173919733 0.19906617387730741 0 0.07356143448173319 0.20710793149761181 0 0.06768265214528027 0.19006365998821859 0 0.06768265214528027 0.19006365998821859 0 0.082031805010512132 0.19673799706412159 0 0.082444167708352931 0.18406447462587999 0 0.08993806664128895 0.20814308881565499 0 0.082031805010512132 0.19673799706412159 0 0.097694567423416992 0.1970211692002653 0 0.082031805010512132 0.19673799706412159 0 0.097694567423416992 0.1970211692002653 0 0.082444167708352931 0.18406447462587999 0 0.097694567423416992 0.1970211692002653 0 0.082444167708352931 0.18406447462587999 0 0.097694567423416992 0.1970211692002653 0 0.082444167708352931 0.18406447462587999 0 0.1016491721459812 0.18437153247106369 0 0.097694567423416992 0.1970211692002653 0 0.1075103917723899 0.1962584291385496 0 0.1034272960663345 0.20771946959080981 0 0.1075103917723899 0.1962584291385496 0 0.1016491721459812 0.18437153247106369 0 0.1136217816600231 0.1867752085105778 0 0.097694567423416992 0.1970211692002653 0 0.1075103917723899 0.1962584291385496 0 0.1016491721459812 0.18437153247106369 0 0.1075103917723899 0.1962584291385496 0 0.1314392001599711 0.20549126140759 0 0.1075103917723899 0.1962584291385496 0 0.1231302482089523 0.19140097921134661 0 0.1136217816600231 0.1867752085105778 0 0.1075103917723899 0.1962584291385496 0 0.1231302482089523 0.19140097921134661 0 0.1314392001599711 0.20549126140759 0 0.1075103917723899 0.1962584291385496 0 0.11606089020958781 0.2097226932922186 0 0.1314392001599711 0.20549126140759 0 0.11606089020958781 0.2097226932922186 0 0.1034272960663345 0.20771946959080981 0 0.1049341018044013 0.2212089558075753 0 0.1075103917723899 0.1962584291385496 0 0.11606089020958781 0.2097226932922186 0 0.1034272960663345 0.20771946959080981 0 0.08993806664128895 0.20814308881565499 0 0.097694567423416992 0.1970211692002653 0 0.1034272960663345 0.20771946959080981 0 0.08993806664128895 0.20814308881565499 0 0.1034272960663345 0.20771946959080981 0 0.1049341018044013 0.2212089558075753 0 0.084867254655975291 0.2250628348518213 0 0.1049341018044013 0.2212089558075753 0 0.10545751563756051 0.2452700731161146 0 0.11606089020958781 0.2097226932922186 0 0.1049341018044013 0.2212089558075753 0 0.13041276209255609 0.22999708339637129 0 0.1049341018044013 0.2212089558075753 0 0.10545751563756051 0.2452700731161146 0 0.13041276209255609 0.22999708339637129 0 0.10545751563756051 0.2452700731161146 0 0.13041276209255609 0.22999708339637129 0 0.13104421040972539 0.25029190085271041 0 0.10545751563756051 0.2452700731161146 0 0.13041276209255609 0.22999708339637129 0 0.090990191951666619 0.1435345190050161 0 0.073344225748019368 0.1449630040037922 0 0.086254704226928547 0.15787936573767461 0 0.090990191951666619 0.1435345190050161 0 0.086254704226928547 0.15787936573767461 0 0.10297426187115449 0.15581159366412331 0 0.086830164587860595 0.1230796148384033 0 0.090990191951666619 0.1435345190050161 0 0.073344225748019368 0.1449630040037922 0 0.066542801400378992 0.1200667909218705 0 0.05209094167211873 0.1343773302300659 0 0.073344225748019368 0.1449630040037922 0 0.086830164587860595 0.1230796148384033 0 0.066542801400378992 0.1200667909218705 0 0.073344225748019368 0.1449630040037922 0 0.047554929209512632 0.15442268060025621 0 0.073344225748019368 0.1449630040037922 0 0.067193767993289244 0.17110778005149421 0 0.073344225748019368 0.1449630040037922 0 0.067193767993289244 0.17110778005149421 0 0.086254704226928547 0.15787936573767461 0 0.06768265214528027 0.19006365998821859 0 0.067193767993289244 0.17110778005149421 0 0.082444167708352931 0.18406447462587999 0 0.067193767993289244 0.17110778005149421 0 0.082444167708352931 0.18406447462587999 0 0.067193767993289244 0.17110778005149421 0 0.0946955412530298 0.17308883663642019 0 0.067193767993289244 0.17110778005149421 0 0.082444167708352931 0.18406447462587999 0 0.0946955412530298 0.17308883663642019 0 0.082444167708352931 0.18406447462587999 0 0.0946955412530298 0.17308883663642019 0 0.1016491721459812 0.18437153247106369 0 0.067193767993289244 0.17110778005149421 0 0.086254704226928547 0.15787936573767461 0 0.0946955412530298 0.17308883663642019 0 0.0946955412530298 0.17308883663642019 0 0.1221973145127702 0.17506989322134961 0 0.10297426187115449 0.15581159366412331 0 0.086254704226928547 0.15787936573767461 0 0.0946955412530298 0.17308883663642019 0 0.10297426187115449 0.15581159366412331 0 0.0946955412530298 0.17308883663642019 0 0.1016491721459812 0.18437153247106369 0 0.1221973145127702 0.17506989322134961 0 0.0946955412530298 0.17308883663642019 0 0.1221973145127702 0.17506989322134961 0 0.1231302482089523 0.19140097921134661 0 0.1221973145127702 0.17506989322134961 0 0.1136217816600231 0.1867752085105778 0 0.1016491721459812 0.18437153247106369 0 0.1221973145127702 0.17506989322134961 0 0.1136217816600231 0.1867752085105778 0 0.1221973145127702 0.17506989322134961 0 0.10297426187115449 0.15581159366412331 0 0.1221973145127702 0.17506989322134961 0 0.1206325266746824 0.15824853214679349 0 0.10297426187115449 0.15581159366412331 0 0.1206325266746824 0.15824853214679349 0 0.11965910425370679 0.1445934858682307 0 0.10297426187115449 0.15581159366412331 0 0.11965910425370679 0.1445934858682307 0 0.10297426187115449 0.15581159366412331 0 0.1055476033243701 0.13593901678108711 0 0.090990191951666619 0.1435345190050161 0 0.10297426187115449 0.15581159366412331 0 0.1055476033243701 0.13593901678108711 0 0.086830164587860595 0.1230796148384033 0 0.090990191951666619 0.1435345190050161 0 0.1055476033243701 0.13593901678108711 0 0.1031758009652389 0.1181902088003204 0 0.086830164587860595 0.1230796148384033 0 0.1055476033243701 0.13593901678108711 0 0.1203304346491972 0.1247311024736667 0 0.11965910425370679 0.1445934858682307 0 0.13422408036942071 0.13745691177235619 0 0.1031758009652389 0.1181902088003204 0 0.1203304346491972 0.1247311024736667 0 0.1055476033243701 0.13593901678108711 0 0.1203304346491972 0.1247311024736667 0 0.11965910425370679 0.1445934858682307 0 0.1055476033243701 0.13593901678108711 0 0.1203304346491972 0.1247311024736667 0 0.13422408036942071 0.13745691177235619 0 0.13921331553565211 0.1205755020248503 0 0.13422408036942071 0.13745691177235619 0 0.1462351069439449 0.13629549982567599 0 0.13921331553565211 0.1205755020248503 0 0.1462351069439449 0.13629549982567599 0 0.15664017861286419 0.12832258981899269 0 0.13921331553565211 0.1205755020248503 0 0.13422408036942071 0.13745691177235619 0 0.1462351069439449 0.13629549982567599 0 0.14677221129111059 0.14655050016352239 0 0.1462351069439449 0.13629549982567599 0 0.15664017861286419 0.12832258981899269 0 0.15817072952799499 0.14214727334634081 0 0.14677221129111059 0.14655050016352239 0 0.13769942606109961 0.1575191558334689 0 0.1565494516126715 0.15438087079599661 0 0.1462351069439449 0.13629549982567599 0 0.14677221129111059 0.14655050016352239 0 0.15817072952799499 0.14214727334634081 0 0.14677221129111059 0.14655050016352239 0 0.15817072952799499 0.14214727334634081 0 0.1565494516126715 0.15438087079599661 0 0.13422408036942071 0.13745691177235619 0 0.14677221129111059 0.14655050016352239 0 0.13769942606109961 0.1575191558334689 0 0.11965910425370679 0.1445934858682307 0 0.13422408036942071 0.13745691177235619 0 0.13769942606109961 0.1575191558334689 0 0.1206325266746824 0.15824853214679349 0 0.11965910425370679 0.1445934858682307 0 0.13769942606109961 0.1575191558334689 0 0.1221973145127702 0.17506989322134961 0 0.13769942606109961 0.1575191558334689 0 0.1420260378244515 0.1764982310421957 0 0.1221973145127702 0.17506989322134961 0 0.1206325266746824 0.15824853214679349 0 0.13769942606109961 0.1575191558334689 0 0.1221973145127702 0.17506989322134961 0 0.1420260378244515 0.1764982310421957 0 0.1231302482089523 0.19140097921134661 0 0.1221973145127702 0.17506989322134961 0 0.14077252750151401 0.19367916526288659 0 0.1221973145127702 0.17506989322134961 0 0.14077252750151401 0.19367916526288659 0 0.1221973145127702 0.17506989322134961 0 0.1420260378244515 0.1764982310421957 0 0.14077252750151401 0.19367916526288659 0 0.1420260378244515 0.1764982310421957 0 0.15732931936881761 0.16917502138063681 0 0.1594036896264161 0.1863669358171659 0 0.1420260378244515 0.1764982310421957 0 0.1594036896264161 0.1863669358171659 0 0.14077252750151401 0.19367916526288659 0 0.13769942606109961 0.1575191558334689 0 0.15732931936881761 0.16917502138063681 0 0.1565494516126715 0.15438087079599661 0 0.13769942606109961 0.1575191558334689 0 0.1420260378244515 0.1764982310421957 0 0.15732931936881761 0.16917502138063681 0 0.15732931936881761 0.16917502138063681 0 0.16717421661364909 0.15983504491319209 0 0.1565494516126715 0.15438087079599661 0 0.15732931936881761 0.16917502138063681 0 0.17119501847031021 0.1699658079947014 0 0.16717421661364909 0.15983504491319209 0 0.17119501847031021 0.1699658079947014 0 0.16532857553902591 0.17812143802547151 0 0.17338627469055981 0.18697798690938189 0 0.15732931936881761 0.16917502138063681 0 0.1594036896264161 0.1863669358171659 0 0.16532857553902591 0.17812143802547151 0 0.15732931936881761 0.16917502138063681 0 0.17119501847031021 0.1699658079947014 0 0.16532857553902591 0.17812143802547151 0 0.1594036896264161 0.1863669358171659 0 0.16532857553902591 0.17812143802547151 0 0.17338627469055981 0.18697798690938189 0 0.17119501847031021 0.1699658079947014 0 0.18685299094783001 0.17962016457261529 0 0.18943919442320559 0.19387201062640591 0 0.17119501847031021 0.1699658079947014 0 0.18943919442320559 0.19387201062640591 0 0.17119501847031021 0.1699658079947014 0 0.17338627469055981 0.18697798690938189 0 0.18943919442320559 0.19387201062640591 0 0.17119501847031021 0.1699658079947014 0 0.18685299094783001 0.17962016457261529 0 0.18384256130723789 0.1706593609261377 0 0.17806388351039179 0.15937205132555241 0 0.18384256130723789 0.1706593609261377 0 0.1992583523004193 0.1736794198116817 0 0.17119501847031021 0.1699658079947014 0 0.16717421661364909 0.15983504491319209 0 0.17806388351039179 0.15937205132555241 0 0.17119501847031021 0.1699658079947014 0 0.17806388351039179 0.15937205132555241 0 0.18384256130723789 0.1706593609261377 0 0.17806388351039179 0.15937205132555241 0 0.18411336321729321 0.1447640993035251 0 0.19325036430083309 0.1558578881368882 0 0.17806388351039179 0.15937205132555241 0 0.18411336321729321 0.1447640993035251 0 0.17017010889531009 0.14885542476531241 0 0.18411336321729321 0.1447640993035251 0 0.1721661888418583 0.1360023600866582 0 0.17017010889531009 0.14885542476531241 0 0.18411336321729321 0.1447640993035251 0 0.1721661888418583 0.1360023600866582 0 0.18913854688041021 0.1272330631454284 0 0.1721661888418583 0.1360023600866582 0 0.18913854688041021 0.1272330631454284 0 0.16877696666127581 0.1222888441805631 0 0.1721661888418583 0.1360023600866582 0 0.15664017861286419 0.12832258981899269 0 0.16877696666127581 0.1222888441805631 0 0.1721661888418583 0.1360023600866582 0 0.15664017861286419 0.12832258981899269 0 0.15817072952799499 0.14214727334634081 0 0.15817072952799499 0.14214727334634081 0 0.1565494516126715 0.15438087079599661 0 0.17017010889531009 0.14885542476531241 0 0.16717421661364909 0.15983504491319209 0 0.1565494516126715 0.15438087079599661 0 0.17017010889531009 0.14885542476531241 0 0.16717421661364909 0.15983504491319209 0 0.17806388351039179 0.15937205132555241 0 0.17017010889531009 0.14885542476531241 0 0.1721661888418583 0.1360023600866582 0 0.15817072952799499 0.14214727334634081 0 0.17017010889531009 0.14885542476531241 0 0.15071771210549029 0.24461282216283159 0 0.14469775112824659 0.2336749596348886 0 0.1559460624859092 0.2287488980858991 0 0.15071771210549029 0.24461282216283159 0 0.14469775112824659 0.2336749596348886 0 0.13104421040972539 0.25029190085271041 0 0.13041276209255609 0.22999708339637129 0 0.14469775112824659 0.2336749596348886 0 0.13104421040972539 0.25029190085271041 0 0.14469775112824659 0.2336749596348886 0 0.1559460624859092 0.2287488980858991 0 0.15536800854755259 0.2147240936766294 0 0.13041276209255609 0.22999708339637129 0 0.15536800854755259 0.2147240936766294 0 0.13041276209255609 0.22999708339637129 0 0.14469775112824659 0.2336749596348886 0 0.15536800854755259 0.2147240936766294 0 0.15536800854755259 0.2147240936766294 0 0.1314392001599711 0.20549126140759 0 0.14077252750151401 0.19367916526288659 0 0.15536800854755259 0.2147240936766294 0 0.14077252750151401 0.19367916526288659 0 0.1593477404902604 0.2122884373044209 0 0.15536800854755259 0.2147240936766294 0 0.1314392001599711 0.20549126140759 0 0.11606089020958781 0.2097226932922186 0 0.13041276209255609 0.22999708339637129 0 0.1314392001599711 0.20549126140759 0 0.13041276209255609 0.22999708339637129 0 0.15536800854755259 0.2147240936766294 0 0.1314392001599711 0.20549126140759 0 0.1231302482089523 0.19140097921134661 0 0.1314392001599711 0.20549126140759 0 0.14077252750151401 0.19367916526288659 0 0.1594036896264161 0.1863669358171659 0 0.14077252750151401 0.19367916526288659 0 0.16183972399274371 0.19825681948879201 0 0.14077252750151401 0.19367916526288659 0 0.16183972399274371 0.19825681948879201 0 0.1593477404902604 0.2122884373044209 0 0.14077252750151401 0.19367916526288659 0 0.1593477404902604 0.2122884373044209 0 0.17338627469055981 0.18697798690938189 0 0.16183972399274371 0.19825681948879201 0 0.1743934674567312 0.20308022396541039 0 0.1594036896264161 0.1863669358171659 0 0.17338627469055981 0.18697798690938189 0 0.16183972399274371 0.19825681948879201 0 0.1743934674567312 0.20308022396541039 0 0.19144776800608529 0.19650393914961731 0 0.18943919442320559 0.19387201062640591 0 0.17338627469055981 0.18697798690938189 0 0.1743934674567312 0.20308022396541039 0 0.18943919442320559 0.19387201062640591 0 0.1743934674567312 0.20308022396541039 0 0.18943919442320559 0.19387201062640591 0 0.17834192407661281 0.2108069479565827 0 0.16579465434336191 0.21874717205989641 0 0.18173180650027271 0.2248964566514062 0 0.1743934674567312 0.20308022396541039 0 0.17834192407661281 0.2108069479565827 0 0.16579465434336191 0.21874717205989641 0 0.17834192407661281 0.2108069479565827 0 0.18173180650027271 0.2248964566514062 0 0.19144776800608529 0.19650393914961731 0 0.18173180650027271 0.2248964566514062 0 0.19144776800608529 0.19650393914961731 0 0.1743934674567312 0.20308022396541039 0 0.17834192407661281 0.2108069479565827 0 0.19144776800608529 0.19650393914961731 0 0.1743934674567312 0.20308022396541039 0 0.16579465434336191 0.21874717205989641 0 0.1593477404902604 0.2122884373044209 0 0.16183972399274371 0.19825681948879201 0 0.1743934674567312 0.20308022396541039 0 0.1593477404902604 0.2122884373044209 0 0.1743934674567312 0.20308022396541039 0 0.1593477404902604 0.2122884373044209 0 0.15536800854755259 0.2147240936766294 0 0.16579465434336191 0.21874717205989641 0 0.1593477404902604 0.2122884373044209 0 0.15536800854755259 0.2147240936766294 0 0.1593477404902604 0.2122884373044209 0 0.15536800854755259 0.2147240936766294 0 0.16579465434336191 0.21874717205989641 0 0.16091234567485321 0.22258416666499481 0 0.15536800854755259 0.2147240936766294 0 0.16579465434336191 0.21874717205989641 0 0.16579465434336191 0.21874717205989641 0 0.1593477404902604 0.2122884373044209 0 0.1559460624859092 0.2287488980858991 0 0.15536800854755259 0.2147240936766294 0 0.16091234567485321 0.22258416666499481 0 0.1559460624859092 0.2287488980858991 0 0.16091234567485321 0.22258416666499481 0 0.17008014701386279 0.22967345970440789 0 0.1559460624859092 0.2287488980858991 0 0.17008014701386279 0.22967345970440789 0 0.16619735653452569 0.23833744622431341 0 0.16579465434336191 0.21874717205989641 0 0.17008014701386279 0.22967345970440789 0 0.17923005628736399 0.23220720882581999 0 0.17008014701386279 0.22967345970440789 0 0.17923005628736399 0.23220720882581999 0 0.16619735653452569 0.23833744622431341 0 0.16579465434336191 0.21874717205989641 0 0.16091234567485321 0.22258416666499481 0 0.17008014701386279 0.22967345970440789 0 0.16579465434336191 0.21874717205989641 0 0.18173180650027271 0.2248964566514062 0 0.17923005628736399 0.23220720882581999 0 0.16579465434336191 0.21874717205989641 0 0.17923005628736399 0.23220720882581999 0 0.16579465434336191 0.21874717205989641 0 0.18173180650027271 0.2248964566514062 0 0.18173180650027271 0.2248964566514062 0 0.17923005628736399 0.23220720882581999 0 0.19094329512360109 0.2284506716390397 0 0.17923005628736399 0.23220720882581999 0 0.19094329512360109 0.2284506716390397 0 0.18173180650027271 0.2248964566514062 0 0.19094329512360109 0.2284506716390397 0 0.18173180650027271 0.2248964566514062 0 0.17923005628736399 0.23220720882581999 0 0.17923005628736399 0.23220720882581999 0 0.18363137650319269 0.2437216882932631 0 0.19567631166618171 0.24868361965321409 0 0.17923005628736399 0.23220720882581999 0 0.17346433219837201 0.2490561251177594 0 0.17923005628736399 0.23220720882581999 0 0.19567631166618171 0.24868361965321409 0 0.17923005628736399 0.23220720882581999 0 0.16619735653452569 0.23833744622431341 0 0.17923005628736399 0.23220720882581999 0 0.18363137650319269 0.2437216882932631 0 0.17346433219837201 0.2490561251177594 0 0.17923005628736399 0.23220720882581999 0 0.17346433219837201 0.2490561251177594 0 0.16619735653452569 0.23833744622431341 0 0.18363137650319269 0.2437216882932631 0 0.17346433219837201 0.2490561251177594 0 0.18351944270458609 0.25560495687435042 0 0.17346433219837201 0.2490561251177594 0 0.16619735653452569 0.23833744622431341 0 0.1612294229183229 0.25215473193171262 0 0.15071771210549029 0.24461282216283159 0 0.1559460624859092 0.2287488980858991 0 0.16619735653452569 0.23833744622431341 0 0.15071771210549029 0.24461282216283159 0 0.16619735653452569 0.23833744622431341 0 0.1612294229183229 0.25215473193171262 0 0.2209126603009012 0.23511317464152401 0 0.21119012336489751 0.25003357208248039 0 0.22219887874936009 0.25618338730180168 0 0.20702137889996899 0.24018815786255601 0 0.2209126603009012 0.23511317464152401 0 0.21119012336489751 0.25003357208248039 0 0.20702137889996899 0.24018815786255601 0 0.20873968620941361 0.23157951997755291 0 0.2209126603009012 0.23511317464152401 0 0.20702137889996899 0.24018815786255601 0 0.19567631166618171 0.24868361965321409 0 0.21119012336489751 0.25003357208248039 0 0.20702137889996899 0.24018815786255601 0 0.19567631166618171 0.24868361965321409 0 0.1978780612805468 0.2311264226298555 0 0.17923005628736399 0.23220720882581999 0 0.19567631166618171 0.24868361965321409 0 0.19094329512360109 0.2284506716390397 0 0.19567631166618171 0.24868361965321409 0 0.1978780612805468 0.2311264226298555 0 0.19094329512360109 0.2284506716390397 0 0.18363137650319269 0.2437216882932631 0 0.19567631166618171 0.24868361965321409 0 0.18351944270458609 0.25560495687435042 0 0.19094329512360109 0.2284506716390397 0 0.21001352220368 0.22083152089427899 0 0.1978780612805468 0.2311264226298555 0 0.19094329512360109 0.2284506716390397 0 0.21001352220368 0.22083152089427899 0 0.18173180650027271 0.2248964566514062 0 0.19094329512360109 0.2284506716390397 0 0.20073064510488231 0.20866773002194841 0 0.19094329512360109 0.2284506716390397 0 0.21001352220368 0.22083152089427899 0 0.20073064510488231 0.20866773002194841 0 0.1978780612805468 0.2311264226298555 0 0.19094329512360109 0.2284506716390397 0 0.21001352220368 0.22083152089427899 0 0.22499310367668029 0.21484671070523681 0 0.2209126603009012 0.23511317464152401 0 0.20702137889996899 0.24018815786255601 0 0.1978780612805468 0.2311264226298555 0 0.20873968620941361 0.23157951997755291 0 0.1978780612805468 0.2311264226298555 0 0.21001352220368 0.22083152089427899 0 0.20873968620941361 0.23157951997755291 0 0.21001352220368 0.22083152089427899 0 0.20873968620941361 0.23157951997755291 0 0.2209126603009012 0.23511317464152401 0 0.21001352220368 0.22083152089427899 0 0.2209126603009012 0.23511317464152401 0 0.21001352220368 0.22083152089427899 0 0.20073064510488231 0.20866773002194841 0 0.21528446084366731 0.2030377541353735 0 0.21001352220368 0.22083152089427899 0 0.21528446084366731 0.2030377541353735 0 0.22499310367668029 0.21484671070523681 0 0.21001352220368 0.22083152089427899 0 0.22499310367668029 0.21484671070523681 0 0.21001352220368 0.22083152089427899 0 0.20073064510488231 0.20866773002194841 0 0.18173180650027271 0.2248964566514062 0 0.20073064510488231 0.20866773002194841 0 0.19144776800608529 0.19650393914961731 0 0.20073064510488231 0.20866773002194841 0 0.19144776800608529 0.19650393914961731 0 0.20073064510488231 0.20866773002194841 0 0.20262247736475561 0.1975999259482398 0 0.19144776800608529 0.19650393914961731 0 0.20262247736475561 0.1975999259482398 0 0.1931191122327616 0.191619845055684 0 0.2102780700999799 0.18111830232076739 0 0.18685299094783001 0.17962016457261529 0 0.18943919442320559 0.19387201062640591 0 0.1931191122327616 0.191619845055684 0 0.19144776800608529 0.19650393914961731 0 0.18943919442320559 0.19387201062640591 0 0.1931191122327616 0.191619845055684 0 0.19144776800608529 0.19650393914961731 0 0.18943919442320559 0.19387201062640591 0 0.18943919442320559 0.19387201062640591 0 0.1931191122327616 0.191619845055684 0 0.19144776800608529 0.19650393914961731 0 0.1931191122327616 0.191619845055684 0 0.20262247736475561 0.1975999259482398 0 0.19144776800608529 0.19650393914961731 0 0.1931191122327616 0.191619845055684 0 0.20262247736475561 0.1975999259482398 0 0.21423110832967071 0.1938341648070542 0 0.2102780700999799 0.18111830232076739 0 0.21423110832967071 0.1938341648070542 0 0.22873942501028041 0.19358067682383581 0 0.2102780700999799 0.18111830232076739 0 0.20262247736475561 0.1975999259482398 0 0.21528446084366731 0.2030377541353735 0 0.21423110832967071 0.1938341648070542 0 0.20073064510488231 0.20866773002194841 0 0.20262247736475561 0.1975999259482398 0 0.21528446084366731 0.2030377541353735 0 0.21528446084366731 0.2030377541353735 0 0.22873942501028041 0.19358067682383581 0 0.22823624334491169 0.20434105768454339 0 0.21528446084366731 0.2030377541353735 0 0.21423110832967071 0.1938341648070542 0 0.22873942501028041 0.19358067682383581 0 0.22873942501028041 0.19358067682383581 0 0.238480617814675 0.20015648848147419 0 0.22823624334491169 0.20434105768454339 0 0.22873942501028041 0.19358067682383581 0 0.238480617814675 0.20015648848147419 0 0.22873942501028041 0.19358067682383581 0 0.23873067617828081 0.1927120695511754 0 0.2342830075869865 0.18450595673087361 0 0.23873067617828081 0.1927120695511754 0 0.2342830075869865 0.18450595673087361 0 0.24329510302008189 0.1871769661498516 0 0.24564481120887949 0.19357326373811029 0 0.24329510302008189 0.1871769661498516 0 0.25125949940876557 0.1865332481602214 0 0.23873067617828081 0.1927120695511754 0 0.24564481120887949 0.19357326373811029 0 0.24329510302008189 0.1871769661498516 0 0.24564481120887949 0.19357326373811029 0 0.25125949940876557 0.1865332481602214 0 0.25269584698820519 0.19667155210436921 0 0.24564481120887949 0.19357326373811029 0 0.24720077992058109 0.2060430513269037 0 0.25269584698820519 0.19667155210436921 0 0.238480617814675 0.20015648848147419 0 0.24720077992058109 0.2060430513269037 0 0.23873067617828081 0.1927120695511754 0 0.24564481120887949 0.19357326373811029 0 0.24720077992058109 0.2060430513269037 0 0.23873067617828081 0.1927120695511754 0 0.238480617814675 0.20015648848147419 0 0.24720077992058109 0.2060430513269037 0 0.22873942501028041 0.19358067682383581 0 0.23873067617828081 0.1927120695511754 0 0.238480617814675 0.20015648848147419 0 0.238480617814675 0.20015648848147419 0 0.2399726851496807 0.2088619005161948 0 0.24720077992058109 0.2060430513269037 0 0.238480617814675 0.20015648848147419 0 0.2399726851496807 0.2088619005161948 0 0.22823624334491169 0.20434105768454339 0 0.238480617814675 0.20015648848147419 0 0.2399726851496807 0.2088619005161948 0 0.2399726851496807 0.2088619005161948 0 0.24720077992058109 0.2060430513269037 0 0.2491656828497332 0.21658518813443031 0 0.2399726851496807 0.2088619005161948 0 0.24720077992058109 0.2060430513269037 0 0.2399726851496807 0.2088619005161948 0 0.22499310367668029 0.21484671070523681 0 0.2330398906759435 0.2254752894725314 0 0.2399726851496807 0.2088619005161948 0 0.22499310367668029 0.21484671070523681 0 0.2399726851496807 0.2088619005161948 0 0.22823624334491169 0.20434105768454339 0 0.22499310367668029 0.21484671070523681 0 0.21528446084366731 0.2030377541353735 0 0.22823624334491169 0.20434105768454339 0 0.22499310367668029 0.21484671070523681 0 0.22499310367668029 0.21484671070523681 0 0.2330398906759435 0.2254752894725314 0 0.2209126603009012 0.23511317464152401 0 0.2330398906759435 0.2254752894725314 0 0.23291522070487239 0.2359345716381985 0 0.2209126603009012 0.23511317464152401 0 0.2399726851496807 0.2088619005161948 0 0.2330398906759435 0.2254752894725314 0 0.24589653344452231 0.23375499404996961 0 0.2399726851496807 0.2088619005161948 0 0.24589653344452231 0.23375499404996961 0 0.2399726851496807 0.2088619005161948 0 0.2491656828497332 0.21658518813443031 0 0.24589653344452231 0.23375499404996961 0 0.2330398906759435 0.2254752894725314 0 0.24589653344452231 0.23375499404996961 0 0.23291522070487239 0.2359345716381985 0 0.24589653344452231 0.23375499404996961 0 0.25182038173936289 0.25864808758374469 0 0.24589653344452231 0.23375499404996961 0 0.23181179839812269 0.24939482838876889 0 0.25182038173936289 0.25864808758374469 0 0.24589653344452231 0.23375499404996961 0 0.23181179839812269 0.24939482838876889 0 0.23291522070487239 0.2359345716381985 0 0.23181179839812269 0.24939482838876889 0 0.2209126603009012 0.23511317464152401 0 0.22219887874936009 0.25618338730180168 0 0.23181179839812269 0.24939482838876889 0 0.23291522070487239 0.2359345716381985 0 0.2209126603009012 0.23511317464152401 0 0.23181179839812269 0.24939482838876889 0 0.2209126603009012 0.23511317464152401 0 0.20650696960211351 0.15249711135163119 0 0.22167393261844079 0.14209216832933491 0 0.22429333290629089 0.15333728474227651 0 0.20650696960211351 0.15249711135163119 0 0.21375558690380739 0.1313148028915806 0 0.22167393261844079 0.14209216832933491 0 0.20650696960211351 0.15249711135163119 0 0.21375558690380739 0.1313148028915806 0 0.20650696960211351 0.15249711135163119 0 0.21375558690380739 0.1313148028915806 0 0.19838021668379111 0.14113266025954579 0 0.21375558690380739 0.1313148028915806 0 0.18913854688041021 0.1272330631454284 0 0.19838021668379111 0.14113266025954579 0 0.21375558690380739 0.1313148028915806 0 0.18913854688041021 0.1272330631454284 0 0.20450014250225221 0.1173936081939221 0 0.18411336321729321 0.1447640993035251 0 0.18913854688041021 0.1272330631454284 0 0.19838021668379111 0.14113266025954579 0 0.18411336321729321 0.1447640993035251 0 0.19838021668379111 0.14113266025954579 0 0.19325036430083309 0.1558578881368882 0 0.20650696960211351 0.15249711135163119 0 0.19838021668379111 0.14113266025954579 0 0.19325036430083309 0.1558578881368882 0 0.17806388351039179 0.15937205132555241 0 0.19325036430083309 0.1558578881368882 0 0.1992583523004193 0.1736794198116817 0 0.20650696960211351 0.15249711135163119 0 0.1992583523004193 0.1736794198116817 0 0.20650696960211351 0.15249711135163119 0 0.19325036430083309 0.1558578881368882 0 0.1992583523004193 0.1736794198116817 0 0.17806388351039179 0.15937205132555241 0 0.1992583523004193 0.1736794198116817 0 0.1931191122327616 0.191619845055684 0 0.1992583523004193 0.1736794198116817 0 0.2102780700999799 0.18111830232076739 0 0.1931191122327616 0.191619845055684 0 0.2102780700999799 0.18111830232076739 0 0.18685299094783001 0.17962016457261529 0 0.1931191122327616 0.191619845055684 0 0.1992583523004193 0.1736794198116817 0 0.1931191122327616 0.191619845055684 0 0.1992583523004193 0.1736794198116817 0 0.18685299094783001 0.17962016457261529 0 0.18384256130723789 0.1706593609261377 0 0.1992583523004193 0.1736794198116817 0 0.2102780700999799 0.18111830232076739 0 0.2135466351928467 0.16625474229965539 0 0.22739645105542991 0.17064159327191969 0 0.1992583523004193 0.1736794198116817 0 0.2102780700999799 0.18111830232076739 0 0.1992583523004193 0.1736794198116817 0 0.2102780700999799 0.18111830232076739 0 0.2135466351928467 0.16625474229965539 0 0.20650696960211351 0.15249711135163119 0 0.1992583523004193 0.1736794198116817 0 0.2135466351928467 0.16625474229965539 0 0.20650696960211351 0.15249711135163119 0 0.2135466351928467 0.16625474229965539 0 0.22429333290629089 0.15333728474227651 0 0.22739645105542991 0.17064159327191969 0 0.23453919537699511 0.1544833452518766 0 0.22429333290629089 0.15333728474227651 0 0.2135466351928467 0.16625474229965539 0 0.22739645105542991 0.17064159327191969 0 0.22429333290629089 0.15333728474227651 0 0.22873942501028041 0.19358067682383581 0 0.2102780700999799 0.18111830232076739 0 0.2102780700999799 0.18111830232076739 0 0.22739645105542991 0.17064159327191969 0 0.22873942501028041 0.19358067682383581 0 0.2102780700999799 0.18111830232076739 0 0.2231445815279034 0.18193584120885661 0 0.2102780700999799 0.18111830232076739 0 0.22739645105542991 0.17064159327191969 0 0.2231445815279034 0.18193584120885661 0 0.22739645105542991 0.17064159327191969 0 0.2231445815279034 0.18193584120885661 0 0.2342830075869865 0.18450595673087361 0 0.22873942501028041 0.19358067682383581 0 0.2231445815279034 0.18193584120885661 0 0.2342830075869865 0.18450595673087361 0 0.2342830075869865 0.18450595673087361 0 0.24655752071749731 0.17856029256887709 0 0.24451483201087909 0.1601648842230706 0 0.2342830075869865 0.18450595673087361 0 0.24451483201087909 0.1601648842230706 0 0.2342830075869865 0.18450595673087361 0 0.24655752071749731 0.17856029256887709 0 0.24329510302008189 0.1871769661498516 0 0.24655752071749731 0.17856029256887709 0 0.24329510302008189 0.1871769661498516 0 0.25125949940876557 0.1865332481602214 0 0.22739645105542991 0.17064159327191969 0 0.24451483201087909 0.1601648842230706 0 0.22739645105542991 0.17064159327191969 0 0.24451483201087909 0.1601648842230706 0 0.23453919537699511 0.1544833452518766 0 0.24655752071749731 0.17856029256887709 0 0.24451483201087909 0.1601648842230706 0 0.25341655966781701 0.1705551613544993 0 0.22739645105542991 0.17064159327191969 0 0.2342830075869865 0.18450595673087361 0 0.24451483201087909 0.1601648842230706 0 0.24451483201087909 0.1601648842230706 0 0.24443506524866351 0.1438614150856288 0 0.25325916843957558 0.1393624820095726 0 0.24451483201087909 0.1601648842230706 0 0.24443506524866351 0.1438614150856288 0 0.23453919537699511 0.1544833452518766 0 0.24451483201087909 0.1601648842230706 0 0.25325916843957558 0.1393624820095726 0 0.24443506524866351 0.1438614150856288 0 0.23453919537699511 0.1544833452518766 0 0.23205629566371011 0.14441154893648489 0 0.23453919537699511 0.1544833452518766 0 0.23205629566371011 0.14441154893648489 0 0.22429333290629089 0.15333728474227651 0 0.23205629566371011 0.14441154893648489 0 0.22167393261844079 0.14209216832933491 0 0.22429333290629089 0.15333728474227651 0 0.21375558690380739 0.1313148028915806 0 0.22167393261844079 0.14209216832933491 0 0.23115646396220299 0.13254813212789479 0 0.21375558690380739 0.1313148028915806 0 0.23115646396220299 0.13254813212789479 0 0.22589829930334179 0.122590870403155 0 0.23205629566371011 0.14441154893648489 0 0.22167393261844079 0.14209216832933491 0 0.23115646396220299 0.13254813212789479 0 0.24443506524866351 0.1438614150856288 0 0.23115646396220299 0.13254813212789479 0 0.2376769421418555 0.1163680521616146 0 0.24443506524866351 0.1438614150856288 0 0.24945576560316771 0.12615472028677199 0 0.25325916843957558 0.1393624820095726 0 0.24443506524866351 0.1438614150856288 0 0.2376769421418555 0.1163680521616146 0 0.24443506524866351 0.1438614150856288 0 0.24945576560316771 0.12615472028677199 0 0.2376769421418555 0.1163680521616146 0 0.24443506524866351 0.1438614150856288 0 0.23205629566371011 0.14441154893648489 0 0.23115646396220299 0.13254813212789479 0 0.24945576560316771 0.12615472028677199 0 0.2499041473174686 0.1126215723809678 0 0.2376769421418555 0.1163680521616146 0 0.2499041473174686 0.1126215723809678 0 0.2376769421418555 0.1163680521616146 0 0.23864449589847689 0.1065584950207374 0 0.2376769421418555 0.1163680521616146 0 0.23864449589847689 0.1065584950207374 0 0.23091881903504741 0.088874689237600613 0 0.23864449589847689 0.1065584950207374 0 0.23091881903504741 0.088874689237600613 0 0.2425221092558765 0.093752846065615764 0 0.23864449589847689 0.1065584950207374 0 0.23091881903504741 0.088874689237600613 0 0.2425221092558765 0.093752846065615764 0 0.23864449589847689 0.1065584950207374 0 0.25099925453232802 0.099791245076321963 0 0.2425221092558765 0.093752846065615764 0 0.25317767889284221 0.088265634331709378 0 0.25099925453232802 0.099791245076321963 0 0.2499041473174686 0.1126215723809678 0 0.23864449589847689 0.1065584950207374 0 0.25099925453232802 0.099791245076321963 0 0.22100420420550129 0.11013249443153 0 0.2159823370088691 0.095425031717352726 0 0.23091881903504741 0.088874689237600613 0 0.2376769421418555 0.1163680521616146 0 0.22100420420550129 0.11013249443153 0 0.23091881903504741 0.088874689237600613 0 0.2376769421418555 0.1163680521616146 0 0.23091881903504741 0.088874689237600613 0 0.23115646396220299 0.13254813212789479 0 0.2376769421418555 0.1163680521616146 0 0.22589829930334179 0.122590870403155 0 0.2376769421418555 0.1163680521616146 0 0.22589829930334179 0.122590870403155 0 0.22100420420550129 0.11013249443153 0 0.21375558690380739 0.1313148028915806 0 0.22589829930334179 0.122590870403155 0 0.22100420420550129 0.11013249443153 0 0.21375558690380739 0.1313148028915806 0 0.22100420420550129 0.11013249443153 0 0.20450014250225221 0.1173936081939221 0 0.22100420420550129 0.11013249443153 0 0.20450014250225221 0.1173936081939221 0 0.20371822313209731 0.1045415540484162 0 0.21375558690380739 0.1313148028915806 0 0.22100420420550129 0.11013249443153 0 0.2159823370088691 0.095425031717352726 0 0.20371822313209731 0.1045415540484162 0 0.1994875123079084 0.09101926859271961 0 0.22100420420550129 0.11013249443153 0 0.2159823370088691 0.095425031717352726 0 0.20371822313209731 0.1045415540484162 0 0.20371822313209731 0.1045415540484162 0 0.1994875123079084 0.09101926859271961 0 0.18675213703513241 0.10005460587339381 0 0.20371822313209731 0.1045415540484162 0 0.19183018478479241 0.11337089656159589 0 0.18675213703513241 0.10005460587339381 0 0.18913854688041021 0.1272330631454284 0 0.20450014250225221 0.1173936081939221 0 0.19183018478479241 0.11337089656159589 0 0.20450014250225221 0.1173936081939221 0 0.20371822313209731 0.1045415540484162 0 0.19183018478479241 0.11337089656159589 0 0.2013770802051349 0.067979927987863453 0 0.1886676301517948 0.072211050940352378 0 0.18562135436981231 0.057495320904719947 0 0.2013770802051349 0.067979927987863453 0 0.1886676301517948 0.072211050940352378 0 0.19712934682141781 0.07903721211395974 0 0.2013770802051349 0.067979927987863453 0 0.19712934682141781 0.07903721211395974 0 0.21036226697757779 0.082173601669043042 0 0.1994875123079084 0.09101926859271961 0 0.18675213703513241 0.10005460587339381 0 0.18298076287235629 0.084883606134152259 0 0.1994875123079084 0.09101926859271961 0 0.19712934682141781 0.07903721211395974 0 0.18298076287235629 0.084883606134152259 0 0.1886676301517948 0.072211050940352378 0 0.19712934682141781 0.07903721211395974 0 0.18298076287235629 0.084883606134152259 0 0.1994875123079084 0.09101926859271961 0 0.19712934682141781 0.07903721211395974 0 0.21036226697757779 0.082173601669043042 0 0.2159823370088691 0.095425031717352726 0 0.1994875123079084 0.09101926859271961 0 0.21036226697757779 0.082173601669043042 0 0.2013770802051349 0.067979927987863453 0 0.21036226697757779 0.082173601669043042 0 0.21847347858569591 0.060387737569577972 0 0.21036226697757779 0.082173601669043042 0 0.22469614881037331 0.074631213403588567 0 0.21847347858569591 0.060387737569577972 0 0.21036226697757779 0.082173601669043042 0 0.21847347858569591 0.060387737569577972 0 0.22633538666121211 0.07022839237381806 0 0.22469614881037331 0.074631213403588567 0 0.21847347858569591 0.060387737569577972 0 0.22633538666121211 0.07022839237381806 0 0.22469614881037331 0.074631213403588567 0 0.23091881903504741 0.088874689237600613 0 0.22469614881037331 0.074631213403588567 0 0.21847347858569591 0.060387737569577972 0 0.2159823370088691 0.095425031717352726 0 0.21036226697757779 0.082173601669043042 0 0.23091881903504741 0.088874689237600613 0 0.21036226697757779 0.082173601669043042 0 0.22469614881037331 0.074631213403588567 0 0.23091881903504741 0.088874689237600613 0 0.22633538666121211 0.07022839237381806 0 0.23091881903504741 0.088874689237600613 0 0.22633538666121211 0.07022839237381806 0 0.23091881903504741 0.088874689237600613 0 0.2417244546013218 0.082663739431196065 0 0.22469614881037331 0.074631213403588567 0 0.23091881903504741 0.088874689237600613 0 0.2417244546013218 0.082663739431196065 0 0.2478465110212274 0.070439300038157515 0 0.25317767889284221 0.088265634331709378 0 0.2425221092558765 0.093752846065615764 0 0.23091881903504741 0.088874689237600613 0 0.2417244546013218 0.082663739431196065 0 0.2425221092558765 0.093752846065615764 0 0.2417244546013218 0.082663739431196065 0 0.25317767889284221 0.088265634331709378 0 0.22633538666121211 0.07022839237381806 0 0.2417244546013218 0.082663739431196065 0 0.2478465110212274 0.070439300038157515 0 0.22633538666121211 0.07022839237381806 0 0.2478465110212274 0.070439300038157515 0 0.23521035250893729 0.058160370130262602 0 0.2478465110212274 0.070439300038157515 0 0.23521035250893729 0.058160370130262602 0 0.24735006605431861 0.04938372300819379 0 0.23521035250893729 0.058160370130262602 0 0.24735006605431861 0.04938372300819379 0 0.2360259791973727 0.045297970126192112 0 0.24691542149975779 0.034986112718363299 0 0.22890210163647301 0.03237754926410516 0 0.25476028869216721 0.031482054603957102 0 0.22890210163647301 0.03237754926410516 0 0.25476028869216721 0.031482054603957102 0 0.24691542149975779 0.034986112718363299 0 0.2360259791973727 0.045297970126192112 0 0.22890210163647301 0.03237754926410516 0 0.24735006605431861 0.04938372300819379 0 0.24691542149975779 0.034986112718363299 0 0.2360259791973727 0.045297970126192112 0 0.22890210163647301 0.03237754926410516 0 0.22175195428737651 0.051582095510035661 0 0.2171314977064655 0.032785176950575021 0 0.22890210163647301 0.03237754926410516 0 0.22175195428737651 0.051582095510035661 0 0.22175195428737651 0.051582095510035661 0 0.2171314977064655 0.032785176950575021 0 0.2360259791973727 0.045297970126192112 0 0.22890210163647301 0.03237754926410516 0 0.22175195428737651 0.051582095510035661 0 0.22890210163647301 0.03237754926410516 0 0.2171314977064655 0.032785176950575021 0 0.22633538666121211 0.07022839237381806 0 0.23521035250893729 0.058160370130262602 0 0.22175195428737651 0.051582095510035661 0 0.22633538666121211 0.07022839237381806 0 0.22175195428737651 0.051582095510035661 0 0.22633538666121211 0.07022839237381806 0 0.22175195428737651 0.051582095510035661 0 0.21847347858569591 0.060387737569577972 0 0.22175195428737651 0.051582095510035661 0 0.21847347858569591 0.060387737569577972 0 0.23521035250893729 0.058160370130262602 0 0.2360259791973727 0.045297970126192112 0 0.22175195428737651 0.051582095510035661 0 0.23914767988150079 0.0048590001187119756 0 0.25197628184863868 0.0051656796147290978 0 0.2444704141750727 -0.0094373062236474958 0 0.23914767988150079 0.0048590001187119756 0 0.24567564017074209 0.014119593049138551 0 0.25197628184863868 0.0051656796147290978 0 0.23914767988150079 0.0048590001187119756 0 0.23382494558792899 0.019155306461071529 0 0.23914767988150079 0.0048590001187119756 0 0.23382494558792899 0.019155306461071529 0 0.23038872763987081 0.0084623230033625436 0 0.23914767988150079 0.0048590001187119756 0 0.24567564017074209 0.014119593049138551 0 0.23382494558792899 0.019155306461071529 0 0.24541456557393751 0.024685190324105249 0 0.23382494558792899 0.019155306461071529 0 0.25476028869216721 0.031482054603957102 0 0.22890210163647301 0.03237754926410516 0 0.23382494558792899 0.019155306461071529 0 0.25476028869216721 0.031482054603957102 0 0.23382494558792899 0.019155306461071529 0 0.25476028869216721 0.031482054603957102 0 0.24541456557393751 0.024685190324105249 0 0.23382494558792899 0.019155306461071529 0 0.24567564017074209 0.014119593049138551 0 0.24541456557393751 0.024685190324105249 0 0.23382494558792899 0.019155306461071529 0 0.24567564017074209 0.014119593049138551 0 0.24541456557393751 0.024685190324105249 0 0.2580147279617046 0.016732788727074909 0 0.22014203960093531 0.021544946793788339 0 0.23119262986851349 0.017899320480790851 0 0.2122635326507126 0.012981345640581151 0 0.22890210163647301 0.03237754926410516 0 0.22737003191994101 0.023898111685191101 0 0.23382494558792899 0.019155306461071529 0 0.22890210163647301 0.03237754926410516 0 0.23382494558792899 0.019155306461071529 0 0.22890210163647301 0.03237754926410516 0 0.2228684787507112 0.028298467536888111 0 0.2171314977064655 0.032785176950575021 0 0.2228684787507112 0.028298467536888111 0 0.22014203960093531 0.021544946793788339 0 0.2171314977064655 0.032785176950575021 0 0.22890210163647301 0.03237754926410516 0 0.22737003191994101 0.023898111685191101 0 0.2228684787507112 0.028298467536888111 0 0.22737003191994101 0.023898111685191101 0 0.2228684787507112 0.028298467536888111 0 0.22014203960093531 0.021544946793788339 0 0.22737003191994101 0.023898111685191101 0 0.22014203960093531 0.021544946793788339 0 0.23119262986851349 0.017899320480790851 0 0.22737003191994101 0.023898111685191101 0 0.23382494558792899 0.019155306461071529 0 0.23119262986851349 0.017899320480790851 0 0.23382494558792899 0.019155306461071529 0 0.23119262986851349 0.017899320480790851 0 0.23119262986851349 0.017899320480790851 0 0.23038872763987081 0.0084623230033625436 0 0.21339875929355481 0.0076441901409559487 0 0.23119262986851349 0.017899320480790851 0 0.21339875929355481 0.0076441901409559487 0 0.23119262986851349 0.017899320480790851 0 0.2116800262066581 0.0085890555846391166 0 0.23038872763987081 0.0084623230033625436 0 0.21339875929355481 0.0076441901409559487 0 0.22893458673431399 -0.00089655804134538761 0 0.23119262986851349 0.017899320480790851 0 0.21339875929355481 0.0076441901409559487 0 0.2116800262066581 0.0085890555846391166 0 0.23382494558792899 0.019155306461071529 0 0.23119262986851349 0.017899320480790851 0 0.23038872763987081 0.0084623230033625436 0 0.21339875929355481 0.0076441901409559487 0 0.22893458673431399 -0.00089655804134538761 0 0.23914767988150079 0.0048590001187119756 0 0.23038872763987081 0.0084623230033625436 0 0.22893458673431399 -0.00089655804134538761 0 0.23119262986851349 0.017899320480790851 0 0.2122635326507126 0.012981345640581151 0 0.2116800262066581 0.0085890555846391166 0 0.20590763576530829 0.0033268355861740722 0 0.21339875929355481 0.0076441901409559487 0 0.22744893828151519 -0.0091251255713614941 0 0.20353083960945159 0.0047007438440358294 0 0.2116800262066581 0.0085890555846391166 0 0.20383855752384 0.0087500063140377345 0 0.20590763576530829 0.0033268355861740722 0 0.20353083960945159 0.0047007438440358294 0 0.2116800262066581 0.0085890555846391166 0 0.20353083960945159 0.0047007438440358294 0 0.2116800262066581 0.0085890555846391166 0 0.20590763576530829 0.0033268355861740722 0 0.20353083960945159 0.0047007438440358294 0 0.20590763576530829 0.0033268355861740722 0 0.21339875929355481 0.0076441901409559487 0 0.2116800262066581 0.0085890555846391166 0 0.20590763576530829 0.0033268355861740722 0 0.21339875929355481 0.0076441901409559487 0 0.21339875929355481 0.0076441901409559487 0 0.2116800262066581 0.0085890555846391166 0 0.2116800262066581 0.0085890555846391166 0 0.20383855752384 0.0087500063140377345 0 0.20145750362023651 0.014208839373525789 0 0.2116800262066581 0.0085890555846391166 0 0.20145750362023651 0.014208839373525789 0 0.2122635326507126 0.012981345640581151 0 0.2116800262066581 0.0085890555846391166 0 0.20145750362023651 0.014208839373525789 0 0.22014203960093531 0.021544946793788339 0 0.2122635326507126 0.012981345640581151 0 0.2171314977064655 0.032785176950575021 0 0.2122635326507126 0.012981345640581151 0 0.2171314977064655 0.032785176950575021 0 0.2122635326507126 0.012981345640581151 0 0.20145750362023651 0.014208839373525789 0 0.20961374654983039 0.033045524128153737 0 0.20145750362023651 0.014208839373525789 0 0.20961374654983039 0.033045524128153737 0 0.2122635326507126 0.012981345640581151 0 0.2171314977064655 0.032785176950575021 0 0.20961374654983039 0.033045524128153737 0 0.20145750362023651 0.014208839373525789 0 0.1950590076479366 0.0103054465264773 0 0.17989322253291301 0.034074775347355382 0 0.20145750362023651 0.014208839373525789 0 0.20961374654983039 0.033045524128153737 0 0.17989322253291301 0.034074775347355382 0 0.20145750362023651 0.014208839373525789 0 0.1986858606590135 0.0075013864539500274 0 0.20383855752384 0.0087500063140377345 0 0.20145750362023651 0.014208839373525789 0 0.1986858606590135 0.0075013864539500274 0 0.20145750362023651 0.014208839373525789 0 0.1950590076479366 0.0103054465264773 0 0.1986858606590135 0.0075013864539500274 0 0.1950590076479366 0.0103054465264773 0 0.1951186342042579 0.006765403100063315 0 0.1986858606590135 0.0075013864539500274 0 0.19102737819291371 0.0080871192678811741 0 0.1877429202382668 0.0047149823847660068 0 0.18510279272099431 0.01267940637480801 0 0.19102737819291371 0.0080871192678811741 0 0.1950590076479366 0.0103054465264773 0 0.18510279272099431 0.01267940637480801 0 0.19102737819291371 0.0080871192678811741 0 0.1950590076479366 0.0103054465264773 0 0.1951186342042579 0.006765403100063315 0 0.19102737819291371 0.0080871192678811741 0 0.1951186342042579 0.006765403100063315 0 0.1922945040161233 0.0055535755071543886 0 0.1951186342042579 0.006765403100063315 0 0.1922945040161233 0.0055535755071543886 0 0.19593782656424771 0.001077805355871994 0 0.1877429202382668 0.0047149823847660068 0 0.19593782656424771 0.001077805355871994 0 0.18341751240963211 0.00061568397150330858 0 0.1922945040161233 0.0055535755071543886 0 0.1877429202382668 0.0047149823847660068 0 0.19593782656424771 0.001077805355871994 0 0.19102737819291371 0.0080871192678811741 0 0.1922945040161233 0.0055535755071543886 0 0.1877429202382668 0.0047149823847660068 0 0.20590763576530829 0.0033268355861740722 0 0.20353083960945159 0.0047007438440358294 0 0.19593782656424771 0.001077805355871994 0 0.20590763576530829 0.0033268355861740722 0 0.19593782656424771 0.001077805355871994 0 0.19538333160442831 -0.002738630072423164 0 0.20590763576530829 0.0033268355861740722 0 0.19538333160442831 -0.002738630072423164 0 0.1951186342042579 0.006765403100063315 0 0.19593782656424771 0.001077805355871994 0 0.1986858606590135 0.0075013864539500274 0 0.19593782656424771 0.001077805355871994 0 0.1986858606590135 0.0075013864539500274 0 0.20353083960945159 0.0047007438440358294 0 0.1986858606590135 0.0075013864539500274 0 0.20353083960945159 0.0047007438440358294 0 0.19593782656424771 0.001077805355871994 0 0.1986858606590135 0.0075013864539500274 0 0.20353083960945159 0.0047007438440358294 0 0.20383855752384 0.0087500063140377345 0 0.1986858606590135 0.0075013864539500274 0 0.20353083960945159 0.0047007438440358294 0 0.19593782656424771 0.001077805355871994 0 0.21847347858569591 0.060387737569577972 0 0.21179805246051811 0.048866836918511007 0 0.20731015225534899 0.03483527165501598 0 0.2013770802051349 0.067979927987863453 0 0.20431749140528971 0.058682455845167861 0 0.21847347858569591 0.060387737569577972 0 0.22175195428737651 0.051582095510035661 0 0.21847347858569591 0.060387737569577972 0 0.21116331348358711 0.036667665820294709 0 0.21847347858569591 0.060387737569577972 0 0.20731015225534899 0.03483527165501598 0 0.20431749140528971 0.058682455845167861 0 0.21847347858569591 0.060387737569577972 0 0.21179805246051811 0.048866836918511007 0 0.22175195428737651 0.051582095510035661 0 0.2171314977064655 0.032785176950575021 0 0.21116331348358711 0.036667665820294709 0 0.21179805246051811 0.048866836918511007 0 0.20731015225534899 0.03483527165501598 0 0.19377095304712411 0.044139315222621392 0 0.21847347858569591 0.060387737569577972 0 0.21116331348358711 0.036667665820294709 0 0.20731015225534899 0.03483527165501598 0 0.2171314977064655 0.032785176950575021 0 0.21116331348358711 0.036667665820294709 0 0.20961374654983039 0.033045524128153737 0 0.2171314977064655 0.032785176950575021 0 0.20961374654983039 0.033045524128153737 0 0.21116331348358711 0.036667665820294709 0 0.20961374654983039 0.033045524128153737 0 0.21116331348358711 0.036667665820294709 0 0.20961374654983039 0.033045524128153737 0 0.20731015225534899 0.03483527165501598 0 0.20961374654983039 0.033045524128153737 0 0.17989322253291301 0.034074775347355382 0 0.20961374654983039 0.033045524128153737 0 0.20731015225534899 0.03483527165501598 0 0.17989322253291301 0.034074775347355382 0 0.20731015225534899 0.03483527165501598 0 0.19377095304712411 0.044139315222621392 0 0.17989322253291301 0.034074775347355382 0 0.21179805246051811 0.048866836918511007 0 0.19377095304712411 0.044139315222621392 0 0.18562135436981231 0.057495320904719947 0 0.21179805246051811 0.048866836918511007 0 0.18562135436981231 0.057495320904719947 0 0.2013770802051349 0.067979927987863453 0 0.20431749140528971 0.058682455845167861 0 0.18562135436981231 0.057495320904719947 0 0.20431749140528971 0.058682455845167861 0 0.21179805246051811 0.048866836918511007 0 0.18562135436981231 0.057495320904719947 0 0.18562135436981231 0.057495320904719947 0 0.1822386173389656 0.046452175398458903 0 0.1696689394060131 0.050099290119144033 0 0.18562135436981231 0.057495320904719947 0 0.15944465627910631 0.066123804890928256 0 0.19377095304712411 0.044139315222621392 0 0.18562135436981231 0.057495320904719947 0 0.1822386173389656 0.046452175398458903 0 0.1822386173389656 0.046452175398458903 0 0.17989322253291301 0.034074775347355382 0 0.1696689394060131 0.050099290119144033 0 0.19377095304712411 0.044139315222621392 0 0.1822386173389656 0.046452175398458903 0 0.17989322253291301 0.034074775347355382 0 0.17989322253291301 0.034074775347355382 0 0.1696689394060131 0.050099290119144033 0 0.1696689394060131 0.050099290119144033 0 0.15004873761716181 0.054314792069199633 0 0.15605884899175279 0.034900183338551292 0 0.17989322253291301 0.034074775347355382 0 0.1696689394060131 0.050099290119144033 0 0.15605884899175279 0.034900183338551292 0 0.17989322253291301 0.034074775347355382 0 0.15605884899175279 0.034900183338551292 0 0.17989322253291301 0.034074775347355382 0 0.16726282718832869 0.024860768718606239 0 0.15605884899175279 0.034900183338551292 0 0.18562135436981231 0.057495320904719947 0 0.1696689394060131 0.050099290119144033 0 0.15944465627910631 0.066123804890928256 0 0.1696689394060131 0.050099290119144033 0 0.15944465627910631 0.066123804890928256 0 0.1696689394060131 0.050099290119144033 0 0.15004873761716181 0.054314792069199633 0 0.15944465627910631 0.066123804890928256 0 0.17325987661650349 0.0042648455274535337 0 0.18341751240963211 0.00061568397150330858 0 0.1803122228523833 0.0071207485651375701 0 0.1877429202382668 0.0047149823847660068 0 0.18341751240963211 0.00061568397150330858 0 0.1803122228523833 0.0071207485651375701 0 0.1877429202382668 0.0047149823847660068 0 0.1803122228523833 0.0071207485651375701 0 0.18510279272099431 0.01267940637480801 0 0.1803122228523833 0.0071207485651375701 0 0.18510279272099431 0.01267940637480801 0 0.17473079967751451 0.01563010426622612 0 0.17325987661650349 0.0042648455274535337 0 0.1803122228523833 0.0071207485651375701 0 0.17473079967751451 0.01563010426622612 0 0.1950590076479366 0.0103054465264773 0 0.17989322253291301 0.034074775347355382 0 0.18510279272099431 0.01267940637480801 0 0.17989322253291301 0.034074775347355382 0 0.18510279272099431 0.01267940637480801 0 0.17473079967751451 0.01563010426622612 0 0.17989322253291301 0.034074775347355382 0 0.17473079967751451 0.01563010426622612 0 0.16726282718832869 0.024860768718606239 0 0.1950590076479366 0.0103054465264773 0 0.17989322253291301 0.034074775347355382 0 0.16726282718832869 0.024860768718606239 0 0.14634855098306929 0.024375299632060719 0 0.15605884899175279 0.034900183338551292 0 0.16726282718832869 0.024860768718606239 0 0.16047262651554151 0.01302500793435849 0 0.14634855098306929 0.024375299632060719 0 0.17473079967751451 0.01563010426622612 0 0.16726282718832869 0.024860768718606239 0 0.16047262651554151 0.01302500793435849 0 0.17325987661650349 0.0042648455274535337 0 0.17473079967751451 0.01563010426622612 0 0.16047262651554151 0.01302500793435849 0 0.16047262651554151 0.01302500793435849 0 0.15701690388062359 0.0017519640960013401 0 0.16460404253818639 -0.0005485413642497026 0 0.17325987661650349 0.0042648455274535337 0 0.16047262651554151 0.01302500793435849 0 0.16460404253818639 -0.0005485413642497026 0 0.16047262651554151 0.01302500793435849 0 0.15701690388062359 0.0017519640960013401 0 0.14374347907762411 0.01013166170502392 0 0.16047262651554151 0.01302500793435849 0 0.14374347907762411 0.01013166170502392 0 0.14634855098306929 0.024375299632060719 0 0.14374347907762411 0.01013166170502392 0 0.14634855098306929 0.024375299632060719 0 0.1322244754505929 0.035725591329757708 0 0.16047262651554151 0.01302500793435849 0 0.14634855098306929 0.024375299632060719 0 0.13169583908544269 0.016106768671930841 0 0.12558367300033579 0.022767244629745529 0 0.1282394907641051 0.035863595301175187 0 0.14374347907762411 0.01013166170502392 0 0.13169583908544269 0.016106768671930841 0 0.1282394907641051 0.035863595301175187 0 0.14374347907762411 0.01013166170502392 0 0.1322244754505929 0.035725591329757708 0 0.1282394907641051 0.035863595301175187 0 0.14374347907762411 0.01013166170502392 0 0.1282394907641051 0.035863595301175187 0 0.14634855098306929 0.024375299632060719 0 0.1322244754505929 0.035725591329757708 0 0.12208056491605811 0.014528897861411091 0 0.13169583908544269 0.016106768671930841 0 0.12558367300033579 0.022767244629745529 0 0.14374347907762411 0.01013166170502392 0 0.12949372161206399 0.002034182974538255 0 0.14235702862779581 -0.010108582017845339 0 0.14374347907762411 0.01013166170502392 0 0.13169583908544269 0.016106768671930841 0 0.12949372161206399 0.002034182974538255 0 0.12208056491605811 0.014528897861411091 0 0.13169583908544269 0.016106768671930841 0 0.12949372161206399 0.002034182974538255 0 0.15004873761716181 0.054314792069199633 0 0.14361180325386499 0.062680394774222034 0 0.15944465627910631 0.066123804890928256 0 0.15004873761716181 0.054314792069199633 0 0.1392543977066619 0.045484963639933429 0 0.13503412358221201 0.055830521829783278 0 0.15004873761716181 0.054314792069199633 0 0.13503412358221201 0.055830521829783278 0 0.14361180325386499 0.062680394774222034 0 0.15605884899175279 0.034900183338551292 0 0.1392543977066619 0.045484963639933429 0 0.1322244754505929 0.035725591329757708 0 0.15004873761716181 0.054314792069199633 0 0.15605884899175279 0.034900183338551292 0 0.1392543977066619 0.045484963639933429 0 0.14634855098306929 0.024375299632060719 0 0.15605884899175279 0.034900183338551292 0 0.1322244754505929 0.035725591329757708 0 0.15605884899175279 0.034900183338551292 0 0.1322244754505929 0.035725591329757708 0 0.1392543977066619 0.045484963639933429 0 0.1322244754505929 0.035725591329757708 0 0.13253546081664641 0.043599949341945929 0 0.1392543977066619 0.045484963639933429 0 0.13253546081664641 0.043599949341945929 0 0.13041459778777181 0.048995349532635728 0 0.1322244754505929 0.035725591329757708 0 0.1282394907641051 0.035863595301175187 0 0.12465995933422511 0.041804535348110183 0 0.1322244754505929 0.035725591329757708 0 0.12465995933422511 0.041804535348110183 0 0.1282394907641051 0.035863595301175187 0 0.12465995933422511 0.041804535348110183 0 0.1322244754505929 0.035725591329757708 0 0.12849850991573211 0.039529689355893148 0 0.12465995933422511 0.041804535348110183 0 0.1322244754505929 0.035725591329757708 0 0.1282394907641051 0.035863595301175187 0 0.1322244754505929 0.035725591329757708 0 0.13253546081664641 0.043599949341945929 0 0.12849850991573211 0.039529689355893148 0 0.13253546081664641 0.043599949341945929 0 0.12849850991573211 0.039529689355893148 0 0.13041459778777181 0.048995349532635728 0 0.12849850991573211 0.039529689355893148 0 0.13041459778777181 0.048995349532635728 0 0.12601268130434359 0.05520451676938741 0 0.13041459778777181 0.048995349532635728 0 0.12906006263473471 0.055824255438964777 0 0.12601268130434359 0.05520451676938741 0 0.13041459778777181 0.048995349532635728 0 0.13503412358221201 0.055830521829783278 0 0.12906006263473471 0.055824255438964777 0 0.1392543977066619 0.045484963639933429 0 0.13041459778777181 0.048995349532635728 0 0.13503412358221201 0.055830521829783278 0 0.13503412358221201 0.055830521829783278 0 0.13449203937332399 0.064318515496665785 0 0.14361180325386499 0.062680394774222034 0 0.13503412358221201 0.055830521829783278 0 0.12768778858411331 0.061257316790250732 0 0.13449203937332399 0.064318515496665785 0 0.1223337053199457 0.065203318772059468 0 0.12601268130434359 0.05520451676938741 0 0.12768778858411331 0.061257316790250732 0 0.13503412358221201 0.055830521829783278 0 0.12906006263473471 0.055824255438964777 0 0.12768778858411331 0.061257316790250732 0 0.12906006263473471 0.055824255438964777 0 0.12601268130434359 0.05520451676938741 0 0.12768778858411331 0.061257316790250732 0 0.1223337053199457 0.065203318772059468 0 0.12768778858411331 0.061257316790250732 0 0.1263994410961542 0.069272168535292278 0 0.11725910069042619 0.080029202339642724 0 0.13835187848476629 0.073076503615285796 0 0.12768778858411331 0.061257316790250732 0 0.1263994410961542 0.069272168535292278 0 0.13449203937332399 0.064318515496665785 0 0.11725910069042619 0.080029202339642724 0 0.1263994410961542 0.069272168535292278 0 0.13835187848476629 0.073076503615285796 0 0.13835187848476629 0.073076503615285796 0 0.13449203937332399 0.064318515496665785 0 0.14361180325386499 0.062680394774222034 0 0.1263994410961542 0.069272168535292278 0 0.13835187848476629 0.073076503615285796 0 0.13449203937332399 0.064318515496665785 0 0.14907866011381241 0.08237042644993342 0 0.15944465627910631 0.066123804890928256 0 0.13835187848476629 0.073076503615285796 0 0.14361180325386499 0.062680394774222034 0 0.15944465627910631 0.066123804890928256 0 0.13835187848476629 0.073076503615285796 0 0.15944465627910631 0.066123804890928256 0 0.13835187848476629 0.073076503615285796 0 0.14907866011381241 0.08237042644993342 0 0.15944465627910631 0.066123804890928256 0 0.14907866011381241 0.08237042644993342 0 0.13871266394851919 0.098617048008939057 0 0.14907866011381241 0.08237042644993342 0 0.13871266394851919 0.098617048008939057 0 0.15506804222976281 0.096306136817504218 0 0.14907866011381241 0.08237042644993342 0 0.15506804222976281 0.096306136817504218 0 0.16438417041920289 0.082060716991922342 0 0.13835187848476629 0.073076503615285796 0 0.14907866011381241 0.08237042644993342 0 0.12853839693713259 0.089957381944641202 0 0.11725910069042619 0.080029202339642724 0 0.13835187848476629 0.073076503615285796 0 0.12853839693713259 0.089957381944641202 0 0.14907866011381241 0.08237042644993342 0 0.12853839693713259 0.089957381944641202 0 0.13871266394851919 0.098617048008939057 0 0.13871266394851919 0.098617048008939057 0 0.1264328286530991 0.107947313821514 0 0.13921331553565211 0.1205755020248503 0 0.12853839693713259 0.089957381944641202 0 0.13871266394851919 0.098617048008939057 0 0.1264328286530991 0.107947313821514 0 0.1203304346491972 0.1247311024736667 0 0.1264328286530991 0.107947313821514 0 0.13921331553565211 0.1205755020248503 0 0.15664017861286419 0.12832258981899269 0 0.13921331553565211 0.1205755020248503 0 0.153189523866859 0.11262417085015521 0 0.13871266394851919 0.098617048008939057 0 0.13921331553565211 0.1205755020248503 0 0.153189523866859 0.11262417085015521 0 0.13871266394851919 0.098617048008939057 0 0.153189523866859 0.11262417085015521 0 0.15506804222976281 0.096306136817504218 0 0.15506804222976281 0.096306136817504218 0 0.16484484452891329 0.10815746383915489 0 0.16813103972679269 0.095909878150675434 0 0.153189523866859 0.11262417085015521 0 0.15506804222976281 0.096306136817504218 0 0.16484484452891329 0.10815746383915489 0 0.16484484452891329 0.10815746383915489 0 0.16813103972679269 0.095909878150675434 0 0.17772226318600209 0.1114207973317277 0 0.15664017861286419 0.12832258981899269 0 0.153189523866859 0.11262417085015521 0 0.16877696666127581 0.1222888441805631 0 0.153189523866859 0.11262417085015521 0 0.16484484452891329 0.10815746383915489 0 0.16877696666127581 0.1222888441805631 0 0.16484484452891329 0.10815746383915489 0 0.16877696666127581 0.1222888441805631 0 0.17772226318600209 0.1114207973317277 0 0.18913854688041021 0.1272330631454284 0 0.16877696666127581 0.1222888441805631 0 0.17772226318600209 0.1114207973317277 0 0.18913854688041021 0.1272330631454284 0 0.19183018478479241 0.11337089656159589 0 0.17772226318600209 0.1114207973317277 0 0.16813103972679269 0.095909878150675434 0 0.17772226318600209 0.1114207973317277 0 0.18675213703513241 0.10005460587339381 0 0.19183018478479241 0.11337089656159589 0 0.17772226318600209 0.1114207973317277 0 0.18675213703513241 0.10005460587339381 0 0.18298076287235629 0.084883606134152259 0 0.17622960649025271 0.071659187561066442 0 0.16438417041920289 0.082060716991922342 0 0.16813103972679269 0.095909878150675434 0 0.18675213703513241 0.10005460587339381 0 0.18298076287235629 0.084883606134152259 0 0.18562135436981231 0.057495320904719947 0 0.17622960649025271 0.071659187561066442 0 0.15944465627910631 0.066123804890928256 0 0.1886676301517948 0.072211050940352378 0 0.18298076287235629 0.084883606134152259 0 0.17622960649025271 0.071659187561066442 0 0.1886676301517948 0.072211050940352378 0 0.18562135436981231 0.057495320904719947 0 0.17622960649025271 0.071659187561066442 0 0.17622960649025271 0.071659187561066442 0 0.15944465627910631 0.066123804890928256 0 0.16438417041920289 0.082060716991922342 0 0.14907866011381241 0.08237042644993342 0 0.15944465627910631 0.066123804890928256 0 0.16438417041920289 0.082060716991922342 0 0.16813103972679269 0.095909878150675434 0 0.18298076287235629 0.084883606134152259 0 0.16438417041920289 0.082060716991922342 0 0.15506804222976281 0.096306136817504218 0 0.16813103972679269 0.095909878150675434 0 0.16438417041920289 0.082060716991922342 0 0.096696446932400829 0.48419735378883599 0 0.1063043178267617 0.46625489478651688 0 0.09127407013284855 0.46999686553818493 0 0.096696446932400829 0.48419735378883599 0 0.11332657807219509 0.48020438310970659 0 0.1063043178267617 0.46625489478651688 0 0.096696446932400829 0.48419735378883599 0 0.11666344788485949 0.49173645753724088 0 0.096696446932400829 0.48419735378883599 0 0.11320932187650649 0.5 0 0.086397976856911182 0.4999999999999995 0 0.096696446932400829 0.48419735378883599 0 0.11666344788485949 0.49173645753724088 0 0.11332657807219509 0.48020438310970659 0 0.096696446932400829 0.48419735378883599 0 0.11320932187650649 0.5 0 0.11666344788485949 0.49173645753724088 0 0.11666344788485949 0.49173645753724088 0 0.12090238479645 0.48429117728103271 0 0.11332657807219509 0.48020438310970659 0 0.11320932187650649 0.5 0 0.11666344788485949 0.49173645753724088 0 0.13663044883731831 0.49927556128564571 0 0.11666344788485949 0.49173645753724088 0 0.12713929737233831 0.48772060528617361 0 0.12937830138485501 0.49233267184816393 0 0.11666344788485949 0.49173645753724088 0 0.12090238479645 0.48429117728103271 0 0.12713929737233831 0.48772060528617361 0 0.11332657807219509 0.48020438310970659 0 0.1063043178267617 0.46625489478651688 0 0.12648021585640709 0.47750326319100989 0 0.12090238479645 0.48429117728103271 0 0.11332657807219509 0.48020438310970659 0 0.12648021585640709 0.47750326319100989 0 0.1063043178267617 0.46625489478651688 0 0.12728774723275341 0.46343820621533671 0 0.12648021585640709 0.47750326319100989 0 0.12090238479645 0.48429117728103271 0 0.12648021585640709 0.47750326319100989 0 0.12713929737233831 0.48772060528617361 0 0.1063043178267617 0.46625489478651688 0 0.12648021585640709 0.47750326319100989 0 0.1171160937478397 0.45330540541120767 0 0.1063043178267617 0.46625489478651688 0 0.12728774723275341 0.46343820621533671 0 0.1171160937478397 0.45330540541120767 0 0.1197623529423178 0.44368749188664858 0 0.13473714108801041 0.44759172450604551 0 0.1197623529423178 0.44368749188664858 0 0.11252209743103481 0.43734593136816718 0 0.1232986957980476 0.43521553444175898 0 0.1171160937478397 0.45330540541120767 0 0.1197623529423178 0.44368749188664858 0 0.1111377366466568 0.44497886370606349 0 0.1171160937478397 0.45330540541120767 0 0.1111377366466568 0.44497886370606349 0 0.10224014563976749 0.44998909709657248 0 0.1197623529423178 0.44368749188664858 0 0.1111377366466568 0.44497886370606349 0 0.11252209743103481 0.43734593136816718 0 0.1111377366466568 0.44497886370606349 0 0.1041391275431114 0.44044081645503907 0 0.10224014563976749 0.44998909709657248 0 0.1111377366466568 0.44497886370606349 0 0.1041391275431114 0.44044081645503907 0 0.11252209743103481 0.43734593136816718 0 0.1041391275431114 0.44044081645503907 0 0.10224014563976749 0.44998909709657248 0 0.089080503713446169 0.43800132221766452 0 0.1063043178267617 0.46625489478651688 0 0.08612841979711626 0.45500652638202382 0 0.09127407013284855 0.46999686553818493 0 0.10224014563976749 0.44998909709657248 0 0.1063043178267617 0.46625489478651688 0 0.08612841979711626 0.45500652638202382 0 0.1063043178267617 0.46625489478651688 0 0.08612841979711626 0.45500652638202382 0 0.1171160937478397 0.45330540541120767 0 0.10224014563976749 0.44998909709657248 0 0.1063043178267617 0.46625489478651688 0 0.08612841979711626 0.45500652638202382 0 0.076928933425178994 0.45153971166391199 0 0.076729445979942912 0.47665825004042928 0 0.08612841979711626 0.45500652638202382 0 0.076729445979942912 0.47665825004042928 0 0.09127407013284855 0.46999686553818493 0 0.10224014563976749 0.44998909709657248 0 0.08612841979711626 0.45500652638202382 0 0.089080503713446169 0.43800132221766452 0 0.089080503713446169 0.43800132221766452 0 0.068535899212921636 0.44642049976079179 0 0.089080503713446169 0.43800132221766452 0 0.076928933425178994 0.45153971166391199 0 0.068535899212921636 0.44642049976079179 0 0.08612841979711626 0.45500652638202382 0 0.089080503713446169 0.43800132221766452 0 0.076928933425178994 0.45153971166391199 0 0.068535899212921636 0.44642049976079179 0 0.067564165632249693 0.45453144660900191 0 0.05839888528455367 0.43240464317757571 0 0.067564165632249693 0.45453144660900191 0 0.05839888528455367 0.43240464317757571 0 0.089080503713446169 0.43800132221766452 0 0.068535899212921636 0.44642049976079179 0 0.07497090782234328 0.43284708895321389 0 0.076928933425178994 0.45153971166391199 0 0.068535899212921636 0.44642049976079179 0 0.067564165632249693 0.45453144660900191 0 0.076928933425178994 0.45153971166391199 0 0.067564165632249693 0.45453144660900191 0 0.076729445979942912 0.47665825004042928 0 0.067564165632249693 0.45453144660900191 0 0.076729445979942912 0.47665825004042928 0 0.067564165632249693 0.45453144660900191 0 0.076729445979942912 0.47665825004042928 0 0.049791795726759278 0.46648718126147259 0 0.076729445979942912 0.47665825004042928 0 0.049791795726759278 0.46648718126147259 0 0.096696446932400829 0.48419735378883599 0 0.076729445979942912 0.47665825004042928 0 0.09127407013284855 0.46999686553818493 0 0.096696446932400829 0.48419735378883599 0 0.076729445979942912 0.47665825004042928 0 0.076729445979942912 0.47665825004042928 0 0.086397976856911182 0.4999999999999995 0 0.096696446932400829 0.48419735378883599 0 0.076729445979942912 0.47665825004042928 0 0.086397976856911182 0.4999999999999995 0 0.076729445979942912 0.47665825004042928 0 0.086397976856911182 0.4999999999999995 0 0.059245573952601223 0.5 0 0.076729445979942912 0.47665825004042928 0 0.059245573952601223 0.5 0 0.049791795726759278 0.46648718126147259 0 0.059245573952601223 0.5 0 0.03479790773613195 0.48122464563623218 0 0.049791795726759278 0.46648718126147259 0 0.059245573952601223 0.5 0 0.03479790773613195 0.48122464563623218 0 0.032093171048291243 0.5 0 0.032093171048291243 0.5 0 0.017871664807832879 0.48945747188852212 0 0.0049407681439812556 0.5 0 0.03479790773613195 0.48122464563623218 0 0.032093171048291243 0.5 0 0.017871664807832879 0.48945747188852212 0 0.03479790773613195 0.48122464563623218 0 0.01559742940131773 0.47616395292796831 0 0.0228541454735764 0.45631611248251402 0 0.03479790773613195 0.48122464563623218 0 0.017871664807832879 0.48945747188852212 0 0.01559742940131773 0.47616395292796831 0 -0.002061053709250524 0.46811537839715339 0 -3.8602638893346641e-05 0.490085713090751 0 0.01559742940131773 0.47616395292796831 0 -3.8602638893346641e-05 0.490085713090751 0 0.017871664807832879 0.48945747188852212 0 0.0049407681439812556 0.5 0 -3.8602638893346641e-05 0.490085713090751 0 0.017871664807832879 0.48945747188852212 0 0.01559742940131773 0.47616395292796831 0 -0.0040835047796066171 0.44614504370355579 0 0.01551371448277244 0.44401266367615988 0 0.0228541454735764 0.45631611248251402 0 -0.0040835047796066171 0.44614504370355579 0 0.01551371448277244 0.44401266367615988 0 0.0068076146682195778 0.43247067270718242 0 -0.0040835047796066171 0.44614504370355579 0 0.0228541454735764 0.45631611248251402 0 0.01551371448277244 0.44401266367615988 0 0.019727242113877969 0.43624642068844899 0 0.0068076146682195778 0.43247067270718242 0 0.01559742940131773 0.47616395292796831 0 0.0080767540965092904 0.46168512187779781 0 0.0228541454735764 0.45631611248251402 0 -0.0040835047796066171 0.44614504370355579 0 0.0080767540965092904 0.46168512187779781 0 0.0228541454735764 0.45631611248251402 0 -0.002061053709250524 0.46811537839715339 0 -0.0040835047796066171 0.44614504370355579 0 0.0080767540965092904 0.46168512187779781 0 -0.002061053709250524 0.46811537839715339 0 0.01559742940131773 0.47616395292796831 0 0.0080767540965092904 0.46168512187779781 0 0.0228541454735764 0.45631611248251402 0 0.026990687199519699 0.45041241567007267 0 0.043353371551326438 0.45141130910033073 0 0.01551371448277244 0.44401266367615988 0 0.0228541454735764 0.45631611248251402 0 0.026990687199519699 0.45041241567007267 0 0.01551371448277244 0.44401266367615988 0 0.026990687199519699 0.45041241567007267 0 0.019727242113877969 0.43624642068844899 0 0.026990687199519699 0.45041241567007267 0 0.019727242113877969 0.43624642068844899 0 0.01551371448277244 0.44401266367615988 0 0.019727242113877969 0.43624642068844899 0 0.026990687199519699 0.45041241567007267 0 0.02921235614812941 0.43937195023677228 0 0.019727242113877969 0.43624642068844899 0 0.026990687199519699 0.45041241567007267 0 0.02921235614812941 0.43937195023677228 0 0.034705667278949769 0.44426778630267488 0 0.026990687199519699 0.45041241567007267 0 0.034705667278949769 0.44426778630267488 0 0.043353371551326438 0.45141130910033073 0 0.02921235614812941 0.43937195023677228 0 0.034705667278949769 0.44426778630267488 0 0.039266254216823511 0.43587547020352368 0 0.034705667278949769 0.44426778630267488 0 0.043353371551326438 0.45141130910033073 0 0.039266254216823511 0.43587547020352368 0 0.03479790773613195 0.48122464563623218 0 0.0228541454735764 0.45631611248251402 0 0.049791795726759278 0.46648718126147259 0 0.0228541454735764 0.45631611248251402 0 0.049791795726759278 0.46648718126147259 0 0.0228541454735764 0.45631611248251402 0 0.043353371551326438 0.45141130910033073 0 0.049791795726759278 0.46648718126147259 0 0.067564165632249693 0.45453144660900191 0 0.043353371551326438 0.45141130910033073 0 0.049791795726759278 0.46648718126147259 0 0.043353371551326438 0.45141130910033073 0 0.05839888528455367 0.43240464317757571 0 0.039266254216823511 0.43587547020352368 0 0.067564165632249693 0.45453144660900191 0 0.043353371551326438 0.45141130910033073 0 0.05839888528455367 0.43240464317757571 0 0.05839888528455367 0.43240464317757571 0 0.049233604936860617 0.41027783974614829 0 0.066889063351314226 0.42497869897282869 0 0.05839888528455367 0.43240464317757571 0 0.049233604936860617 0.41027783974614829 0 0.042056436093164243 0.42265434715294192 0 0.05839888528455367 0.43240464317757571 0 0.049233604936860617 0.41027783974614829 0 0.049233604936860617 0.41027783974614829 0 0.075621864915423026 0.41783965507471321 0 0.035890765279037021 0.40645431786432529 0 0.042056436093164243 0.42265434715294192 0 0.02780900369645711 0.42135036927638692 0 0.049233604936860617 0.41027783974614829 0 0.035890765279037021 0.40645431786432529 0 0.042056436093164243 0.42265434715294192 0 0.049233604936860617 0.41027783974614829 0 0.035890765279037021 0.40645431786432529 0 0.035890765279037021 0.40645431786432529 0 0.02780900369645711 0.42135036927638692 0 0.02921235614812941 0.43937195023677228 0 0.039266254216823511 0.43587547020352368 0 0.02780900369645711 0.42135036927638692 0 0.05839888528455367 0.43240464317757571 0 0.039266254216823511 0.43587547020352368 0 0.042056436093164243 0.42265434715294192 0 0.039266254216823511 0.43587547020352368 0 0.042056436093164243 0.42265434715294192 0 0.02780900369645711 0.42135036927638692 0 0.02921235614812941 0.43937195023677228 0 0.019727242113877969 0.43624642068844899 0 0.02780900369645711 0.42135036927638692 0 0.019727242113877969 0.43624642068844899 0 0.02780900369645711 0.42135036927638692 0 0.0093819848751835241 0.41606992587103159 0 0.019727242113877969 0.43624642068844899 0 0.02780900369645711 0.42135036927638692 0 0.035890765279037021 0.40645431786432529 0 0.02780900369645711 0.42135036927638692 0 0.017463746457762431 0.40117387445896913 0 0.02780900369645711 0.42135036927638692 0 0.0093819848751835241 0.41606992587103159 0 0.017463746457762431 0.40117387445896913 0 -0.00096327236351288715 0.3958934310536153 0 -0.0012936573118222481 0.40743927955417442 0 0.0093819848751835241 0.41606992587103159 0 -0.0065013633511284028 0.41987930959671688 0 -0.0012936573118222481 0.40743927955417442 0 0.0093819848751835241 0.41606992587103159 0 0.019727242113877969 0.43624642068844899 0 0.0093819848751835241 0.41606992587103159 0 0.0068076146682195778 0.43247067270718242 0 0.019727242113877969 0.43624642068844899 0 0.0093819848751835241 0.41606992587103159 0 -0.0065013633511284028 0.41987930959671688 0 0.0093819848751835241 0.41606992587103159 0 0.0068076146682195778 0.43247067270718242 0 -0.0031329232034019191 0.39166193173788189 0 0.019886647886446601 0.38748110019764709 0 -0.0003215519375964703 0.38162524250019381 0 0.0079972642859068212 0.3767752310385345 0 0.019886647886446601 0.38748110019764709 0 -0.0031329232034019191 0.39166193173788189 0 -0.0003215519375964703 0.38162524250019381 0 0.019886647886446601 0.38748110019764709 0 0.0079972642859068212 0.3767752310385345 0 0.019886647886446601 0.38748110019764709 0 0.01796441292455413 0.37213832508766859 0 -0.0022610491863152291 0.37261641259158551 0 -0.0003215519375964703 0.38162524250019381 0 0.0079972642859068212 0.3767752310385345 0 -0.00096327236351288715 0.3958934310536153 0 -0.0031329232034019191 0.39166193173788189 0 0.019886647886446601 0.38748110019764709 0 -0.00096327236351288715 0.3958934310536153 0 0.0093819848751835241 0.41606992587103159 0 -0.00096327236351288715 0.3958934310536153 0 0.017463746457762431 0.40117387445896913 0 0.019886647886446601 0.38748110019764709 0 -0.00096327236351288715 0.3958934310536153 0 0.017463746457762431 0.40117387445896913 0 -0.00096327236351288715 0.3958934310536153 0 0.0093819848751835241 0.41606992587103159 0 0.017463746457762431 0.40117387445896913 0 0.035890765279037021 0.40645431786432529 0 0.017463746457762431 0.40117387445896913 0 0.035890765279037021 0.40645431786432529 0 0.017463746457762431 0.40117387445896913 0 0.02978494331225293 0.39350912604748312 0 0.017463746457762431 0.40117387445896913 0 0.02978494331225293 0.39350912604748312 0 0.019886647886446601 0.38748110019764709 0 0.02978494331225293 0.39350912604748312 0 0.019886647886446601 0.38748110019764709 0 0.032498838744847207 0.36987679712069449 0 0.019886647886446601 0.38748110019764709 0 0.032498838744847207 0.36987679712069449 0 0.01796441292455413 0.37213832508766859 0 0.042558909505041688 0.39416380196644912 0 0.04800257401321277 0.38413020897373362 0 0.032498838744847207 0.36987679712069449 0 0.02978494331225293 0.39350912604748312 0 0.042558909505041688 0.39416380196644912 0 0.032498838744847207 0.36987679712069449 0 0.042558909505041688 0.39416380196644912 0 0.032498838744847207 0.36987679712069449 0 0.042558909505041688 0.39416380196644912 0 0.04800257401321277 0.38413020897373362 0 0.04800257401321277 0.38413020897373362 0 0.032498838744847207 0.36987679712069449 0 0.049233604936860617 0.41027783974614829 0 0.035890765279037021 0.40645431786432529 0 0.042558909505041688 0.39416380196644912 0 0.049233604936860617 0.41027783974614829 0 0.042558909505041688 0.39416380196644912 0 0.035890765279037021 0.40645431786432529 0 0.02978494331225293 0.39350912604748312 0 0.042558909505041688 0.39416380196644912 0 0.035890765279037021 0.40645431786432529 0 0.042558909505041688 0.39416380196644912 0 0.049233604936860617 0.41027783974614829 0 0.042558909505041688 0.39416380196644912 0 0.061203948254273541 0.3962669373702673 0 0.049233604936860617 0.41027783974614829 0 0.061203948254273541 0.3962669373702673 0 0.07440532249533359 0.40840366576680182 0 0.042558909505041688 0.39416380196644912 0 0.061203948254273541 0.3962669373702673 0 0.04800257401321277 0.38413020897373362 0 0.061203948254273541 0.3962669373702673 0 0.04800257401321277 0.38413020897373362 0 0.066959459858531453 0.37832585956228182 0 0.061203948254273541 0.3962669373702673 0 0.04800257401321277 0.38413020897373362 0 0.061203948254273541 0.3962669373702673 0 0.066959459858531453 0.37832585956228182 0 0.075611051802076487 0.3938440985547626 0 0.066959459858531453 0.37832585956228182 0 0.092045129464531431 0.38246867794663147 0 0.075611051802076487 0.3938440985547626 0 0.092045129464531431 0.38246867794663147 0 0.085890452518236876 0.40291211708462549 0 0.075611051802076487 0.3938440985547626 0 0.092045129464531431 0.38246867794663147 0 0.085890452518236876 0.40291211708462549 0 0.1008351188392515 0.40602541131058428 0 0.085890452518236876 0.40291211708462549 0 0.075611051802076487 0.3938440985547626 0 0.07440532249533359 0.40840366576680182 0 0.061203948254273541 0.3962669373702673 0 0.075611051802076487 0.3938440985547626 0 0.07440532249533359 0.40840366576680182 0 0.061203948254273541 0.3962669373702673 0 0.07440532249533359 0.40840366576680182 0 0.049233604936860617 0.41027783974614829 0 0.075621864915423026 0.41783965507471321 0 0.07440532249533359 0.40840366576680182 0 0.049233604936860617 0.41027783974614829 0 0.075621864915423026 0.41783965507471321 0 0.066889063351314226 0.42497869897282869 0 0.075621864915423026 0.41783965507471321 0 0.07440532249533359 0.40840366576680182 0 0.08147117855703484 0.41093177805527509 0 0.068535899212921636 0.44642049976079179 0 0.05839888528455367 0.43240464317757571 0 0.07497090782234328 0.43284708895321389 0 0.05839888528455367 0.43240464317757571 0 0.066889063351314226 0.42497869897282869 0 0.07497090782234328 0.43284708895321389 0 0.066889063351314226 0.42497869897282869 0 0.075755844917966872 0.42580388746407771 0 0.07497090782234328 0.43284708895321389 0 0.075621864915423026 0.41783965507471321 0 0.066889063351314226 0.42497869897282869 0 0.075755844917966872 0.42580388746407771 0 0.075621864915423026 0.41783965507471321 0 0.085541543582786969 0.42755010685555489 0 0.10201012489398389 0.42540147040328302 0 0.089080503713446169 0.43800132221766452 0 0.07497090782234328 0.43284708895321389 0 0.085541543582786969 0.42755010685555489 0 0.075755844917966872 0.42580388746407771 0 0.07497090782234328 0.43284708895321389 0 0.085541543582786969 0.42755010685555489 0 0.075621864915423026 0.41783965507471321 0 0.075755844917966872 0.42580388746407771 0 0.085541543582786969 0.42755010685555489 0 0.089080503713446169 0.43800132221766452 0 0.085541543582786969 0.42755010685555489 0 0.093881239170122852 0.42999376820418622 0 0.075621864915423026 0.41783965507471321 0 0.089967074299145924 0.41457167429496011 0 0.10201012489398389 0.42540147040328302 0 0.075621864915423026 0.41783965507471321 0 0.10201012489398389 0.42540147040328302 0 0.085890452518236876 0.40291211708462549 0 0.08147117855703484 0.41093177805527509 0 0.089967074299145924 0.41457167429496011 0 0.085890452518236876 0.40291211708462549 0 0.07440532249533359 0.40840366576680182 0 0.08147117855703484 0.41093177805527509 0 0.075621864915423026 0.41783965507471321 0 0.08147117855703484 0.41093177805527509 0 0.089967074299145924 0.41457167429496011 0 0.085890452518236876 0.40291211708462549 0 0.089967074299145924 0.41457167429496011 0 0.1008351188392515 0.40602541131058428 0 0.089967074299145924 0.41457167429496011 0 0.10201012489398389 0.42540147040328302 0 0.1008351188392515 0.40602541131058428 0 0.1096251082139706 0.42958214467453731 0 0.1008351188392515 0.40602541131058428 0 0.1096251082139706 0.42958214467453731 0 0.1158238455507597 0.41127905075886489 0 0.1008351188392515 0.40602541131058428 0 0.10201012489398389 0.42540147040328302 0 0.1096251082139706 0.42958214467453731 0 0.1008351188392515 0.40602541131058428 0 0.089080503713446169 0.43800132221766452 0 0.093881239170122852 0.42999376820418622 0 0.1096251082139706 0.42958214467453731 0 0.085541543582786969 0.42755010685555489 0 0.10201012489398389 0.42540147040328302 0 0.093881239170122852 0.42999376820418622 0 0.1041391275431114 0.44044081645503907 0 0.089080503713446169 0.43800132221766452 0 0.1096251082139706 0.42958214467453731 0 0.10201012489398389 0.42540147040328302 0 0.093881239170122852 0.42999376820418622 0 0.1096251082139706 0.42958214467453731 0 0.089080503713446169 0.43800132221766452 0 0.1096251082139706 0.42958214467453731 0 0.1041391275431114 0.44044081645503907 0 0.11252209743103481 0.43734593136816718 0 0.1096251082139706 0.42958214467453731 0 0.11252209743103481 0.43734593136816718 0 0.1096251082139706 0.42958214467453731 0 0.1232986957980476 0.43521553444175898 0 0.11252209743103481 0.43734593136816718 0 0.1096251082139706 0.42958214467453731 0 0.1096251082139706 0.42958214467453731 0 0.1243074460390626 0.4235653236208895 0 0.1096251082139706 0.42958214467453731 0 0.1243074460390626 0.4235653236208895 0 0.1232986957980476 0.43521553444175898 0 0.1096251082139706 0.42958214467453731 0 0.1243074460390626 0.4235653236208895 0 0.1158238455507597 0.41127905075886489 0 0.1243074460390626 0.4235653236208895 0 0.1158238455507597 0.41127905075886489 0 0.1276841851987448 0.41159992525274541 0 0.1158238455507597 0.41127905075886489 0 0.1220472729044056 0.40053948004037793 0 0.1276841851987448 0.41159992525274541 0 0.1220472729044056 0.40053948004037793 0 0.1097547069561213 0.39539721125921129 0 0.1145578543537481 0.38191162087736968 0 0.1158238455507597 0.41127905075886489 0 0.1220472729044056 0.40053948004037793 0 0.1097547069561213 0.39539721125921129 0 0.1220472729044056 0.40053948004037793 0 0.1145578543537481 0.38191162087736968 0 0.13414541565828941 0.38804756129226192 0 0.092045129464531431 0.38246867794663147 0 0.1097547069561213 0.39539721125921129 0 0.1145578543537481 0.38191162087736968 0 0.092045129464531431 0.38246867794663147 0 0.1145578543537481 0.38191162087736968 0 0.1038627260752653 0.36541770830114811 0 0.092045129464531431 0.38246867794663147 0 0.1097547069561213 0.39539721125921129 0 0.1008351188392515 0.40602541131058428 0 0.092045129464531431 0.38246867794663147 0 0.1008351188392515 0.40602541131058428 0 0.1158238455507597 0.41127905075886489 0 0.1097547069561213 0.39539721125921129 0 0.1008351188392515 0.40602541131058428 0 0.097978827271064786 0.35124698854519609 0 0.1038627260752653 0.36541770830114811 0 0.083255140089811303 0.35891194458267872 0 0.097978827271064786 0.35124698854519609 0 0.1038627260752653 0.36541770830114811 0 0.1102709175506927 0.35330093111031369 0 0.097978827271064786 0.35124698854519609 0 0.1102709175506927 0.35330093111031369 0 0.10676142006133341 0.34156706287575112 0 0.1038627260752653 0.36541770830114811 0 0.1239569692541571 0.36256503670992252 0 0.1102709175506927 0.35330093111031369 0 0.1145578543537481 0.38191162087736968 0 0.1239569692541571 0.36256503670992252 0 0.12758607288106619 0.3763797749985775 0 0.1145578543537481 0.38191162087736968 0 0.1038627260752653 0.36541770830114811 0 0.1239569692541571 0.36256503670992252 0 0.1239569692541571 0.36256503670992252 0 0.1102709175506927 0.35330093111031369 0 0.1212080119051053 0.34611313826537721 0 0.1102709175506927 0.35330093111031369 0 0.1212080119051053 0.34611313826537721 0 0.10676142006133341 0.34156706287575112 0 0.1154515910518593 0.33325136419885831 0 0.11414460126541311 0.31608548941914238 0 0.13268076497723921 0.33578641585607688 0 0.1212080119051053 0.34611313826537721 0 0.1154515910518593 0.33325136419885831 0 0.13268076497723921 0.33578641585607688 0 0.1212080119051053 0.34611313826537721 0 0.1154515910518593 0.33325136419885831 0 0.10676142006133341 0.34156706287575112 0 0.1154515910518593 0.33325136419885831 0 0.11414460126541311 0.31608548941914238 0 0.1018797200364966 0.32639713687698352 0 0.11414460126541311 0.31608548941914238 0 0.13268076497723921 0.33578641585607688 0 0.1018797200364966 0.32639713687698352 0 0.099313247500886742 0.31376116351994021 0 0.08503679413434137 0.31586988710046682 0 0.11414460126541311 0.31608548941914238 0 0.1018797200364966 0.32639713687698352 0 0.099313247500886742 0.31376116351994021 0 0.1018797200364966 0.32639713687698352 0 0.10676142006133341 0.34156706287575112 0 0.090570666205145672 0.33784785414774238 0 0.097978827271064786 0.35124698854519609 0 0.10676142006133341 0.34156706287575112 0 0.090570666205145672 0.33784785414774238 0 0.1154515910518593 0.33325136419885831 0 0.1018797200364966 0.32639713687698352 0 0.10676142006133341 0.34156706287575112 0 0.090570666205145672 0.33784785414774238 0 0.08503679413434137 0.31586988710046682 0 0.0744651507150937 0.33535521121872491 0 0.1018797200364966 0.32639713687698352 0 0.090570666205145672 0.33784785414774238 0 0.08503679413434137 0.31586988710046682 0 0.08503679413434137 0.31586988710046682 0 0.0744651507150937 0.33535521121872491 0 0.08503679413434137 0.31586988710046682 0 0.069132397407420665 0.32106369817937919 0 0.075424394526301397 0.30956036994577307 0 0.069132397407420665 0.32106369817937919 0 0.059434355578294393 0.32579716193140301 0 0.063799644099750391 0.30677218514003252 0 0.08503679413434137 0.31586988710046682 0 0.069132397407420665 0.32106369817937919 0 0.0744651507150937 0.33535521121872491 0 0.069132397407420665 0.32106369817937919 0 0.0744651507150937 0.33535521121872491 0 0.059434355578294393 0.32579716193140301 0 0.069132397407420665 0.32106369817937919 0 0.063799644099750391 0.30677218514003252 0 0.069132397407420665 0.32106369817937919 0 0.0744651507150937 0.33535521121872491 0 0.0744651507150937 0.33535521121872491 0 0.061233862364153943 0.35974271009622949 0 0.0744651507150937 0.33535521121872491 0 0.083255140089811303 0.35891194458267872 0 0.061233862364153943 0.35974271009622949 0 0.0744651507150937 0.33535521121872491 0 0.083255140089811303 0.35891194458267872 0 0.097978827271064786 0.35124698854519609 0 0.090570666205145672 0.33784785414774238 0 0.083255140089811303 0.35891194458267872 0 0.090570666205145672 0.33784785414774238 0 0.0744651507150937 0.33535521121872491 0 0.083255140089811303 0.35891194458267872 0 0.066959459858531453 0.37832585956228182 0 0.092045129464531431 0.38246867794663147 0 0.083255140089811303 0.35891194458267872 0 0.092045129464531431 0.38246867794663147 0 0.083255140089811303 0.35891194458267872 0 0.092045129464531431 0.38246867794663147 0 0.1038627260752653 0.36541770830114811 0 0.083255140089811303 0.35891194458267872 0 0.066959459858531453 0.37832585956228182 0 0.083255140089811303 0.35891194458267872 0 0.061233862364153943 0.35974271009622949 0 0.04800257401321277 0.38413020897373362 0 0.061233862364153943 0.35974271009622949 0 0.04800257401321277 0.38413020897373362 0 0.066959459858531453 0.37832585956228182 0 0.061233862364153943 0.35974271009622949 0 0.04800257401321277 0.38413020897373362 0 0.061233862364153943 0.35974271009622949 0 0.043850863660092297 0.35861439145339369 0 0.0744651507150937 0.33535521121872491 0 0.061233862364153943 0.35974271009622949 0 0.051182321745953309 0.34377049042666041 0 0.061233862364153943 0.35974271009622949 0 0.051182321745953309 0.34377049042666041 0 0.043850863660092297 0.35861439145339369 0 0.043850863660092297 0.35861439145339369 0 0.025184851263051158 0.35221938161672961 0 0.035115613037759133 0.33855469731466481 0 0.051182321745953309 0.34377049042666041 0 0.043850863660092297 0.35861439145339369 0 0.035115613037759133 0.33855469731466481 0 0.04800257401321277 0.38413020897373362 0 0.043850863660092297 0.35861439145339369 0 0.032498838744847207 0.36987679712069449 0 0.043850863660092297 0.35861439145339369 0 0.032498838744847207 0.36987679712069449 0 0.025184851263051158 0.35221938161672961 0 0.032498838744847207 0.36987679712069449 0 0.025184851263051158 0.35221938161672961 0 0.032498838744847207 0.36987679712069449 0 0.025184851263051158 0.35221938161672961 0 0.0180127426592245 0.35655895531824899 0 0.032498838744847207 0.36987679712069449 0 0.01796441292455413 0.37213832508766859 0 0.0180127426592245 0.35655895531824899 0 0.032498838744847207 0.36987679712069449 0 0.0180127426592245 0.35655895531824899 0 0.025184851263051158 0.35221938161672961 0 0.016263427337622129 0.34557128611005572 0 0.017870863781255832 0.33456196611276429 0 0.025184851263051158 0.35221938161672961 0 0.016263427337622129 0.34557128611005572 0 0.0180127426592245 0.35655895531824899 0 0.0180127426592245 0.35655895531824899 0 0.0038867047330880238 0.35524624533010579 0 0.007254115786227873 0.36571902611812762 0 0.0180127426592245 0.35655895531824899 0 0.0038867047330880238 0.35524624533010579 0 0.00352664657360207 0.34324111351580311 0 0.0180127426592245 0.35655895531824899 0 0.00352664657360207 0.34324111351580311 0 0.016263427337622129 0.34557128611005572 0 0.0180127426592245 0.35655895531824899 0 0.00352664657360207 0.34324111351580311 0 -0.0067863524078850606 0.34948112208733911 0 0.0038867047330880238 0.35524624533010579 0 0.00352664657360207 0.34324111351580311 0 -0.0022610491863152291 0.37261641259158551 0 -0.0025736289457283651 0.36123100961101179 0 0.007254115786227873 0.36571902611812762 0 -0.0025736289457283651 0.36123100961101179 0 0.0038867047330880238 0.35524624533010579 0 0.007254115786227873 0.36571902611812762 0 -0.0022610491863152291 0.37261641259158551 0 0.0079972642859068212 0.3767752310385345 0 0.007254115786227873 0.36571902611812762 0 0.0079972642859068212 0.3767752310385345 0 0.01796441292455413 0.37213832508766859 0 0.007254115786227873 0.36571902611812762 0 0.01796441292455413 0.37213832508766859 0 0.0180127426592245 0.35655895531824899 0 0.007254115786227873 0.36571902611812762 0 0.017870863781255832 0.33456196611276429 0 0.0086143971113345399 0.31221502082522212 0 0.00091402235172630131 0.33084807145628131 0 0.017870863781255832 0.33456196611276429 0 0.0086143971113345399 0.31221502082522212 0 0.00091402235172630131 0.33084807145628131 0 0.0086143971113345399 0.31221502082522212 0 0.00091402235172630131 0.33084807145628131 0 0.00352664657360207 0.34324111351580311 0 0.017870863781255832 0.33456196611276429 0 0.00352664657360207 0.34324111351580311 0 0.017870863781255832 0.33456196611276429 0 0.016263427337622129 0.34557128611005572 0 0.00352664657360207 0.34324111351580311 0 0.017870863781255832 0.33456196611276429 0 0.025184851263051158 0.35221938161672961 0 0.017870863781255832 0.33456196611276429 0 0.035115613037759133 0.33855469731466481 0 0.017870863781255832 0.33456196611276429 0 0.038592263923252351 0.32202422469221692 0 0.035115613037759133 0.33855469731466481 0 0.017870863781255832 0.33456196611276429 0 0.038592263923252351 0.32202422469221692 0 0.025184851263051158 0.35221938161672961 0 0.017870863781255832 0.33456196611276429 0 0.022980227842280349 0.319614097240636 0 0.038592263923252351 0.32202422469221692 0 0.02866362898786309 0.30487492031840541 0 0.017870863781255832 0.33456196611276429 0 0.022980227842280349 0.319614097240636 0 0.038592263923252351 0.32202422469221692 0 0.017870863781255832 0.33456196611276429 0 0.022980227842280349 0.319614097240636 0 0.0086143971113345399 0.31221502082522212 0 0.038592263923252351 0.32202422469221692 0 0.02866362898786309 0.30487492031840541 0 0.051182321745953309 0.34377049042666041 0 0.038592263923252351 0.32202422469221692 0 0.035115613037759133 0.33855469731466481 0 0.051182321745953309 0.34377049042666041 0 0.038592263923252351 0.32202422469221692 0 0.051182321745953309 0.34377049042666041 0 0.038592263923252351 0.32202422469221692 0 0.059434355578294393 0.32579716193140301 0 0.0744651507150937 0.33535521121872491 0 0.051182321745953309 0.34377049042666041 0 0.059434355578294393 0.32579716193140301 0 0.038592263923252351 0.32202422469221692 0 0.059434355578294393 0.32579716193140301 0 0.063799644099750391 0.30677218514003252 0 0.038592263923252351 0.32202422469221692 0 0.063799644099750391 0.30677218514003252 0 0.05613541062484069 0.2862324214712883 0 0.04483801592569444 0.30071651047264458 0 0.063799644099750391 0.30677218514003252 0 0.038592263923252351 0.32202422469221692 0 0.04483801592569444 0.30071651047264458 0 0.063799644099750391 0.30677218514003252 0 0.05613541062484069 0.2862324214712883 0 0.06730297635764973 0.29130671779500122 0 0.063799644099750391 0.30677218514003252 0 0.05613541062484069 0.2862324214712883 0 0.063799644099750391 0.30677218514003252 0 0.036999131992765659 0.28367880074127999 0 0.04483801592569444 0.30071651047264458 0 0.02866362898786309 0.30487492031840541 0 0.05613541062484069 0.2862324214712883 0 0.036999131992765659 0.28367880074127999 0 0.04483801592569444 0.30071651047264458 0 0.038592263923252351 0.32202422469221692 0 0.04483801592569444 0.30071651047264458 0 0.02866362898786309 0.30487492031840541 0 0.022980227842280349 0.319614097240636 0 0.02866362898786309 0.30487492031840541 0 0.0086143971113345399 0.31221502082522212 0 0.02866362898786309 0.30487492031840541 0 0.018734994052468899 0.28772561594459672 0 0.0086143971113345399 0.31221502082522212 0 0.02866362898786309 0.30487492031840541 0 0.018734994052468899 0.28772561594459672 0 0.036999131992765659 0.28367880074127999 0 0.018734994052468899 0.28772561594459672 0 0.024872730113757291 0.27287377426671289 0 0.036999131992765659 0.28367880074127999 0 0.02866362898786309 0.30487492031840541 0 0.018734994052468899 0.28772561594459672 0 0.018734994052468899 0.28772561594459672 0 0.0082839095925191421 0.28704540641996401 0 0.0086143971113345399 0.31221502082522212 0 -0.002156139922442863 0.28621280957184281 0 0.0082839095925191421 0.28704540641996401 0 0.0086143971113345399 0.31221502082522212 0 0.018734994052468899 0.28772561594459672 0 0.0082839095925191421 0.28704540641996401 0 0.0097340122638434421 0.27217860697903701 0 -0.002156139922442863 0.28621280957184281 0 0.0082839095925191421 0.28704540641996401 0 0.0031113325240992242 0.27793868923660842 0 0.018734994052468899 0.28772561594459672 0 0.0086143971113345399 0.31221502082522212 0 -0.002156139922442863 0.28621280957184281 0 0.0086143971113345399 0.31221502082522212 0 -0.00011193775520391721 0.25517212070728618 0 0.012014597693893601 0.25908525535204852 0 0.0097340122638434421 0.27217860697903701 0 -0.00011193775520391721 0.25517212070728618 0 0.0011902785683393809 0.26692144956961572 0 0.0097340122638434421 0.27217860697903701 0 -0.00011193775520391721 0.25517212070728618 0 0.0097340122638434421 0.27217860697903701 0 -0.00011193775520391721 0.25517212070728618 0 0.013952484265132001 0.24694206511524761 0 0.012014597693893601 0.25908525535204852 0 0.0011902785683393809 0.26692144956961572 0 0.0031113325240992242 0.27793868923660842 0 0.0097340122638434421 0.27217860697903701 0 -0.003274538635535746 0.26908299884594111 0 0.0011902785683393809 0.26692144956961572 0 0.0031113325240992242 0.27793868923660842 0 0.0082839095925191421 0.28704540641996401 0 0.0031113325240992242 0.27793868923660842 0 0.0097340122638434421 0.27217860697903701 0 0.0031113325240992242 0.27793868923660842 0 0.0097340122638434421 0.27217860697903701 0 0.018734994052468899 0.28772561594459672 0 0.0097340122638434421 0.27217860697903701 0 0.0097340122638434421 0.27217860697903701 0 0.024872730113757291 0.27287377426671289 0 0.025270477969434019 0.25866575055641922 0 0.018734994052468899 0.28772561594459672 0 0.0097340122638434421 0.27217860697903701 0 0.024872730113757291 0.27287377426671289 0 0.018734994052468899 0.28772561594459672 0 0.024872730113757291 0.27287377426671289 0 0.024872730113757291 0.27287377426671289 0 0.025270477969434019 0.25866575055641922 0 0.03554415797816747 0.26575576479619101 0 0.0097340122638434421 0.27217860697903701 0 0.025270477969434019 0.25866575055641922 0 0.012014597693893601 0.25908525535204852 0 0.0097340122638434421 0.27217860697903701 0 0.025270477969434019 0.25866575055641922 0 0.013952484265132001 0.24694206511524761 0 0.012014597693893601 0.25908525535204852 0 0.025270477969434019 0.25866575055641922 0 0.040806943675022668 0.2451528941337994 0 0.025270477969434019 0.25866575055641922 0 0.040806943675022668 0.2451528941337994 0 0.04847117714993119 0.26569265780254397 0 0.040806943675022668 0.2451528941337994 0 0.03554415797816747 0.26575576479619101 0 0.04847117714993119 0.26569265780254397 0 0.040806943675022668 0.2451528941337994 0 0.025270477969434019 0.25866575055641922 0 0.03554415797816747 0.26575576479619101 0 0.036999131992765659 0.28367880074127999 0 0.03554415797816747 0.26575576479619101 0 0.04847117714993119 0.26569265780254397 0 0.036999131992765659 0.28367880074127999 0 0.024872730113757291 0.27287377426671289 0 0.03554415797816747 0.26575576479619101 0 0.05613541062484069 0.2862324214712883 0 0.036999131992765659 0.28367880074127999 0 0.04847117714993119 0.26569265780254397 0 0.05613541062484069 0.2862324214712883 0 0.04847117714993119 0.26569265780254397 0 0.05613541062484069 0.2862324214712883 0 0.04847117714993119 0.26569265780254397 0 0.059807976988982423 0.2701524220334004 0 0.040806943675022668 0.2451528941337994 0 0.04847117714993119 0.26569265780254397 0 0.057971352645957361 0.25638246478144561 0 0.04847117714993119 0.26569265780254397 0 0.059807976988982423 0.2701524220334004 0 0.057971352645957361 0.25638246478144561 0 0.072094824325247012 0.24298574325024011 0 0.07055512108881401 0.25663230586822711 0 0.080502269182564701 0.26054306283585799 0 0.072094824325247012 0.24298574325024011 0 0.057971352645957361 0.25638246478144561 0 0.07055512108881401 0.25663230586822711 0 0.057971352645957361 0.25638246478144561 0 0.07055512108881401 0.25663230586822711 0 0.07413425448563872 0.27356099994661592 0 0.057971352645957361 0.25638246478144561 0 0.07413425448563872 0.27356099994661592 0 0.07055512108881401 0.25663230586822711 0 0.080502269182564701 0.26054306283585799 0 0.07413425448563872 0.27356099994661592 0 0.10545751563756051 0.2452700731161146 0 0.080502269182564701 0.26054306283585799 0 0.10545751563756051 0.2452700731161146 0 0.080502269182564701 0.26054306283585799 0 0.094681962602013586 0.26409526653738818 0 0.080502269182564701 0.26054306283585799 0 0.083301471710416894 0.26963323564358133 0 0.094681962602013586 0.26409526653738818 0 0.086884887683759612 0.27751909053826418 0 0.07413425448563872 0.27356099994661592 0 0.090297156325320649 0.29073953511178552 0 0.086884887683759612 0.27751909053826418 0 0.092275535052204483 0.27339339048718431 0 0.083301471710416894 0.26963323564358133 0 0.086884887683759612 0.27751909053826418 0 0.092275535052204483 0.27339339048718431 0 0.095258613078755106 0.2803348478174274 0 0.092275535052204483 0.27339339048718431 0 0.083301471710416894 0.26963323564358133 0 0.094681962602013586 0.26409526653738818 0 0.080502269182564701 0.26054306283585799 0 0.083301471710416894 0.26963323564358133 0 0.07413425448563872 0.27356099994661592 0 0.086884887683759612 0.27751909053826418 0 0.083301471710416894 0.26963323564358133 0 0.07413425448563872 0.27356099994661592 0 0.05613541062484069 0.2862324214712883 0 0.059807976988982423 0.2701524220334004 0 0.07413425448563872 0.27356099994661592 0 0.059807976988982423 0.2701524220334004 0 0.057971352645957361 0.25638246478144561 0 0.07413425448563872 0.27356099994661592 0 0.07413425448563872 0.27356099994661592 0 0.06730297635764973 0.29130671779500122 0 0.077195696845285738 0.28859077824482759 0 0.05613541062484069 0.2862324214712883 0 0.07413425448563872 0.27356099994661592 0 0.06730297635764973 0.29130671779500122 0 0.06730297635764973 0.29130671779500122 0 0.077195696845285738 0.28859077824482759 0 0.077048400212534507 0.29875586012590732 0 0.069132397407420665 0.32106369817937919 0 0.063799644099750391 0.30677218514003252 0 0.075424394526301397 0.30956036994577307 0 0.06730297635764973 0.29130671779500122 0 0.063799644099750391 0.30677218514003252 0 0.077048400212534507 0.29875586012590732 0 0.063799644099750391 0.30677218514003252 0 0.077048400212534507 0.29875586012590732 0 0.063799644099750391 0.30677218514003252 0 0.077048400212534507 0.29875586012590732 0 0.075424394526301397 0.30956036994577307 0 0.08503679413434137 0.31586988710046682 0 0.095608437553587111 0.29638456298220772 0 0.099313247500886742 0.31376116351994021 0 0.08503679413434137 0.31586988710046682 0 0.095608437553587111 0.29638456298220772 0 0.08503679413434137 0.31586988710046682 0 0.084579904559498612 0.30238517009842231 0 0.095608437553587111 0.29638456298220772 0 0.08503679413434137 0.31586988710046682 0 0.075424394526301397 0.30956036994577307 0 0.084579904559498612 0.30238517009842231 0 0.077048400212534507 0.29875586012590732 0 0.084579904559498612 0.30238517009842231 0 0.090297156325320649 0.29073953511178552 0 0.077048400212534507 0.29875586012590732 0 0.075424394526301397 0.30956036994577307 0 0.084579904559498612 0.30238517009842231 0 0.07413425448563872 0.27356099994661592 0 0.077195696845285738 0.28859077824482759 0 0.090297156325320649 0.29073953511178552 0 0.07413425448563872 0.27356099994661592 0 0.090297156325320649 0.29073953511178552 0 0.077195696845285738 0.28859077824482759 0 0.077048400212534507 0.29875586012590732 0 0.090297156325320649 0.29073953511178552 0 0.077048400212534507 0.29875586012590732 0 0.090297156325320649 0.29073953511178552 0 0.084579904559498612 0.30238517009842231 0 0.090297156325320649 0.29073953511178552 0 0.095608437553587111 0.29638456298220772 0 0.090297156325320649 0.29073953511178552 0 0.095608437553587111 0.29638456298220772 0 0.086884887683759612 0.27751909053826418 0 0.090297156325320649 0.29073953511178552 0 0.095258613078755106 0.2803348478174274 0 0.090297156325320649 0.29073953511178552 0 0.10426408678202261 0.28228866975978212 0 0.095258613078755106 0.2803348478174274 0 0.090297156325320649 0.29073953511178552 0 0.10123849351844159 0.28600741905779231 0 0.10426408678202261 0.28228866975978212 0 0.090297156325320649 0.29073953511178552 0 0.10426408678202261 0.28228866975978212 0 0.10123849351844159 0.28600741905779231 0 0.095608437553587111 0.29638456298220772 0 0.090297156325320649 0.29073953511178552 0 0.10123849351844159 0.28600741905779231 0 0.095608437553587111 0.29638456298220772 0 0.10123849351844159 0.28600741905779231 0 0.095608437553587111 0.29638456298220772 0 0.1048510527441073 0.29181685163230281 0 0.095608437553587111 0.29638456298220772 0 0.1048510527441073 0.29181685163230281 0 0.11090319642742121 0.29965402709623179 0 0.1048510527441073 0.29181685163230281 0 0.11090319642742121 0.29965402709623179 0 0.1111975709322898 0.29099508384681438 0 0.1048510527441073 0.29181685163230281 0 0.1065410753755414 0.28695908693913041 0 0.1111975709322898 0.29099508384681438 0 0.1065410753755414 0.28695908693913041 0 0.10426408678202261 0.28228866975978212 0 0.1111541729008457 0.28368741039896012 0 0.10123849351844159 0.28600741905779231 0 0.1065410753755414 0.28695908693913041 0 0.10426408678202261 0.28228866975978212 0 0.10123849351844159 0.28600741905779231 0 0.1048510527441073 0.29181685163230281 0 0.1065410753755414 0.28695908693913041 0 0.11414460126541311 0.31608548941914238 0 0.095608437553587111 0.29638456298220772 0 0.11090319642742121 0.29965402709623179 0 0.11414460126541311 0.31608548941914238 0 0.099313247500886742 0.31376116351994021 0 0.095608437553587111 0.29638456298220772 0 0.11414460126541311 0.31608548941914238 0 0.095608437553587111 0.29638456298220772 0 0.11414460126541311 0.31608548941914238 0 0.11090319642742121 0.29965402709623179 0 0.1210940480051229 0.30579383670915999 0 0.11414460126541311 0.31608548941914238 0 0.1210940480051229 0.30579383670915999 0 0.1321706120052151 0.31404044484211607 0 0.11090319642742121 0.29965402709623179 0 0.1210940480051229 0.30579383670915999 0 0.1190597037317566 0.29540502060785512 0 0.1210940480051229 0.30579383670915999 0 0.1190597037317566 0.29540502060785512 0 0.1302645979313071 0.30089756682063712 0 0.1111541729008457 0.28368741039896012 0 0.1176616956721364 0.28752489705226381 0 0.11819631683411801 0.27936412308828662 0 0.1111541729008457 0.28368741039896012 0 0.1111975709322898 0.29099508384681438 0 0.1176616956721364 0.28752489705226381 0 0.1065410753755414 0.28695908693913041 0 0.1111541729008457 0.28368741039896012 0 0.1111975709322898 0.29099508384681438 0 0.11090319642742121 0.29965402709623179 0 0.1111975709322898 0.29099508384681438 0 0.1190597037317566 0.29540502060785512 0 0.1111975709322898 0.29099508384681438 0 0.1190597037317566 0.29540502060785512 0 0.1176616956721364 0.28752489705226381 0 0.1190597037317566 0.29540502060785512 0 0.1176616956721364 0.28752489705226381 0 0.12588048394205831 0.28716004849339077 0 0.1176616956721364 0.28752489705226381 0 0.11819631683411801 0.27936412308828662 0 0.12588048394205831 0.28716004849339077 0 0.11819631683411801 0.27936412308828662 0 0.12778380402316081 0.27437256958898981 0 0.12588048394205831 0.28716004849339077 0 0.1111541729008457 0.28368741039896012 0 0.11819631683411801 0.27936412308828662 0 0.10911533789695629 0.27485200072376509 0 0.11819631683411801 0.27936412308828662 0 0.12072715279974409 0.26590334666468191 0 0.10911533789695629 0.27485200072376509 0 0.12072715279974409 0.26590334666468191 0 0.1069910892756698 0.26327797680191728 0 0.10911533789695629 0.27485200072376509 0 0.11819631683411801 0.27936412308828662 0 0.12072715279974409 0.26590334666468191 0 0.12778380402316081 0.27437256958898981 0 0.10545751563756051 0.2452700731161146 0 0.1160549920306749 0.25618582435885612 0 0.1069910892756698 0.26327797680191728 0 0.10545751563756051 0.2452700731161146 0 0.1160549920306749 0.25618582435885612 0 0.13104421040972539 0.25029190085271041 0 0.12072715279974409 0.26590334666468191 0 0.1160549920306749 0.25618582435885612 0 0.13104421040972539 0.25029190085271041 0 0.12072715279974409 0.26590334666468191 0 0.1160549920306749 0.25618582435885612 0 0.1069910892756698 0.26327797680191728 0 0.10545751563756051 0.2452700731161146 0 0.1069910892756698 0.26327797680191728 0 0.094681962602013586 0.26409526653738818 0 0.1069910892756698 0.26327797680191728 0 0.094681962602013586 0.26409526653738818 0 0.1004064869872023 0.27252041665494742 0 0.092275535052204483 0.27339339048718431 0 0.094681962602013586 0.26409526653738818 0 0.1004064869872023 0.27252041665494742 0 0.10426408678202261 0.28228866975978212 0 0.1004064869872023 0.27252041665494742 0 0.095258613078755106 0.2803348478174274 0 0.092275535052204483 0.27339339048718431 0 0.1004064869872023 0.27252041665494742 0 0.095258613078755106 0.2803348478174274 0 0.10426408678202261 0.28228866975978212 0 0.1111541729008457 0.28368741039896012 0 0.10911533789695629 0.27485200072376509 0 0.10426408678202261 0.28228866975978212 0 0.1004064869872023 0.27252041665494742 0 0.10911533789695629 0.27485200072376509 0 0.1069910892756698 0.26327797680191728 0 0.1004064869872023 0.27252041665494742 0 0.10911533789695629 0.27485200072376509 0 0.1431962725516141 0.27589639743647992 0 0.1485957997311865 0.26118077987326987 0 0.15892298346897701 0.2741976670357445 0 0.1431962725516141 0.27589639743647992 0 0.1566419310728914 0.28518151245389861 0 0.15892298346897701 0.2741976670357445 0 0.1431962725516141 0.27589639743647992 0 0.1485957997311865 0.26118077987326987 0 0.1346207411442692 0.26488572446027758 0 0.15071771210549029 0.24461282216283159 0 0.1485957997311865 0.26118077987326987 0 0.1612294229183229 0.25215473193171262 0 0.15071771210549029 0.24461282216283159 0 0.1485957997311865 0.26118077987326987 0 0.13104421040972539 0.25029190085271041 0 0.1485957997311865 0.26118077987326987 0 0.1346207411442692 0.26488572446027758 0 0.13104421040972539 0.25029190085271041 0 0.12072715279974409 0.26590334666468191 0 0.1346207411442692 0.26488572446027758 0 0.13104421040972539 0.25029190085271041 0 0.12072715279974409 0.26590334666468191 0 0.1346207411442692 0.26488572446027758 0 0.12778380402316081 0.27437256958898981 0 0.1431962725516141 0.27589639743647992 0 0.1346207411442692 0.26488572446027758 0 0.12778380402316081 0.27437256958898981 0 0.1431962725516141 0.27589639743647992 0 0.12778380402316081 0.27437256958898981 0 0.1343547155295555 0.28201854753760802 0 0.12778380402316081 0.27437256958898981 0 0.12588048394205831 0.28716004849339077 0 0.1343547155295555 0.28201854753760802 0 0.1431962725516141 0.27589639743647992 0 0.1406046967664886 0.29171448804856248 0 0.1343547155295555 0.28201854753760802 0 0.1190597037317566 0.29540502060785512 0 0.12588048394205831 0.28716004849339077 0 0.1302645979313071 0.30089756682063712 0 0.12588048394205831 0.28716004849339077 0 0.1406046967664886 0.29171448804856248 0 0.1302645979313071 0.30089756682063712 0 0.12588048394205831 0.28716004849339077 0 0.1406046967664886 0.29171448804856248 0 0.1343547155295555 0.28201854753760802 0 0.1406046967664886 0.29171448804856248 0 0.1302645979313071 0.30089756682063712 0 0.1432203842930255 0.30889376213021352 0 0.1210940480051229 0.30579383670915999 0 0.1302645979313071 0.30089756682063712 0 0.1321706120052151 0.31404044484211607 0 0.1302645979313071 0.30089756682063712 0 0.1432203842930255 0.30889376213021352 0 0.1321706120052151 0.31404044484211607 0 0.1406046967664886 0.29171448804856248 0 0.1432203842930255 0.30889376213021352 0 0.15621369265645291 0.30064743119871501 0 0.1432203842930255 0.30889376213021352 0 0.15621369265645291 0.30064743119871501 0 0.1538965106352306 0.31567953555468231 0 0.1406046967664886 0.29171448804856248 0 0.15621369265645291 0.30064743119871501 0 0.1566419310728914 0.28518151245389861 0 0.1431962725516141 0.27589639743647992 0 0.1406046967664886 0.29171448804856248 0 0.1566419310728914 0.28518151245389861 0 0.15621369265645291 0.30064743119871501 0 0.1566419310728914 0.28518151245389861 0 0.171994080905681 0.29446369215904589 0 0.1566419310728914 0.28518151245389861 0 0.171994080905681 0.29446369215904589 0 0.1713266361235877 0.28078381451879642 0 0.15621369265645291 0.30064743119871501 0 0.17031192932677949 0.30750312645375433 0 0.171994080905681 0.29446369215904589 0 0.15621369265645291 0.30064743119871501 0 0.17031192932677949 0.30750312645375433 0 0.1538965106352306 0.31567953555468231 0 0.17031192932677949 0.30750312645375433 0 0.171994080905681 0.29446369215904589 0 0.1908053331268614 0.30726266579130201 0 0.171994080905681 0.29446369215904589 0 0.18367708738974481 0.28820303350379328 0 0.1908053331268614 0.30726266579130201 0 0.18367708738974481 0.28820303350379328 0 0.18293748198990589 0.27762640490574142 0 0.1713266361235877 0.28078381451879642 0 0.171994080905681 0.29446369215904589 0 0.18367708738974481 0.28820303350379328 0 0.1713266361235877 0.28078381451879642 0 0.18367708738974481 0.28820303350379328 0 0.18293748198990589 0.27762640490574142 0 0.19093085486711961 0.28326960003169199 0 0.18293748198990589 0.27762640490574142 0 0.17481425108543641 0.26755930545998091 0 0.20103270243968629 0.27393783104669178 0 0.18293748198990589 0.27762640490574142 0 0.17481425108543641 0.26755930545998091 0 0.1713266361235877 0.28078381451879642 0 0.17481425108543641 0.26755930545998091 0 0.1713266361235877 0.28078381451879642 0 0.15892298346897701 0.2741976670357445 0 0.1485957997311865 0.26118077987326987 0 0.17481425108543641 0.26755930545998091 0 0.15892298346897701 0.2741976670357445 0 0.1566419310728914 0.28518151245389861 0 0.1713266361235877 0.28078381451879642 0 0.15892298346897701 0.2741976670357445 0 0.1485957997311865 0.26118077987326987 0 0.17481425108543641 0.26755930545998091 0 0.16806458839946559 0.26483555366159389 0 0.17346433219837201 0.2490561251177594 0 0.1612294229183229 0.25215473193171262 0 0.16806458839946559 0.26483555366159389 0 0.1485957997311865 0.26118077987326987 0 0.1612294229183229 0.25215473193171262 0 0.16806458839946559 0.26483555366159389 0 0.1485957997311865 0.26118077987326987 0 0.17481425108543641 0.26755930545998091 0 0.17346433219837201 0.2490561251177594 0 0.16806458839946559 0.26483555366159389 0 0.17346433219837201 0.2490561251177594 0 0.16806458839946559 0.26483555366159389 0 0.174965653596965 0.25926398527842109 0 0.17346433219837201 0.2490561251177594 0 0.174965653596965 0.25926398527842109 0 0.18351944270458609 0.25560495687435042 0 0.17481425108543641 0.26755930545998091 0 0.18351944270458609 0.25560495687435042 0 0.19330128812519001 0.26205714023550891 0 0.17481425108543641 0.26755930545998091 0 0.174965653596965 0.25926398527842109 0 0.18351944270458609 0.25560495687435042 0 0.17481425108543641 0.26755930545998091 0 0.16806458839946559 0.26483555366159389 0 0.174965653596965 0.25926398527842109 0 0.19567631166618171 0.24868361965321409 0 0.19330128812519001 0.26205714023550891 0 0.21146373273005931 0.26449998814330772 0 0.19567631166618171 0.24868361965321409 0 0.18351944270458609 0.25560495687435042 0 0.19330128812519001 0.26205714023550891 0 0.17481425108543641 0.26755930545998091 0 0.19330128812519001 0.26205714023550891 0 0.20103270243968629 0.27393783104669178 0 0.17481425108543641 0.26755930545998091 0 0.20103270243968629 0.27393783104669178 0 0.19330128812519001 0.26205714023550891 0 0.20103270243968629 0.27393783104669178 0 0.21146373273005931 0.26449998814330772 0 0.18293748198990589 0.27762640490574142 0 0.20103270243968629 0.27393783104669178 0 0.19093085486711961 0.28326960003169199 0 0.20103270243968629 0.27393783104669178 0 0.2272511537939364 0.28031635663340182 0 0.20103270243968629 0.27393783104669178 0 0.2272511537939364 0.28031635663340182 0 0.21619755331927451 0.28646167621434188 0 0.20103270243968629 0.27393783104669178 0 0.21146373273005931 0.26449998814330772 0 0.2272511537939364 0.28031635663340182 0 0.19567631166618171 0.24868361965321409 0 0.21146373273005931 0.26449998814330772 0 0.19567631166618171 0.24868361965321409 0 0.21146373273005931 0.26449998814330772 0 0.21119012336489751 0.25003357208248039 0 0.21146373273005931 0.26449998814330772 0 0.21119012336489751 0.25003357208248039 0 0.22219887874936009 0.25618338730180168 0 0.23181179839812269 0.24939482838876889 0 0.22219887874936009 0.25618338730180168 0 0.23470490458720211 0.26560127542334999 0 0.22219887874936009 0.25618338730180168 0 0.22530514365118781 0.26812630649660701 0 0.23470490458720211 0.26560127542334999 0 0.21146373273005931 0.26449998814330772 0 0.22219887874936009 0.25618338730180168 0 0.22530514365118781 0.26812630649660701 0 0.21146373273005931 0.26449998814330772 0 0.22530514365118781 0.26812630649660701 0 0.2272511537939364 0.28031635663340182 0 0.21146373273005931 0.26449998814330772 0 0.2272511537939364 0.28031635663340182 0 0.22530514365118781 0.26812630649660701 0 0.2272511537939364 0.28031635663340182 0 0.2315481429484311 0.2737830724170201 0 0.2272511537939364 0.28031635663340182 0 0.2315481429484311 0.2737830724170201 0 0.2321709283831371 0.28151325829910617 0 0.2272511537939364 0.28031635663340182 0 0.2321709283831371 0.28151325829910617 0 0.2315481429484311 0.2737830724170201 0 0.23758987453413749 0.27569957009790103 0 0.2321709283831371 0.28151325829910617 0 0.22530514365118781 0.26812630649660701 0 0.2315481429484311 0.2737830724170201 0 0.23470490458720211 0.26560127542334999 0 0.2315481429484311 0.2737830724170201 0 0.23758987453413749 0.27569957009790103 0 0.23470490458720211 0.26560127542334999 0 0.23758987453413749 0.27569957009790103 0 0.2455931460095116 0.27451234785533479 0 0.23470490458720211 0.26560127542334999 0 0.2455931460095116 0.27451234785533479 0 0.23470490458720211 0.26560127542334999 0 0.25182038173936289 0.25864808758374469 0 0.23758987453413749 0.27569957009790103 0 0.24393225074240549 0.28308789649469418 0 0.2321709283831371 0.28151325829910617 0 0.23758987453413749 0.27569957009790103 0 0.2455931460095116 0.27451234785533479 0 0.24393225074240549 0.28308789649469418 0 0.2455931460095116 0.27451234785533479 0 0.24393225074240549 0.28308789649469418 0 0.25774423003420349 0.2835411811175198 0 0.23181179839812269 0.24939482838876889 0 0.23470490458720211 0.26560127542334999 0 0.25182038173936289 0.25864808758374469 0 0.24582725503917749 0.29892651856011748 0 0.23007804193002621 0.3173585302149452 0 0.25245296772897541 0.31468716816282799 0 0.2272511537939364 0.28031635663340182 0 0.24582725503917749 0.29892651856011748 0 0.24582725503917749 0.29892651856011748 0 0.24393225074240549 0.28308789649469418 0 0.25774423003420349 0.2835411811175198 0 0.2272511537939364 0.28031635663340182 0 0.24582725503917749 0.29892651856011748 0 0.2321709283831371 0.28151325829910617 0 0.24582725503917749 0.29892651856011748 0 0.24393225074240549 0.28308789649469418 0 0.2321709283831371 0.28151325829910617 0 0.2272511537939364 0.28031635663340182 0 0.24582725503917749 0.29892651856011748 0 0.22704506231795579 0.29909820333124482 0 0.2272511537939364 0.28031635663340182 0 0.22704506231795579 0.29909820333124482 0 0.21619755331927451 0.28646167621434188 0 0.24582725503917749 0.29892651856011748 0 0.22704506231795579 0.29909820333124482 0 0.23007804193002621 0.3173585302149452 0 0.22704506231795579 0.29909820333124482 0 0.2074592734756612 0.31895572959350399 0 0.23007804193002621 0.3173585302149452 0 0.22704506231795579 0.29909820333124482 0 0.20946129472551969 0.29249431384602942 0 0.2074592734756612 0.31895572959350399 0 0.20946129472551969 0.29249431384602942 0 0.2074592734756612 0.31895572959350399 0 0.22704506231795579 0.29909820333124482 0 0.20946129472551969 0.29249431384602942 0 0.21619755331927451 0.28646167621434188 0 0.20103270243968629 0.27393783104669178 0 0.20946129472551969 0.29249431384602942 0 0.21619755331927451 0.28646167621434188 0 0.20103270243968629 0.27393783104669178 0 0.19584325168408651 0.29219762540538152 0 0.19093085486711961 0.28326960003169199 0 0.20103270243968629 0.27393783104669178 0 0.20946129472551969 0.29249431384602942 0 0.19584325168408651 0.29219762540538152 0 0.18367708738974481 0.28820303350379328 0 0.19584325168408651 0.29219762540538152 0 0.1908053331268614 0.30726266579130201 0 0.18367708738974481 0.28820303350379328 0 0.19584325168408651 0.29219762540538152 0 0.19093085486711961 0.28326960003169199 0 0.20946129472551969 0.29249431384602942 0 0.1908053331268614 0.30726266579130201 0 0.2074592734756612 0.31895572959350399 0 0.20946129472551969 0.29249431384602942 0 0.19584325168408651 0.29219762540538152 0 0.1908053331268614 0.30726266579130201 0 0.1908053331268614 0.30726266579130201 0 0.2074592734756612 0.31895572959350399 0 0.1852938161397964 0.32473507817040942 0 0.2074592734756612 0.31895572959350399 0 0.20545725222580269 0.34541714534097862 0 0.1852938161397964 0.32473507817040942 0 0.20545725222580269 0.34541714534097862 0 0.1866508797863104 0.3430058305387057 0 0.1852938161397964 0.32473507817040942 0 0.2074592734756612 0.31895572959350399 0 0.22582233288054629 0.33931531487169247 0 0.20545725222580269 0.34541714534097862 0 0.2074592734756612 0.31895572959350399 0 0.20545725222580269 0.34541714534097862 0 0.2074592734756612 0.31895572959350399 0 0.23007804193002621 0.3173585302149452 0 0.22582233288054629 0.33931531487169247 0 0.23007804193002621 0.3173585302149452 0 0.22582233288054629 0.33931531487169247 0 0.2425230565035123 0.32904592114860032 0 0.2425230565035123 0.32904592114860032 0 0.2433754256795507 0.34410848734255323 0 0.25990355827748302 0.33285036939989648 0 0.22582233288054629 0.33931531487169247 0 0.2425230565035123 0.32904592114860032 0 0.2433754256795507 0.34410848734255323 0 0.23007804193002621 0.3173585302149452 0 0.2425230565035123 0.32904592114860032 0 0.25245296772897541 0.31468716816282799 0 0.23731827409842349 0.36028116931913579 0 0.25683323939467417 0.35321666106040112 0 0.2521892630791473 0.37140998668179731 0 0.23731827409842349 0.36028116931913579 0 0.22715334715129601 0.37970698952223869 0 0.2521892630791473 0.37140998668179731 0 0.22582233288054629 0.33931531487169247 0 0.23731827409842349 0.36028116931913579 0 0.2433754256795507 0.34410848734255323 0 0.23731827409842349 0.36028116931913579 0 0.2433754256795507 0.34410848734255323 0 0.25683323939467417 0.35321666106040112 0 0.23731827409842349 0.36028116931913579 0 0.25683323939467417 0.35321666106040112 0 0.22582233288054629 0.33931531487169247 0 0.23731827409842349 0.36028116931913579 0 0.2192955099850519 0.35894400697454221 0 0.23731827409842349 0.36028116931913579 0 0.2192955099850519 0.35894400697454221 0 0.22715334715129601 0.37970698952223869 0 0.2192955099850519 0.35894400697454221 0 0.20345523097594431 0.37187856108845319 0 0.22715334715129601 0.37970698952223869 0 0.20345523097594431 0.37187856108845319 0 0.20545725222580269 0.34541714534097862 0 0.22582233288054629 0.33931531487169247 0 0.2192955099850519 0.35894400697454221 0 0.20545725222580269 0.34541714534097862 0 0.2192955099850519 0.35894400697454221 0 0.20345523097594431 0.37187856108845319 0 0.20545725222580269 0.34541714534097862 0 0.20545725222580269 0.34541714534097862 0 0.18609955508064799 0.36674179809991497 0 0.1866508797863104 0.3430058305387057 0 0.20345523097594431 0.37187856108845319 0 0.20545725222580269 0.34541714534097862 0 0.18609955508064799 0.36674179809991497 0 0.18609955508064799 0.36674179809991497 0 0.16975997021235861 0.36033785470583363 0 0.1705990333306189 0.37608736631484291 0 0.18609955508064799 0.36674179809991497 0 0.16975997021235861 0.36033785470583363 0 0.17561643316102499 0.3528168884900944 0 0.16975997021235861 0.36033785470583363 0 0.15121692868906619 0.35548734229301049 0 0.1705990333306189 0.37608736631484291 0 0.15767663496248779 0.36954437956281072 0 0.15121692868906619 0.35548734229301049 0 0.1705990333306189 0.37608736631484291 0 0.15121692868906619 0.35548734229301049 0 0.1705990333306189 0.37608736631484291 0 0.16975997021235861 0.36033785470583363 0 0.1652679008004346 0.35055587833130541 0 0.15121692868906619 0.35548734229301049 0 0.1652679008004346 0.35055587833130541 0 0.15579462514265419 0.340833890151297 0 0.15121692868906619 0.35548734229301049 0 0.16975997021235861 0.36033785470583363 0 0.1652679008004346 0.35055587833130541 0 0.17561643316102499 0.3528168884900944 0 0.1652679008004346 0.35055587833130541 0 0.17561643316102499 0.3528168884900944 0 0.1686733988291447 0.3377185917162171 0 0.17561643316102499 0.3528168884900944 0 0.1866508797863104 0.3430058305387057 0 0.1686733988291447 0.3377185917162171 0 0.18609955508064799 0.36674179809991497 0 0.17561643316102499 0.3528168884900944 0 0.1866508797863104 0.3430058305387057 0 0.1866508797863104 0.3430058305387057 0 0.1852938161397964 0.32473507817040942 0 0.1686733988291447 0.3377185917162171 0 0.1852938161397964 0.32473507817040942 0 0.16660978021835771 0.32286952182932682 0 0.1686733988291447 0.3377185917162171 0 0.17031192932677949 0.30750312645375433 0 0.1852938161397964 0.32473507817040942 0 0.16660978021835771 0.32286952182932682 0 0.17031192932677949 0.30750312645375433 0 0.1908053331268614 0.30726266579130201 0 0.1852938161397964 0.32473507817040942 0 0.17031192932677949 0.30750312645375433 0 0.16660978021835771 0.32286952182932682 0 0.1538965106352306 0.31567953555468231 0 0.16660978021835771 0.32286952182932682 0 0.15487324616083711 0.32871127725157129 0 0.1538965106352306 0.31567953555468231 0 0.16660978021835771 0.32286952182932682 0 0.1686733988291447 0.3377185917162171 0 0.15487324616083711 0.32871127725157129 0 0.1686733988291447 0.3377185917162171 0 0.15579462514265419 0.340833890151297 0 0.15487324616083711 0.32871127725157129 0 0.1652679008004346 0.35055587833130541 0 0.1686733988291447 0.3377185917162171 0 0.15579462514265419 0.340833890151297 0 0.14169377034714131 0.33476389356756298 0 0.13268076497723921 0.33578641585607688 0 0.15121692868906619 0.35548734229301049 0 0.15579462514265419 0.340833890151297 0 0.14169377034714131 0.33476389356756298 0 0.15121692868906619 0.35548734229301049 0 0.15579462514265419 0.340833890151297 0 0.15487324616083711 0.32871127725157129 0 0.14169377034714131 0.33476389356756298 0 0.15487324616083711 0.32871127725157129 0 0.1538965106352306 0.31567953555468231 0 0.14518968359067499 0.32060467921175251 0 0.15487324616083711 0.32871127725157129 0 0.14169377034714131 0.33476389356756298 0 0.14518968359067499 0.32060467921175251 0 0.1432203842930255 0.30889376213021352 0 0.1538965106352306 0.31567953555468231 0 0.14518968359067499 0.32060467921175251 0 0.11414460126541311 0.31608548941914238 0 0.1321706120052151 0.31404044484211607 0 0.13268076497723921 0.33578641585607688 0 0.14169377034714131 0.33476389356756298 0 0.1321706120052151 0.31404044484211607 0 0.14169377034714131 0.33476389356756298 0 0.14518968359067499 0.32060467921175251 0 0.1321706120052151 0.31404044484211607 0 0.1432203842930255 0.30889376213021352 0 0.14518968359067499 0.32060467921175251 0 0.1321706120052151 0.31404044484211607 0 0.14169377034714131 0.33476389356756298 0 0.1321706120052151 0.31404044484211607 0 0.13268076497723921 0.33578641585607688 0 0.13268076497723921 0.33578641585607688 0 0.1341490470949013 0.352084717428233 0 0.15121692868906619 0.35548734229301049 0 0.1239569692541571 0.36256503670992252 0 0.1341490470949013 0.352084717428233 0 0.14150580771197119 0.36123210013072549 0 0.1239569692541571 0.36256503670992252 0 0.1212080119051053 0.34611313826537721 0 0.1341490470949013 0.352084717428233 0 0.1212080119051053 0.34611313826537721 0 0.13268076497723921 0.33578641585607688 0 0.1341490470949013 0.352084717428233 0 0.1239569692541571 0.36256503670992252 0 0.13898817294888891 0.37311011477327499 0 0.14150580771197119 0.36123210013072549 0 0.1239569692541571 0.36256503670992252 0 0.13898817294888891 0.37311011477327499 0 0.12758607288106619 0.3763797749985775 0 0.15767663496248779 0.36954437956281072 0 0.13898817294888891 0.37311011477327499 0 0.14150580771197119 0.36123210013072549 0 0.15767663496248779 0.36954437956281072 0 0.13898817294888891 0.37311011477327499 0 0.14969645972015619 0.38172430309587418 0 0.15767663496248779 0.36954437956281072 0 0.14150580771197119 0.36123210013072549 0 0.15121692868906619 0.35548734229301049 0 0.15767663496248779 0.36954437956281072 0 0.15121692868906619 0.35548734229301049 0 0.14169377034714131 0.33476389356756298 0 0.15121692868906619 0.35548734229301049 0 0.1341490470949013 0.352084717428233 0 0.14150580771197119 0.36123210013072549 0 0.15121692868906619 0.35548734229301049 0 0.13268076497723921 0.33578641585607688 0 0.15121692868906619 0.35548734229301049 0 0.15172304704879039 0.39856197474400812 0 0.14969645972015619 0.38172430309587418 0 0.13414541565828941 0.38804756129226192 0 0.15172304704879039 0.39856197474400812 0 0.14969645972015619 0.38172430309587418 0 0.1578045356328433 0.39034634935044021 0 0.13898817294888891 0.37311011477327499 0 0.14969645972015619 0.38172430309587418 0 0.13414541565828941 0.38804756129226192 0 0.1145578543537481 0.38191162087736968 0 0.13414541565828941 0.38804756129226192 0 0.12758607288106619 0.3763797749985775 0 0.13898817294888891 0.37311011477327499 0 0.13414541565828941 0.38804756129226192 0 0.12758607288106619 0.3763797749985775 0 0.1220472729044056 0.40053948004037793 0 0.13414541565828941 0.38804756129226192 0 0.13587410732933791 0.40313765248666478 0 0.15172304704879039 0.39856197474400812 0 0.13414541565828941 0.38804756129226192 0 0.13587410732933791 0.40313765248666478 0 0.1220472729044056 0.40053948004037793 0 0.13587410732933791 0.40313765248666478 0 0.1276841851987448 0.41159992525274541 0 0.1243074460390626 0.4235653236208895 0 0.13898978386415459 0.41754850256724169 0 0.1243074460390626 0.4235653236208895 0 0.1276841851987448 0.41159992525274541 0 0.13898978386415459 0.41754850256724169 0 0.13587410732933791 0.40313765248666478 0 0.1276841851987448 0.41159992525274541 0 0.13898978386415459 0.41754850256724169 0 0.1243074460390626 0.4235653236208895 0 0.1232986957980476 0.43521553444175898 0 0.13775391949354901 0.43048251473236793 0 0.1243074460390626 0.4235653236208895 0 0.13898978386415459 0.41754850256724169 0 0.13775391949354901 0.43048251473236793 0 0.13775391949354901 0.43048251473236793 0 0.15480896332433769 0.4212224763429232 0 0.15633117735431551 0.43795793436307001 0 0.13898978386415459 0.41754850256724169 0 0.13775391949354901 0.43048251473236793 0 0.15480896332433769 0.4212224763429232 0 0.15172304704879039 0.39856197474400812 0 0.13587410732933791 0.40313765248666478 0 0.13898978386415459 0.41754850256724169 0 0.15172304704879039 0.39856197474400812 0 0.13898978386415459 0.41754850256724169 0 0.15480896332433769 0.4212224763429232 0 0.15480896332433769 0.4212224763429232 0 0.17057620105232479 0.41028389064361659 0 0.1742892417583681 0.42876902697017849 0 0.15172304704879039 0.39856197474400812 0 0.15480896332433769 0.4212224763429232 0 0.17057620105232479 0.41028389064361659 0 0.15480896332433769 0.4212224763429232 0 0.1742892417583681 0.42876902697017849 0 0.15633117735431551 0.43795793436307001 0 0.1742892417583681 0.42876902697017849 0 0.1885429693391498 0.4318876594674092 0 0.18533866368388779 0.44868557721459679 0 0.1742892417583681 0.42876902697017849 0 0.189602387118497 0.41946746991573658 0 0.1885429693391498 0.4318876594674092 0 0.17057620105232479 0.41028389064361659 0 0.1742892417583681 0.42876902697017849 0 0.189602387118497 0.41946746991573658 0 0.17057620105232479 0.41028389064361659 0 0.18998113797217259 0.39668739033667422 0 0.189602387118497 0.41946746991573658 0 0.16566229452651871 0.39749770272926721 0 0.16413634123590801 0.38360141683261162 0 0.18998113797217259 0.39668739033667422 0 0.17057620105232479 0.41028389064361659 0 0.16566229452651871 0.39749770272926721 0 0.18998113797217259 0.39668739033667422 0 0.15172304704879039 0.39856197474400812 0 0.17057620105232479 0.41028389064361659 0 0.16566229452651871 0.39749770272926721 0 0.15172304704879039 0.39856197474400812 0 0.16566229452651871 0.39749770272926721 0 0.1578045356328433 0.39034634935044021 0 0.15767663496248779 0.36954437956281072 0 0.16413634123590801 0.38360141683261162 0 0.15767663496248779 0.36954437956281072 0 0.14969645972015619 0.38172430309587418 0 0.16413634123590801 0.38360141683261162 0 0.16566229452651871 0.39749770272926721 0 0.1578045356328433 0.39034634935044021 0 0.16413634123590801 0.38360141683261162 0 0.14969645972015619 0.38172430309587418 0 0.1578045356328433 0.39034634935044021 0 0.16413634123590801 0.38360141683261162 0 0.15767663496248779 0.36954437956281072 0 0.16413634123590801 0.38360141683261162 0 0.1705990333306189 0.37608736631484291 0 0.18609955508064799 0.36674179809991497 0 0.1705990333306189 0.37608736631484291 0 0.18998113797217259 0.39668739033667422 0 0.16413634123590801 0.38360141683261162 0 0.1705990333306189 0.37608736631484291 0 0.18998113797217259 0.39668739033667422 0 0.1705990333306189 0.37608736631484291 0 0.18998113797217259 0.39668739033667422 0 0.20345523097594431 0.37187856108845319 0 0.18609955508064799 0.36674179809991497 0 0.18998113797217259 0.39668739033667422 0 0.20345523097594431 0.37187856108845319 0 0.18998113797217259 0.39668739033667422 0 0.21240045549503039 0.39602063858752851 0 0.18998113797217259 0.39668739033667422 0 0.21240045549503039 0.39602063858752851 0 0.2093632426137261 0.41728741435850553 0 0.20345523097594431 0.37187856108845319 0 0.21240045549503039 0.39602063858752851 0 0.22715334715129601 0.37970698952223869 0 0.21240045549503039 0.39602063858752851 0 0.22715334715129601 0.37970698952223869 0 0.2270614338934735 0.39570342882790049 0 0.22715334715129601 0.37970698952223869 0 0.2270614338934735 0.39570342882790049 0 0.244147427019763 0.3945145368781815 0 0.21240045549503039 0.39602063858752851 0 0.2270614338934735 0.39570342882790049 0 0.22454450590780459 0.41257155032365328 0 0.2270614338934735 0.39570342882790049 0 0.244147427019763 0.3945145368781815 0 0.22454450590780459 0.41257155032365328 0 0.244147427019763 0.3945145368781815 0 0.22454450590780459 0.41257155032365328 0 0.22715334715129601 0.37970698952223869 0 0.244147427019763 0.3945145368781815 0 0.2521892630791473 0.37140998668179731 0 0.24480019866971869 0.4210032181750728 0 0.23005574166434209 0.4378006494194151 0 0.25107636943441569 0.44513559726906782 0 0.24480019866971869 0.4210032181750728 0 0.23074763412655719 0.424282623352078 0 0.23005574166434209 0.4378006494194151 0 0.244147427019763 0.3945145368781815 0 0.24480019866971869 0.4210032181750728 0 0.22454450590780459 0.41257155032365328 0 0.24480019866971869 0.4210032181750728 0 0.22454450590780459 0.41257155032365328 0 0.23074763412655719 0.424282623352078 0 0.22454450590780459 0.41257155032365328 0 0.2211725731392733 0.42809720696525833 0 0.23074763412655719 0.424282623352078 0 0.2211725731392733 0.42809720696525833 0 0.23074763412655719 0.424282623352078 0 0.23005574166434209 0.4378006494194151 0 0.2211725731392733 0.42809720696525833 0 0.21628036644665749 0.43621494113863418 0 0.23005574166434209 0.4378006494194151 0 0.2211725731392733 0.42809720696525833 0 0.21628036644665749 0.43621494113863418 0 0.2049415847958462 0.43062856376912512 0 0.22454450590780459 0.41257155032365328 0 0.2211725731392733 0.42809720696525833 0 0.2049415847958462 0.43062856376912512 0 0.22454450590780459 0.41257155032365328 0 0.2049415847958462 0.43062856376912512 0 0.2093632426137261 0.41728741435850553 0 0.21240045549503039 0.39602063858752851 0 0.22454450590780459 0.41257155032365328 0 0.2093632426137261 0.41728741435850553 0 0.22454450590780459 0.41257155032365328 0 0.2049415847958462 0.43062856376912512 0 0.18998113797217259 0.39668739033667422 0 0.2093632426137261 0.41728741435850553 0 0.189602387118497 0.41946746991573658 0 0.18998113797217259 0.39668739033667422 0 0.2093632426137261 0.41728741435850553 0 0.2049415847958462 0.43062856376912512 0 0.189602387118497 0.41946746991573658 0 0.1885429693391498 0.4318876594674092 0 0.2049415847958462 0.43062856376912512 0 0.1885429693391498 0.4318876594674092 0 0.18533866368388779 0.44868557721459679 0 0.2049415847958462 0.43062856376912512 0 0.2093632426137261 0.41728741435850553 0 0.189602387118497 0.41946746991573658 0 0.2049415847958462 0.43062856376912512 0 0.18533866368388779 0.44868557721459679 0 0.2049415847958462 0.43062856376912512 0 0.21250023090400461 0.44761088200823351 0 0.18533866368388779 0.44868557721459679 0 0.206603344493622 0.46333609110379942 0 0.1937538337711516 0.47443536283097371 0 0.18533866368388779 0.44868557721459679 0 0.206603344493622 0.46333609110379942 0 0.21250023090400461 0.44761088200823351 0 0.18533866368388779 0.44868557721459679 0 0.206603344493622 0.46333609110379942 0 0.21250023090400461 0.44761088200823351 0 0.2214306985693732 0.46517249196019811 0 0.21628036644665749 0.43621494113863418 0 0.2049415847958462 0.43062856376912512 0 0.21250023090400461 0.44761088200823351 0 0.21628036644665749 0.43621494113863418 0 0.21250023090400461 0.44761088200823351 0 0.23005574166434209 0.4378006494194151 0 0.21250023090400461 0.44761088200823351 0 0.2323256828845813 0.45223235497602238 0 0.23005574166434209 0.4378006494194151 0 0.2214306985693732 0.46517249196019811 0 0.24656537385077101 0.46544215422319768 0 0.2323256828845813 0.45223235497602238 0 0.2214306985693732 0.46517249196019811 0 0.24656537385077101 0.46544215422319768 0 0.21250023090400461 0.44761088200823351 0 0.2323256828845813 0.45223235497602238 0 0.2214306985693732 0.46517249196019811 0 0.2323256828845813 0.45223235497602238 0 0.24656537385077101 0.46544215422319768 0 0.25107636943441569 0.44513559726906782 0 0.2323256828845813 0.45223235497602238 0 0.23005574166434209 0.4378006494194151 0 0.25107636943441569 0.44513559726906782 0 0.2440762477701573 0.5 0 0.2199932955396926 0.48077614150499498 0 0.19941551183571229 0.5 0 0.2440762477701573 0.5 0 0.23820077408298801 0.47901853990233678 0 0.26117031641083449 0.48203450212234639 0 0.24656537385077101 0.46544215422319768 0 0.23820077408298801 0.47901853990233678 0 0.26117031641083449 0.48203450212234639 0 0.2214306985693732 0.46517249196019811 0 0.24656537385077101 0.46544215422319768 0 0.23820077408298801 0.47901853990233678 0 0.2214306985693732 0.46517249196019811 0 0.23820077408298801 0.47901853990233678 0 0.2199932955396926 0.48077614150499498 0 0.2440762477701573 0.5 0 0.23820077408298801 0.47901853990233678 0 0.2199932955396926 0.48077614150499498 0 0.2199932955396926 0.48077614150499498 0 0.1937538337711516 0.47443536283097371 0 0.19941551183571229 0.5 0 0.2199932955396926 0.48077614150499498 0 0.1937538337711516 0.47443536283097371 0 0.206603344493622 0.46333609110379942 0 0.2199932955396926 0.48077614150499498 0 0.1937538337711516 0.47443536283097371 0 0.206603344493622 0.46333609110379942 0 0.2214306985693732 0.46517249196019811 0 0.2199932955396926 0.48077614150499498 0 0.1937538337711516 0.47443536283097371 0 0.19941551183571229 0.5 0 0.1775965351343447 0.48532486786733442 0 0.19941551183571229 0.5 0 0.1775965351343447 0.48532486786733442 0 0.16683201191569691 0.49999999999999778 0 0.1775965351343447 0.48532486786733442 0 0.16683201191569691 0.49999999999999778 0 0.16046694614655219 0.48409439234874602 0 0.16683201191569691 0.49999999999999778 0 0.1466561138860526 0.48875163159550311 0 0.16683201191569691 0.49999999999999778 0 0.16046694614655219 0.48409439234874602 0 0.1466561138860526 0.48875163159550311 0 0.1775965351343447 0.48532486786733442 0 0.16046694614655219 0.48409439234874602 0 0.16751437200261049 0.46809458415695238 0 0.1937538337711516 0.47443536283097371 0 0.16751437200261049 0.46809458415695238 0 0.1937538337711516 0.47443536283097371 0 0.1775965351343447 0.48532486786733442 0 0.16751437200261049 0.46809458415695238 0 0.1937538337711516 0.47443536283097371 0 0.18533866368388779 0.44868557721459679 0 0.16751437200261049 0.46809458415695238 0 0.1742892417583681 0.42876902697017849 0 0.18533866368388779 0.44868557721459679 0 0.15633117735431551 0.43795793436307001 0 0.18533866368388779 0.44868557721459679 0 0.15633117735431551 0.43795793436307001 0 0.15670336814057259 0.4553702019196591 0 0.18533866368388779 0.44868557721459679 0 0.15670336814057259 0.4553702019196591 0 0.16751437200261049 0.46809458415695238 0 0.15670336814057259 0.4553702019196591 0 0.16751437200261049 0.46809458415695238 0 0.1412749102340696 0.46175380548293099 0 0.15670336814057259 0.4553702019196591 0 0.1412749102340696 0.46175380548293099 0 0.13473714108801041 0.44759172450604551 0 0.16751437200261049 0.46809458415695238 0 0.1412749102340696 0.46175380548293099 0 0.14058251351705989 0.47592701742677729 0 0.16751437200261049 0.46809458415695238 0 0.1412749102340696 0.46175380548293099 0 0.15633117735431551 0.43795793436307001 0 0.15670336814057259 0.4553702019196591 0 0.13473714108801041 0.44759172450604551 0 0.13775391949354901 0.43048251473236793 0 0.15633117735431551 0.43795793436307001 0 0.13473714108801041 0.44759172450604551 0 0.1232986957980476 0.43521553444175898 0 0.13775391949354901 0.43048251473236793 0 0.13473714108801041 0.44759172450604551 0 0.1197623529423178 0.44368749188664858 0 0.1232986957980476 0.43521553444175898 0 0.13473714108801041 0.44759172450604551 0 0.1412749102340696 0.46175380548293099 0 0.13473714108801041 0.44759172450604551 0 0.12728774723275341 0.46343820621533671 0 0.1171160937478397 0.45330540541120767 0 0.13473714108801041 0.44759172450604551 0 0.12728774723275341 0.46343820621533671 0 0.1412749102340696 0.46175380548293099 0 0.12728774723275341 0.46343820621533671 0 0.14058251351705989 0.47592701742677729 0 0.14058251351705989 0.47592701742677729 0 0.12648021585640709 0.47750326319100989 0 0.1466561138860526 0.48875163159550311 0 0.12728774723275341 0.46343820621533671 0 0.14058251351705989 0.47592701742677729 0 0.12648021585640709 0.47750326319100989 0 0.12648021585640709 0.47750326319100989 0 0.1466561138860526 0.48875163159550311 0 0.12648021585640709 0.47750326319100989 0 0.13708001144490389 0.49059806328359551 0 0.1466561138860526 0.48875163159550311 0 0.11666344788485949 0.49173645753724088 0 0.13663044883731831 0.49927556128564571 0 0.12648021585640709 0.47750326319100989 0 0.12713929737233831 0.48772060528617361 0 0.13708001144490389 0.49059806328359551 0 0.11320932187650649 0.5 0 0.13663044883731831 0.49927556128564571 0 0.14002066689610171 0.5 0 0.11666344788485949 0.49173645753724088 0 0.12937830138485501 0.49233267184816393 0 0.13663044883731831 0.49927556128564571 0 0.12713929737233831 0.48772060528617361 0 0.12937830138485501 0.49233267184816393 0 0.13708001144490389 0.49059806328359551 0 0.13663044883731831 0.49927556128564571 0 0.14002066689610171 0.5 0 0.13708001144490389 0.49059806328359551 0 0.12937830138485501 0.49233267184816393 0 0.13663044883731831 0.49927556128564571 0 0.13708001144490389 0.49059806328359551 0 0.16683201191569691 0.49999999999999778 0 0.14002066689610171 0.5 0 0.1466561138860526 0.48875163159550311 0 0.14002066689610171 0.5 0 0.13708001144490389 0.49059806328359551 0 0.1466561138860526 0.48875163159550311 0 0.16046694614655219 0.48409439234874602 0 0.16751437200261049 0.46809458415695238 0 0.14058251351705989 0.47592701742677729 0 0.16046694614655219 0.48409439234874602 0 0.14058251351705989 0.47592701742677729 0 0.1466561138860526 0.48875163159550311 0 0.33771698773153852 0.49634466744435529 0 0.30530913721808739 0.5 0 0.38926440315541661 0.5 0 0.36676624368677102 0.47842409595896851 0 0.33771698773153852 0.49634466744435529 0 0.38926440315541661 0.5 0 0.36676624368677102 0.47842409595896851 0 0.34705721961416058 0.46825050824331249 0 0.33771698773153852 0.49634466744435529 0 0.36676624368677102 0.47842409595896851 0 0.35944862398180327 0.46098304174961202 0 0.34705721961416058 0.46825050824331249 0 0.36676624368677102 0.47842409595896851 0 0.36757358112949923 0.45710121375389712 0 0.37874971076221681 0.47404607846552432 0 0.36676624368677102 0.47842409595896851 0 0.35944862398180327 0.46098304174961202 0 0.36757358112949923 0.45710121375389712 0 0.36757358112949923 0.45710121375389712 0 0.37874971076221681 0.47404607846552432 0 0.36757358112949923 0.45710121375389712 0 0.35639745149678231 0.44015634904226952 0 0.36757358112949923 0.45710121375389712 0 0.37262846685289031 0.4395057113053743 0 0.35639745149678231 0.44015634904226952 0 0.35944862398180327 0.46098304174961202 0 0.36757358112949923 0.45710121375389712 0 0.35639745149678231 0.44015634904226952 0 0.35639745149678231 0.44015634904226952 0 0.3471040749763617 0.46652080327519613 0 0.33720744780609158 0.44821210909984333 0 0.35639745149678231 0.44015634904226952 0 0.33720744780609158 0.44821210909984333 0 0.34399698852822952 0.43691450804834042 0 0.35944862398180327 0.46098304174961202 0 0.35639745149678231 0.44015634904226952 0 0.34705721961416058 0.46825050824331249 0 0.35639745149678231 0.44015634904226952 0 0.34705721961416058 0.46825050824331249 0 0.3471040749763617 0.46652080327519613 0 0.35639745149678231 0.44015634904226952 0 0.34705721961416058 0.46825050824331249 0 0.3471040749763617 0.46652080327519613 0 0.33720744780609158 0.44821210909984333 0 0.32196939969496408 0.46625114101219661 0 0.3471040749763617 0.46652080327519613 0 0.32196939969496408 0.46625114101219661 0 0.33720744780609158 0.44821210909984333 0 0.31852459641669367 0.43688802904946888 0 0.33442470089835752 0.4319282955358123 0 0.33720744780609158 0.44821210909984333 0 0.33442470089835752 0.4319282955358123 0 0.34399698852822952 0.43691450804834042 0 0.33720744780609158 0.44821210909984333 0 0.32182333718667822 0.45078139775525228 0 0.31852459641669367 0.43688802904946888 0 0.32182333718667822 0.45078139775525228 0 0.3082908756260711 0.4508499332550262 0 0.31852459641669367 0.43688802904946888 0 0.33720744780609158 0.44821210909984333 0 0.32182333718667822 0.45078139775525228 0 0.32196939969496408 0.46625114101219661 0 0.32182333718667822 0.45078139775525228 0 0.32196939969496408 0.46625114101219661 0 0.3082908756260711 0.4508499332550262 0 0.33354834857988902 0.4793590403140367 0 0.33771698773153852 0.49634466744435529 0 0.30530913721808739 0.5 0 0.32196939969496408 0.46625114101219661 0 0.33354834857988902 0.4793590403140367 0 0.30530913721808739 0.5 0 0.34705721961416058 0.46825050824331249 0 0.33354834857988902 0.4793590403140367 0 0.33771698773153852 0.49634466744435529 0 0.34705721961416058 0.46825050824331249 0 0.33771698773153852 0.49634466744435529 0 0.3471040749763617 0.46652080327519613 0 0.32196939969496408 0.46625114101219661 0 0.33354834857988902 0.4793590403140367 0 0.34705721961416058 0.46825050824331249 0 0.3471040749763617 0.46652080327519613 0 0.33354834857988902 0.4793590403140367 0 0.32196939969496408 0.46625114101219661 0 0.30530913721808739 0.5 0 0.29683472441356651 0.46598147874919688 0 0.30530913721808739 0.5 0 0.27170004913216872 0.46571181648619731 0 0.29683472441356651 0.46598147874919688 0 0.30530913721808739 0.5 0 0.26117031641083449 0.48203450212234639 0 0.27170004913216872 0.46571181648619731 0 0.2440762477701573 0.5 0 0.30530913721808739 0.5 0 0.26117031641083449 0.48203450212234639 0 0.24656537385077101 0.46544215422319768 0 0.26117031641083449 0.48203450212234639 0 0.27170004913216872 0.46571181648619731 0 0.25107636943441569 0.44513559726906782 0 0.27510371890732971 0.44698624168923812 0 0.26462896982053657 0.42891016586402553 0 0.24656537385077101 0.46544215422319768 0 0.27170004913216872 0.46571181648619731 0 0.24656537385077101 0.46544215422319768 0 0.25107636943441569 0.44513559726906782 0 0.27170004913216872 0.46571181648619731 0 0.27170004913216872 0.46571181648619731 0 0.27510371890732971 0.44698624168923812 0 0.29683472441356651 0.46598147874919688 0 0.25107636943441569 0.44513559726906782 0 0.27170004913216872 0.46571181648619731 0 0.27510371890732971 0.44698624168923812 0 0.27510371890732971 0.44698624168923812 0 0.29343904897402229 0.43922323681809022 0 0.29683472441356651 0.46598147874919688 0 0.27170004913216872 0.46571181648619731 0 0.29683472441356651 0.46598147874919688 0 0.32196939969496408 0.46625114101219661 0 0.29683472441356651 0.46598147874919688 0 0.32196939969496408 0.46625114101219661 0 0.29683472441356651 0.46598147874919688 0 0.3082908756260711 0.4508499332550262 0 0.29343904897402229 0.43922323681809022 0 0.29683472441356651 0.46598147874919688 0 0.3082908756260711 0.4508499332550262 0 0.29343904897402229 0.43922323681809022 0 0.3082908756260711 0.4508499332550262 0 0.31852459641669367 0.43688802904946888 0 0.29343904897402229 0.43922323681809022 0 0.30112852226640291 0.42376257958785191 0 0.31852459641669367 0.43688802904946888 0 0.30112852226640291 0.42376257958785191 0 0.29203474294865012 0.40607958613720158 0 0.31863957280126859 0.41583068997788608 0 0.30112852226640291 0.42376257958785191 0 0.28261812485059662 0.42333545592692112 0 0.29203474294865012 0.40607958613720158 0 0.27510371890732971 0.44698624168923812 0 0.29343904897402229 0.43922323681809022 0 0.28261812485059662 0.42333545592692112 0 0.29343904897402229 0.43922323681809022 0 0.30112852226640291 0.42376257958785191 0 0.28261812485059662 0.42333545592692112 0 0.27510371890732971 0.44698624168923812 0 0.28261812485059662 0.42333545592692112 0 0.26462896982053657 0.42891016586402553 0 0.28261812485059662 0.42333545592692112 0 0.26462896982053657 0.42891016586402553 0 0.26761541085462331 0.40589547546909982 0 0.28261812485059662 0.42333545592692112 0 0.26761541085462331 0.40589547546909982 0 0.29203474294865012 0.40607958613720158 0 0.24480019866971869 0.4210032181750728 0 0.26462896982053657 0.42891016586402553 0 0.26761541085462331 0.40589547546909982 0 0.244147427019763 0.3945145368781815 0 0.24480019866971869 0.4210032181750728 0 0.26761541085462331 0.40589547546909982 0 0.24480019866971869 0.4210032181750728 0 0.25107636943441569 0.44513559726906782 0 0.26462896982053657 0.42891016586402553 0 0.244147427019763 0.3945145368781815 0 0.26735098622298459 0.38156810265038482 0 0.2521892630791473 0.37140998668179731 0 0.244147427019763 0.3945145368781815 0 0.26761541085462331 0.40589547546909982 0 0.26735098622298459 0.38156810265038482 0 0.26761541085462331 0.40589547546909982 0 0.28190508381648582 0.39028064797137768 0 0.29203474294865012 0.40607958613720158 0 0.26761541085462331 0.40589547546909982 0 0.26735098622298459 0.38156810265038482 0 0.28190508381648582 0.39028064797137768 0 0.26735098622298459 0.38156810265038482 0 0.28190508381648582 0.39028064797137768 0 0.27721295281809549 0.36680799699164168 0 0.28190508381648582 0.39028064797137768 0 0.29751231182034188 0.38130105583880441 0 0.27721295281809549 0.36680799699164168 0 0.28190508381648582 0.39028064797137768 0 0.29203474294865012 0.40607958613720158 0 0.29751231182034188 0.38130105583880441 0 0.29203474294865012 0.40607958613720158 0 0.31913311180273318 0.3949185758314665 0 0.31863957280126859 0.41583068997788608 0 0.29203474294865012 0.40607958613720158 0 0.31913311180273318 0.3949185758314665 0 0.29203474294865012 0.40607958613720158 0 0.29751231182034188 0.38130105583880441 0 0.31913311180273318 0.3949185758314665 0 0.29751231182034188 0.38130105583880441 0 0.31913311180273318 0.3949185758314665 0 0.32067386270269788 0.36660528874678522 0 0.31913311180273318 0.3949185758314665 0 0.3462314806568163 0.38375756552573148 0 0.32067386270269788 0.36660528874678522 0 0.31913311180273318 0.3949185758314665 0 0.3462314806568163 0.38375756552573148 0 0.34160110166908803 0.39917493579052998 0 0.31913311180273318 0.3949185758314665 0 0.33951925632659158 0.41456620798860311 0 0.34160110166908803 0.39917493579052998 0 0.31913311180273318 0.3949185758314665 0 0.3462314806568163 0.38375756552573148 0 0.31913311180273318 0.3949185758314665 0 0.31863957280126859 0.41583068997788608 0 0.33951925632659158 0.41456620798860311 0 0.30112852226640291 0.42376257958785191 0 0.31863957280126859 0.41583068997788608 0 0.31852459641669367 0.43688802904946888 0 0.31863957280126859 0.41583068997788608 0 0.31852459641669367 0.43688802904946888 0 0.33442470089835752 0.4319282955358123 0 0.33442470089835752 0.4319282955358123 0 0.33951925632659158 0.41456620798860311 0 0.34795835391168661 0.42736127851543648 0 0.33442470089835752 0.4319282955358123 0 0.34399698852822952 0.43691450804834042 0 0.34795835391168661 0.42736127851543648 0 0.31863957280126859 0.41583068997788608 0 0.33442470089835752 0.4319282955358123 0 0.33951925632659158 0.41456620798860311 0 0.33951925632659158 0.41456620798860311 0 0.34795835391168661 0.42736127851543648 0 0.35141078403018722 0.41787198815870291 0 0.36179501108488971 0.42392121695229162 0 0.35637051479758081 0.40563924917848071 0 0.34160110166908803 0.39917493579052998 0 0.33951925632659158 0.41456620798860311 0 0.35637051479758081 0.40563924917848071 0 0.33951925632659158 0.41456620798860311 0 0.35141078403018722 0.41787198815870291 0 0.35637051479758081 0.40563924917848071 0 0.33951925632659158 0.41456620798860311 0 0.35141078403018722 0.41787198815870291 0 0.34795835391168661 0.42736127851543648 0 0.35639745149678231 0.44015634904226952 0 0.36179501108488971 0.42392121695229162 0 0.35639745149678231 0.44015634904226952 0 0.34795835391168661 0.42736127851543648 0 0.36179501108488971 0.42392121695229162 0 0.35639745149678231 0.44015634904226952 0 0.34399698852822952 0.43691450804834042 0 0.34795835391168661 0.42736127851543648 0 0.35141078403018722 0.41787198815870291 0 0.34795835391168661 0.42736127851543648 0 0.36179501108488971 0.42392121695229162 0 0.35639745149678231 0.44015634904226952 0 0.34795835391168661 0.42736127851543648 0 0.37262846685289031 0.4395057113053743 0 0.35639745149678231 0.44015634904226952 0 0.36179501108488971 0.42392121695229162 0 0.37262846685289031 0.4395057113053743 0 0.36179501108488971 0.42392121695229162 0 0.38171526389902621 0.42285105453735627 0 0.36179501108488971 0.42392121695229162 0 0.37543993929724873 0.40575129785166902 0 0.38171526389902621 0.42285105453735627 0 0.36179501108488971 0.42392121695229162 0 0.35637051479758081 0.40563924917848071 0 0.37543993929724873 0.40575129785166902 0 0.36599916773242308 0.38970762502951528 0 0.35637051479758081 0.40563924917848071 0 0.37543993929724873 0.40575129785166902 0 0.36599916773242308 0.38970762502951528 0 0.3462314806568163 0.38375756552573148 0 0.37332984951089959 0.37259655521999629 0 0.3462314806568163 0.38375756552573148 0 0.37332984951089959 0.37259655521999629 0 0.34160110166908803 0.39917493579052998 0 0.3462314806568163 0.38375756552573148 0 0.35637051479758081 0.40563924917848071 0 0.36599916773242308 0.38970762502951528 0 0.3462314806568163 0.38375756552573148 0 0.35637051479758081 0.40563924917848071 0 0.3462314806568163 0.38375756552573148 0 0.34473707480591842 0.35226136777080469 0 0.36569025010772371 0.35591691989079172 0 0.3462314806568163 0.38375756552573148 0 0.37332984951089959 0.37259655521999629 0 0.36569025010772371 0.35591691989079172 0 0.37332984951089959 0.37259655521999629 0 0.36569025010772371 0.35591691989079172 0 0.38035683402569309 0.35420328335679652 0 0.34473707480591842 0.35226136777080469 0 0.36569025010772371 0.35591691989079172 0 0.37047311513062031 0.33877519134323869 0 0.36569025010772371 0.35591691989079172 0 0.37047311513062031 0.33877519134323869 0 0.38035683402569309 0.35420328335679652 0 0.37078299344108417 0.31463327025601312 0 0.35700789662195659 0.32587057006090642 0 0.35396962373814472 0.31081485745536303 0 0.37047311513062031 0.33877519134323869 0 0.37078299344108417 0.31463327025601312 0 0.35700789662195659 0.32587057006090642 0 0.35700789662195659 0.32587057006090642 0 0.339046817388306 0.32345496320958628 0 0.35396962373814472 0.31081485745536303 0 0.339046817388306 0.32345496320958628 0 0.33943960301412901 0.30499046234012323 0 0.35396962373814472 0.31081485745536303 0 0.34473707480591842 0.35226136777080469 0 0.37047311513062031 0.33877519134323869 0 0.35700789662195659 0.32587057006090642 0 0.34473707480591842 0.35226136777080469 0 0.35700789662195659 0.32587057006090642 0 0.339046817388306 0.32345496320958628 0 0.34473707480591842 0.35226136777080469 0 0.339046817388306 0.32345496320958628 0 0.32729528167744609 0.34459454345475971 0 0.339046817388306 0.32345496320958628 0 0.31745499368774072 0.33127130387625892 0 0.339046817388306 0.32345496320958628 0 0.32636690669725238 0.31301969973947952 0 0.33943960301412901 0.30499046234012323 0 0.32636690669725238 0.31301969973947952 0 0.31745499368774072 0.33127130387625892 0 0.31098518245226009 0.31163195984795539 0 0.339046817388306 0.32345496320958628 0 0.32636690669725238 0.31301969973947952 0 0.31745499368774072 0.33127130387625892 0 0.339046817388306 0.32345496320958628 0 0.31745499368774072 0.33127130387625892 0 0.32729528167744609 0.34459454345475971 0 0.31745499368774072 0.33127130387625892 0 0.32729528167744609 0.34459454345475971 0 0.31167641470117319 0.34903933155976019 0 0.32729528167744609 0.34459454345475971 0 0.32067386270269788 0.36660528874678522 0 0.31167641470117319 0.34903933155976019 0 0.3462314806568163 0.38375756552573148 0 0.34473707480591842 0.35226136777080469 0 0.32067386270269788 0.36660528874678522 0 0.34473707480591842 0.35226136777080469 0 0.32729528167744609 0.34459454345475971 0 0.32067386270269788 0.36660528874678522 0 0.29751231182034188 0.38130105583880441 0 0.29668774090375888 0.36019435019086837 0 0.29751231182034188 0.38130105583880441 0 0.32067386270269788 0.36660528874678522 0 0.29668774090375888 0.36019435019086837 0 0.31167641470117319 0.34903933155976019 0 0.29668774090375888 0.36019435019086837 0 0.29586316998717582 0.33908764454293239 0 0.32067386270269788 0.36660528874678522 0 0.31167641470117319 0.34903933155976019 0 0.29668774090375888 0.36019435019086837 0 0.29668774090375888 0.36019435019086837 0 0.29586316998717582 0.33908764454293239 0 0.29668774090375888 0.36019435019086837 0 0.27721295281809549 0.36680799699164168 0 0.27634820469092491 0.34615215280166628 0 0.29668774090375888 0.36019435019086837 0 0.27634820469092491 0.34615215280166628 0 0.29586316998717582 0.33908764454293239 0 0.29751231182034188 0.38130105583880441 0 0.29668774090375888 0.36019435019086837 0 0.27721295281809549 0.36680799699164168 0 0.27721295281809549 0.36680799699164168 0 0.27634820469092491 0.34615215280166628 0 0.25683323939467417 0.35321666106040112 0 0.27634820469092491 0.34615215280166628 0 0.25683323939467417 0.35321666106040112 0 0.27634820469092491 0.34615215280166628 0 0.25683323939467417 0.35321666106040112 0 0.25990355827748302 0.33285036939989648 0 0.27721295281809549 0.36680799699164168 0 0.25683323939467417 0.35321666106040112 0 0.2521892630791473 0.37140998668179731 0 0.26735098622298459 0.38156810265038482 0 0.27721295281809549 0.36680799699164168 0 0.2521892630791473 0.37140998668179731 0 0.2425230565035123 0.32904592114860032 0 0.25245296772897541 0.31468716816282799 0 0.25990355827748302 0.33285036939989648 0 0.25245296772897541 0.31468716816282799 0 0.25990355827748302 0.33285036939989648 0 0.26967064745186081 0.3141950741177052 0 0.2433754256795507 0.34410848734255323 0 0.25683323939467417 0.35321666106040112 0 0.25990355827748302 0.33285036939989648 0 0.27634820469092491 0.34615215280166628 0 0.25990355827748302 0.33285036939989648 0 0.27925017797118218 0.32834576003209293 0 0.25990355827748302 0.33285036939989648 0 0.27925017797118218 0.32834576003209293 0 0.26967064745186081 0.3141950741177052 0 0.27925017797118218 0.32834576003209293 0 0.26967064745186081 0.3141950741177052 0 0.28426253816982161 0.31343602827275557 0 0.27925017797118218 0.32834576003209293 0 0.29519129965699448 0.32188964615670601 0 0.28426253816982161 0.31343602827275557 0 0.29519129965699448 0.32188964615670601 0 0.28426253816982161 0.31343602827275557 0 0.29451942932681308 0.30469164777047952 0 0.29519129965699448 0.32188964615670601 0 0.29451942932681308 0.30469164777047952 0 0.27634820469092491 0.34615215280166628 0 0.29586316998717582 0.33908764454293239 0 0.27925017797118218 0.32834576003209293 0 0.29519129965699448 0.32188964615670601 0 0.29586316998717582 0.33908764454293239 0 0.29519129965699448 0.32188964615670601 0 0.29586316998717582 0.33908764454293239 0 0.27634820469092491 0.34615215280166628 0 0.27925017797118218 0.32834576003209293 0 0.29586316998717582 0.33908764454293239 0 0.31745499368774072 0.33127130387625892 0 0.29519129965699448 0.32188964615670601 0 0.29586316998717582 0.33908764454293239 0 0.31745499368774072 0.33127130387625892 0 0.29586316998717582 0.33908764454293239 0 0.31745499368774072 0.33127130387625892 0 0.31167641470117319 0.34903933155976019 0 0.29586316998717582 0.33908764454293239 0 0.31745499368774072 0.33127130387625892 0 0.29519129965699448 0.32188964615670601 0 0.31098518245226009 0.31163195984795539 0 0.29519129965699448 0.32188964615670601 0 0.31098518245226009 0.31163195984795539 0 0.29451942932681308 0.30469164777047952 0 0.31098518245226009 0.31163195984795539 0 0.30776459377781168 0.29847136562561238 0 0.29451942932681308 0.30469164777047952 0 0.30776459377781168 0.29847136562561238 0 0.29452532225970779 0.29118286862994269 0 0.29451942932681308 0.30469164777047952 0 0.30776459377781168 0.29847136562561238 0 0.30677054539169812 0.28283105992711682 0 0.29452532225970779 0.29118286862994269 0 0.30776459377781168 0.29847136562561238 0 0.30677054539169812 0.28283105992711682 0 0.32175385898774511 0.28586066711185287 0 0.30677054539169812 0.28283105992711682 0 0.29452532225970779 0.29118286862994269 0 0.29386013997042149 0.27745374171741088 0 0.29452532225970779 0.29118286862994269 0 0.28186675714746351 0.28460861790007902 0 0.29386013997042149 0.27745374171741088 0 0.29452532225970779 0.29118286862994269 0 0.28186675714746351 0.28460861790007902 0 0.28237046794403942 0.29904077883895819 0 0.29452532225970779 0.29118286862994269 0 0.29451942932681308 0.30469164777047952 0 0.28237046794403942 0.29904077883895819 0 0.28426253816982161 0.31343602827275557 0 0.29451942932681308 0.30469164777047952 0 0.28237046794403942 0.29904077883895819 0 0.26967064745186081 0.3141950741177052 0 0.28426253816982161 0.31343602827275557 0 0.28237046794403942 0.29904077883895819 0 0.26967064745186081 0.3141950741177052 0 0.28237046794403942 0.29904077883895819 0 0.26671524717179262 0.29574659553570359 0 0.28186675714746351 0.28460861790007902 0 0.26671524717179262 0.29574659553570359 0 0.27011666215462238 0.27382603838520392 0 0.28186675714746351 0.28460861790007902 0 0.28237046794403942 0.29904077883895819 0 0.26671524717179262 0.29574659553570359 0 0.24582725503917749 0.29892651856011748 0 0.26671524717179262 0.29574659553570359 0 0.25774423003420349 0.2835411811175198 0 0.26671524717179262 0.29574659553570359 0 0.25774423003420349 0.2835411811175198 0 0.27011666215462238 0.27382603838520392 0 0.25245296772897541 0.31468716816282799 0 0.26967064745186081 0.3141950741177052 0 0.26671524717179262 0.29574659553570359 0 0.24582725503917749 0.29892651856011748 0 0.25245296772897541 0.31468716816282799 0 0.26671524717179262 0.29574659553570359 0 0.25182038173936289 0.25864808758374469 0 0.27011666215462238 0.27382603838520392 0 0.27093571721456888 0.25615309585990631 0 0.25182038173936289 0.25864808758374469 0 0.27093571721456888 0.25615309585990631 0 0.26039351933152011 0.24124957149211521 0 0.25774423003420349 0.2835411811175198 0 0.25182038173936289 0.25864808758374469 0 0.27011666215462238 0.27382603838520392 0 0.25774423003420349 0.2835411811175198 0 0.25182038173936289 0.25864808758374469 0 0.2455931460095116 0.27451234785533479 0 0.25774423003420349 0.2835411811175198 0 0.25182038173936289 0.25864808758374469 0 0.27011666215462238 0.27382603838520392 0 0.27093571721456888 0.25615309585990631 0 0.28240567017942619 0.26975833487456458 0 0.28186675714746351 0.28460861790007902 0 0.27011666215462238 0.27382603838520392 0 0.28240567017942619 0.26975833487456458 0 0.27093571721456888 0.25615309585990631 0 0.28240567017942619 0.26975833487456458 0 0.28702817405553338 0.24886536820887589 0 0.29402726737395779 0.26405707109078719 0 0.28240567017942619 0.26975833487456458 0 0.28702817405553338 0.24886536820887589 0 0.29402726737395779 0.26405707109078719 0 0.30085408144977849 0.25506947009820818 0 0.28702817405553338 0.24886536820887589 0 0.28186675714746351 0.28460861790007902 0 0.28240567017942619 0.26975833487456458 0 0.29386013997042149 0.27745374171741088 0 0.29402726737395779 0.26405707109078719 0 0.28240567017942619 0.26975833487456458 0 0.29386013997042149 0.27745374171741088 0 0.30677054539169812 0.28283105992711682 0 0.29386013997042149 0.27745374171741088 0 0.30451004307874191 0.2688509747103266 0 0.29402726737395779 0.26405707109078719 0 0.29386013997042149 0.27745374171741088 0 0.30451004307874191 0.2688509747103266 0 0.30677054539169812 0.28283105992711682 0 0.30451004307874191 0.2688509747103266 0 0.31821532849336059 0.27180844333198761 0 0.30451004307874191 0.2688509747103266 0 0.31418920758497548 0.25524760539231522 0 0.31821532849336059 0.27180844333198761 0 0.29402726737395779 0.26405707109078719 0 0.30451004307874191 0.2688509747103266 0 0.30085408144977849 0.25506947009820818 0 0.30451004307874191 0.2688509747103266 0 0.30085408144977849 0.25506947009820818 0 0.31418920758497548 0.25524760539231522 0 0.30085408144977849 0.25506947009820818 0 0.31418920758497548 0.25524760539231522 0 0.30198296723744328 0.24039256257184269 0 0.31418920758497548 0.25524760539231522 0 0.33032592345039269 0.25777531348904947 0 0.31821532849336059 0.27180844333198761 0 0.33032592345039269 0.25777531348904947 0 0.33472189562549548 0.27277637526447468 0 0.34633859489505231 0.26315379244527781 0 0.33032592345039269 0.25777531348904947 0 0.34633859489505231 0.26315379244527781 0 0.343917366577356 0.24832173179906719 0 0.33472189562549548 0.27277637526447468 0 0.33843691907115669 0.28882866260272988 0 0.3529390793539286 0.27596556626422242 0 0.33032592345039269 0.25777531348904947 0 0.33472189562549548 0.27277637526447468 0 0.31821532849336059 0.27180844333198761 0 0.33472189562549548 0.27277637526447468 0 0.31821532849336059 0.27180844333198761 0 0.32175385898774511 0.28586066711185287 0 0.30677054539169812 0.28283105992711682 0 0.31821532849336059 0.27180844333198761 0 0.32175385898774511 0.28586066711185287 0 0.30776459377781168 0.29847136562561238 0 0.32175385898774511 0.28586066711185287 0 0.32461387156694788 0.30044809591919652 0 0.31098518245226009 0.31163195984795539 0 0.30776459377781168 0.29847136562561238 0 0.32461387156694788 0.30044809591919652 0 0.32636690669725238 0.31301969973947952 0 0.31098518245226009 0.31163195984795539 0 0.32461387156694788 0.30044809591919652 0 0.32461387156694788 0.30044809591919652 0 0.33943960301412901 0.30499046234012323 0 0.33843691907115669 0.28882866260272988 0 0.32636690669725238 0.31301969973947952 0 0.32461387156694788 0.30044809591919652 0 0.33943960301412901 0.30499046234012323 0 0.33472189562549548 0.27277637526447468 0 0.32175385898774511 0.28586066711185287 0 0.33843691907115669 0.28882866260272988 0 0.32175385898774511 0.28586066711185287 0 0.32461387156694788 0.30044809591919652 0 0.33843691907115669 0.28882866260272988 0 0.33843691907115669 0.28882866260272988 0 0.35420347962296628 0.29337649511438468 0 0.3529390793539286 0.27596556626422242 0 0.35420347962296628 0.29337649511438468 0 0.36899736748334888 0.27849314412430137 0 0.3529390793539286 0.27596556626422242 0 0.33943960301412901 0.30499046234012323 0 0.33843691907115669 0.28882866260272988 0 0.35420347962296628 0.29337649511438468 0 0.33943960301412901 0.30499046234012323 0 0.35420347962296628 0.29337649511438468 0 0.35396962373814472 0.31081485745536303 0 0.35420347962296628 0.29337649511438468 0 0.35396962373814472 0.31081485745536303 0 0.37148201054319629 0.29648562342325552 0 0.37078299344108417 0.31463327025601312 0 0.35396962373814472 0.31081485745536303 0 0.37148201054319629 0.29648562342325552 0 0.35420347962296628 0.29337649511438468 0 0.37148201054319629 0.29648562342325552 0 0.36899736748334888 0.27849314412430137 0 0.37148201054319629 0.29648562342325552 0 0.36899736748334888 0.27849314412430137 0 0.38428742864009918 0.28489139290085858 0 0.36899736748334888 0.27849314412430137 0 0.36331744721426701 0.25872198124923812 0 0.3529390793539286 0.27596556626422242 0 0.36899736748334888 0.27849314412430137 0 0.36331744721426701 0.25872198124923812 0 0.38288139065206878 0.26863748696308309 0 0.36331744721426701 0.25872198124923812 0 0.38424774583347471 0.25207486274025709 0 0.37251516075371882 0.24207903867420399 0 0.36331744721426701 0.25872198124923812 0 0.34633859489505231 0.26315379244527781 0 0.343917366577356 0.24832173179906719 0 0.33472189562549548 0.27277637526447468 0 0.34633859489505231 0.26315379244527781 0 0.3529390793539286 0.27596556626422242 0 0.36331744721426701 0.25872198124923812 0 0.34633859489505231 0.26315379244527781 0 0.3529390793539286 0.27596556626422242 0 0.39855014860521792 0.27721466471795042 0 0.39641475740170318 0.26144696915314292 0 0.41298842006552372 0.26730783765275001 0 0.39855014860521792 0.27721466471795042 0 0.39641475740170318 0.26144696915314292 0 0.38288139065206878 0.26863748696308309 0 0.39641475740170318 0.26144696915314292 0 0.38424774583347471 0.25207486274025709 0 0.40231417230303168 0.24860060812396939 0 0.39641475740170318 0.26144696915314292 0 0.41298842006552372 0.26730783765275001 0 0.40231417230303168 0.24860060812396939 0 0.39641475740170318 0.26144696915314292 0 0.38424774583347471 0.25207486274025709 0 0.38288139065206878 0.26863748696308309 0 0.36331744721426701 0.25872198124923812 0 0.38424774583347471 0.25207486274025709 0 0.38288139065206878 0.26863748696308309 0 0.36899736748334888 0.27849314412430137 0 0.38288139065206878 0.26863748696308309 0 0.38428742864009918 0.28489139290085858 0 0.39855014860521792 0.27721466471795042 0 0.38288139065206878 0.26863748696308309 0 0.38428742864009918 0.28489139290085858 0 0.38428742864009918 0.28489139290085858 0 0.39305044198130101 0.30440693289414028 0 0.37148201054319629 0.29648562342325552 0 0.38428742864009918 0.28489139290085858 0 0.39305044198130101 0.30440693289414028 0 0.37078299344108417 0.31463327025601312 0 0.37148201054319629 0.29648562342325552 0 0.39305044198130101 0.30440693289414028 0 0.39305044198130101 0.30440693289414028 0 0.41005817493143942 0.30791884824025151 0 0.40181345532250279 0.32392247288742199 0 0.39305044198130101 0.30440693289414028 0 0.41115420333851072 0.29012846113173218 0 0.41005817493143942 0.30791884824025151 0 0.39855014860521792 0.27721466471795042 0 0.38428742864009918 0.28489139290085858 0 0.39305044198130101 0.30440693289414028 0 0.39855014860521792 0.27721466471795042 0 0.39305044198130101 0.30440693289414028 0 0.41115420333851072 0.29012846113173218 0 0.41115420333851072 0.29012846113173218 0 0.42237490691274399 0.30040046183112418 0 0.4262561741766292 0.28341554246128647 0 0.41005817493143942 0.30791884824025151 0 0.42237490691274399 0.30040046183112418 0 0.42474942449873038 0.31830282019795558 0 0.41115420333851072 0.29012846113173218 0 0.41005817493143942 0.30791884824025151 0 0.42237490691274399 0.30040046183112418 0 0.43892238033375652 0.29316762751520759 0 0.42474942449873038 0.31830282019795558 0 0.43901485369086091 0.30135339673430178 0 0.44153964711483901 0.31555601070629419 0 0.42474942449873038 0.31830282019795558 0 0.43892238033375652 0.29316762751520759 0 0.43901485369086091 0.30135339673430178 0 0.42474942449873038 0.31830282019795558 0 0.42237490691274399 0.30040046183112418 0 0.43892238033375652 0.29316762751520759 0 0.42474942449873038 0.31830282019795558 0 0.4262561741766292 0.28341554246128647 0 0.4351913196827728 0.26950095980203209 0 0.43892238033375652 0.29316762751520759 0 0.42237490691274399 0.30040046183112418 0 0.4262561741766292 0.28341554246128647 0 0.43892238033375652 0.29316762751520759 0 0.4262561741766292 0.28341554246128647 0 0.4351913196827728 0.26950095980203209 0 0.41298842006552372 0.26730783765275001 0 0.39855014860521792 0.27721466471795042 0 0.41115420333851072 0.29012846113173218 0 0.41298842006552372 0.26730783765275001 0 0.41115420333851072 0.29012846113173218 0 0.4262561741766292 0.28341554246128647 0 0.41298842006552372 0.26730783765275001 0 0.41298842006552372 0.26730783765275001 0 0.40231417230303168 0.24860060812396939 0 0.42313784770037072 0.24448727568822809 0 0.4351913196827728 0.26950095980203209 0 0.42313784770037072 0.24448727568822809 0 0.4351913196827728 0.26950095980203209 0 0.41298842006552372 0.26730783765275001 0 0.42313784770037072 0.24448727568822809 0 0.4351913196827728 0.26950095980203209 0 0.42313784770037072 0.24448727568822809 0 0.4443985789054769 0.24698865528882419 0 0.48241493055506079 0.26528965009330258 0 0.5 0.33492497653762981 0 0.47394230693558748 0.31256116002081558 0 0.48241493055506079 0.26528965009330258 0 0.50000000000000333 0.25067715318203487 0 0.5 0.33492497653762981 0 0.4351913196827728 0.26950095980203209 0 0.45877951230910918 0.25895515693046528 0 0.4443985789054769 0.24698865528882419 0 0.4351913196827728 0.26950095980203209 0 0.45151137119179341 0.27571822691322562 0 0.45877951230910918 0.25895515693046528 0 0.4351913196827728 0.26950095980203209 0 0.45151137119179341 0.27571822691322562 0 0.44724479166517439 0.29451464391583621 0 0.46482986111011698 0.27990214700456872 0 0.45877951230910918 0.25895515693046528 0 0.48241493055506079 0.26528965009330258 0 0.45151137119179341 0.27571822691322562 0 0.46482986111011698 0.27990214700456872 0 0.45877951230910918 0.25895515693046528 0 0.46482986111011698 0.27990214700456872 0 0.48241493055506079 0.26528965009330258 0 0.46397248621427972 0.29675777894034322 0 0.45877951230910918 0.25895515693046528 0 0.48241493055506079 0.26528965009330258 0 0.47459679039847708 0.24888537612968889 0 0.46482986111011698 0.27990214700456872 0 0.48241493055506079 0.26528965009330258 0 0.48241493055506079 0.26528965009330258 0 0.50000000000000333 0.25067715318203487 0 0.48241493055506079 0.26528965009330258 0 0.50000000000000333 0.25067715318203487 0 0.47459679039847708 0.24888537612968889 0 0.48241493055506079 0.26528965009330258 0 0.46397248621427972 0.29675777894034322 0 0.47394230693558748 0.31256116002081558 0 0.45530375565519909 0.31123881930905889 0 0.46397248621427972 0.29675777894034322 0 0.44724479166517439 0.29451464391583621 0 0.45530375565519909 0.31123881930905889 0 0.46397248621427972 0.29675777894034322 0 0.47394230693558748 0.31256116002081558 0 0.45151137119179341 0.27571822691322562 0 0.46482986111011698 0.27990214700456872 0 0.44724479166517439 0.29451464391583621 0 0.46482986111011698 0.27990214700456872 0 0.44724479166517439 0.29451464391583621 0 0.46482986111011698 0.27990214700456872 0 0.46397248621427972 0.29675777894034322 0 0.44724479166517439 0.29451464391583621 0 0.4351913196827728 0.26950095980203209 0 0.44724479166517439 0.29451464391583621 0 0.4351913196827728 0.26950095980203209 0 0.44724479166517439 0.29451464391583621 0 0.43892238033375652 0.29316762751520759 0 0.44724479166517439 0.29451464391583621 0 0.43892238033375652 0.29316762751520759 0 0.43901485369086091 0.30135339673430178 0 0.45530375565519909 0.31123881930905889 0 0.44724479166517439 0.29451464391583621 0 0.45530375565519909 0.31123881930905889 0 0.44724479166517439 0.29451464391583621 0 0.44577576203151831 0.30566571766637279 0 0.45530375565519909 0.31123881930905889 0 0.44577576203151831 0.30566571766637279 0 0.44153964711483901 0.31555601070629419 0 0.44724479166517439 0.29451464391583621 0 0.43901485369086091 0.30135339673430178 0 0.44724479166517439 0.29451464391583621 0 0.44577576203151831 0.30566571766637279 0 0.43901485369086091 0.30135339673430178 0 0.44577576203151831 0.30566571766637279 0 0.43901485369086091 0.30135339673430178 0 0.44153964711483901 0.31555601070629419 0 0.45530375565519909 0.31123881930905889 0 0.44153964711483901 0.31555601070629419 0 0.44647555311625892 0.32911055449855547 0 0.5 0.33492497653762981 0 0.47450063306197571 0.35536119497290758 0 0.5 0.40371247995192122 0 0.44153964711483901 0.31555601070629419 0 0.44647555311625892 0.32911055449855547 0 0.43644997072168029 0.32483233464342559 0 0.44647555311625892 0.32911055449855547 0 0.44582938632389452 0.3446830799248457 0 0.43303525815689309 0.33635995317089712 0 0.44647555311625892 0.32911055449855547 0 0.43303525815689309 0.33635995317089712 0 0.43644997072168029 0.32483233464342559 0 0.44647555311625892 0.32911055449855547 0 0.45721667556580181 0.34272861143504929 0 0.44582938632389452 0.3446830799248457 0 0.44647555311625892 0.32911055449855547 0 0.45721667556580181 0.34272861143504929 0 0.46336271964522341 0.32796299470228168 0 0.45721667556580181 0.34272861143504929 0 0.46336271964522341 0.32796299470228168 0 0.47450063306197571 0.35536119497290758 0 0.45530375565519909 0.31123881930905889 0 0.46336271964522341 0.32796299470228168 0 0.45530375565519909 0.31123881930905889 0 0.46336271964522341 0.32796299470228168 0 0.47394230693558748 0.31256116002081558 0 0.45530375565519909 0.31123881930905889 0 0.44647555311625892 0.32911055449855547 0 0.46336271964522341 0.32796299470228168 0 0.46336271964522341 0.32796299470228168 0 0.5 0.33492497653762981 0 0.47450063306197571 0.35536119497290758 0 0.46336271964522341 0.32796299470228168 0 0.5 0.33492497653762981 0 0.47394230693558748 0.31256116002081558 0 0.47450063306197571 0.35536119497290758 0 0.46237508566571639 0.37119040248890101 0 0.47495485695909972 0.39022156173406569 0 0.47450063306197571 0.35536119497290758 0 0.46237508566571639 0.37119040248890101 0 0.45591508568165617 0.35652523307665579 0 0.46237508566571639 0.37119040248890101 0 0.45591508568165617 0.35652523307665579 0 0.449274503017287 0.3702620484633834 0 0.45721667556580181 0.34272861143504929 0 0.47450063306197571 0.35536119497290758 0 0.45591508568165617 0.35652523307665579 0 0.45721667556580181 0.34272861143504929 0 0.45591508568165617 0.35652523307665579 0 0.44582938632389452 0.3446830799248457 0 0.45591508568165617 0.35652523307665579 0 0.44582938632389452 0.3446830799248457 0 0.44474902977494929 0.35703571735536571 0 0.44474902977494929 0.35703571735536571 0 0.43449463573246 0.36345389211014528 0 0.43581815195577039 0.35030040118639871 0 0.44582938632389452 0.3446830799248457 0 0.44474902977494929 0.35703571735536571 0 0.43581815195577039 0.35030040118639871 0 0.44582938632389452 0.3446830799248457 0 0.43581815195577039 0.35030040118639871 0 0.43303525815689309 0.33635995317089712 0 0.449274503017287 0.3702620484633834 0 0.43449463573246 0.36345389211014528 0 0.43799540591458608 0.38050746693636822 0 0.45591508568165617 0.35652523307665579 0 0.44474902977494929 0.35703571735536571 0 0.449274503017287 0.3702620484633834 0 0.44474902977494929 0.35703571735536571 0 0.449274503017287 0.3702620484633834 0 0.43449463573246 0.36345389211014528 0 0.43449463573246 0.36345389211014528 0 0.4237317835409527 0.37427476146927569 0 0.43799540591458608 0.38050746693636822 0 0.43449463573246 0.36345389211014528 0 0.42323291577698302 0.36539330361670708 0 0.42553480368865682 0.35935633571745118 0 0.42323291577698302 0.36539330361670708 0 0.41836119851374859 0.36077488101156913 0 0.42553480368865682 0.35935633571745118 0 0.43449463573246 0.36345389211014528 0 0.42323291577698302 0.36539330361670708 0 0.4237317835409527 0.37427476146927569 0 0.42323291577698302 0.36539330361670708 0 0.4237317835409527 0.37427476146927569 0 0.41367773031735378 0.36650723123225393 0 0.41367773031735378 0.36650723123225393 0 0.4004282183649831 0.36143554491426177 0 0.41003413355627177 0.37846169010867647 0 0.4237317835409527 0.37427476146927569 0 0.41367773031735378 0.36650723123225393 0 0.41003413355627177 0.37846169010867647 0 0.42323291577698302 0.36539330361670708 0 0.41836119851374859 0.36077488101156913 0 0.41367773031735378 0.36650723123225393 0 0.41836119851374859 0.36077488101156913 0 0.41367773031735378 0.36650723123225393 0 0.41581264341541613 0.35509915885869481 0 0.41367773031735378 0.36650723123225393 0 0.41581264341541613 0.35509915885869481 0 0.4004282183649831 0.36143554491426177 0 0.41581264341541613 0.35509915885869481 0 0.41057646866370429 0.34343801288070391 0 0.4004282183649831 0.36143554491426177 0 0.41581264341541613 0.35509915885869481 0 0.41057646866370429 0.34343801288070391 0 0.41581264341541613 0.35509915885869481 0 0.4004282183649831 0.36143554491426177 0 0.41836119851374859 0.36077488101156913 0 0.41581264341541613 0.35509915885869481 0 0.42248771373454291 0.35234989638372699 0 0.41836119851374859 0.36077488101156913 0 0.41581264341541613 0.35509915885869481 0 0.41581264341541613 0.35509915885869481 0 0.42248771373454291 0.35234989638372699 0 0.41581264341541613 0.35509915885869481 0 0.42248771373454291 0.35234989638372699 0 0.41057646866370429 0.34343801288070391 0 0.42248771373454291 0.35234989638372699 0 0.42378923182554501 0.33934181501112509 0 0.41057646866370429 0.34343801288070391 0 0.42809729407385377 0.34625839242234208 0 0.42248771373454291 0.35234989638372699 0 0.42928651983705679 0.35434378356401292 0 0.42809729407385377 0.34625839242234208 0 0.42248771373454291 0.35234989638372699 0 0.42378923182554501 0.33934181501112509 0 0.41836119851374859 0.36077488101156913 0 0.42553480368865682 0.35935633571745118 0 0.42248771373454291 0.35234989638372699 0 0.42553480368865682 0.35935633571745118 0 0.42248771373454291 0.35234989638372699 0 0.42928651983705679 0.35434378356401292 0 0.43449463573246 0.36345389211014528 0 0.42553480368865682 0.35935633571745118 0 0.42928651983705679 0.35434378356401292 0 0.43449463573246 0.36345389211014528 0 0.42928651983705679 0.35434378356401292 0 0.43581815195577039 0.35030040118639871 0 0.42809729407385377 0.34625839242234208 0 0.43581815195577039 0.35030040118639871 0 0.43303525815689309 0.33635995317089712 0 0.42809729407385377 0.34625839242234208 0 0.42928651983705679 0.35434378356401292 0 0.43581815195577039 0.35030040118639871 0 0.43303525815689309 0.33635995317089712 0 0.42378923182554501 0.33934181501112509 0 0.42474942449873038 0.31830282019795558 0 0.42809729407385377 0.34625839242234208 0 0.43303525815689309 0.33635995317089712 0 0.42378923182554501 0.33934181501112509 0 0.44153964711483901 0.31555601070629419 0 0.42474942449873038 0.31830282019795558 0 0.43644997072168029 0.32483233464342559 0 0.43303525815689309 0.33635995317089712 0 0.42474942449873038 0.31830282019795558 0 0.43644997072168029 0.32483233464342559 0 0.41005817493143942 0.30791884824025151 0 0.42474942449873038 0.31830282019795558 0 0.40181345532250279 0.32392247288742199 0 0.42474942449873038 0.31830282019795558 0 0.41057646866370429 0.34343801288070391 0 0.40181345532250279 0.32392247288742199 0 0.42378923182554501 0.33934181501112509 0 0.42474942449873038 0.31830282019795558 0 0.41057646866370429 0.34343801288070391 0 0.42474942449873038 0.31830282019795558 0 0.41057646866370429 0.34343801288070391 0 0.41057646866370429 0.34343801288070391 0 0.39186273701423879 0.34229220541569477 0 0.40181345532250279 0.32392247288742199 0 0.41057646866370429 0.34343801288070391 0 0.40181345532250279 0.32392247288742199 0 0.39186273701423879 0.34229220541569477 0 0.40181345532250279 0.32392247288742199 0 0.3851889771451974 0.32538937986428129 0 0.39305044198130101 0.30440693289414028 0 0.40181345532250279 0.32392247288742199 0 0.39305044198130101 0.30440693289414028 0 0.40181345532250279 0.32392247288742199 0 0.3851889771451974 0.32538937986428129 0 0.37047311513062031 0.33877519134323869 0 0.37078299344108417 0.31463327025601312 0 0.3851889771451974 0.32538937986428129 0 0.37078299344108417 0.31463327025601312 0 0.39305044198130101 0.30440693289414028 0 0.3851889771451974 0.32538937986428129 0 0.37047311513062031 0.33877519134323869 0 0.39186273701423879 0.34229220541569477 0 0.3851889771451974 0.32538937986428129 0 0.37047311513062031 0.33877519134323869 0 0.39186273701423879 0.34229220541569477 0 0.38035683402569309 0.35420328335679652 0 0.37332984951089959 0.37259655521999629 0 0.38035683402569309 0.35420328335679652 0 0.4004282183649831 0.36143554491426177 0 0.37332984951089959 0.37259655521999629 0 0.4004282183649831 0.36143554491426177 0 0.38793407883111619 0.38359342138296559 0 0.37332984951089959 0.37259655521999629 0 0.4004282183649831 0.36143554491426177 0 0.4004282183649831 0.36143554491426177 0 0.38793407883111619 0.38359342138296559 0 0.41057646866370429 0.34343801288070391 0 0.39186273701423879 0.34229220541569477 0 0.4004282183649831 0.36143554491426177 0 0.41057646866370429 0.34343801288070391 0 0.4004282183649831 0.36143554491426177 0 0.39186273701423879 0.34229220541569477 0 0.38035683402569309 0.35420328335679652 0 0.4004282183649831 0.36143554491426177 0 0.40443557602999092 0.40290210186246722 0 0.40041440838314979 0.3871872229167912 0 0.41162515892536972 0.39294142062304371 0 0.39097945535374901 0.40233896224928251 0 0.40041440838314979 0.3871872229167912 0 0.38793407883111619 0.38359342138296559 0 0.39097945535374901 0.40233896224928251 0 0.40443557602999092 0.40290210186246722 0 0.40041440838314979 0.3871872229167912 0 0.4004282183649831 0.36143554491426177 0 0.40041440838314979 0.3871872229167912 0 0.38793407883111619 0.38359342138296559 0 0.4004282183649831 0.36143554491426177 0 0.40041440838314979 0.3871872229167912 0 0.41003413355627177 0.37846169010867647 0 0.36599916773242308 0.38970762502951528 0 0.37332984951089959 0.37259655521999629 0 0.38793407883111619 0.38359342138296559 0 0.36599916773242308 0.38970762502951528 0 0.38793407883111619 0.38359342138296559 0 0.37543993929724873 0.40575129785166902 0 0.38793407883111619 0.38359342138296559 0 0.37543993929724873 0.40575129785166902 0 0.39097945535374901 0.40233896224928251 0 0.38793407883111619 0.38359342138296559 0 0.37543993929724873 0.40575129785166902 0 0.39097945535374901 0.40233896224928251 0 0.37543993929724873 0.40575129785166902 0 0.38171526389902621 0.42285105453735627 0 0.38171526389902621 0.42285105453735627 0 0.3994188763616614 0.41953624716296339 0 0.39004527558892799 0.44710621518463528 0 0.37262846685289031 0.4395057113053743 0 0.38171526389902621 0.42285105453735627 0 0.39004527558892799 0.44710621518463528 0 0.3994188763616614 0.41953624716296339 0 0.41127267093147091 0.43288505182199288 0 0.39004527558892799 0.44710621518463528 0 0.39097945535374901 0.40233896224928251 0 0.38171526389902621 0.42285105453735627 0 0.3994188763616614 0.41953624716296339 0 0.39097945535374901 0.40233896224928251 0 0.40443557602999092 0.40290210186246722 0 0.3994188763616614 0.41953624716296339 0 0.41798806079353151 0.40742689747979671 0 0.41127267093147091 0.43288505182199288 0 0.43250006627401388 0.41866388845935049 0 0.3994188763616614 0.41953624716296339 0 0.41798806079353151 0.40742689747979671 0 0.41127267093147091 0.43288505182199288 0 0.40443557602999092 0.40290210186246722 0 0.3994188763616614 0.41953624716296339 0 0.41798806079353151 0.40742689747979671 0 0.41127267093147091 0.43288505182199288 0 0.43250006627401388 0.41866388845935049 0 0.41127267093147091 0.43288505182199288 0 0.43250006627401388 0.41866388845935049 0 0.43541840795556708 0.44508037638667691 0 0.41798806079353151 0.40742689747979671 0 0.43250006627401388 0.41866388845935049 0 0.43789884526055628 0.39717584553547852 0 0.41798806079353151 0.40742689747979671 0 0.4252536158639047 0.38872919074748719 0 0.43789884526055628 0.39717584553547852 0 0.41798806079353151 0.40742689747979671 0 0.41162515892536972 0.39294142062304371 0 0.4252536158639047 0.38872919074748719 0 0.40443557602999092 0.40290210186246722 0 0.41798806079353151 0.40742689747979671 0 0.41162515892536972 0.39294142062304371 0 0.40041440838314979 0.3871872229167912 0 0.41162515892536972 0.39294142062304371 0 0.41003413355627177 0.37846169010867647 0 0.41162515892536972 0.39294142062304371 0 0.41003413355627177 0.37846169010867647 0 0.4252536158639047 0.38872919074748719 0 0.4237317835409527 0.37427476146927569 0 0.41003413355627177 0.37846169010867647 0 0.4252536158639047 0.38872919074748719 0 0.4237317835409527 0.37427476146927569 0 0.4252536158639047 0.38872919074748719 0 0.43799540591458608 0.38050746693636822 0 0.4252536158639047 0.38872919074748719 0 0.43799540591458608 0.38050746693636822 0 0.43789884526055628 0.39717584553547852 0 0.43799540591458608 0.38050746693636822 0 0.43789884526055628 0.39717584553547852 0 0.45379920280277591 0.38603464189941372 0 0.449274503017287 0.3702620484633834 0 0.43799540591458608 0.38050746693636822 0 0.45379920280277591 0.38603464189941372 0 0.43789884526055628 0.39717584553547852 0 0.45372746161655669 0.40444272509670809 0 0.45379920280277591 0.38603464189941372 0 0.45372746161655669 0.40444272509670809 0 0.47495485695909972 0.39022156173406569 0 0.45372746161655669 0.40444272509670809 0 0.45379920280277591 0.38603464189941372 0 0.47495485695909972 0.39022156173406569 0 0.45372746161655669 0.40444272509670809 0 0.47495485695909972 0.39022156173406569 0 0.47358492157794679 0.41035774047696899 0 0.46237508566571639 0.37119040248890101 0 0.449274503017287 0.3702620484633834 0 0.45379920280277591 0.38603464189941372 0 0.46237508566571639 0.37119040248890101 0 0.45379920280277591 0.38603464189941372 0 0.47495485695909972 0.39022156173406569 0 0.47450063306197571 0.35536119497290758 0 0.47495485695909972 0.39022156173406569 0 0.5 0.40371247995192122 0 0.47495485695909972 0.39022156173406569 0 0.5 0.40371247995192122 0 0.47358492157794679 0.41035774047696899 0 0.5 0.40371247995192122 0 0.48777079086849412 0.42334028757647979 0 0.47358492157794679 0.41035774047696899 0 0.48777079086849412 0.42334028757647979 0 0.46159459941203063 0.43421033198157832 0 0.48777079086849412 0.42334028757647979 0 0.47358492157794679 0.41035774047696899 0 0.46159459941203063 0.43421033198157832 0 0.45372746161655669 0.40444272509670809 0 0.47358492157794679 0.41035774047696899 0 0.46159459941203063 0.43421033198157832 0 0.43250006627401388 0.41866388845935049 0 0.45372746161655669 0.40444272509670809 0 0.43250006627401388 0.41866388845935049 0 0.43789884526055628 0.39717584553547852 0 0.45372746161655669 0.40444272509670809 0 0.43250006627401388 0.41866388845935049 0 0.45372746161655669 0.40444272509670809 0 0.46159459941203063 0.43421033198157832 0 0.43250006627401388 0.41866388845935049 0 0.46159459941203063 0.43421033198157832 0 0.43541840795556708 0.44508037638667691 0 0.5 0.40371247995192122 0 0.48777079086849412 0.42334028757647979 0 0.5 0.5 0 0.48777079086849412 0.42334028757647979 0 0.46159459941203063 0.43421033198157832 0 0.5 0.5 0 0.46159459941203063 0.43421033198157832 0 0.5 0.5 0 0.43541840795556708 0.44508037638667691 0 0.5 0.5 0 0.43541840795556708 0.44508037638667691 0 0.38926440315541661 0.5 0 0.46159459941203063 0.43421033198157832 0 0.43541840795556708 0.44508037638667691 0 0.43541840795556708 0.44508037638667691 0 0.40924221649910392 0.45595042079177522 0 0.38992584039493439 0.49099094317715142 0 0.43541840795556708 0.44508037638667691 0 0.40924221649910392 0.45595042079177522 0 0.41127267093147091 0.43288505182199288 0 0.43541840795556708 0.44508037638667691 0 0.40924221649910392 0.45595042079177522 0 0.40924221649910392 0.45595042079177522 0 0.39004527558892799 0.44710621518463528 0 0.38898576563787418 0.46487611727281247 0 0.41127267093147091 0.43288505182199288 0 0.39004527558892799 0.44710621518463528 0 0.41127267093147091 0.43288505182199288 0 0.40924221649910392 0.45595042079177522 0 0.39004527558892799 0.44710621518463528 0 0.36757358112949923 0.45710121375389712 0 0.37262846685289031 0.4395057113053743 0 0.39004527558892799 0.44710621518463528 0 0.36757358112949923 0.45710121375389712 0 0.38898576563787418 0.46487611727281247 0 0.37874971076221681 0.47404607846552432 0 0.36757358112949923 0.45710121375389712 0 0.39004527558892799 0.44710621518463528 0 0.38898576563787418 0.46487611727281247 0 0.37874971076221681 0.47404607846552432 0 0.38992584039493439 0.49099094317715142 0 0.40924221649910392 0.45595042079177522 0 0.38898576563787418 0.46487611727281247 0 0.38992584039493439 0.49099094317715142 0 0.38898576563787418 0.46487611727281247 0 0.37874971076221681 0.47404607846552432 0 0.38992584039493439 0.49099094317715142 0 0.36676624368677102 0.47842409595896851 0 0.37874971076221681 0.47404607846552432 0 0.38992584039493439 0.49099094317715142 0 0.43541840795556708 0.44508037638667691 0 0.38992584039493439 0.49099094317715142 0 0.38926440315541661 0.5 0 0.36676624368677102 0.47842409595896851 0 0.38992584039493439 0.49099094317715142 0 0.38926440315541661 0.5 0 0.34027494432360023 0.08274205547160092 0 0.32355467349170719 0.082137782779588414 0 0.33929143860544408 0.1021601620176088 0 0.34027494432360023 0.08274205547160092 0 0.33179191795131269 0.069283523027753952 0 0.32355467349170719 0.082137782779588414 0 0.33179191795131269 0.069283523027753952 0 0.34945299998495882 0.070799793538973504 0 0.34169117756127421 0.059124604046667063 0 0.34027494432360023 0.08274205547160092 0 0.33179191795131269 0.069283523027753952 0 0.34945299998495882 0.070799793538973504 0 0.33179191795131269 0.069283523027753952 0 0.31779441024090271 0.067810470595066979 0 0.32355467349170719 0.082137782779588414 0 0.31779441024090271 0.067810470595066979 0 0.32355467349170719 0.082137782779588414 0 0.30321984577415728 0.076072933864455572 0 0.33179191795131269 0.069283523027753952 0 0.31779441024090271 0.067810470595066979 0 0.31798330210543352 0.053086431734626932 0 0.32355467349170719 0.082137782779588414 0 0.33929143860544408 0.1021601620176088 0 0.30946347463590729 0.096333533521555048 0 0.31570710349765729 0.1165941331786545 0 0.33929143860544408 0.1021601620176088 0 0.30946347463590729 0.096333533521555048 0 0.31570710349765729 0.1165941331786545 0 0.30946347463590729 0.096333533521555048 0 0.31570710349765729 0.1165941331786545 0 0.33492063917175507 0.1193293501806334 0 0.3188448094112134 0.1267760009295919 0 0.31570710349765729 0.1165941331786545 0 0.33929143860544408 0.1021601620176088 0 0.31570710349765729 0.1165941331786545 0 0.3188448094112134 0.1267760009295919 0 0.31570710349765729 0.1165941331786545 0 0.33492063917175507 0.1193293501806334 0 0.33929143860544408 0.1021601620176088 0 0.33929143860544408 0.1021601620176088 0 0.35839766492079322 0.1160000189471745 0 0.36287577371323038 0.087726190856562886 0 0.33929143860544408 0.1021601620176088 0 0.36287577371323038 0.087726190856562886 0 0.33492063917175507 0.1193293501806334 0 0.33929143860544408 0.1021601620176088 0 0.35839766492079322 0.1160000189471745 0 0.33492063917175507 0.1193293501806334 0 0.35839766492079322 0.1160000189471745 0 0.34903491864144032 0.13528590060226831 0 0.35839766492079322 0.1160000189471745 0 0.38086954234553799 0.1017369790920199 0 0.38039099362527812 0.1245371739967609 0 0.35839766492079322 0.1160000189471745 0 0.36287577371323038 0.087726190856562886 0 0.38086954234553799 0.1017369790920199 0 0.36287577371323038 0.087726190856562886 0 0.38646010882101639 0.073292219695516275 0 0.34027494432360023 0.08274205547160092 0 0.36287577371323038 0.087726190856562886 0 0.34945299998495882 0.070799793538973504 0 0.34027494432360023 0.08274205547160092 0 0.33929143860544408 0.1021601620176088 0 0.36287577371323038 0.087726190856562886 0 0.34945299998495882 0.070799793538973504 0 0.36666552645034389 0.069436355068878269 0 0.35392665049107269 0.058062014582888712 0 0.34945299998495882 0.070799793538973504 0 0.35392665049107269 0.058062014582888712 0 0.34169117756127421 0.059124604046667063 0 0.36287577371323038 0.087726190856562886 0 0.34945299998495882 0.070799793538973504 0 0.36666552645034389 0.069436355068878269 0 0.36287577371323038 0.087726190856562886 0 0.36666552645034389 0.069436355068878269 0 0.38646010882101639 0.073292219695516275 0 0.36666552645034389 0.069436355068878269 0 0.3712494132862923 0.054164300928492733 0 0.38646010882101639 0.073292219695516275 0 0.36666552645034389 0.069436355068878269 0 0.3712494132862923 0.054164300928492733 0 0.35392665049107269 0.058062014582888712 0 0.3712494132862923 0.054164300928492733 0 0.35603871775156798 0.035036382161469252 0 0.3712494132862923 0.054164300928492733 0 0.35603871775156798 0.035036382161469252 0 0.3708444278259968 0.029801619446643699 0 0.35603871775156798 0.035036382161469252 0 0.35050376840079528 0.043391016228654128 0 0.3712494132862923 0.054164300928492733 0 0.35603871775156798 0.035036382161469252 0 0.35050376840079528 0.043391016228654128 0 0.35603871775156798 0.035036382161469252 0 0.34651005113678401 0.037337345130235247 0 0.34613833768788138 0.030094518301944581 0 0.35603871775156798 0.035036382161469252 0 0.34651005113678401 0.037337345130235247 0 0.35050376840079528 0.043391016228654128 0 0.34651005113678401 0.037337345130235247 0 0.34613833768788138 0.030094518301944581 0 0.34040526296424339 0.034130012249823073 0 0.35050376840079528 0.043391016228654128 0 0.34271859693263318 0.049237933921512753 0 0.34107013828221999 0.040792417929718529 0 0.34651005113678401 0.037337345130235247 0 0.35050376840079528 0.043391016228654128 0 0.34107013828221999 0.040792417929718529 0 0.35050376840079528 0.043391016228654128 0 0.35392665049107269 0.058062014582888712 0 0.34271859693263318 0.049237933921512753 0 0.3712494132862923 0.054164300928492733 0 0.35050376840079528 0.043391016228654128 0 0.35392665049107269 0.058062014582888712 0 0.35392665049107269 0.058062014582888712 0 0.34169117756127421 0.059124604046667063 0 0.34271859693263318 0.049237933921512753 0 0.37074806474438499 0.0128336114215599 0 0.35781662780556539 -0.0060507171186920863 0 0.37074806474438499 0.0128336114215599 0 0.38177212989710541 -0.0038064740511190229 0 0.35781662780556539 -0.0060507171186920863 0 0.35603871775156798 0.035036382161469252 0 0.37074806474438499 0.0128336114215599 0 0.3708444278259968 0.029801619446643699 0 0.35603871775156798 0.035036382161469252 0 0.37074806474438499 0.0128336114215599 0 0.37074806474438499 0.0128336114215599 0 0.3708444278259968 0.029801619446643699 0 0.376284423196455 0.019711610509055889 0 0.35603871775156798 0.035036382161469252 0 0.37074806474438499 0.0128336114215599 0 0.34509099329838788 0.0212692810091165 0 0.35603871775156798 0.035036382161469252 0 0.34509099329838788 0.0212692810091165 0 0.35603871775156798 0.035036382161469252 0 0.34613833768788138 0.030094518301944581 0 0.34509099329838788 0.0212692810091165 0 0.37074806474438499 0.0128336114215599 0 0.34943424683897151 0.0057298490405236447 0 0.35781662780556539 -0.0060507171186920863 0 0.37074806474438499 0.0128336114215599 0 0.34509099329838788 0.0212692810091165 0 0.34943424683897151 0.0057298490405236447 0 0.34943424683897151 0.0057298490405236447 0 0.3341432688452064 0.0075021798567649258 0 0.33951422985597463 -0.0087164329010892671 0 0.34509099329838788 0.0212692810091165 0 0.3341432688452064 0.0075021798567649258 0 0.33156458669054789 0.01528898881108909 0 0.34509099329838788 0.0212692810091165 0 0.34943424683897151 0.0057298490405236447 0 0.3341432688452064 0.0075021798567649258 0 0.34509099329838788 0.0212692810091165 0 0.3341432688452064 0.0075021798567649258 0 0.3341432688452064 0.0075021798567649258 0 0.33156458669054789 0.01528898881108909 0 0.33156458669054789 0.01528898881108909 0 0.33033399109532618 0.0190050004113223 0 0.32352671149830808 0.020303780856908839 0 0.33156458669054789 0.01528898881108909 0 0.33033399109532618 0.0190050004113223 0 0.33401959034850398 0.027157502057246909 0 0.33156458669054789 0.01528898881108909 0 0.33033399109532618 0.0190050004113223 0 0.34613833768788138 0.030094518301944581 0 0.34509099329838788 0.0212692810091165 0 0.33156458669054789 0.01528898881108909 0 0.34613833768788138 0.030094518301944581 0 0.33156458669054789 0.01528898881108909 0 0.34613833768788138 0.030094518301944581 0 0.33156458669054789 0.01528898881108909 0 0.33401959034850398 0.027157502057246909 0 0.34613833768788138 0.030094518301944581 0 0.33401959034850398 0.027157502057246909 0 0.34040526296424339 0.034130012249823073 0 0.33033399109532618 0.0190050004113223 0 0.33401959034850398 0.027157502057246909 0 0.32785983974055199 0.025460418630353539 0 0.33401959034850398 0.027157502057246909 0 0.32785983974055199 0.025460418630353539 0 0.32747203871753688 0.031739486558631777 0 0.33156458669054789 0.01528898881108909 0 0.32352671149830808 0.020303780856908839 0 0.3152088295116417 0.012519754001002871 0 0.32785983974055199 0.025460418630353539 0 0.32206956615499671 0.027478337712225701 0 0.32747203871753688 0.031739486558631777 0 0.32785983974055199 0.025460418630353539 0 0.32206956615499671 0.027478337712225701 0 0.32352671149830808 0.020303780856908839 0 0.32206956615499671 0.027478337712225701 0 0.31636310188807593 0.030765709573350779 0 0.31349542790498258 0.022204520578080179 0 0.31636310188807593 0.030765709573350779 0 0.31349542790498258 0.022204520578080179 0 0.31012763308059238 0.03105974513272337 0 0.32206956615499671 0.027478337712225701 0 0.31349542790498258 0.022204520578080179 0 0.32352671149830808 0.020303780856908839 0 0.31349542790498258 0.022204520578080179 0 0.32352671149830808 0.020303780856908839 0 0.3152088295116417 0.012519754001002871 0 0.33033399109532618 0.0190050004113223 0 0.32785983974055199 0.025460418630353539 0 0.32352671149830808 0.020303780856908839 0 0.33156458669054789 0.01528898881108909 0 0.3128121591228229 -0.0037616742220522481 0 0.3341432688452064 0.0075021798567649258 0 0.33156458669054789 0.01528898881108909 0 0.3128121591228229 -0.0037616742220522481 0 0.33156458669054789 0.01528898881108909 0 0.3152088295116417 0.012519754001002871 0 0.3128121591228229 -0.0037616742220522481 0 0.33179191795131269 0.069283523027753952 0 0.34169117756127421 0.059124604046667063 0 0.31798330210543352 0.053086431734626932 0 0.34169117756127421 0.059124604046667063 0 0.33239600375851119 0.046368352519524203 0 0.31798330210543352 0.053086431734626932 0 0.34169117756127421 0.059124604046667063 0 0.31798330210543352 0.053086431734626932 0 0.34169117756127421 0.059124604046667063 0 0.34271859693263318 0.049237933921512753 0 0.33239600375851119 0.046368352519524203 0 0.34271859693263318 0.049237933921512753 0 0.34107013828221999 0.040792417929718529 0 0.33239600375851119 0.046368352519524203 0 0.33401959034850398 0.027157502057246909 0 0.34040526296424339 0.034130012249823073 0 0.33372278954110579 0.036530914521093957 0 0.34651005113678401 0.037337345130235247 0 0.34107013828221999 0.040792417929718529 0 0.34040526296424339 0.034130012249823073 0 0.34107013828221999 0.040792417929718529 0 0.34040526296424339 0.034130012249823073 0 0.33372278954110579 0.036530914521093957 0 0.33401959034850398 0.027157502057246909 0 0.33372278954110579 0.036530914521093957 0 0.32747203871753688 0.031739486558631777 0 0.33372278954110579 0.036530914521093957 0 0.32747203871753688 0.031739486558631777 0 0.32697370317561952 0.038997715811619288 0 0.34107013828221999 0.040792417929718529 0 0.33372278954110579 0.036530914521093957 0 0.33239600375851119 0.046368352519524203 0 0.33372278954110579 0.036530914521093957 0 0.33239600375851119 0.046368352519524203 0 0.32697370317561952 0.038997715811619288 0 0.33239600375851119 0.046368352519524203 0 0.32697370317561952 0.038997715811619288 0 0.31957869548516232 0.042831143625766177 0 0.32697370317561952 0.038997715811619288 0 0.31962133551972222 0.036074667310375168 0 0.31957869548516232 0.042831143625766177 0 0.32206956615499671 0.027478337712225701 0 0.32747203871753688 0.031739486558631777 0 0.31962133551972222 0.036074667310375168 0 0.32747203871753688 0.031739486558631777 0 0.32697370317561952 0.038997715811619288 0 0.31962133551972222 0.036074667310375168 0 0.32206956615499671 0.027478337712225701 0 0.31636310188807593 0.030765709573350779 0 0.31962133551972222 0.036074667310375168 0 0.31962133551972222 0.036074667310375168 0 0.31957869548516232 0.042831143625766177 0 0.31197080791954762 0.037703397971856019 0 0.31636310188807593 0.030765709573350779 0 0.31197080791954762 0.037703397971856019 0 0.31012763308059238 0.03105974513272337 0 0.31636310188807593 0.030765709573350779 0 0.31962133551972222 0.036074667310375168 0 0.31197080791954762 0.037703397971856019 0 0.31957869548516232 0.042831143625766177 0 0.31798330210543352 0.053086431734626932 0 0.30865272612606082 0.043887349199197949 0 0.31957869548516232 0.042831143625766177 0 0.30865272612606082 0.043887349199197949 0 0.31197080791954762 0.037703397971856019 0 0.33239600375851119 0.046368352519524203 0 0.31957869548516232 0.042831143625766177 0 0.31798330210543352 0.053086431734626932 0 0.31798330210543352 0.053086431734626932 0 0.29427542664959261 0.047048259422587682 0 0.31798330210543352 0.053086431734626932 0 0.29697621691240761 0.055812334207355929 0 0.29427542664959261 0.047048259422587682 0 0.31798330210543352 0.053086431734626932 0 0.30865272612606082 0.043887349199197949 0 0.29427542664959261 0.047048259422587682 0 0.31779441024090271 0.067810470595066979 0 0.31798330210543352 0.053086431734626932 0 0.29697621691240761 0.055812334207355929 0 0.31779441024090271 0.067810470595066979 0 0.29697621691240761 0.055812334207355929 0 0.31197080791954762 0.037703397971856019 0 0.29979755365498889 0.035402357742011392 0 0.31012763308059238 0.03105974513272337 0 0.30865272612606082 0.043887349199197949 0 0.31197080791954762 0.037703397971856019 0 0.29979755365498889 0.035402357742011392 0 0.29979755365498889 0.035402357742011392 0 0.31012763308059238 0.03105974513272337 0 0.30244317340959692 0.02762552031992286 0 0.30865272612606082 0.043887349199197949 0 0.29979755365498889 0.035402357742011392 0 0.29427542664959261 0.047048259422587682 0 0.29427542664959261 0.047048259422587682 0 0.28815772154992791 0.02719628285751589 0 0.29427542664959261 0.047048259422587682 0 0.28815772154992791 0.02719628285751589 0 0.27587407148813953 0.03509049677549457 0 0.29979755365498889 0.035402357742011392 0 0.29427542664959261 0.047048259422587682 0 0.28815772154992791 0.02719628285751589 0 0.29427542664959261 0.047048259422587682 0 0.2718666567455702 0.041340957043958751 0 0.29697621691240761 0.055812334207355929 0 0.29427542664959261 0.047048259422587682 0 0.2718666567455702 0.041340957043958751 0 0.29697621691240761 0.055812334207355929 0 0.2718666567455702 0.041340957043958751 0 0.28391733574839512 0.066510700661278732 0 0.29697621691240761 0.055812334207355929 0 0.2718666567455702 0.041340957043958751 0 0.29697621691240761 0.055812334207355929 0 0.29427542664959261 0.047048259422587682 0 0.3152088295116417 0.012519754001002871 0 0.30366700803312707 0.0099431978903801906 0 0.3128121591228229 -0.0037616742220522481 0 0.30366700803312707 0.0099431978903801906 0 0.29133023549735382 0.0069148364263318229 0 0.29600732405563013 -0.0056944125088911179 0 0.30366700803312707 0.0099431978903801906 0 0.3128121591228229 -0.0037616742220522481 0 0.29600732405563013 -0.0056944125088911179 0 0.31349542790498258 0.022204520578080179 0 0.3152088295116417 0.012519754001002871 0 0.30366700803312707 0.0099431978903801906 0 0.30366700803312707 0.0099431978903801906 0 0.29888444326290159 0.01988190779369909 0 0.29133023549735382 0.0069148364263318229 0 0.31349542790498258 0.022204520578080179 0 0.29888444326290159 0.01988190779369909 0 0.30244317340959692 0.02762552031992286 0 0.31349542790498258 0.022204520578080179 0 0.30366700803312707 0.0099431978903801906 0 0.29888444326290159 0.01988190779369909 0 0.31349542790498258 0.022204520578080179 0 0.31012763308059238 0.03105974513272337 0 0.30244317340959692 0.02762552031992286 0 0.28815772154992791 0.02719628285751589 0 0.28346335519083482 0.017340383360276469 0 0.27587407148813953 0.03509049677549457 0 0.29979755365498889 0.035402357742011392 0 0.30244317340959692 0.02762552031992286 0 0.28815772154992791 0.02719628285751589 0 0.29888444326290159 0.01988190779369909 0 0.30244317340959692 0.02762552031992286 0 0.28815772154992791 0.02719628285751589 0 0.29888444326290159 0.01988190779369909 0 0.28815772154992791 0.02719628285751589 0 0.28346335519083482 0.017340383360276469 0 0.28346335519083482 0.017340383360276469 0 0.29133023549735382 0.0069148364263318229 0 0.27180313609554629 0.0064325663205091234 0 0.29888444326290159 0.01988190779369909 0 0.28346335519083482 0.017340383360276469 0 0.29133023549735382 0.0069148364263318229 0 0.29133023549735382 0.0069148364263318229 0 0.27180313609554629 0.0064325663205091234 0 0.28040157571996438 -0.0094129082818092888 0 0.28346335519083482 0.017340383360276469 0 0.27180313609554629 0.0064325663205091234 0 0.27587407148813953 0.03509049677549457 0 0.27180313609554629 0.0064325663205091234 0 0.26595873469214132 0.03109424131399887 0 0.27587407148813953 0.03509049677549457 0 0.27180313609554629 0.0064325663205091234 0 0.27587407148813953 0.03509049677549457 0 0.27180313609554629 0.0064325663205091234 0 0.26595873469214132 0.03109424131399887 0 0.2580147279617046 0.016732788727074909 0 0.26595873469214132 0.03109424131399887 0 0.2580147279617046 0.016732788727074909 0 0.25476028869216721 0.031482054603957102 0 0.24541456557393751 0.024685190324105249 0 0.2580147279617046 0.016732788727074909 0 0.25476028869216721 0.031482054603957102 0 0.27180313609554629 0.0064325663205091234 0 0.25197628184863868 0.0051656796147290978 0 0.25899550820555201 -0.0050161061057214986 0 0.27180313609554629 0.0064325663205091234 0 0.2580147279617046 0.016732788727074909 0 0.25197628184863868 0.0051656796147290978 0 0.24567564017074209 0.014119593049138551 0 0.2580147279617046 0.016732788727074909 0 0.25197628184863868 0.0051656796147290978 0 0.2718666567455702 0.041340957043958751 0 0.26703741512148288 0.066270488947615336 0 0.28391733574839512 0.066510700661278732 0 0.29427542664959261 0.047048259422587682 0 0.27587407148813953 0.03509049677549457 0 0.2718666567455702 0.041340957043958751 0 0.26595873469214132 0.03109424131399887 0 0.27587407148813953 0.03509049677549457 0 0.2718666567455702 0.041340957043958751 0 0.2718666567455702 0.041340957043958751 0 0.25476028869216721 0.031482054603957102 0 0.24691542149975779 0.034986112718363299 0 0.2718666567455702 0.041340957043958751 0 0.25476028869216721 0.031482054603957102 0 0.24691542149975779 0.034986112718363299 0 0.2718666567455702 0.041340957043958751 0 0.24735006605431861 0.04938372300819379 0 0.24691542149975779 0.034986112718363299 0 0.2718666567455702 0.041340957043958751 0 0.26595873469214132 0.03109424131399887 0 0.2718666567455702 0.041340957043958751 0 0.25476028869216721 0.031482054603957102 0 0.26595873469214132 0.03109424131399887 0 0.25476028869216721 0.031482054603957102 0 0.24735006605431861 0.04938372300819379 0 0.26703741512148288 0.066270488947615336 0 0.24735006605431861 0.04938372300819379 0 0.2718666567455702 0.041340957043958751 0 0.26703741512148288 0.066270488947615336 0 0.2478465110212274 0.070439300038157515 0 0.24735006605431861 0.04938372300819379 0 0.26703741512148288 0.066270488947615336 0 0.2478465110212274 0.070439300038157515 0 0.27081351035297457 0.081787727985532147 0 0.26703741512148288 0.066270488947615336 0 0.2478465110212274 0.070439300038157515 0 0.25317767889284221 0.088265634331709378 0 0.27081351035297457 0.081787727985532147 0 0.25317767889284221 0.088265634331709378 0 0.27081351035297457 0.081787727985532147 0 0.2707478412969756 0.097757677582579416 0 0.27081351035297457 0.081787727985532147 0 0.28672476418864712 0.083157254887036819 0 0.2707478412969756 0.097757677582579416 0 0.26703741512148288 0.066270488947615336 0 0.28391733574839512 0.066510700661278732 0 0.28672476418864712 0.083157254887036819 0 0.26703741512148288 0.066270488947615336 0 0.28672476418864712 0.083157254887036819 0 0.27081351035297457 0.081787727985532147 0 0.26703741512148288 0.066270488947615336 0 0.28672476418864712 0.083157254887036819 0 0.29697621691240761 0.055812334207355929 0 0.28391733574839512 0.066510700661278732 0 0.30321984577415728 0.076072933864455572 0 0.28391733574839512 0.066510700661278732 0 0.28672476418864712 0.083157254887036819 0 0.30321984577415728 0.076072933864455572 0 0.28672476418864712 0.083157254887036819 0 0.30641211325581141 0.1000440208264583 0 0.28672476418864712 0.083157254887036819 0 0.30321984577415728 0.076072933864455572 0 0.30946347463590729 0.096333533521555048 0 0.28672476418864712 0.083157254887036819 0 0.30946347463590729 0.096333533521555048 0 0.30641211325581141 0.1000440208264583 0 0.32355467349170719 0.082137782779588414 0 0.30321984577415728 0.076072933864455572 0 0.30946347463590729 0.096333533521555048 0 0.30321984577415728 0.076072933864455572 0 0.30946347463590729 0.096333533521555048 0 0.31779441024090271 0.067810470595066979 0 0.29697621691240761 0.055812334207355929 0 0.30321984577415728 0.076072933864455572 0 0.29697621691240761 0.055812334207355929 0 0.30321984577415728 0.076072933864455572 0 0.31570710349765729 0.1165941331786545 0 0.29197634633539848 0.13111771686012769 0 0.31570710349765729 0.1165941331786545 0 0.298264476574363 0.11514893757960271 0 0.29197634633539848 0.13111771686012769 0 0.31570710349765729 0.1165941331786545 0 0.298264476574363 0.11514893757960271 0 0.30629111363597827 0.1078258113616163 0 0.31570710349765729 0.1165941331786545 0 0.29197634633539848 0.13111771686012769 0 0.3188448094112134 0.1267760009295919 0 0.298264476574363 0.11514893757960271 0 0.30629111363597827 0.1078258113616163 0 0.30018073367720188 0.1064071519847135 0 0.30641211325581141 0.1000440208264583 0 0.30018073367720188 0.1064071519847135 0 0.28975523124265518 0.10260983817117671 0 0.31570710349765729 0.1165941331786545 0 0.30629111363597827 0.1078258113616163 0 0.30946347463590729 0.096333533521555048 0 0.30629111363597827 0.1078258113616163 0 0.30946347463590729 0.096333533521555048 0 0.30641211325581141 0.1000440208264583 0 0.30629111363597827 0.1078258113616163 0 0.30641211325581141 0.1000440208264583 0 0.30018073367720188 0.1064071519847135 0 0.28672476418864712 0.083157254887036819 0 0.28975523124265518 0.10260983817117671 0 0.2707478412969756 0.097757677582579416 0 0.298264476574363 0.11514893757960271 0 0.30018073367720188 0.1064071519847135 0 0.28975523124265518 0.10260983817117671 0 0.28672476418864712 0.083157254887036819 0 0.30641211325581141 0.1000440208264583 0 0.28975523124265518 0.10260983817117671 0 0.298264476574363 0.11514893757960271 0 0.2802334497292383 0.1172711913265167 0 0.29197634633539848 0.13111771686012769 0 0.298264476574363 0.11514893757960271 0 0.28975523124265518 0.10260983817117671 0 0.2802334497292383 0.1172711913265167 0 0.2802334497292383 0.1172711913265167 0 0.2707478412969756 0.097757677582579416 0 0.26200350486827562 0.11856007979607611 0 0.2802334497292383 0.1172711913265167 0 0.26200350486827562 0.11856007979607611 0 0.27114361170912549 0.13039055410677869 0 0.2707478412969756 0.097757677582579416 0 0.26200350486827562 0.11856007979607611 0 0.28975523124265518 0.10260983817117671 0 0.2802334497292383 0.1172711913265167 0 0.2707478412969756 0.097757677582579416 0 0.2499041473174686 0.1126215723809678 0 0.2707478412969756 0.097757677582579416 0 0.25099925453232802 0.099791245076321963 0 0.25317767889284221 0.088265634331709378 0 0.2707478412969756 0.097757677582579416 0 0.25099925453232802 0.099791245076321963 0 0.2499041473174686 0.1126215723809678 0 0.2707478412969756 0.097757677582579416 0 0.26200350486827562 0.11856007979607611 0 0.24945576560316771 0.12615472028677199 0 0.2499041473174686 0.1126215723809678 0 0.26200350486827562 0.11856007979607611 0 0.26200350486827562 0.11856007979607611 0 0.25325916843957558 0.1393624820095726 0 0.27114361170912549 0.13039055410677869 0 0.26200350486827562 0.11856007979607611 0 0.25325916843957558 0.1393624820095726 0 0.25325916843957558 0.1393624820095726 0 0.27114361170912549 0.13039055410677869 0 0.26824558917313962 0.1456413005416004 0 0.24945576560316771 0.12615472028677199 0 0.26200350486827562 0.11856007979607611 0 0.25325916843957558 0.1393624820095726 0 0.26824558917313962 0.1456413005416004 0 0.29197634633539848 0.13111771686012769 0 0.27114361170912549 0.13039055410677869 0 0.26824558917313962 0.1456413005416004 0 0.29197634633539848 0.13111771686012769 0 0.2802334497292383 0.1172711913265167 0 0.27114361170912549 0.13039055410677869 0 0.29197634633539848 0.13111771686012769 0 0.26824558917313962 0.1456413005416004 0 0.26371291471190972 0.16413027107594841 0 0.28396854692066231 0.1548236889716052 0 0.24451483201087909 0.1601648842230706 0 0.26824558917313962 0.1456413005416004 0 0.24451483201087909 0.1601648842230706 0 0.25325916843957558 0.1393624820095726 0 0.26824558917313962 0.1456413005416004 0 0.24451483201087909 0.1601648842230706 0 0.25341655966781701 0.1705551613544993 0 0.26371291471190972 0.16413027107594841 0 0.24451483201087909 0.1601648842230706 0 0.26824558917313962 0.1456413005416004 0 0.26371291471190972 0.16413027107594841 0 0.25341655966781701 0.1705551613544993 0 0.26371291471190972 0.16413027107594841 0 0.25888097123098008 0.17936519755009861 0 0.25125949940876557 0.1865332481602214 0 0.25888097123098008 0.17936519755009861 0 0.25827683990477052 0.19048673584282219 0 0.24655752071749731 0.17856029256887709 0 0.25125949940876557 0.1865332481602214 0 0.25888097123098008 0.17936519755009861 0 0.24655752071749731 0.17856029256887709 0 0.25341655966781701 0.1705551613544993 0 0.25888097123098008 0.17936519755009861 0 0.25888097123098008 0.17936519755009861 0 0.26763755622857083 0.1870759780467797 0 0.25827683990477052 0.19048673584282219 0 0.25888097123098008 0.17936519755009861 0 0.27676916031474152 0.17647389473198161 0 0.26763755622857083 0.1870759780467797 0 0.26371291471190972 0.16413027107594841 0 0.25888097123098008 0.17936519755009861 0 0.27676916031474152 0.17647389473198161 0 0.27676916031474152 0.17647389473198161 0 0.26763755622857083 0.1870759780467797 0 0.27661476040069338 0.19528646413973891 0 0.26371291471190972 0.16413027107594841 0 0.27676916031474152 0.17647389473198161 0 0.28396854692066231 0.1548236889716052 0 0.27676916031474152 0.17647389473198161 0 0.29548049758773243 0.16592189147154471 0 0.28396854692066231 0.1548236889716052 0 0.27676916031474152 0.17647389473198161 0 0.29489140072334519 0.1853747067758558 0 0.27661476040069338 0.19528646413973891 0 0.27676916031474152 0.17647389473198161 0 0.29548049758773243 0.16592189147154471 0 0.29489140072334519 0.1853747067758558 0 0.29489140072334519 0.1853747067758558 0 0.31149716804071143 0.19586364947637261 0 0.3145419810135871 0.16829504009510671 0 0.29548049758773243 0.16592189147154471 0 0.29489140072334519 0.1853747067758558 0 0.3145419810135871 0.16829504009510671 0 0.29548049758773243 0.16592189147154471 0 0.30762677340105238 0.1456570591484288 0 0.3145419810135871 0.16829504009510671 0 0.30762677340105238 0.1456570591484288 0 0.29197634633539848 0.13111771686012769 0 0.3188448094112134 0.1267760009295919 0 0.30762677340105238 0.1456570591484288 0 0.29197634633539848 0.13111771686012769 0 0.28396854692066231 0.1548236889716052 0 0.26824558917313962 0.1456413005416004 0 0.29197634633539848 0.13111771686012769 0 0.28396854692066231 0.1548236889716052 0 0.29548049758773243 0.16592189147154471 0 0.30762677340105238 0.1456570591484288 0 0.28396854692066231 0.1548236889716052 0 0.27394636987571819 0.2430972415952746 0 0.26039351933152011 0.24124957149211521 0 0.27742806890125038 0.2261209308202011 0 0.27394636987571819 0.2430972415952746 0 0.27742806890125038 0.2261209308202011 0 0.28702817405553338 0.24886536820887589 0 0.27093571721456888 0.25615309585990631 0 0.27394636987571819 0.2430972415952746 0 0.28702817405553338 0.24886536820887589 0 0.27093571721456888 0.25615309585990631 0 0.27394636987571819 0.2430972415952746 0 0.26039351933152011 0.24124957149211521 0 0.24589653344452231 0.23375499404996961 0 0.25182038173936289 0.25864808758374469 0 0.26039351933152011 0.24124957149211521 0 0.26039351933152011 0.24124957149211521 0 0.25824271161636492 0.22233484511280191 0 0.27742806890125038 0.2261209308202011 0 0.24589653344452231 0.23375499404996961 0 0.26039351933152011 0.24124957149211521 0 0.25824271161636492 0.22233484511280191 0 0.2491656828497332 0.21658518813443031 0 0.24589653344452231 0.23375499404996961 0 0.25824271161636492 0.22233484511280191 0 0.25824271161636492 0.22233484511280191 0 0.27742806890125038 0.2261209308202011 0 0.27002852887765522 0.21071327958425831 0 0.26039351933152011 0.24124957149211521 0 0.27742806890125038 0.2261209308202011 0 0.27742806890125038 0.2261209308202011 0 0.27002852887765522 0.21071327958425831 0 0.29446261847098087 0.21099229014828691 0 0.27002852887765522 0.21071327958425831 0 0.27661476040069338 0.19528646413973891 0 0.29446261847098087 0.21099229014828691 0 0.25824271161636492 0.22233484511280191 0 0.27002852887765522 0.21071327958425831 0 0.25686888040273781 0.2099468495260364 0 0.2491656828497332 0.21658518813443031 0 0.25824271161636492 0.22233484511280191 0 0.25686888040273781 0.2099468495260364 0 0.24720077992058109 0.2060430513269037 0 0.2491656828497332 0.21658518813443031 0 0.25686888040273781 0.2099468495260364 0 0.24720077992058109 0.2060430513269037 0 0.25686888040273781 0.2099468495260364 0 0.25340524049174229 0.20349517553653201 0 0.24720077992058109 0.2060430513269037 0 0.25340524049174229 0.20349517553653201 0 0.25686888040273781 0.2099468495260364 0 0.25340524049174229 0.20349517553653201 0 0.26319411162933071 0.20056905961999999 0 0.27002852887765522 0.21071327958425831 0 0.25686888040273781 0.2099468495260364 0 0.26319411162933071 0.20056905961999999 0 0.26319411162933071 0.20056905961999999 0 0.25269584698820519 0.19667155210436921 0 0.25827683990477052 0.19048673584282219 0 0.24720077992058109 0.2060430513269037 0 0.25340524049174229 0.20349517553653201 0 0.25269584698820519 0.19667155210436921 0 0.25340524049174229 0.20349517553653201 0 0.26319411162933071 0.20056905961999999 0 0.25269584698820519 0.19667155210436921 0 0.25125949940876557 0.1865332481602214 0 0.25269584698820519 0.19667155210436921 0 0.25827683990477052 0.19048673584282219 0 0.26763755622857083 0.1870759780467797 0 0.26319411162933071 0.20056905961999999 0 0.25827683990477052 0.19048673584282219 0 0.26763755622857083 0.1870759780467797 0 0.26319411162933071 0.20056905961999999 0 0.27661476040069338 0.19528646413973891 0 0.27002852887765522 0.21071327958425831 0 0.26319411162933071 0.20056905961999999 0 0.27661476040069338 0.19528646413973891 0 0.29489140072334519 0.1853747067758558 0 0.27661476040069338 0.19528646413973891 0 0.29446261847098087 0.21099229014828691 0 0.29489140072334519 0.1853747067758558 0 0.31149716804071143 0.19586364947637261 0 0.29446261847098087 0.21099229014828691 0 0.31149716804071143 0.19586364947637261 0 0.29446261847098087 0.21099229014828691 0 0.31802090649223069 0.21307633780189711 0 0.31149716804071143 0.19586364947637261 0 0.29446261847098087 0.21099229014828691 0 0.29446261847098087 0.21099229014828691 0 0.30459736554669969 0.22332671298235179 0 0.31802090649223069 0.21307633780189711 0 0.27742806890125038 0.2261209308202011 0 0.29446261847098087 0.21099229014828691 0 0.27742806890125038 0.2261209308202011 0 0.30459736554669969 0.22332671298235179 0 0.30198296723744328 0.24039256257184269 0 0.27742806890125038 0.2261209308202011 0 0.29446261847098087 0.21099229014828691 0 0.30459736554669969 0.22332671298235179 0 0.30459736554669969 0.22332671298235179 0 0.30198296723744328 0.24039256257184269 0 0.32457314752611632 0.23534393270117471 0 0.30085408144977849 0.25506947009820818 0 0.30198296723744328 0.24039256257184269 0 0.28702817405553338 0.24886536820887589 0 0.27742806890125038 0.2261209308202011 0 0.30198296723744328 0.24039256257184269 0 0.28702817405553338 0.24886536820887589 0 0.32457314752611632 0.23534393270117471 0 0.34623256453454282 0.231213714070923 0 0.343917366577356 0.24832173179906719 0 0.33032592345039269 0.25777531348904947 0 0.32457314752611632 0.23534393270117471 0 0.343917366577356 0.24832173179906719 0 0.31418920758497548 0.25524760539231522 0 0.30198296723744328 0.24039256257184269 0 0.32457314752611632 0.23534393270117471 0 0.31418920758497548 0.25524760539231522 0 0.33032592345039269 0.25777531348904947 0 0.32457314752611632 0.23534393270117471 0 0.32457314752611632 0.23534393270117471 0 0.33778326537895509 0.21564722519150831 0 0.31802090649223069 0.21307633780189711 0 0.30459736554669969 0.22332671298235179 0 0.32457314752611632 0.23534393270117471 0 0.31802090649223069 0.21307633780189711 0 0.32457314752611632 0.23534393270117471 0 0.33778326537895509 0.21564722519150831 0 0.34623256453454282 0.231213714070923 0 0.33778326537895509 0.21564722519150831 0 0.31802090649223069 0.21307633780189711 0 0.33521187398992131 0.19728421631168849 0 0.33778326537895509 0.21564722519150831 0 0.33521187398992131 0.19728421631168849 0 0.34942124727809598 0.20729530726019199 0 0.31149716804071143 0.19586364947637261 0 0.31802090649223069 0.21307633780189711 0 0.33521187398992131 0.19728421631168849 0 0.31149716804071143 0.19586364947637261 0 0.32853171761044192 0.18073500880445839 0 0.31149716804071143 0.19586364947637261 0 0.33521187398992131 0.19728421631168849 0 0.32853171761044192 0.18073500880445839 0 0.33521187398992131 0.19728421631168849 0 0.35059115605304342 0.193861231873699 0 0.34506939583143559 0.18172230518989491 0 0.33521187398992131 0.19728421631168849 0 0.35059115605304342 0.193861231873699 0 0.34942124727809598 0.20729530726019199 0 0.35059115605304342 0.193861231873699 0 0.3603102994727122 0.2006342513644874 0 0.34942124727809598 0.20729530726019199 0 0.35059115605304342 0.193861231873699 0 0.3603102994727122 0.2006342513644874 0 0.36048009496670269 0.18706370815598719 0 0.35059115605304342 0.193861231873699 0 0.34506939583143559 0.18172230518989491 0 0.36048009496670269 0.18706370815598719 0 0.36973640659909862 0.1967287469634717 0 0.36048009496670269 0.18706370815598719 0 0.37853599879473232 0.18250383705155979 0 0.36973640659909862 0.1967287469634717 0 0.3603102994727122 0.2006342513644874 0 0.36048009496670269 0.18706370815598719 0 0.36973640659909862 0.1967287469634717 0 0.3603102994727122 0.2006342513644874 0 0.36747074980764738 0.2053371921967875 0 0.3603102994727122 0.2006342513644874 0 0.36747074980764738 0.2053371921967875 0 0.36222779177931941 0.21249860188023159 0 0.36395912561929528 0.22803912849048799 0 0.37754977914907428 0.2133221773275093 0 0.37760850137945923 0.2114871685789593 0 0.36222779177931941 0.21249860188023159 0 0.36395912561929528 0.22803912849048799 0 0.37760850137945923 0.2114871685789593 0 0.36747074980764738 0.2053371921967875 0 0.36222779177931941 0.21249860188023159 0 0.37760850137945923 0.2114871685789593 0 0.36973640659909862 0.1967287469634717 0 0.36747074980764738 0.2053371921967875 0 0.37760850137945923 0.2114871685789593 0 0.36222779177931941 0.21249860188023159 0 0.34942124727809598 0.20729530726019199 0 0.35192479891804168 0.21893879537866859 0 0.3603102994727122 0.2006342513644874 0 0.36222779177931941 0.21249860188023159 0 0.34942124727809598 0.20729530726019199 0 0.33778326537895509 0.21564722519150831 0 0.34942124727809598 0.20729530726019199 0 0.35192479891804168 0.21893879537866859 0 0.34623256453454282 0.231213714070923 0 0.36395912561929528 0.22803912849048799 0 0.35798833293983601 0.24167511885678411 0 0.34623256453454282 0.231213714070923 0 0.35192479891804168 0.21893879537866859 0 0.36395912561929528 0.22803912849048799 0 0.33778326537895509 0.21564722519150831 0 0.34623256453454282 0.231213714070923 0 0.35192479891804168 0.21893879537866859 0 0.36222779177931941 0.21249860188023159 0 0.35192479891804168 0.21893879537866859 0 0.36395912561929528 0.22803912849048799 0 0.36395912561929528 0.22803912849048799 0 0.38178860342640641 0.22546404231931019 0 0.37754977914907428 0.2133221773275093 0 0.36395912561929528 0.22803912849048799 0 0.37251516075371882 0.24207903867420399 0 0.38178860342640641 0.22546404231931019 0 0.36395912561929528 0.22803912849048799 0 0.37760850137945923 0.2114871685789593 0 0.36395912561929528 0.22803912849048799 0 0.37251516075371882 0.24207903867420399 0 0.35798833293983601 0.24167511885678411 0 0.36331744721426701 0.25872198124923812 0 0.37251516075371882 0.24207903867420399 0 0.35798833293983601 0.24167511885678411 0 0.34623256453454282 0.231213714070923 0 0.343917366577356 0.24832173179906719 0 0.35798833293983601 0.24167511885678411 0 0.36331744721426701 0.25872198124923812 0 0.343917366577356 0.24832173179906719 0 0.35798833293983601 0.24167511885678411 0 0.34372943676498208 0.15111495397967939 0 0.33282990224798731 0.13692235245376669 0 0.34903491864144032 0.13528590060226831 0 0.34372943676498208 0.15111495397967939 0 0.32604923529574031 0.1512432560964653 0 0.33652647336826419 0.16611528814801041 0 0.34372943676498208 0.15111495397967939 0 0.33282990224798731 0.13692235245376669 0 0.32604923529574031 0.1512432560964653 0 0.33492063917175507 0.1193293501806334 0 0.33282990224798731 0.13692235245376669 0 0.3188448094112134 0.1267760009295919 0 0.33492063917175507 0.1193293501806334 0 0.33282990224798731 0.13692235245376669 0 0.34903491864144032 0.13528590060226831 0 0.30762677340105238 0.1456570591484288 0 0.32133768008899832 0.1401496671570632 0 0.3188448094112134 0.1267760009295919 0 0.33282990224798731 0.13692235245376669 0 0.32133768008899832 0.1401496671570632 0 0.3188448094112134 0.1267760009295919 0 0.30762677340105238 0.1456570591484288 0 0.32604923529574031 0.1512432560964653 0 0.3145419810135871 0.16829504009510671 0 0.30762677340105238 0.1456570591484288 0 0.32133768008899832 0.1401496671570632 0 0.32604923529574031 0.1512432560964653 0 0.33282990224798731 0.13692235245376669 0 0.32133768008899832 0.1401496671570632 0 0.32604923529574031 0.1512432560964653 0 0.3145419810135871 0.16829504009510671 0 0.32853171761044192 0.18073500880445839 0 0.33652647336826419 0.16611528814801041 0 0.32604923529574031 0.1512432560964653 0 0.3145419810135871 0.16829504009510671 0 0.33652647336826419 0.16611528814801041 0 0.31149716804071143 0.19586364947637261 0 0.3145419810135871 0.16829504009510671 0 0.32853171761044192 0.18073500880445839 0 0.32853171761044192 0.18073500880445839 0 0.33652647336826419 0.16611528814801041 0 0.34506939583143559 0.18172230518989491 0 0.33521187398992131 0.19728421631168849 0 0.32853171761044192 0.18073500880445839 0 0.34506939583143559 0.18172230518989491 0 0.33652647336826419 0.16611528814801041 0 0.35753076279084162 0.1664838157905755 0 0.34506939583143559 0.18172230518989491 0 0.34372943676498208 0.15111495397967939 0 0.33652647336826419 0.16611528814801041 0 0.35753076279084162 0.1664838157905755 0 0.35753076279084162 0.1664838157905755 0 0.34506939583143559 0.18172230518989491 0 0.36048009496670269 0.18706370815598719 0 0.35753076279084162 0.1664838157905755 0 0.36048009496670269 0.18706370815598719 0 0.37853599879473232 0.18250383705155979 0 0.35753076279084162 0.1664838157905755 0 0.37946349621000519 0.15352050552416041 0 0.37853599879473232 0.18250383705155979 0 0.35753076279084162 0.1664838157905755 0 0.35893073359876282 0.15015475911948509 0 0.37946349621000519 0.15352050552416041 0 0.35893073359876282 0.15015475911948509 0 0.36522962108674739 0.13623842956048071 0 0.37946349621000519 0.15352050552416041 0 0.34372943676498208 0.15111495397967939 0 0.35893073359876282 0.15015475911948509 0 0.34903491864144032 0.13528590060226831 0 0.34372943676498208 0.15111495397967939 0 0.35753076279084162 0.1664838157905755 0 0.35893073359876282 0.15015475911948509 0 0.35839766492079322 0.1160000189471745 0 0.34903491864144032 0.13528590060226831 0 0.36522962108674739 0.13623842956048071 0 0.35893073359876282 0.15015475911948509 0 0.34903491864144032 0.13528590060226831 0 0.36522962108674739 0.13623842956048071 0 0.35839766492079322 0.1160000189471745 0 0.36522962108674739 0.13623842956048071 0 0.38039099362527812 0.1245371739967609 0 0.39902466518873858 0.13126009331650099 0 0.37946349621000519 0.15352050552416041 0 0.38039099362527812 0.1245371739967609 0 0.37946349621000519 0.15352050552416041 0 0.38039099362527812 0.1245371739967609 0 0.36522962108674739 0.13623842956048071 0 0.37946349621000519 0.15352050552416041 0 0.38039099362527812 0.1245371739967609 0 0.39844370582841798 0.14819394937809899 0 0.40093489470038107 0.16027605041173959 0 0.41435176721454697 0.14771914825999491 0 0.39902466518873858 0.13126009331650099 0 0.39844370582841798 0.14819394937809899 0 0.37946349621000519 0.15352050552416041 0 0.39902466518873858 0.13126009331650099 0 0.39844370582841798 0.14819394937809899 0 0.41435176721454697 0.14771914825999491 0 0.39844370582841798 0.14819394937809899 0 0.37946349621000519 0.15352050552416041 0 0.40093489470038107 0.16027605041173959 0 0.37946349621000519 0.15352050552416041 0 0.39017763977191261 0.17202299798733209 0 0.37853599879473232 0.18250383705155979 0 0.37946349621000519 0.15352050552416041 0 0.39017763977191261 0.17202299798733209 0 0.40093489470038107 0.16027605041173959 0 0.37946349621000519 0.15352050552416041 0 0.37853599879473232 0.18250383705155979 0 0.39017763977191261 0.17202299798733209 0 0.37853599879473232 0.18250383705155979 0 0.39073135499771172 0.19557369745538469 0 0.39017763977191261 0.17202299798733209 0 0.40385420861596449 0.17966022633181031 0 0.39073135499771172 0.19557369745538469 0 0.39017763977191261 0.17202299798733209 0 0.40385420861596449 0.17966022633181031 0 0.40093489470038107 0.16027605041173959 0 0.40093489470038107 0.16027605041173959 0 0.41697706223421732 0.16374675520823581 0 0.41435176721454697 0.14771914825999491 0 0.40385420861596449 0.17966022633181031 0 0.41697706223421732 0.16374675520823581 0 0.40385420861596449 0.17966022633181031 0 0.40093489470038107 0.16027605041173959 0 0.41697706223421732 0.16374675520823581 0 0.41697706223421732 0.16374675520823581 0 0.42967886924035542 0.16417820320348889 0 0.41435176721454697 0.14771914825999491 0 0.40385420861596449 0.17966022633181031 0 0.41697706223421732 0.16374675520823581 0 0.42240549066692251 0.1765244995838077 0 0.40385420861596449 0.17966022633181031 0 0.42240549066692251 0.1765244995838077 0 0.42107887021263207 0.19156620638856409 0 0.43253230825434041 0.17416736124819829 0 0.42967886924035542 0.16417820320348889 0 0.44500597126616359 0.18063725814698309 0 0.42967886924035542 0.16417820320348889 0 0.44500597126616359 0.18063725814698309 0 0.42240549066692251 0.1765244995838077 0 0.43149836433940197 0.18602822060577601 0 0.42107887021263207 0.19156620638856409 0 0.42240549066692251 0.1765244995838077 0 0.43253230825434041 0.17416736124819829 0 0.43149836433940197 0.18602822060577601 0 0.43253230825434041 0.17416736124819829 0 0.43149836433940197 0.18602822060577601 0 0.43841432008382281 0.17982212251646179 0 0.43149836433940197 0.18602822060577601 0 0.43993915380668702 0.18717756377858999 0 0.43841432008382281 0.17982212251646179 0 0.42240549066692251 0.1765244995838077 0 0.43253230825434041 0.17416736124819829 0 0.42967886924035542 0.16417820320348889 0 0.41697706223421732 0.16374675520823581 0 0.42240549066692251 0.1765244995838077 0 0.42967886924035542 0.16417820320348889 0 0.42967886924035542 0.16417820320348889 0 0.43097501315793502 0.14760517370254911 0 0.43828897016139601 0.15673943888385539 0 0.43097501315793502 0.14760517370254911 0 0.43218783376564679 0.13079624415941421 0 0.44743040874719031 0.14996425231404681 0 0.42967886924035542 0.16417820320348889 0 0.43097501315793502 0.14760517370254911 0 0.41435176721454697 0.14771914825999491 0 0.42967886924035542 0.16417820320348889 0 0.41435176721454697 0.14771914825999491 0 0.43097501315793502 0.14760517370254911 0 0.43218783376564679 0.13079624415941421 0 0.41641237399527598 0.13186461557900531 0 0.39902466518873858 0.13126009331650099 0 0.41435176721454697 0.14771914825999491 0 0.39902466518873858 0.13126009331650099 0 0.41641237399527598 0.13186461557900531 0 0.41435176721454697 0.14771914825999491 0 0.43097501315793502 0.14760517370254911 0 0.41641237399527598 0.13186461557900531 0 0.41435176721454697 0.14771914825999491 0 0.40231417230303168 0.24860060812396939 0 0.39014322942562962 0.23660270978699691 0 0.40695303339148831 0.22968399372244169 0 0.38424774583347471 0.25207486274025709 0 0.40231417230303168 0.24860060812396939 0 0.39014322942562962 0.23660270978699691 0 0.37251516075371882 0.24207903867420399 0 0.39014322942562962 0.23660270978699691 0 0.38178860342640641 0.22546404231931019 0 0.38424774583347471 0.25207486274025709 0 0.37251516075371882 0.24207903867420399 0 0.39014322942562962 0.23660270978699691 0 0.39014322942562962 0.23660270978699691 0 0.38178860342640641 0.22546404231931019 0 0.39370988667375673 0.22394924488917239 0 0.38178860342640641 0.22546404231931019 0 0.39370988667375673 0.22394924488917239 0 0.38658218544011591 0.21269277996820249 0 0.39370988667375673 0.22394924488917239 0 0.40068001247148938 0.21310861182741009 0 0.40695303339148831 0.22968399372244169 0 0.39014322942562962 0.23660270978699691 0 0.39370988667375673 0.22394924488917239 0 0.40695303339148831 0.22968399372244169 0 0.40068001247148938 0.21310861182741009 0 0.38658218544011591 0.21269277996820249 0 0.39073135499771172 0.19557369745538469 0 0.39370988667375673 0.22394924488917239 0 0.40068001247148938 0.21310861182741009 0 0.38658218544011591 0.21269277996820249 0 0.38658218544011591 0.21269277996820249 0 0.37760850137945923 0.2114871685789593 0 0.39073135499771172 0.19557369745538469 0 0.37760850137945923 0.2114871685789593 0 0.39073135499771172 0.19557369745538469 0 0.38178860342640641 0.22546404231931019 0 0.38658218544011591 0.21269277996820249 0 0.37754977914907428 0.2133221773275093 0 0.38658218544011591 0.21269277996820249 0 0.37754977914907428 0.2133221773275093 0 0.37760850137945923 0.2114871685789593 0 0.37754977914907428 0.2133221773275093 0 0.37760850137945923 0.2114871685789593 0 0.37853599879473232 0.18250383705155979 0 0.37760850137945923 0.2114871685789593 0 0.39073135499771172 0.19557369745538469 0 0.37853599879473232 0.18250383705155979 0 0.37760850137945923 0.2114871685789593 0 0.36973640659909862 0.1967287469634717 0 0.37853599879473232 0.18250383705155979 0 0.37760850137945923 0.2114871685789593 0 0.40385420861596449 0.17966022633181031 0 0.39073135499771172 0.19557369745538469 0 0.40068001247148938 0.21310861182741009 0 0.39073135499771172 0.19557369745538469 0 0.40789098597060508 0.20020397883311089 0 0.40385420861596449 0.17966022633181031 0 0.39073135499771172 0.19557369745538469 0 0.40789098597060508 0.20020397883311089 0 0.40385420861596449 0.17966022633181031 0 0.40789098597060508 0.20020397883311089 0 0.42107887021263207 0.19156620638856409 0 0.40789098597060508 0.20020397883311089 0 0.42107887021263207 0.19156620638856409 0 0.42589579827200208 0.20378310751995371 0 0.43149836433940197 0.18602822060577601 0 0.42107887021263207 0.19156620638856409 0 0.43122515505439513 0.19563180621879689 0 0.43149836433940197 0.18602822060577601 0 0.43859547576846342 0.19380693976894259 0 0.43993915380668702 0.18717756377858999 0 0.43149836433940197 0.18602822060577601 0 0.43122515505439513 0.19563180621879689 0 0.43859547576846342 0.19380693976894259 0 0.43122515505439513 0.19563180621879689 0 0.43905726667947592 0.2029745568107483 0 0.43859547576846342 0.19380693976894259 0 0.43122515505439513 0.19563180621879689 0 0.42589579827200208 0.20378310751995371 0 0.43905726667947592 0.2029745568107483 0 0.42107887021263207 0.19156620638856409 0 0.43122515505439513 0.19563180621879689 0 0.42589579827200208 0.20378310751995371 0 0.42589579827200208 0.20378310751995371 0 0.43306103218170189 0.2151533907400523 0 0.41639141479393499 0.21505199980134709 0 0.42589579827200208 0.20378310751995371 0 0.43306103218170189 0.2151533907400523 0 0.43905726667947592 0.2029745568107483 0 0.40068001247148938 0.21310861182741009 0 0.40789098597060508 0.20020397883311089 0 0.41639141479393499 0.21505199980134709 0 0.40789098597060508 0.20020397883311089 0 0.42589579827200208 0.20378310751995371 0 0.41639141479393499 0.21505199980134709 0 0.40695303339148831 0.22968399372244169 0 0.4240715757752444 0.22646068613503839 0 0.42313784770037072 0.24448727568822809 0 0.40068001247148938 0.21310861182741009 0 0.41639141479393499 0.21505199980134709 0 0.40695303339148831 0.22968399372244169 0 0.41639141479393499 0.21505199980134709 0 0.40695303339148831 0.22968399372244169 0 0.4240715757752444 0.22646068613503839 0 0.43306103218170189 0.2151533907400523 0 0.41639141479393499 0.21505199980134709 0 0.4240715757752444 0.22646068613503839 0 0.43306103218170189 0.2151533907400523 0 0.4240715757752444 0.22646068613503839 0 0.44081455080872611 0.22792677072312259 0 0.4240715757752444 0.22646068613503839 0 0.42313784770037072 0.24448727568822809 0 0.44081455080872611 0.22792677072312259 0 0.42313784770037072 0.24448727568822809 0 0.4443985789054769 0.24698865528882419 0 0.44081455080872611 0.22792677072312259 0 0.40231417230303168 0.24860060812396939 0 0.40695303339148831 0.22968399372244169 0 0.42313784770037072 0.24448727568822809 0 0.45877951230910918 0.25895515693046528 0 0.46406966402640581 0.23407311330027269 0 0.47459679039847708 0.24888537612968889 0 0.45877951230910918 0.25895515693046528 0 0.4443985789054769 0.24698865528882419 0 0.46406966402640581 0.23407311330027269 0 0.4443985789054769 0.24698865528882419 0 0.44081455080872611 0.22792677072312259 0 0.46406966402640581 0.23407311330027269 0 0.44081455080872611 0.22792677072312259 0 0.46406966402640581 0.23407311330027269 0 0.45217315930160679 0.21299320501145319 0 0.46406966402640581 0.23407311330027269 0 0.45217315930160679 0.21299320501145319 0 0.47743765443215752 0.21483186967211571 0 0.45217315930160679 0.21299320501145319 0 0.46115816196987142 0.19798233706682489 0 0.47743765443215752 0.21483186967211571 0 0.43306103218170189 0.2151533907400523 0 0.44081455080872611 0.22792677072312259 0 0.45217315930160679 0.21299320501145319 0 0.43306103218170189 0.2151533907400523 0 0.45217315930160679 0.21299320501145319 0 0.43905726667947592 0.2029745568107483 0 0.45217315930160679 0.21299320501145319 0 0.44618163757558321 0.19559327785478611 0 0.43905726667947592 0.2029745568107483 0 0.46115816196987142 0.19798233706682489 0 0.44500597126616359 0.18063725814698309 0 0.44618163757558321 0.19559327785478611 0 0.46115816196987142 0.19798233706682489 0 0.44500597126616359 0.18063725814698309 0 0.44618163757558321 0.19559327785478611 0 0.43905726667947592 0.2029745568107483 0 0.43859547576846342 0.19380693976894259 0 0.44618163757558321 0.19559327785478611 0 0.43859547576846342 0.19380693976894259 0 0.43993915380668702 0.18717756377858999 0 0.44618163757558321 0.19559327785478611 0 0.43993915380668702 0.18717756377858999 0 0.44500597126616359 0.18063725814698309 0 0.46115816196987142 0.19798233706682489 0 0.44500597126616359 0.18063725814698309 0 0.47250298563308241 0.18403758919051411 0 0.45217315930160679 0.21299320501145319 0 0.44618163757558321 0.19559327785478611 0 0.46115816196987142 0.19798233706682489 0 0.46115816196987142 0.19798233706682489 0 0.48475152770304819 0.19786732731788101 0 0.47250298563308241 0.18403758919051411 0 0.48475152770304819 0.19786732731788101 0 0.5 0.20851766455004159 0 0.50000000000000133 0.18743792023404501 0 0.48475152770304819 0.19786732731788101 0 0.47250298563308241 0.18403758919051411 0 0.50000000000000133 0.18743792023404501 0 0.5 0.20851766455004159 0 0.47743765443215752 0.21483186967211571 0 0.5 0.2295974088660383 0 0.48475152770304819 0.19786732731788101 0 0.5 0.20851766455004159 0 0.47743765443215752 0.21483186967211571 0 0.46115816196987142 0.19798233706682489 0 0.48475152770304819 0.19786732731788101 0 0.47743765443215752 0.21483186967211571 0 0.46406966402640581 0.23407311330027269 0 0.47743765443215752 0.21483186967211571 0 0.48209686647073402 0.2323332651256016 0 0.47743765443215752 0.21483186967211571 0 0.48209686647073402 0.2323332651256016 0 0.5 0.2295974088660383 0 0.50000000000000333 0.25067715318203487 0 0.48209686647073402 0.2323332651256016 0 0.47459679039847708 0.24888537612968889 0 0.50000000000000333 0.25067715318203487 0 0.48209686647073402 0.2323332651256016 0 0.5 0.2295974088660383 0 0.46406966402640581 0.23407311330027269 0 0.48209686647073402 0.2323332651256016 0 0.47459679039847708 0.24888537612968889 0 0.46630373343989029 0.1540554196775239 0 0.45988335858462859 0.1361385845013203 0 0.47983612492910671 0.1477611156301803 0 0.46630373343989029 0.1540554196775239 0 0.45988335858462859 0.1361385845013203 0 0.44743040874719031 0.14996425231404681 0 0.43218783376564679 0.13079624415941421 0 0.45988335858462859 0.1361385845013203 0 0.44598412974230561 0.1139480922669725 0 0.43218783376564679 0.13079624415941421 0 0.45988335858462859 0.1361385845013203 0 0.44743040874719031 0.14996425231404681 0 0.43218783376564679 0.13079624415941421 0 0.44743040874719031 0.14996425231404681 0 0.43097501315793502 0.14760517370254911 0 0.44743040874719031 0.14996425231404681 0 0.43828897016139601 0.15673943888385539 0 0.44743040874719031 0.14996425231404681 0 0.43828897016139601 0.15673943888385539 0 0.44507158950010373 0.16521012631533691 0 0.42967886924035542 0.16417820320348889 0 0.43828897016139601 0.15673943888385539 0 0.44507158950010373 0.16521012631533691 0 0.42967886924035542 0.16417820320348889 0 0.44507158950010373 0.16521012631533691 0 0.44500597126616359 0.18063725814698309 0 0.44743040874719031 0.14996425231404681 0 0.44507158950010373 0.16521012631533691 0 0.46267298372873372 0.16913226046867949 0 0.43993915380668702 0.18717756377858999 0 0.43841432008382281 0.17982212251646179 0 0.44500597126616359 0.18063725814698309 0 0.43841432008382281 0.17982212251646179 0 0.44500597126616359 0.18063725814698309 0 0.43253230825434041 0.17416736124819829 0 0.43841432008382281 0.17982212251646179 0 0.44500597126616359 0.18063725814698309 0 0.44507158950010373 0.16521012631533691 0 0.44500597126616359 0.18063725814698309 0 0.45631338253202081 0.1747543085303784 0 0.44500597126616359 0.18063725814698309 0 0.47250298563308241 0.18403758919051411 0 0.44500597126616359 0.18063725814698309 0 0.45631338253202081 0.1747543085303784 0 0.47250298563308241 0.18403758919051411 0 0.45631338253202081 0.1747543085303784 0 0.46267298372873372 0.16913226046867949 0 0.47250298563308241 0.18403758919051411 0 0.46630373343989029 0.1540554196775239 0 0.44743040874719031 0.14996425231404681 0 0.46267298372873372 0.16913226046867949 0 0.44507158950010373 0.16521012631533691 0 0.45631338253202081 0.1747543085303784 0 0.46267298372873372 0.16913226046867949 0 0.44743040874719031 0.14996425231404681 0 0.46267298372873372 0.16913226046867949 0 0.46630373343989029 0.1540554196775239 0 0.481695791209792 0.16728088547339251 0 0.47983612492910671 0.1477611156301803 0 0.46630373343989029 0.1540554196775239 0 0.46267298372873372 0.16913226046867949 0 0.481695791209792 0.16728088547339251 0 0.46267298372873372 0.16913226046867949 0 0.481695791209792 0.16728088547339251 0 0.47250298563308241 0.18403758919051411 0 0.481695791209792 0.16728088547339251 0 0.50000000000000133 0.18743792023404501 0 0.5 0.16178081871024691 0 0.481695791209792 0.16728088547339251 0 0.47250298563308241 0.18403758919051411 0 0.50000000000000133 0.18743792023404501 0 0.47250298563308241 0.18403758919051411 0 0.50000000000000133 0.18743792023404501 0 0.481695791209792 0.16728088547339251 0 0.5 0.16178081871024691 0 0.47983612492910671 0.1477611156301803 0 0.5 0.16178081871024691 0 0.47983612492910671 0.1477611156301803 0 0.5 0.13612371718644889 0 0.45988335858462859 0.1361385845013203 0 0.48040892000196089 0.1286839124039415 0 0.46812980660744141 0.1213760825877616 0 0.45988335858462859 0.1361385845013203 0 0.47983612492910671 0.1477611156301803 0 0.48040892000196089 0.1286839124039415 0 0.48040892000196089 0.1286839124039415 0 0.5 0.13612371718644889 0 0.48911044557870648 0.1154009356994905 0 0.47983612492910671 0.1477611156301803 0 0.48040892000196089 0.1286839124039415 0 0.5 0.13612371718644889 0 0.5 0.13612371718644889 0 0.48911044557870648 0.1154009356994905 0 0.5 0.1104666156626509 0 0.5 0.1104666156626509 0 0.49526404898748622 0.1017529428078975 0 0.5 0.084809514138852959 0 0.48911044557870648 0.1154009356994905 0 0.5 0.1104666156626509 0 0.49526404898748622 0.1017529428078975 0 0.48911044557870648 0.1154009356994905 0 0.49526404898748622 0.1017529428078975 0 0.48109428560590312 0.1024640168145086 0 0.48109428560590312 0.1024640168145086 0 0.47458759585716809 0.084388363135292022 0 0.46674390172360558 0.1035394123809904 0 0.49526404898748622 0.1017529428078975 0 0.48109428560590312 0.1024640168145086 0 0.47458759585716809 0.084388363135292022 0 0.48109428560590312 0.1024640168145086 0 0.47789541887688902 0.11291440932149591 0 0.46674390172360558 0.1035394123809904 0 0.47789541887688902 0.11291440932149591 0 0.46812980660744141 0.1213760825877616 0 0.46674390172360558 0.1035394123809904 0 0.48040892000196089 0.1286839124039415 0 0.47789541887688902 0.11291440932149591 0 0.46812980660744141 0.1213760825877616 0 0.48040892000196089 0.1286839124039415 0 0.48911044557870648 0.1154009356994905 0 0.47789541887688902 0.11291440932149591 0 0.48911044557870648 0.1154009356994905 0 0.48109428560590312 0.1024640168145086 0 0.47789541887688902 0.11291440932149591 0 0.5 0.084809514138852959 0 0.47458759585716809 0.084388363135292022 0 0.47912787468276907 0.064584523165699487 0 0.5 0.084809514138852959 0 0.47912787468276907 0.064584523165699487 0 0.5 0.059152412615055112 0 0.49526404898748622 0.1017529428078975 0 0.47458759585716809 0.084388363135292022 0 0.49526404898748622 0.1017529428078975 0 0.5 0.084809514138852959 0 0.47458759585716809 0.084388363135292022 0 0.47458759585716809 0.084388363135292022 0 0.47912787468276907 0.064584523165699487 0 0.45391114272684979 0.067023783462686393 0 0.47458759585716809 0.084388363135292022 0 0.45391114272684979 0.067023783462686393 0 0.47458759585716809 0.084388363135292022 0 0.45391114272684979 0.067023783462686393 0 0.448682045013724 0.093840087721175788 0 0.45391114272684979 0.067023783462686393 0 0.448682045013724 0.093840087721175788 0 0.42882560412340831 0.076935142063640952 0 0.45391114272684979 0.067023783462686393 0 0.42882560412340831 0.076935142063640952 0 0.43323468959653161 0.049659203790080757 0 0.46812980660744141 0.1213760825877616 0 0.46674390172360558 0.1035394123809904 0 0.44598412974230561 0.1139480922669725 0 0.45988335858462859 0.1361385845013203 0 0.46812980660744141 0.1213760825877616 0 0.44598412974230561 0.1139480922669725 0 0.46674390172360558 0.1035394123809904 0 0.448682045013724 0.093840087721175788 0 0.44598412974230561 0.1139480922669725 0 0.47458759585716809 0.084388363135292022 0 0.46674390172360558 0.1035394123809904 0 0.448682045013724 0.093840087721175788 0 0.448682045013724 0.093840087721175788 0 0.44598412974230561 0.1139480922669725 0 0.42842794429322018 0.097762357181343934 0 0.43218783376564679 0.13079624415941421 0 0.41694525878410338 0.1116282360047816 0 0.43218783376564679 0.13079624415941421 0 0.44598412974230561 0.1139480922669725 0 0.41694525878410338 0.1116282360047816 0 0.39902466518873858 0.13126009331650099 0 0.41641237399527598 0.13186461557900531 0 0.41694525878410338 0.1116282360047816 0 0.43218783376564679 0.13079624415941421 0 0.41641237399527598 0.13186461557900531 0 0.41694525878410338 0.1116282360047816 0 0.41694525878410338 0.1116282360047816 0 0.40170268380256002 0.092460227850148902 0 0.41694525878410338 0.1116282360047816 0 0.42842794429322018 0.097762357181343934 0 0.40170268380256002 0.092460227850148902 0 0.44598412974230561 0.1139480922669725 0 0.41694525878410338 0.1116282360047816 0 0.42842794429322018 0.097762357181343934 0 0.42882560412340831 0.076935142063640952 0 0.40170268380256002 0.092460227850148902 0 0.40705243623013287 0.060689402672964132 0 0.448682045013724 0.093840087721175788 0 0.42842794429322018 0.097762357181343934 0 0.42882560412340831 0.076935142063640952 0 0.42842794429322018 0.097762357181343934 0 0.42882560412340831 0.076935142063640952 0 0.40170268380256002 0.092460227850148902 0 0.40170268380256002 0.092460227850148902 0 0.38646010882101639 0.073292219695516275 0 0.40705243623013287 0.060689402672964132 0 0.40170268380256002 0.092460227850148902 0 0.38646010882101639 0.073292219695516275 0 0.38646010882101639 0.073292219695516275 0 0.40705243623013287 0.060689402672964132 0 0.3712494132862923 0.054164300928492733 0 0.38646010882101639 0.073292219695516275 0 0.36287577371323038 0.087726190856562886 0 0.38646010882101639 0.073292219695516275 0 0.38086954234553799 0.1017369790920199 0 0.40170268380256002 0.092460227850148902 0 0.38646010882101639 0.073292219695516275 0 0.38086954234553799 0.1017369790920199 0 0.38086954234553799 0.1017369790920199 0 0.38039099362527812 0.1245371739967609 0 0.39578662874924359 0.11232454205204249 0 0.39902466518873858 0.13126009331650099 0 0.41694525878410338 0.1116282360047816 0 0.39578662874924359 0.11232454205204249 0 0.39902466518873858 0.13126009331650099 0 0.38039099362527812 0.1245371739967609 0 0.39578662874924359 0.11232454205204249 0 0.41694525878410338 0.1116282360047816 0 0.40170268380256002 0.092460227850148902 0 0.39578662874924359 0.11232454205204249 0 0.40170268380256002 0.092460227850148902 0 0.38086954234553799 0.1017369790920199 0 0.39578662874924359 0.11232454205204249 0 0.39467883659616743 0.026514027307662291 0 0.40566729177788402 0.039694202540384867 0 0.40752972589880521 0.020791180784284762 0 0.39467883659616743 0.026514027307662291 0 0.39197007277089058 0.012270099058981999 0 0.40752972589880521 0.020791180784284762 0 0.39197007277089058 0.012270099058981999 0 0.40589693233990659 -0.0029012340905509482 0 0.38177212989710541 -0.0038064740511190229 0 0.39197007277089058 0.012270099058981999 0 0.40752972589880521 0.020791180784284762 0 0.40589693233990659 -0.0029012340905509482 0 0.37074806474438499 0.0128336114215599 0 0.37942190730542552 0.012545434855993239 0 0.38177212989710541 -0.0038064740511190229 0 0.37074806474438499 0.0128336114215599 0 0.38177212989710541 -0.0038064740511190229 0 0.39197007277089058 0.012270099058981999 0 0.37942190730542552 0.012545434855993239 0 0.38177212989710541 -0.0038064740511190229 0 0.37074806474438499 0.0128336114215599 0 0.37942190730542552 0.012545434855993239 0 0.376284423196455 0.019711610509055889 0 0.37942190730542552 0.012545434855993239 0 0.376284423196455 0.019711610509055889 0 0.383244290811734 0.022382132082078999 0 0.39467883659616743 0.026514027307662291 0 0.39197007277089058 0.012270099058981999 0 0.383244290811734 0.022382132082078999 0 0.39197007277089058 0.012270099058981999 0 0.37942190730542552 0.012545434855993239 0 0.383244290811734 0.022382132082078999 0 0.39467883659616743 0.026514027307662291 0 0.383244290811734 0.022382132082078999 0 0.38498280172152338 0.037432522072580798 0 0.3708444278259968 0.029801619446643699 0 0.376284423196455 0.019711610509055889 0 0.383244290811734 0.022382132082078999 0 0.3708444278259968 0.029801619446643699 0 0.383244290811734 0.022382132082078999 0 0.38498280172152338 0.037432522072580798 0 0.3712494132862923 0.054164300928492733 0 0.3708444278259968 0.029801619446643699 0 0.38498280172152338 0.037432522072580798 0 0.3712494132862923 0.054164300928492733 0 0.38646010882101639 0.073292219695516275 0 0.39050775894424322 0.052739751315566991 0 0.3712494132862923 0.054164300928492733 0 0.38498280172152338 0.037432522072580798 0 0.39050775894424322 0.052739751315566991 0 0.39050775894424322 0.052739751315566991 0 0.40566729177788402 0.039694202540384867 0 0.40705243623013287 0.060689402672964132 0 0.38646010882101639 0.073292219695516275 0 0.39050775894424322 0.052739751315566991 0 0.40705243623013287 0.060689402672964132 0 0.39467883659616743 0.026514027307662291 0 0.38498280172152338 0.037432522072580798 0 0.40566729177788402 0.039694202540384867 0 0.38498280172152338 0.037432522072580798 0 0.39050775894424322 0.052739751315566991 0 0.40566729177788402 0.039694202540384867 0 0.40566729177788402 0.039694202540384867 0 0.40705243623013287 0.060689402672964132 0 0.43323468959653161 0.049659203790080757 0 0.42882560412340831 0.076935142063640952 0 0.40705243623013287 0.060689402672964132 0 0.43323468959653161 0.049659203790080757 0 0.40566729177788402 0.039694202540384867 0 0.43323468959653161 0.049659203790080757 0 0.42982106529816938 0.026988672659305431 0 0.42982106529816938 0.026988672659305431 0 0.40752972589880521 0.020791180784284762 0 0.42170884413912818 0.0088420932881880087 0 0.40566729177788402 0.039694202540384867 0 0.42982106529816938 0.026988672659305431 0 0.40752972589880521 0.020791180784284762 0 0.40752972589880521 0.020791180784284762 0 0.42170884413912818 0.0088420932881880087 0 0.40589693233990659 -0.0029012340905509482 0 0.42982106529816938 0.026988672659305431 0 0.42170884413912818 0.0088420932881880087 0 0.43761459707356049 0.0086465973424995311 0 0.42170884413912818 0.0088420932881880087 0 0.43761459707356049 0.0086465973424995311 0 0.43315562598089019 -0.01024506861916881 0 0.43761459707356049 0.0086465973424995311 0 0.45173658649962201 0.0016390362274539541 0 0.43315562598089019 -0.01024506861916881 0 0.43761459707356049 0.0086465973424995311 0 0.45173658649962201 0.0016390362274539541 0 0.45250675784088501 0.018560093630623119 0 0.42982106529816938 0.026988672659305431 0 0.45250675784088501 0.018560093630623119 0 0.45511766656395031 0.040318011432016902 0 0.42982106529816938 0.026988672659305431 0 0.43761459707356049 0.0086465973424995311 0 0.45250675784088501 0.018560093630623119 0 0.45250675784088501 0.018560093630623119 0 0.46808050549176677 0.026295686723049619 0 0.46900303588049108 0.0091480887287150835 0 0.45250675784088501 0.018560093630623119 0 0.46808050549176677 0.026295686723049619 0 0.45511766656395031 0.040318011432016902 0 0.45173658649962201 0.0016390362274539541 0 0.45250675784088501 0.018560093630623119 0 0.46900303588049108 0.0091480887287150835 0 0.45391114272684979 0.067023783462686393 0 0.43323468959653161 0.049659203790080757 0 0.45391114272684979 0.067023783462686393 0 0.43323468959653161 0.049659203790080757 0 0.45511766656395031 0.040318011432016902 0 0.43323468959653161 0.049659203790080757 0 0.42982106529816938 0.026988672659305431 0 0.45511766656395031 0.040318011432016902 0 0.45511766656395031 0.040318011432016902 0 0.46685755830170778 0.053514214493577447 0 0.4792735492332621 0.042130539913907063 0 0.46808050549176677 0.026295686723049619 0 0.45511766656395031 0.040318011432016902 0 0.4792735492332621 0.042130539913907063 0 0.45391114272684979 0.067023783462686393 0 0.45511766656395031 0.040318011432016902 0 0.46685755830170778 0.053514214493577447 0 0.47912787468276907 0.064584523165699487 0 0.45391114272684979 0.067023783462686393 0 0.46685755830170778 0.053514214493577447 0 0.47912787468276907 0.064584523165699487 0 0.46685755830170778 0.053514214493577447 0 0.4792735492332621 0.042130539913907063 0 0.4792735492332621 0.042130539913907063 0 0.50000000000000044 0.033495311091257141 0 0.5 0.059152412615055112 0 0.4792735492332621 0.042130539913907063 0 0.50000000000000044 0.033495311091257141 0 0.48450151794024582 0.02132169990998594 0 0.47912787468276907 0.064584523165699487 0 0.4792735492332621 0.042130539913907063 0 0.5 0.059152412615055112 0 0.48142183768046209 0.0017856283736550731 0 0.46900303588049108 0.0091480887287150835 0 0.48450151794024582 0.02132169990998594 0 0.46900303588049108 0.0091480887287150835 0 0.48450151794024582 0.02132169990998594 0 0.46808050549176677 0.026295686723049619 0 0.4792735492332621 0.042130539913907063 0 0.48450151794024582 0.02132169990998594 0 0.46808050549176677 0.026295686723049619 0 0.46900303588049108 0.0091480887287150835 0 0.48450151794024582 0.02132169990998594 0 0.50000000000000044 0.033495311091257141 0 0.48450151794024582 0.02132169990998594 0 0.49999999999998651 0.01734058092918947 0 0.50000000000000044 0.033495311091257141 0 0.48450151794024582 0.02132169990998594 0 0.48142183768046209 0.0017856283736550731 0 0.49999999999998651 0.01734058092918947 0 0.48142183768046209 0.0017856283736550731 0 0.48450151794024582 0.02132169990998594 0 0.49999999999998651 0.01734058092918947 0 0.48142183768046209 0.0017856283736550731 0 0.50000000000000022 0.0062713931358114854 0 0.49569226922874621 -0.0077984524782093046 0 0.48142183768046209 0.0017856283736550731 0 0.49999999999998651 0.01734058092918947 0 0.50000000000000022 0.0062713931358114854 0 0.50000000000000022 0.0062713931358114854 0 0.49999999999999639 -0.0055028720893961916 0 0.49569226922874621 -0.0077984524782093046 0 0.49999999999999639 -0.0055028720893961916 0 0.49569226922874621 -0.0077984524782093046 0 0.5 -0.031680043061674379 0 0.50000000000000022 0.0062713931358114854 0 0.49569226922874621 -0.0077984524782093046 0 0.49999999999999639 -0.0055028720893961916 0 0.49569226922874621 -0.0077984524782093046 0 0.48142183768046209 0.0017856283736550731 0 0.46284367536094329 -0.013769324181886009 0 0.48142183768046209 0.0017856283736550731 0 0.49569226922874621 -0.0077984524782093046 0 0.47245545097691588 -0.020181302547058869 0 0.48142183768046209 0.0017856283736550731 0 0.47245545097691588 -0.020181302547058869 0 0.46284367536094329 -0.013769324181886009 0 0.49569226922874621 -0.0077984524782093046 0 0.47245545097691588 -0.020181302547058869 0 0.48142183768046209 0.0017856283736550731 0 0.46900303588049108 0.0091480887287150835 0 0.46284367536094329 -0.013769324181886009 0 0.47245545097691588 -0.020181302547058869 0 0.48791488236666819 -0.033200836759084501 0 0.47341325415016228 -0.037152141636530148 0 0.49569226922874621 -0.0077984524782093046 0 0.48791488236666819 -0.033200836759084501 0 0.49569226922874621 -0.0077984524782093046 0 0.47245545097691588 -0.020181302547058869 0 0.48791488236666819 -0.033200836759084501 0 0.49569226922874621 -0.0077984524782093046 0 0.5 -0.031680043061674379 0 0.48791488236666819 -0.033200836759084501 0 0.5 -0.031680043061674379 0 0.49185328477527418 -0.043406822976133602 0 0.5 -0.057857214033952442 0 0.5 -0.031680043061674379 0 0.49185328477527418 -0.043406822976133602 0 0.48791488236666819 -0.033200836759084501 0 0.49185328477527418 -0.043406822976133602 0 0.48548648366758962 -0.048417288003476493 0 0.48301757376061022 -0.041777071785837207 0 0.49185328477527418 -0.043406822976133602 0 0.48791488236666819 -0.033200836759084501 0 0.48301757376061022 -0.041777071785837207 0 0.49470538195267932 -0.060764329071028467 0 0.5 -0.057857214033952442 0 0.49209956185473919 -0.052910247021154808 0 0.49185328477527418 -0.043406822976133602 0 0.5 -0.057857214033952442 0 0.49209956185473919 -0.052910247021154808 0 0.49185328477527418 -0.043406822976133602 0 0.48548648366758962 -0.048417288003476493 0 0.49209956185473919 -0.052910247021154808 0 0.48548648366758962 -0.048417288003476493 0 0.48484970165927038 -0.053829558030275837 0 0.49209956185473919 -0.052910247021154808 0 0.49470538195267932 -0.060764329071028467 0 0.48484970165927038 -0.053829558030275837 0 0.49209956185473919 -0.052910247021154808 0 0.49470538195267932 -0.060764329071028467 0 0.48484970165927038 -0.053829558030275837 0 0.47179752612620468 -0.05549188694227182 0 0.49470538195267932 -0.060764329071028467 0 0.47179752612620468 -0.05549188694227182 0 0.49470538195267932 -0.060764329071028467 0 0.48221585857725491 -0.062429287263086719 0 0.47179752612620468 -0.05549188694227182 0 0.48484970165927038 -0.053829558030275837 0 0.48015955469513899 -0.051564039113447632 0 0.47179752612620468 -0.05549188694227182 0 0.48548648366758962 -0.048417288003476493 0 0.48015955469513899 -0.051564039113447632 0 0.47641996384335622 -0.046708269553961297 0 0.48548648366758962 -0.048417288003476493 0 0.48484970165927038 -0.053829558030275837 0 0.48015955469513899 -0.051564039113447632 0 0.48015955469513899 -0.051564039113447632 0 0.47179752612620468 -0.05549188694227182 0 0.47641996384335622 -0.046708269553961297 0 0.47179752612620468 -0.05549188694227182 0 0.47641996384335622 -0.046708269553961297 0 0.46611065053414669 -0.045059591809623462 0 0.48221585857725491 -0.062429287263086719 0 0.47179752612620468 -0.05549188694227182 0 0.47448642952790421 -0.062590254567368303 0 0.47179752612620468 -0.05549188694227182 0 0.46716960355408721 -0.061309815644169277 0 0.47448642952790421 -0.062590254567368303 0 0.47245545097691588 -0.020181302547058869 0 0.47341325415016228 -0.037152141636530148 0 0.46201753173720822 -0.037035326684527199 0 0.48791488236666819 -0.033200836759084501 0 0.48301757376061022 -0.041777071785837207 0 0.47341325415016228 -0.037152141636530148 0 0.48301757376061022 -0.041777071785837207 0 0.47641996384335622 -0.046708269553961297 0 0.47341325415016228 -0.037152141636530148 0 0.48548648366758962 -0.048417288003476493 0 0.48301757376061022 -0.041777071785837207 0 0.47641996384335622 -0.046708269553961297 0 0.47641996384335622 -0.046708269553961297 0 0.47341325415016228 -0.037152141636530148 0 0.46611065053414669 -0.045059591809623462 0 0.46201753173720822 -0.037035326684527199 0 0.44888967029973009 -0.050219444813515167 0 0.44921863272508572 -0.032564152615908337 0 0.46201753173720822 -0.037035326684527199 0 0.46611065053414669 -0.045059591809623462 0 0.44888967029973009 -0.050219444813515167 0 0.47341325415016228 -0.037152141636530148 0 0.46201753173720822 -0.037035326684527199 0 0.46611065053414669 -0.045059591809623462 0 0.47179752612620468 -0.05549188694227182 0 0.44888967029973009 -0.050219444813515167 0 0.47179752612620468 -0.05549188694227182 0 0.46611065053414669 -0.045059591809623462 0 0.44888967029973009 -0.050219444813515167 0 0.47179752612620468 -0.05549188694227182 0 0.45915881230232142 -0.059821999910817367 0 0.44888967029973009 -0.050219444813515167 0 0.47179752612620468 -0.05549188694227182 0 0.46716960355408721 -0.061309815644169277 0 0.45915881230232142 -0.059821999910817367 0 0.44888967029973009 -0.050219444813515167 0 0.45028395525861248 -0.064169488527832108 0 0.43379267283734352 -0.058822472874925841 0 0.45915881230232142 -0.059821999910817367 0 0.44888967029973009 -0.050219444813515167 0 0.45028395525861248 -0.064169488527832108 0 0.44888967029973009 -0.050219444813515167 0 0.44921863272508572 -0.032564152615908337 0 0.42598181447325562 -0.044947002684758222 0 0.44921863272508572 -0.032564152615908337 0 0.42598181447325562 -0.044947002684758222 0 0.44921863272508572 -0.032564152615908337 0 0.44426551304142442 -0.029324276737427161 0 0.42598181447325562 -0.044947002684758222 0 0.44426551304142442 -0.029324276737427161 0 0.46284367536094329 -0.013769324181886009 0 0.43315562598089019 -0.01024506861916881 0 0.44921863272508572 -0.032564152615908337 0 0.44426551304142442 -0.029324276737427161 0 0.46284367536094329 -0.013769324181886009 0 0.45173658649962201 0.0016390362274539541 0 0.46284367536094329 -0.013769324181886009 0 0.43315562598089019 -0.01024506861916881 0 0.45173658649962201 0.0016390362274539541 0 0.46900303588049108 0.0091480887287150835 0 0.46284367536094329 -0.013769324181886009 0 0.47245545097691588 -0.020181302547058869 0 0.46201753173720822 -0.037035326684527199 0 0.44921863272508572 -0.032564152615908337 0 0.44426551304142442 -0.029324276737427161 0 0.46284367536094329 -0.013769324181886009 0 0.47245545097691588 -0.020181302547058869 0 0.44921863272508572 -0.032564152615908337 0 0.47245545097691588 -0.020181302547058869 0 0.44921863272508572 -0.032564152615908337 0 0.46284367536094329 -0.013769324181886009 0 0.47504794017770963 -0.1061530387032097 0 0.48068937793888461 -0.12593949268323121 0 0.47504794017770963 -0.1061530387032097 0 0.47539032622818961 -0.13271582894304479 0 0.48696024936982901 -0.1114784763554809 0 0.47504794017770963 -0.1061530387032097 0 0.48068937793888461 -0.12593949268323121 0 0.47504794017770963 -0.1061530387032097 0 0.48068937793888461 -0.12593949268323121 0 0.47539032622818961 -0.13271582894304479 0 0.47504794017770963 -0.1061530387032097 0 0.46517149914948219 -0.12137249055531869 0 0.47539032622818961 -0.13271582894304479 0 0.49408665633132159 -0.1224090628125768 0 0.5 -0.1110006688839877 0 0.5 -0.137966952761745 0 0.49408665633132159 -0.1224090628125768 0 0.48696024936982901 -0.1114784763554809 0 0.48068937793888461 -0.12593949268323121 0 0.49408665633132159 -0.1224090628125768 0 0.5 -0.1110006688839877 0 0.48696024936982901 -0.1114784763554809 0 0.5 -0.1110006688839877 0 0.48696024936982901 -0.1114784763554809 0 0.48655144874092121 -0.095403216446715705 0 0.5 -0.1110006688839877 0 0.48655144874092121 -0.095403216446715705 0 0.50000000000000133 -0.084034385006230491 0 0.48696024936982901 -0.1114784763554809 0 0.48655144874092121 -0.095403216446715705 0 0.47504794017770963 -0.1061530387032097 0 0.48655144874092121 -0.095403216446715705 0 0.47504794017770963 -0.1061530387032097 0 0.47472501960153662 -0.081100407274471431 0 0.47504794017770963 -0.1061530387032097 0 0.46767158297368883 -0.080281628162788915 0 0.47504794017770963 -0.1061530387032097 0 0.47472501960153662 -0.081100407274471431 0 0.46767158297368883 -0.080281628162788915 0 0.47504794017770963 -0.1061530387032097 0 0.47472501960153662 -0.081100407274471431 0 0.47472501960153662 -0.081100407274471431 0 0.46767158297368883 -0.080281628162788915 0 0.47472501960153662 -0.081100407274471431 0 0.50000000000000133 -0.084034385006230491 0 0.47472501960153662 -0.081100407274471431 0 0.50000000000000133 -0.084034385006230491 0 0.48620374372025571 -0.074608689503866718 0 0.48655144874092121 -0.095403216446715705 0 0.47472501960153662 -0.081100407274471431 0 0.50000000000000133 -0.084034385006230491 0 0.50000000000000133 -0.084034385006230491 0 0.48620374372025571 -0.074608689503866718 0 0.48933050179041371 -0.068029179049033717 0 0.49470538195267932 -0.060764329071028467 0 0.50000000000000133 -0.084034385006230491 0 0.48933050179041371 -0.068029179049033717 0 0.48620374372025571 -0.074608689503866718 0 0.48933050179041371 -0.068029179049033717 0 0.48139231064347299 -0.06975156353156535 0 0.49470538195267932 -0.060764329071028467 0 0.5 -0.057857214033952442 0 0.50000000000000133 -0.084034385006230491 0 0.49470538195267932 -0.060764329071028467 0 0.48221585857725491 -0.062429287263086719 0 0.48933050179041371 -0.068029179049033717 0 0.48221585857725491 -0.062429287263086719 0 0.48933050179041371 -0.068029179049033717 0 0.48139231064347299 -0.06975156353156535 0 0.47472501960153662 -0.081100407274471431 0 0.47448642952790421 -0.062590254567368303 0 0.46395874729449688 -0.067259442079784515 0 0.47472501960153662 -0.081100407274471431 0 0.47448642952790421 -0.062590254567368303 0 0.47472501960153662 -0.081100407274471431 0 0.48139231064347299 -0.06975156353156535 0 0.47448642952790421 -0.062590254567368303 0 0.48221585857725491 -0.062429287263086719 0 0.48139231064347299 -0.06975156353156535 0 0.47448642952790421 -0.062590254567368303 0 0.47472501960153662 -0.081100407274471431 0 0.48620374372025571 -0.074608689503866718 0 0.48139231064347299 -0.06975156353156535 0 0.47472501960153662 -0.081100407274471431 0 0.46395874729449688 -0.067259442079784515 0 0.46767158297368883 -0.080281628162788915 0 0.46395874729449688 -0.067259442079784515 0 0.44792955795081207 -0.077989928589383806 0 0.45028395525861248 -0.064169488527832108 0 0.46395874729449688 -0.067259442079784515 0 0.44792955795081207 -0.077989928589383806 0 0.46767158297368883 -0.080281628162788915 0 0.46716960355408721 -0.061309815644169277 0 0.47448642952790421 -0.062590254567368303 0 0.46395874729449688 -0.067259442079784515 0 0.46716960355408721 -0.061309815644169277 0 0.45915881230232142 -0.059821999910817367 0 0.46395874729449688 -0.067259442079784515 0 0.46395874729449688 -0.067259442079784515 0 0.46767158297368883 -0.080281628162788915 0 0.45915881230232142 -0.059821999910817367 0 0.46395874729449688 -0.067259442079784515 0 0.45028395525861248 -0.064169488527832108 0 0.44792955795081207 -0.077989928589383806 0 0.45028395525861248 -0.064169488527832108 0 0.43409435662899548 -0.075972588648687056 0 0.45028395525861248 -0.064169488527832108 0 0.43409435662899548 -0.075972588648687056 0 0.43379267283734352 -0.058822472874925841 0 0.44792955795081207 -0.077989928589383806 0 0.45434154280662381 -0.096920545148007922 0 0.43656592618912088 -0.092731216817004802 0 0.44792955795081207 -0.077989928589383806 0 0.43656592618912088 -0.092731216817004802 0 0.43409435662899548 -0.075972588648687056 0 0.44792955795081207 -0.077989928589383806 0 0.46767158297368883 -0.080281628162788915 0 0.44792955795081207 -0.077989928589383806 0 0.46767158297368883 -0.080281628162788915 0 0.45434154280662381 -0.096920545148007922 0 0.47504794017770963 -0.1061530387032097 0 0.45434154280662381 -0.096920545148007922 0 0.45605131026611578 -0.1119112733738655 0 0.47504794017770963 -0.1061530387032097 0 0.46767158297368883 -0.080281628162788915 0 0.45434154280662381 -0.096920545148007922 0 0.45434154280662381 -0.096920545148007922 0 0.44009077604799529 -0.10970821878109729 0 0.45605131026611578 -0.1119112733738655 0 0.45434154280662381 -0.096920545148007922 0 0.44009077604799529 -0.10970821878109729 0 0.43656592618912088 -0.092731216817004802 0 0.44009077604799529 -0.10970821878109729 0 0.44308087596173212 -0.1221693231112648 0 0.45605131026611578 -0.1119112733738655 0 0.44009077604799529 -0.10970821878109729 0 0.44308087596173212 -0.1221693231112648 0 0.43194268833908461 -0.1183122065610613 0 0.44308087596173212 -0.1221693231112648 0 0.45605131026611578 -0.1119112733738655 0 0.45471825288194551 -0.12585871809431229 0 0.45605131026611578 -0.1119112733738655 0 0.46517149914948219 -0.12137249055531869 0 0.45471825288194551 -0.12585871809431229 0 0.47504794017770963 -0.1061530387032097 0 0.45605131026611578 -0.1119112733738655 0 0.46517149914948219 -0.12137249055531869 0 0.41835665696605379 -0.12202144051617279 0 0.40612275810511328 -0.107362968848777 0 0.4017088804732013 -0.12953908341998191 0 0.41835665696605379 -0.12202144051617279 0 0.42518639158387428 -0.1070521590797764 0 0.40612275810511328 -0.107362968848777 0 0.41835665696605379 -0.12202144051617279 0 0.43194268833908461 -0.1183122065610613 0 0.43299874113576758 -0.1306098913169951 0 0.44308087596173212 -0.1221693231112648 0 0.43194268833908461 -0.1183122065610613 0 0.43299874113576758 -0.1306098913169951 0 0.44009077604799529 -0.10970821878109729 0 0.43194268833908461 -0.1183122065610613 0 0.42518639158387428 -0.1070521590797764 0 0.41835665696605379 -0.12202144051617279 0 0.43194268833908461 -0.1183122065610613 0 0.42518639158387428 -0.1070521590797764 0 0.42518639158387428 -0.1070521590797764 0 0.42064235543132411 -0.090258828022040188 0 0.43656592618912088 -0.092731216817004802 0 0.44009077604799529 -0.10970821878109729 0 0.42518639158387428 -0.1070521590797764 0 0.43656592618912088 -0.092731216817004802 0 0.42518639158387428 -0.1070521590797764 0 0.42064235543132411 -0.090258828022040188 0 0.40612275810511328 -0.107362968848777 0 0.42064235543132411 -0.090258828022040188 0 0.40275560229344393 -0.085396892994347676 0 0.40612275810511328 -0.107362968848777 0 0.42064235543132411 -0.090258828022040188 0 0.41978257434849958 -0.069992430471157885 0 0.40275560229344393 -0.085396892994347676 0 0.42064235543132411 -0.090258828022040188 0 0.43656592618912088 -0.092731216817004802 0 0.43409435662899548 -0.075972588648687056 0 0.42064235543132411 -0.090258828022040188 0 0.43409435662899548 -0.075972588648687056 0 0.41978257434849958 -0.069992430471157885 0 0.43409435662899548 -0.075972588648687056 0 0.41978257434849958 -0.069992430471157885 0 0.43379267283734352 -0.058822472874925841 0 0.41978257434849958 -0.069992430471157885 0 0.40323057640441901 -0.063681630362098535 0 0.40275560229344393 -0.085396892994347676 0 0.40323057640441901 -0.063681630362098535 0 0.38151201645195348 -0.081865946110074223 0 0.40323057640441901 -0.063681630362098535 0 0.38151201645195348 -0.081865946110074223 0 0.40275560229344393 -0.085396892994347676 0 0.38314400870441118 -0.065519247797471702 0 0.38151201645195348 -0.081865946110074223 0 0.37258869065361061 -0.074835800517348061 0 0.40323057640441901 -0.063681630362098535 0 0.38314400870441118 -0.065519247797471702 0 0.38151201645195348 -0.081865946110074223 0 0.38151201645195348 -0.081865946110074223 0 0.40275560229344393 -0.085396892994347676 0 0.38411571086551888 -0.10308068764267191 0 0.40275560229344393 -0.085396892994347676 0 0.40612275810511328 -0.107362968848777 0 0.38411571086551888 -0.10308068764267191 0 0.38151201645195348 -0.081865946110074223 0 0.38411571086551888 -0.10308068764267191 0 0.35979345649948807 -0.1000502618580498 0 0.39062623988436562 -0.1178116564265137 0 0.37177605610298958 -0.1178020369688564 0 0.38250903423046978 -0.13084347797709861 0 0.38411571086551888 -0.10308068764267191 0 0.39062623988436562 -0.1178116564265137 0 0.37177605610298958 -0.1178020369688564 0 0.40612275810511328 -0.107362968848777 0 0.39062623988436562 -0.1178116564265137 0 0.4017088804732013 -0.12953908341998191 0 0.40612275810511328 -0.107362968848777 0 0.38411571086551888 -0.10308068764267191 0 0.39062623988436562 -0.1178116564265137 0 0.42170884413912818 0.0088420932881880087 0 0.43315562598089019 -0.01024506861916881 0 0.40589693233990659 -0.0029012340905509482 0 0.41450977242206949 -0.025109989608885729 0 0.43315562598089019 -0.01024506861916881 0 0.40589693233990659 -0.0029012340905509482 0 0.41450977242206949 -0.025109989608885729 0 0.43315562598089019 -0.01024506861916881 0 0.42940456554157241 -0.027389641064612509 0 0.44426551304142442 -0.029324276737427161 0 0.43315562598089019 -0.01024506861916881 0 0.42940456554157241 -0.027389641064612509 0 0.44426551304142442 -0.029324276737427161 0 0.42598181447325562 -0.044947002684758222 0 0.44426551304142442 -0.029324276737427161 0 0.42940456554157241 -0.027389641064612509 0 0.42598181447325562 -0.044947002684758222 0 0.41450977242206949 -0.025109989608885729 0 0.42940456554157241 -0.027389641064612509 0 0.42598181447325562 -0.044947002684758222 0 0.41978257434849958 -0.069992430471157885 0 0.42598181447325562 -0.044947002684758222 0 0.43379267283734352 -0.058822472874925841 0 0.44888967029973009 -0.050219444813515167 0 0.42598181447325562 -0.044947002684758222 0 0.44888967029973009 -0.050219444813515167 0 0.42598181447325562 -0.044947002684758222 0 0.43379267283734352 -0.058822472874925841 0 0.42598181447325562 -0.044947002684758222 0 0.40715818982592389 -0.054978071449598188 0 0.40323057640441901 -0.063681630362098535 0 0.42598181447325562 -0.044947002684758222 0 0.41978257434849958 -0.069992430471157885 0 0.40323057640441901 -0.063681630362098535 0 0.42598181447325562 -0.044947002684758222 0 0.40323057640441901 -0.063681630362098535 0 0.42598181447325562 -0.044947002684758222 0 0.40715818982592389 -0.054978071449598188 0 0.42598181447325562 -0.044947002684758222 0 0.39909443124845068 -0.038758637736056027 0 0.41450977242206949 -0.025109989608885729 0 0.42598181447325562 -0.044947002684758222 0 0.39909443124845068 -0.038758637736056027 0 0.42598181447325562 -0.044947002684758222 0 0.40715818982592389 -0.054978071449598188 0 0.39909443124845068 -0.038758637736056027 0 0.39909443124845068 -0.038758637736056027 0 0.3826958552088553 -0.038044038126593953 0 0.39279619504982749 -0.02044655952379679 0 0.39909443124845068 -0.038758637736056027 0 0.39337087673578158 -0.053994313706432942 0 0.3826958552088553 -0.038044038126593953 0 0.40323057640441901 -0.063681630362098535 0 0.38314400870441118 -0.065519247797471702 0 0.39337087673578158 -0.053994313706432942 0 0.40715818982592389 -0.054978071449598188 0 0.39909443124845068 -0.038758637736056027 0 0.39337087673578158 -0.053994313706432942 0 0.40323057640441901 -0.063681630362098535 0 0.40715818982592389 -0.054978071449598188 0 0.39337087673578158 -0.053994313706432942 0 0.39337087673578158 -0.053994313706432942 0 0.37952618717540282 -0.05452842891581601 0 0.3826958552088553 -0.038044038126593953 0 0.38314400870441118 -0.065519247797471702 0 0.39337087673578158 -0.053994313706432942 0 0.37952618717540282 -0.05452842891581601 0 0.38314400870441118 -0.065519247797471702 0 0.37952618717540282 -0.05452842891581601 0 0.36863570480529972 -0.064209367173060528 0 0.37952618717540282 -0.05452842891581601 0 0.3826958552088553 -0.038044038126593953 0 0.36656806129819058 -0.044773265201258121 0 0.3826958552088553 -0.038044038126593953 0 0.375635308635762 -0.019190126142090921 0 0.39279619504982749 -0.02044655952379679 0 0.3826958552088553 -0.038044038126593953 0 0.375635308635762 -0.019190126142090921 0 0.3673836735272929 -0.030309841652976691 0 0.41450977242206949 -0.025109989608885729 0 0.39909443124845068 -0.038758637736056027 0 0.39279619504982749 -0.02044655952379679 0 0.41450977242206949 -0.025109989608885729 0 0.39279619504982749 -0.02044655952379679 0 0.40589693233990659 -0.0029012340905509482 0 0.39279619504982749 -0.02044655952379679 0 0.40589693233990659 -0.0029012340905509482 0 0.38177212989710541 -0.0038064740511190229 0 0.375635308635762 -0.019190126142090921 0 0.39279619504982749 -0.02044655952379679 0 0.38177212989710541 -0.0038064740511190229 0 0.39279619504982749 -0.02044655952379679 0 0.38177212989710541 -0.0038064740511190229 0 0.375635308635762 -0.019190126142090921 0 0.36143020020884142 -0.02012143264317582 0 0.35781662780556539 -0.0060507171186920863 0 0.375635308635762 -0.019190126142090921 0 0.38177212989710541 -0.0038064740511190229 0 0.35781662780556539 -0.0060507171186920863 0 0.375635308635762 -0.019190126142090921 0 0.3673836735272929 -0.030309841652976691 0 0.36143020020884142 -0.02012143264317582 0 0.3673836735272929 -0.030309841652976691 0 0.36143020020884142 -0.02012143264317582 0 0.3448851908667443 -0.024935045658942979 0 0.36143020020884142 -0.02012143264317582 0 0.3448851908667443 -0.024935045658942979 0 0.35781662780556539 -0.0060507171186920863 0 0.3448851908667443 -0.024935045658942979 0 0.35781662780556539 -0.0060507171186920863 0 0.3448851908667443 -0.024935045658942979 0 0.35781662780556539 -0.0060507171186920863 0 0.33951422985597463 -0.0087164329010892671 0 0.34943424683897151 0.0057298490405236447 0 0.35781662780556539 -0.0060507171186920863 0 0.33951422985597463 -0.0087164329010892671 0 0.3341432688452064 0.0075021798567649258 0 0.33951422985597463 -0.0087164329010892671 0 0.31858909885295322 -0.012057668634130001 0 0.3341432688452064 0.0075021798567649258 0 0.33951422985597463 -0.0087164329010892671 0 0.33951422985597463 -0.0087164329010892671 0 0.33205636347025819 -0.021984347149809111 0 0.31858909885295322 -0.012057668634130001 0 0.3448851908667443 -0.024935045658942979 0 0.33951422985597463 -0.0087164329010892671 0 0.3448851908667443 -0.024935045658942979 0 0.33205636347025819 -0.021984347149809111 0 0.33510801984818578 -0.039213065231109262 0 0.33205636347025819 -0.021984347149809111 0 0.32073889797108651 -0.029077574684747001 0 0.33510801984818578 -0.039213065231109262 0 0.3448851908667443 -0.024935045658942979 0 0.33951422985597463 -0.0087164329010892671 0 0.33205636347025819 -0.021984347149809111 0 0.32073889797108651 -0.029077574684747001 0 0.31858909885295322 -0.012057668634130001 0 0.30303492886069849 -0.031617517125024031 0 0.33205636347025819 -0.021984347149809111 0 0.32073889797108651 -0.029077574684747001 0 0.31858909885295322 -0.012057668634130001 0 0.3341432688452064 0.0075021798567649258 0 0.3128121591228229 -0.0037616742220522481 0 0.31858909885295322 -0.012057668634130001 0 0.3341432688452064 0.0075021798567649258 0 0.31858909885295322 -0.012057668634130001 0 0.32625562248799173 -0.054398340446079572 0 0.31667402281625312 -0.066133016811741302 0 0.32625562248799173 -0.054398340446079572 0 0.31449782233790452 -0.055858597144907429 0 0.31667402281625312 -0.066133016811741302 0 0.32625562248799173 -0.054398340446079572 0 0.31449782233790452 -0.055858597144907429 0 0.31131283011359501 -0.046183610506732288 0 0.32625562248799173 -0.054398340446079572 0 0.31418288884516338 -0.04255430096414925 0 0.31131283011359501 -0.046183610506732288 0 0.32625562248799173 -0.054398340446079572 0 0.31131283011359501 -0.046183610506732288 0 0.32625562248799173 -0.054398340446079572 0 0.31418288884516338 -0.04255430096414925 0 0.32625562248799173 -0.054398340446079572 0 0.31418288884516338 -0.04255430096414925 0 0.33510801984818578 -0.039213065231109262 0 0.32073889797108651 -0.029077574684747001 0 0.31418288884516338 -0.04255430096414925 0 0.33510801984818578 -0.039213065231109262 0 0.32073889797108651 -0.029077574684747001 0 0.31418288884516338 -0.04255430096414925 0 0.30303492886069849 -0.031617517125024031 0 0.32625562248799173 -0.054398340446079572 0 0.33510801984818578 -0.039213065231109262 0 0.3448851908667443 -0.024935045658942979 0 0.33510801984818578 -0.039213065231109262 0 0.33510801984818578 -0.039213065231109262 0 0.33472714285149369 -0.049163960722258843 0 0.35433751200294528 -0.053478082159031028 0 0.33472714285149369 -0.049163960722258843 0 0.33484702044189663 -0.0591214211276887 0 0.34758302764188748 -0.066168138842290641 0 0.32625562248799173 -0.054398340446079572 0 0.33472714285149369 -0.049163960722258843 0 0.33484702044189663 -0.0591214211276887 0 0.32625562248799173 -0.054398340446079572 0 0.33510801984818578 -0.039213065231109262 0 0.33472714285149369 -0.049163960722258843 0 0.32625562248799173 -0.054398340446079572 0 0.33484702044189663 -0.0591214211276887 0 0.34135075996794512 -0.069207530277241885 0 0.32625562248799173 -0.054398340446079572 0 0.33484702044189663 -0.0591214211276887 0 0.32625562248799173 -0.054398340446079572 0 0.34135075996794512 -0.069207530277241885 0 0.33472714285149369 -0.049163960722258843 0 0.35433751200294528 -0.053478082159031028 0 0.34758302764188748 -0.066168138842290641 0 0.3448851908667443 -0.024935045658942979 0 0.35433751200294528 -0.053478082159031028 0 0.3448851908667443 -0.024935045658942979 0 0.35433751200294528 -0.053478082159031028 0 0.36656806129819058 -0.044773265201258121 0 0.3448851908667443 -0.024935045658942979 0 0.33510801984818578 -0.039213065231109262 0 0.35433751200294528 -0.053478082159031028 0 0.3673836735272929 -0.030309841652976691 0 0.3448851908667443 -0.024935045658942979 0 0.36656806129819058 -0.044773265201258121 0 0.3826958552088553 -0.038044038126593953 0 0.3673836735272929 -0.030309841652976691 0 0.36656806129819058 -0.044773265201258121 0 0.37952618717540282 -0.05452842891581601 0 0.36656806129819058 -0.044773265201258121 0 0.36863570480529972 -0.064209367173060528 0 0.35433751200294528 -0.053478082159031028 0 0.36656806129819058 -0.044773265201258121 0 0.36863570480529972 -0.064209367173060528 0 0.36863570480529972 -0.064209367173060528 0 0.37258869065361061 -0.074835800517348061 0 0.36378983313914681 -0.082021118659118708 0 0.35433751200294528 -0.053478082159031028 0 0.36863570480529972 -0.064209367173060528 0 0.36378983313914681 -0.082021118659118708 0 0.38314400870441118 -0.065519247797471702 0 0.36863570480529972 -0.064209367173060528 0 0.37258869065361061 -0.074835800517348061 0 0.38151201645195348 -0.081865946110074223 0 0.35979345649948807 -0.1000502618580498 0 0.38151201645195348 -0.081865946110074223 0 0.36369991323787548 -0.087911899608031863 0 0.35979345649948807 -0.1000502618580498 0 0.38151201645195348 -0.081865946110074223 0 0.36369991323787548 -0.087911899608031863 0 0.36378983313914681 -0.082021118659118708 0 0.38151201645195348 -0.081865946110074223 0 0.37258869065361061 -0.074835800517348061 0 0.36378983313914681 -0.082021118659118708 0 0.36369991323787548 -0.087911899608031863 0 0.3569583626508917 -0.091605451304511781 0 0.35979345649948807 -0.1000502618580498 0 0.36369991323787548 -0.087911899608031863 0 0.36378983313914681 -0.082021118659118708 0 0.35644589744789801 -0.084016720108404774 0 0.36369991323787548 -0.087911899608031863 0 0.35644589744789801 -0.084016720108404774 0 0.3569583626508917 -0.091605451304511781 0 0.35644589744789801 -0.084016720108404774 0 0.3569583626508917 -0.091605451304511781 0 0.35200682244865122 -0.087577006570628904 0 0.3569583626508917 -0.091605451304511781 0 0.35200682244865122 -0.087577006570628904 0 0.34964661928250829 -0.091497634552970941 0 0.34964661928250829 -0.091497634552970941 0 0.34497641041330718 -0.083188220316628203 0 0.33861506698553812 -0.092318669865393527 0 0.35200682244865122 -0.087577006570628904 0 0.34964661928250829 -0.091497634552970941 0 0.34497641041330718 -0.083188220316628203 0 0.35644589744789801 -0.084016720108404774 0 0.34497641041330718 -0.083188220316628203 0 0.34135075996794512 -0.069207530277241885 0 0.35644589744789801 -0.084016720108404774 0 0.35200682244865122 -0.087577006570628904 0 0.34497641041330718 -0.083188220316628203 0 0.35644589744789801 -0.084016720108404774 0 0.34135075996794512 -0.069207530277241885 0 0.35433751200294528 -0.053478082159031028 0 0.36378983313914681 -0.082021118659118708 0 0.35644589744789801 -0.084016720108404774 0 0.34758302764188748 -0.066168138842290641 0 0.34135075996794512 -0.069207530277241885 0 0.35433751200294528 -0.053478082159031028 0 0.36378983313914681 -0.082021118659118708 0 0.34758302764188748 -0.066168138842290641 0 0.36378983313914681 -0.082021118659118708 0 0.35644589744789801 -0.084016720108404774 0 0.34758302764188748 -0.066168138842290641 0 0.37177605610298958 -0.1178020369688564 0 0.35535162016679789 -0.1203923229167273 0 0.36334643509868048 -0.13235550634614829 0 0.37177605610298958 -0.1178020369688564 0 0.35979345649948807 -0.1000502618580498 0 0.35535162016679789 -0.1203923229167273 0 0.38411571086551888 -0.10308068764267191 0 0.37177605610298958 -0.1178020369688564 0 0.35979345649948807 -0.1000502618580498 0 0.35979345649948807 -0.1000502618580498 0 0.33807489654702377 -0.1182345776060266 0 0.35747055106197378 -0.099194201187238373 0 0.34380626158828659 -0.1031910630416728 0 0.33861506698553812 -0.092318669865393527 0 0.35979345649948807 -0.1000502618580498 0 0.35747055106197378 -0.099194201187238373 0 0.34380626158828659 -0.1031910630416728 0 0.34964661928250829 -0.091497634552970941 0 0.35747055106197378 -0.099194201187238373 0 0.33861506698553812 -0.092318669865393527 0 0.35979345649948807 -0.1000502618580498 0 0.34380626158828659 -0.1031910630416728 0 0.33807489654702377 -0.1182345776060266 0 0.35747055106197378 -0.099194201187238373 0 0.33861506698553812 -0.092318669865393527 0 0.3569583626508917 -0.091605451304511781 0 0.34964661928250829 -0.091497634552970941 0 0.35747055106197378 -0.099194201187238373 0 0.3569583626508917 -0.091605451304511781 0 0.35979345649948807 -0.1000502618580498 0 0.35747055106197378 -0.099194201187238373 0 0.35535162016679789 -0.1203923229167273 0 0.33807489654702377 -0.1182345776060266 0 0.34608880438559197 -0.13258254760181329 0 0.35979345649948807 -0.1000502618580498 0 0.35535162016679789 -0.1203923229167273 0 0.33807489654702377 -0.1182345776060266 0 0.33807489654702377 -0.1182345776060266 0 0.32891723972806708 -0.1018388580747852 0 0.31777502947403408 -0.1168461426263063 0 0.33807489654702377 -0.1182345776060266 0 0.32891723972806708 -0.1018388580747852 0 0.34380626158828659 -0.1031910630416728 0 0.33807489654702377 -0.1182345776060266 0 0.32891723972806708 -0.1018388580747852 0 0.34380626158828659 -0.1031910630416728 0 0.32891723972806708 -0.1018388580747852 0 0.33861506698553812 -0.092318669865393527 0 0.32891723972806708 -0.1018388580747852 0 0.31267636441452218 -0.10015471203491171 0 0.31975958290910278 -0.085443138543548153 0 0.32891723972806708 -0.1018388580747852 0 0.31267636441452218 -0.10015471203491171 0 0.31777502947403408 -0.1168461426263063 0 0.33807489654702377 -0.1182345776060266 0 0.31777502947403408 -0.1168461426263063 0 0.31614600411196159 -0.13659499859688781 0 0.32830215935120183 -0.068081701118373236 0 0.34135075996794512 -0.069207530277241885 0 0.33282823928032668 -0.078743440139054405 0 0.32625562248799173 -0.054398340446079572 0 0.32830215935120183 -0.068081701118373236 0 0.34135075996794512 -0.069207530277241885 0 0.33484702044189663 -0.0591214211276887 0 0.34758302764188748 -0.066168138842290641 0 0.34135075996794512 -0.069207530277241885 0 0.34497641041330718 -0.083188220316628203 0 0.34135075996794512 -0.069207530277241885 0 0.33282823928032668 -0.078743440139054405 0 0.33861506698553812 -0.092318669865393527 0 0.33282823928032668 -0.078743440139054405 0 0.31975958290910278 -0.085443138543548153 0 0.33861506698553812 -0.092318669865393527 0 0.31975958290910278 -0.085443138543548153 0 0.32891723972806708 -0.1018388580747852 0 0.33861506698553812 -0.092318669865393527 0 0.31975958290910278 -0.085443138543548153 0 0.34497641041330718 -0.083188220316628203 0 0.33861506698553812 -0.092318669865393527 0 0.33282823928032668 -0.078743440139054405 0 0.32891723972806708 -0.1018388580747852 0 0.31975958290910278 -0.085443138543548153 0 0.33282823928032668 -0.078743440139054405 0 0.31975958290910278 -0.085443138543548153 0 0.32317270346868671 -0.075262064080674734 0 0.31671400781419029 -0.07999039052572357 0 0.31975958290910278 -0.085443138543548153 0 0.32317270346868671 -0.075262064080674734 0 0.31671400781419029 -0.07999039052572357 0 0.31975958290910278 -0.085443138543548153 0 0.31671400781419029 -0.07999039052572357 0 0.32317270346868671 -0.075262064080674734 0 0.31667402281625312 -0.066133016811741302 0 0.32830215935120183 -0.068081701118373236 0 0.33282823928032668 -0.078743440139054405 0 0.32317270346868671 -0.075262064080674734 0 0.32830215935120183 -0.068081701118373236 0 0.32317270346868671 -0.075262064080674734 0 0.31667402281625312 -0.066133016811741302 0 0.32625562248799173 -0.054398340446079572 0 0.32830215935120183 -0.068081701118373236 0 0.31667402281625312 -0.066133016811741302 0 0.31667402281625312 -0.066133016811741302 0 0.29668641999112683 -0.077029657686017702 0 0.30305150583652629 -0.05719574640978764 0 0.31671400781419029 -0.07999039052572357 0 0.31667402281625312 -0.066133016811741302 0 0.29668641999112683 -0.077029657686017702 0 0.31267636441452218 -0.10015471203491171 0 0.31975958290910278 -0.085443138543548153 0 0.29668641999112683 -0.077029657686017702 0 0.31975958290910278 -0.085443138543548153 0 0.29668641999112683 -0.077029657686017702 0 0.31671400781419029 -0.07999039052572357 0 0.31975958290910278 -0.085443138543548153 0 0.29668641999112683 -0.077029657686017702 0 0.29668641999112683 -0.077029657686017702 0 0.2949818688179075 -0.1056301572325291 0 0.27845573271977242 -0.089629400714898527 0 0.29668641999112683 -0.077029657686017702 0 0.27361325707315098 -0.068616176828486641 0 0.27845573271977242 -0.089629400714898527 0 0.29668641999112683 -0.077029657686017702 0 0.27361325707315098 -0.068616176828486641 0 0.29668641999112683 -0.077029657686017702 0 0.30305150583652629 -0.05719574640978764 0 0.28555325021025418 -0.053601267202299421 0 0.29668641999112683 -0.077029657686017702 0 0.27361325707315098 -0.068616176828486641 0 0.28555325021025418 -0.053601267202299421 0 0.31777502947403408 -0.1168461426263063 0 0.2949818688179075 -0.1056301572325291 0 0.30079481710545231 -0.127172667903095 0 0.31267636441452218 -0.10015471203491171 0 0.31777502947403408 -0.1168461426263063 0 0.2949818688179075 -0.1056301572325291 0 0.31267636441452218 -0.10015471203491171 0 0.29668641999112683 -0.077029657686017702 0 0.2949818688179075 -0.1056301572325291 0 0.2949818688179075 -0.1056301572325291 0 0.28241256269815868 -0.1276523449327783 0 0.30079481710545231 -0.127172667903095 0 0.2949818688179075 -0.1056301572325291 0 0.27029736467659082 -0.10698558202683681 0 0.28241256269815868 -0.1276523449327783 0 0.27029736467659082 -0.10698558202683681 0 0.26119158154211158 -0.12554023966135749 0 0.28241256269815868 -0.1276523449327783 0 0.2949818688179075 -0.1056301572325291 0 0.27029736467659082 -0.10698558202683681 0 0.27845573271977242 -0.089629400714898527 0 0.27029736467659082 -0.10698558202683681 0 0.27845573271977242 -0.089629400714898527 0 0.25669975304008619 -0.089885429800622307 0 0.27029736467659082 -0.10698558202683681 0 0.25669975304008619 -0.089885429800622307 0 0.24895986423086119 -0.10814680445365769 0 0.27029736467659082 -0.10698558202683681 0 0.26119158154211158 -0.12554023966135749 0 0.24895986423086119 -0.10814680445365769 0 0.26119158154211158 -0.12554023966135749 0 0.24895986423086119 -0.10814680445365769 0 0.2442740601995684 -0.12974252718241039 0 0.27361325707315098 -0.068616176828486641 0 0.27845573271977242 -0.089629400714898527 0 0.25669975304008619 -0.089885429800622307 0 0.27361325707315098 -0.068616176828486641 0 0.25669975304008619 -0.089885429800622307 0 0.27361325707315098 -0.068616176828486641 0 0.24882725861752331 -0.059578121478965212 0 0.27361325707315098 -0.068616176828486641 0 0.25078634396980071 -0.075245354593830374 0 0.24882725861752331 -0.059578121478965212 0 0.27361325707315098 -0.068616176828486641 0 0.25669975304008619 -0.089885429800622307 0 0.25078634396980071 -0.075245354593830374 0 0.26278791128271278 -0.053507690086671417 0 0.26861494625834548 -0.057694313882822923 0 0.24882725861752331 -0.059578121478965212 0 0.27361325707315098 -0.068616176828486641 0 0.26861494625834548 -0.057694313882822923 0 0.24882725861752331 -0.059578121478965212 0 0.26433021840630311 -0.046174103837850297 0 0.24882725861752331 -0.059578121478965212 0 0.26433021840630311 -0.046174103837850297 0 0.24882725861752331 -0.059578121478965212 0 0.24938780400303001 -0.047352155117508059 0 0.26278791128271278 -0.053507690086671417 0 0.26433021840630311 -0.046174103837850297 0 0.24882725861752331 -0.059578121478965212 0 0.26278791128271278 -0.053507690086671417 0 0.26583645707577952 -0.051858285751287148 0 0.26433021840630311 -0.046174103837850297 0 0.26861494625834548 -0.057694313882822923 0 0.27562342718322769 -0.047939756161899827 0 0.28555325021025418 -0.053601267202299421 0 0.27361325707315098 -0.068616176828486641 0 0.26861494625834548 -0.057694313882822923 0 0.28555325021025418 -0.053601267202299421 0 0.26861494625834548 -0.057694313882822923 0 0.26765770606498113 -0.049740577148626813 0 0.27562342718322769 -0.047939756161899827 0 0.26861494625834548 -0.057694313882822923 0 0.26583645707577952 -0.051858285751287148 0 0.26765770606498113 -0.049740577148626813 0 0.26765770606498113 -0.049740577148626813 0 0.27562342718322769 -0.047939756161899827 0 0.26433021840630311 -0.046174103837850297 0 0.26278791128271278 -0.053507690086671417 0 0.26861494625834548 -0.057694313882822923 0 0.26583645707577952 -0.051858285751287148 0 0.26583645707577952 -0.051858285751287148 0 0.26765770606498113 -0.049740577148626813 0 0.26433021840630311 -0.046174103837850297 0 0.27361325707315098 -0.068616176828486641 0 0.28555325021025418 -0.053601267202299421 0 0.27562342718322769 -0.047939756161899827 0 0.27697238096195598 -0.035243560752747621 0 0.28509796368979468 -0.04096547930356402 0 0.27562342718322769 -0.047939756161899827 0 0.27697238096195598 -0.035243560752747621 0 0.26433021840630311 -0.046174103837850297 0 0.27697238096195598 -0.035243560752747621 0 0.26433021840630311 -0.046174103837850297 0 0.26810845546563039 -0.032628380691606187 0 0.26639511320775028 -0.031637982305592338 0 0.26433021840630311 -0.046174103837850297 0 0.27697238096195598 -0.035243560752747621 0 0.26810845546563039 -0.032628380691606187 0 0.26433021840630311 -0.046174103837850297 0 0.26810845546563039 -0.032628380691606187 0 0.26639511320775028 -0.031637982305592338 0 0.26639511320775028 -0.031637982305592338 0 0.26433021840630311 -0.046174103837850297 0 0.26639511320775028 -0.031637982305592338 0 0.25671437015045312 -0.040213808997309343 0 0.25308285036203498 -0.03256940699965867 0 0.26639511320775028 -0.031637982305592338 0 0.26433021840630311 -0.046174103837850297 0 0.25671437015045312 -0.040213808997309343 0 0.25671437015045312 -0.040213808997309343 0 0.24938780400303001 -0.047352155117508059 0 0.24421700669423499 -0.036990757300935741 0 0.26433021840630311 -0.046174103837850297 0 0.25671437015045312 -0.040213808997309343 0 0.24938780400303001 -0.047352155117508059 0 0.25671437015045312 -0.040213808997309343 0 0.25308285036203498 -0.03256940699965867 0 0.24421700669423499 -0.036990757300935741 0 0.26773220070295078 -0.022225364134475959 0 0.2444704141750727 -0.0094373062236474958 0 0.26639511320775028 -0.031637982305592338 0 0.24899024079772161 -0.0215770867288981 0 0.26639511320775028 -0.031637982305592338 0 0.25308285036203498 -0.03256940699965867 0 0.24899024079772161 -0.0215770867288981 0 0.25308285036203498 -0.03256940699965867 0 0.24899024079772161 -0.0215770867288981 0 0.26773220070295078 -0.022225364134475959 0 0.24899024079772161 -0.0215770867288981 0 0.2444704141750727 -0.0094373062236474958 0 0.26639511320775028 -0.031637982305592338 0 0.26773220070295078 -0.022225364134475959 0 0.24899024079772161 -0.0215770867288981 0 0.25899550820555201 -0.0050161061057214986 0 0.26773220070295078 -0.022225364134475959 0 0.2444704141750727 -0.0094373062236474958 0 0.25197628184863868 0.0051656796147290978 0 0.25899550820555201 -0.0050161061057214986 0 0.2444704141750727 -0.0094373062236474958 0 0.27180313609554629 0.0064325663205091234 0 0.25899550820555201 -0.0050161061057214986 0 0.26773220070295078 -0.022225364134475959 0 0.27180313609554629 0.0064325663205091234 0 0.28040157571996438 -0.0094129082818092888 0 0.26773220070295078 -0.022225364134475959 0 0.27180313609554629 0.0064325663205091234 0 0.26773220070295078 -0.022225364134475959 0 0.28040157571996438 -0.0094129082818092888 0 0.26773220070295078 -0.022225364134475959 0 0.28261272202515392 -0.030405860855294509 0 0.27697238096195598 -0.035243560752747621 0 0.26810845546563039 -0.032628380691606187 0 0.26773220070295078 -0.022225364134475959 0 0.26810845546563039 -0.032628380691606187 0 0.26639511320775028 -0.031637982305592338 0 0.26773220070295078 -0.022225364134475959 0 0.26639511320775028 -0.031637982305592338 0 0.26773220070295078 -0.022225364134475959 0 0.26773220070295078 -0.022225364134475959 0 0.28261272202515392 -0.030405860855294509 0 0.27697238096195598 -0.035243560752747621 0 0.26773220070295078 -0.022225364134475959 0 0.28261272202515392 -0.030405860855294509 0 0.28040157571996438 -0.0094129082818092888 0 0.28261272202515392 -0.030405860855294509 0 0.29240984538527348 -0.024488462938166349 0 0.28040157571996438 -0.0094129082818092888 0 0.29405973155509718 -0.02281233725519272 0 0.28040157571996438 -0.0094129082818092888 0 0.29405973155509718 -0.02281233725519272 0 0.29240984538527348 -0.024488462938166349 0 0.28261272202515392 -0.030405860855294509 0 0.29392209423471621 -0.029582107149957969 0 0.29240984538527348 -0.024488462938166349 0 0.29405973155509718 -0.02281233725519272 0 0.29392209423471621 -0.029582107149957969 0 0.29240984538527348 -0.024488462938166349 0 0.29405973155509718 -0.02281233725519272 0 0.29240984538527348 -0.024488462938166349 0 0.29133023549735382 0.0069148364263318229 0 0.28040157571996438 -0.0094129082818092888 0 0.29600732405563013 -0.0056944125088911179 0 0.28040157571996438 -0.0094129082818092888 0 0.29405973155509718 -0.02281233725519272 0 0.29600732405563013 -0.0056944125088911179 0 0.3128121591228229 -0.0037616742220522481 0 0.31858909885295322 -0.012057668634130001 0 0.29405973155509718 -0.02281233725519272 0 0.3128121591228229 -0.0037616742220522481 0 0.29405973155509718 -0.02281233725519272 0 0.3128121591228229 -0.0037616742220522481 0 0.29405973155509718 -0.02281233725519272 0 0.29600732405563013 -0.0056944125088911179 0 0.31858909885295322 -0.012057668634130001 0 0.30303492886069849 -0.031617517125024031 0 0.31858909885295322 -0.012057668634130001 0 0.29405973155509718 -0.02281233725519272 0 0.30303492886069849 -0.031617517125024031 0 0.29405973155509718 -0.02281233725519272 0 0.29392209423471621 -0.029582107149957969 0 0.30303492886069849 -0.031617517125024031 0 0.29405973155509718 -0.02281233725519272 0 0.30303492886069849 -0.031617517125024031 0 0.31418288884516338 -0.04255430096414925 0 0.30303492886069849 -0.031617517125024031 0 0.29392209423471621 -0.029582107149957969 0 0.30303492886069849 -0.031617517125024031 0 0.29749324334735738 -0.038586357576112298 0 0.30303492886069849 -0.031617517125024031 0 0.29749324334735738 -0.038586357576112298 0 0.31131283011359501 -0.046183610506732288 0 0.30303492886069849 -0.031617517125024031 0 0.29749324334735738 -0.038586357576112298 0 0.29749324334735738 -0.038586357576112298 0 0.31131283011359501 -0.046183610506732288 0 0.31418288884516338 -0.04255430096414925 0 0.30303492886069849 -0.031617517125024031 0 0.31131283011359501 -0.046183610506732288 0 0.29749324334735738 -0.038586357576112298 0 0.31131283011359501 -0.046183610506732288 0 0.30305150583652629 -0.05719574640978764 0 0.31449782233790452 -0.055858597144907429 0 0.31131283011359501 -0.046183610506732288 0 0.30305150583652629 -0.05719574640978764 0 0.31449782233790452 -0.055858597144907429 0 0.31667402281625312 -0.066133016811741302 0 0.30305150583652629 -0.05719574640978764 0 0.29749324334735738 -0.038586357576112298 0 0.30305150583652629 -0.05719574640978764 0 0.28555325021025418 -0.053601267202299421 0 0.27562342718322769 -0.047939756161899827 0 0.28555325021025418 -0.053601267202299421 0 0.28509796368979468 -0.04096547930356402 0 0.27697238096195598 -0.035243560752747621 0 0.28261272202515392 -0.030405860855294509 0 0.28509796368979468 -0.04096547930356402 0 0.28261272202515392 -0.030405860855294509 0 0.29749324334735738 -0.038586357576112298 0 0.28509796368979468 -0.04096547930356402 0 0.28261272202515392 -0.030405860855294509 0 0.29749324334735738 -0.038586357576112298 0 0.28261272202515392 -0.030405860855294509 0 0.29392209423471621 -0.029582107149957969 0 0.29749324334735738 -0.038586357576112298 0 0.29749324334735738 -0.038586357576112298 0 0.28555325021025418 -0.053601267202299421 0 0.29749324334735738 -0.038586357576112298 0 0.28555325021025418 -0.053601267202299421 0 0.28509796368979468 -0.04096547930356402 0 0.29297362396349902 -0.21023954005987169 0 0.29292804074273621 -0.2259326653954444 0 0.29297362396349902 -0.21023954005987169 0 0.27345786721306908 -0.19734582091328509 0 0.29304819780851532 -0.18456569172246179 0 0.29297362396349902 -0.21023954005987169 0 0.29304819780851532 -0.18456569172246179 0 0.30488410278881772 -0.2034803061309414 0 0.29304819780851532 -0.18456569172246179 0 0.3159015948060267 -0.19339020528296749 0 0.29297362396349902 -0.21023954005987169 0 0.30488410278881772 -0.2034803061309414 0 0.29304819780851532 -0.18456569172246179 0 0.31246278053813548 -0.20671795478004529 0 0.30488410278881772 -0.2034803061309414 0 0.3159015948060267 -0.19339020528296749 0 0.31246278053813548 -0.20671795478004529 0 0.30488410278881772 -0.2034803061309414 0 0.30754649512552817 -0.21259009996016789 0 0.31246278053813548 -0.20671795478004529 0 0.30754649512552817 -0.21259009996016789 0 0.31238272265121447 -0.21198856777940919 0 0.29297362396349902 -0.21023954005987169 0 0.30488410278881772 -0.2034803061309414 0 0.30118622590554678 -0.21457111743483279 0 0.30488410278881772 -0.2034803061309414 0 0.30118622590554678 -0.21457111743483279 0 0.30754649512552817 -0.21259009996016789 0 0.30118622590554678 -0.21457111743483279 0 0.30754649512552817 -0.21259009996016789 0 0.30421279740648172 -0.22118776497408299 0 0.29297362396349902 -0.21023954005987169 0 0.30118622590554678 -0.21457111743483279 0 0.29897684122990881 -0.22566316189605501 0 0.30754649512552817 -0.21259009996016789 0 0.30921951564953848 -0.21895287414827549 0 0.30421279740648172 -0.22118776497408299 0 0.30754649512552817 -0.21259009996016789 0 0.31238272265121447 -0.21198856777940919 0 0.30921951564953848 -0.21895287414827549 0 0.30421279740648172 -0.22118776497408299 0 0.29897684122990881 -0.22566316189605501 0 0.3049266797793117 -0.23686172492080279 0 0.31091791468626861 -0.23410952610168409 0 0.3049266797793117 -0.23686172492080279 0 0.3170288832851566 -0.21213621310691419 0 0.30921951564953848 -0.21895287414827549 0 0.3049266797793117 -0.23686172492080279 0 0.3170288832851566 -0.21213621310691419 0 0.3049266797793117 -0.23686172492080279 0 0.3170288832851566 -0.21213621310691419 0 0.30921951564953848 -0.21895287414827549 0 0.30421279740648172 -0.22118776497408299 0 0.3049266797793117 -0.23686172492080279 0 0.29897684122990881 -0.22566316189605501 0 0.3049266797793117 -0.23686172492080279 0 0.2989940356993816 -0.235358078512936 0 0.29897684122990881 -0.22566316189605501 0 0.2989940356993816 -0.235358078512936 0 0.29289905011848272 -0.23591338839728149 0 0.30118622590554678 -0.21457111743483279 0 0.30421279740648172 -0.22118776497408299 0 0.29897684122990881 -0.22566316189605501 0 0.31091791468626861 -0.23410952610168409 0 0.30300397292774039 -0.25913859153275198 0 0.3049266797793117 -0.23686172492080279 0 0.29714253593384282 -0.24876274676278101 0 0.29246005145957049 -0.26233177801074281 0 0.31091791468626861 -0.23410952610168409 0 0.3049266797793117 -0.23686172492080279 0 0.30300397292774039 -0.25913859153275198 0 0.31091791468626861 -0.23410952610168409 0 0.3192444096746781 -0.24328484406878439 0 0.30300397292774039 -0.25913859153275198 0 0.3049266797793117 -0.23686172492080279 0 0.29246005145957049 -0.26233177801074281 0 0.3049266797793117 -0.23686172492080279 0 0.2984905753827547 -0.23922398464845029 0 0.29714253593384282 -0.24876274676278101 0 0.3049266797793117 -0.23686172492080279 0 0.2989940356993816 -0.235358078512936 0 0.2984905753827547 -0.23922398464845029 0 0.29714253593384282 -0.24876274676278101 0 0.29289905011848272 -0.23591338839728149 0 0.29246005145957049 -0.26233177801074281 0 0.29289905011848272 -0.23591338839728149 0 0.29246005145957049 -0.26233177801074281 0 0.29289905011848272 -0.23591338839728149 0 0.28681506764528031 -0.24909201677635021 0 0.29246005145957049 -0.26233177801074281 0 0.2984905753827547 -0.23922398464845029 0 0.29714253593384282 -0.24876274676278101 0 0.29289905011848272 -0.23591338839728149 0 0.2989940356993816 -0.235358078512936 0 0.2984905753827547 -0.23922398464845029 0 0.29289905011848272 -0.23591338839728149 0 0.29289905011848272 -0.23591338839728149 0 0.28308108674043592 -0.2407845825213519 0 0.28069359367437169 -0.23183750678618051 0 0.29289905011848272 -0.23591338839728149 0 0.28308108674043592 -0.2407845825213519 0 0.28681506764528031 -0.24909201677635021 0 0.29292804074273621 -0.2259326653954444 0 0.27126811697574071 -0.2206335376083827 0 0.29297362396349902 -0.21023954005987169 0 0.29897684122990881 -0.22566316189605501 0 0.29292804074273621 -0.2259326653954444 0 0.29292804074273621 -0.2259326653954444 0 0.27126811697574071 -0.2206335376083827 0 0.28069359367437169 -0.23183750678618051 0 0.29297362396349902 -0.21023954005987169 0 0.29292804074273621 -0.2259326653954444 0 0.27126811697574071 -0.2206335376083827 0 0.29897684122990881 -0.22566316189605501 0 0.29289905011848272 -0.23591338839728149 0 0.29292804074273621 -0.2259326653954444 0 0.29289905011848272 -0.23591338839728149 0 0.29292804074273621 -0.2259326653954444 0 0.29289905011848272 -0.23591338839728149 0 0.29292804074273621 -0.2259326653954444 0 0.28069359367437169 -0.23183750678618051 0 0.27126811697574071 -0.2206335376083827 0 0.28069359367437169 -0.23183750678618051 0 0.27191663552360912 -0.24629541812559541 0 0.28308108674043592 -0.2407845825213519 0 0.28681506764528031 -0.24909201677635021 0 0.27191663552360912 -0.24629541812559541 0 0.28308108674043592 -0.2407845825213519 0 0.28069359367437169 -0.23183750678618051 0 0.27191663552360912 -0.24629541812559541 0 0.27191663552360912 -0.24629541812559541 0 0.25560193416489979 -0.24659806198470721 0 0.25165868265973951 -0.23048189306851599 0 0.27191663552360912 -0.24629541812559541 0 0.25165868265973951 -0.23048189306851599 0 0.27126811697574071 -0.2206335376083827 0 0.27191663552360912 -0.24629541812559541 0 0.25165868265973951 -0.23048189306851599 0 0.27126811697574071 -0.2206335376083827 0 0.25165868265973951 -0.23048189306851599 0 0.24984927567372611 -0.21533511008433351 0 0.26300147541279989 -0.20810941334023331 0 0.25035932680677792 -0.19167626156947479 0 0.24984927567372611 -0.21533511008433351 0 0.27126811697574071 -0.2206335376083827 0 0.26300147541279989 -0.20810941334023331 0 0.24984927567372611 -0.21533511008433351 0 0.27126811697574071 -0.2206335376083827 0 0.24984927567372611 -0.21533511008433351 0 0.29297362396349902 -0.21023954005987169 0 0.27126811697574071 -0.2206335376083827 0 0.27345786721306908 -0.19734582091328509 0 0.27126811697574071 -0.2206335376083827 0 0.26300147541279989 -0.20810941334023331 0 0.27345786721306908 -0.19734582091328509 0 0.26300147541279989 -0.20810941334023331 0 0.27345786721306908 -0.19734582091328509 0 0.25035932680677792 -0.19167626156947479 0 0.27345786721306908 -0.19734582091328509 0 0.25035932680677792 -0.19167626156947479 0 0.2722882192418391 -0.17331584057861249 0 0.25035932680677792 -0.19167626156947479 0 0.25504809089951319 -0.16596793489827341 0 0.2722882192418391 -0.17331584057861249 0 0.25035932680677792 -0.19167626156947479 0 0.2722882192418391 -0.17331584057861249 0 0.25504809089951319 -0.16596793489827341 0 0.25383149558425172 -0.14596201818091509 0 0.2457441474414723 -0.15902650193771031 0 0.25504809089951319 -0.16596793489827341 0 0.2722882192418391 -0.17331584057861249 0 0.26995699682030377 -0.1482884918657322 0 0.2722882192418391 -0.17331584057861249 0 0.26995699682030377 -0.1482884918657322 0 0.29421711167690029 -0.15495541958775011 0 0.27345786721306908 -0.19734582091328509 0 0.2722882192418391 -0.17331584057861249 0 0.29304819780851532 -0.18456569172246179 0 0.26119158154211158 -0.12554023966135749 0 0.25383149558425172 -0.14596201818091509 0 0.26995699682030377 -0.1482884918657322 0 0.26119158154211158 -0.12554023966135749 0 0.25383149558425172 -0.14596201818091509 0 0.2442740601995684 -0.12974252718241039 0 0.25504809089951319 -0.16596793489827341 0 0.25383149558425172 -0.14596201818091509 0 0.26995699682030377 -0.1482884918657322 0 0.26119158154211158 -0.12554023966135749 0 0.26995699682030377 -0.1482884918657322 0 0.28241256269815868 -0.1276523449327783 0 0.28241256269815868 -0.1276523449327783 0 0.29421711167690029 -0.15495541958775011 0 0.30079481710545231 -0.127172667903095 0 0.26995699682030377 -0.1482884918657322 0 0.28241256269815868 -0.1276523449327783 0 0.29421711167690029 -0.15495541958775011 0 0.29421711167690029 -0.15495541958775011 0 0.32021960804671762 -0.16127263653903259 0 0.31614600411196159 -0.13659499859688781 0 0.29421711167690029 -0.15495541958775011 0 0.31614600411196159 -0.13659499859688781 0 0.31777502947403408 -0.1168461426263063 0 0.30079481710545231 -0.127172667903095 0 0.31614600411196159 -0.13659499859688781 0 0.29421711167690029 -0.15495541958775011 0 0.30079481710545231 -0.127172667903095 0 0.31614600411196159 -0.13659499859688781 0 0.2722882192418391 -0.17331584057861249 0 0.29421711167690029 -0.15495541958775011 0 0.29304819780851532 -0.18456569172246179 0 0.2722882192418391 -0.17331584057861249 0 0.29421711167690029 -0.15495541958775011 0 0.29421711167690029 -0.15495541958775011 0 0.29304819780851532 -0.18456569172246179 0 0.31002646210829737 -0.1756470696743522 0 0.29421711167690029 -0.15495541958775011 0 0.31002646210829737 -0.1756470696743522 0 0.32021960804671762 -0.16127263653903259 0 0.29304819780851532 -0.18456569172246179 0 0.31002646210829737 -0.1756470696743522 0 0.3159015948060267 -0.19339020528296749 0 0.31002646210829737 -0.1756470696743522 0 0.32674579820332739 -0.18405139523954919 0 0.3159015948060267 -0.19339020528296749 0 0.31002646210829737 -0.1756470696743522 0 0.32674579820332739 -0.18405139523954919 0 0.32021960804671762 -0.16127263653903259 0 0.32021960804671762 -0.16127263653903259 0 0.34055168039923323 -0.16558486475439879 0 0.33479716449970037 -0.14882728453974201 0 0.32674579820332739 -0.18405139523954919 0 0.32021960804671762 -0.16127263653903259 0 0.34055168039923323 -0.16558486475439879 0 0.32674579820332739 -0.18405139523954919 0 0.3478866883459894 -0.17755692921703789 0 0.34859524921631763 -0.19157943293675911 0 0.32674579820332739 -0.18405139523954919 0 0.34055168039923323 -0.16558486475439879 0 0.3478866883459894 -0.17755692921703789 0 0.33807489654702377 -0.1182345776060266 0 0.31614600411196159 -0.13659499859688781 0 0.32021960804671762 -0.16127263653903259 0 0.31614600411196159 -0.13659499859688781 0 0.33479716449970037 -0.14882728453974201 0 0.34055168039923323 -0.16558486475439879 0 0.33479716449970037 -0.14882728453974201 0 0.35410271222415329 -0.14693051759760389 0 0.33807489654702377 -0.1182345776060266 0 0.31614600411196159 -0.13659499859688781 0 0.34608880438559197 -0.13258254760181329 0 0.31614600411196159 -0.13659499859688781 0 0.33479716449970037 -0.14882728453974201 0 0.34608880438559197 -0.13258254760181329 0 0.33807489654702377 -0.1182345776060266 0 0.34608880438559197 -0.13258254760181329 0 0.35535162016679789 -0.1203923229167273 0 0.34608880438559197 -0.13258254760181329 0 0.36334643509868048 -0.13235550634614829 0 0.34608880438559197 -0.13258254760181329 0 0.35410271222415329 -0.14693051759760389 0 0.36334643509868048 -0.13235550634614829 0 0.34608880438559197 -0.13258254760181329 0 0.35410271222415329 -0.14693051759760389 0 0.33479716449970037 -0.14882728453974201 0 0.34608880438559197 -0.13258254760181329 0 0.35410271222415329 -0.14693051759760389 0 0.37389936933852802 -0.14563551401957611 0 0.36400920207036003 -0.15923239566652181 0 0.38647247245969768 -0.1594956484341806 0 0.35410271222415329 -0.14693051759760389 0 0.37389936933852802 -0.14563551401957611 0 0.36334643509868048 -0.13235550634614829 0 0.35410271222415329 -0.14693051759760389 0 0.37389936933852802 -0.14563551401957611 0 0.36400920207036003 -0.15923239566652181 0 0.37389936933852802 -0.14563551401957611 0 0.36334643509868048 -0.13235550634614829 0 0.38250903423046978 -0.13084347797709861 0 0.37177605610298958 -0.1178020369688564 0 0.36334643509868048 -0.13235550634614829 0 0.38250903423046978 -0.13084347797709861 0 0.34055168039923323 -0.16558486475439879 0 0.3478866883459894 -0.17755692921703789 0 0.36166408166187292 -0.17485209974071 0 0.3478866883459894 -0.17755692921703789 0 0.36599509945524411 -0.18665866760605329 0 0.34859524921631763 -0.19157943293675911 0 0.3478866883459894 -0.17755692921703789 0 0.36599509945524411 -0.18665866760605329 0 0.36166408166187292 -0.17485209974071 0 0.34055168039923323 -0.16558486475439879 0 0.36400920207036003 -0.15923239566652181 0 0.36166408166187292 -0.17485209974071 0 0.34055168039923323 -0.16558486475439879 0 0.35410271222415329 -0.14693051759760389 0 0.36400920207036003 -0.15923239566652181 0 0.36400920207036003 -0.15923239566652181 0 0.36166408166187292 -0.17485209974071 0 0.38087191286005589 -0.17735720480079609 0 0.36599509945524411 -0.18665866760605329 0 0.36166408166187292 -0.17485209974071 0 0.38087191286005589 -0.17735720480079609 0 0.36599509945524411 -0.18665866760605329 0 0.36621381707138501 -0.20341937060880891 0 0.34859524921631763 -0.19157943293675911 0 0.36599509945524411 -0.18665866760605329 0 0.36621381707138501 -0.20341937060880891 0 0.39073884757584387 -0.19518696833220811 0 0.36621381707138501 -0.20341937060880891 0 0.35867849734832991 -0.22196263337545391 0 0.38126929142328608 -0.20854791823582519 0 0.35867849734832991 -0.22196263337545391 0 0.38319031560862499 -0.22433648925421251 0 0.38126929142328608 -0.20854791823582519 0 0.36621381707138501 -0.20341937060880891 0 0.34168878656692597 -0.21165177288540979 0 0.35867849734832991 -0.22196263337545391 0 0.36621381707138501 -0.20341937060880891 0 0.34241680611087832 -0.20067791585399319 0 0.34168878656692597 -0.21165177288540979 0 0.34168878656692597 -0.21165177288540979 0 0.33416667908803488 -0.21958877749669539 0 0.35867849734832991 -0.22196263337545391 0 0.36621381707138501 -0.20341937060880891 0 0.34168878656692597 -0.21165177288540979 0 0.36621381707138501 -0.20341937060880891 0 0.34859524921631763 -0.19157943293675911 0 0.34241680611087832 -0.20067791585399319 0 0.32674579820332739 -0.18405139523954919 0 0.34859524921631763 -0.19157943293675911 0 0.33150282900478162 -0.19932120868959019 0 0.34859524921631763 -0.19157943293675911 0 0.33150282900478162 -0.19932120868959019 0 0.34241680611087832 -0.20067791585399319 0 0.33150282900478162 -0.19932120868959019 0 0.34241680611087832 -0.20067791585399319 0 0.33618023297626248 -0.20519901490840781 0 0.34168878656692597 -0.21165177288540979 0 0.32911251022246413 -0.20914516220463769 0 0.31716375606246711 -0.21988417516201059 0 0.34168878656692597 -0.21165177288540979 0 0.31716375606246711 -0.21988417516201059 0 0.34168878656692597 -0.21165177288540979 0 0.31716375606246711 -0.21988417516201059 0 0.33416667908803488 -0.21958877749669539 0 0.34241680611087832 -0.20067791585399319 0 0.33618023297626248 -0.20519901490840781 0 0.34168878656692597 -0.21165177288540979 0 0.33150282900478162 -0.19932120868959019 0 0.33618023297626248 -0.20519901490840781 0 0.32911251022246413 -0.20914516220463769 0 0.33618023297626248 -0.20519901490840781 0 0.34168878656692597 -0.21165177288540979 0 0.32911251022246413 -0.20914516220463769 0 0.33150282900478162 -0.19932120868959019 0 0.32911251022246413 -0.20914516220463769 0 0.318831856444798 -0.2090804606706167 0 0.31091791468626861 -0.23410952610168409 0 0.3170288832851566 -0.21213621310691419 0 0.318831856444798 -0.2090804606706167 0 0.32911251022246413 -0.20914516220463769 0 0.318831856444798 -0.2090804606706167 0 0.31716375606246711 -0.21988417516201059 0 0.31238272265121447 -0.21198856777940919 0 0.30921951564953848 -0.21895287414827549 0 0.3170288832851566 -0.21213621310691419 0 0.31238272265121447 -0.21198856777940919 0 0.3170288832851566 -0.21213621310691419 0 0.31517219164321869 -0.21016899432623279 0 0.3170288832851566 -0.21213621310691419 0 0.318831856444798 -0.2090804606706167 0 0.31517219164321869 -0.21016899432623279 0 0.31246278053813548 -0.20671795478004529 0 0.31238272265121447 -0.21198856777940919 0 0.31517219164321869 -0.21016899432623279 0 0.31246278053813548 -0.20671795478004529 0 0.318831856444798 -0.2090804606706167 0 0.31517219164321869 -0.21016899432623279 0 0.32674579820332739 -0.18405139523954919 0 0.318831856444798 -0.2090804606706167 0 0.3159015948060267 -0.19339020528296749 0 0.31246278053813548 -0.20671795478004529 0 0.318831856444798 -0.2090804606706167 0 0.3159015948060267 -0.19339020528296749 0 0.32674579820332739 -0.18405139523954919 0 0.318831856444798 -0.2090804606706167 0 0.32674579820332739 -0.18405139523954919 0 0.33150282900478162 -0.19932120868959019 0 0.318831856444798 -0.2090804606706167 0 0.3192444096746781 -0.24328484406878439 0 0.32584089678246358 -0.23216956679731821 0 0.33083616901617252 -0.2515046018757397 0 0.3192444096746781 -0.24328484406878439 0 0.31829174430146928 -0.23236202803244929 0 0.32584089678246358 -0.23216956679731821 0 0.31091791468626861 -0.23410952610168409 0 0.3192444096746781 -0.24328484406878439 0 0.31829174430146928 -0.23236202803244929 0 0.31091791468626861 -0.23410952610168409 0 0.31829174430146928 -0.23236202803244929 0 0.31716375606246711 -0.21988417516201059 0 0.31091791468626861 -0.23410952610168409 0 0.318831856444798 -0.2090804606706167 0 0.31716375606246711 -0.21988417516201059 0 0.31091791468626861 -0.23410952610168409 0 0.318831856444798 -0.2090804606706167 0 0.31716375606246711 -0.21988417516201059 0 0.32584089678246358 -0.23216956679731821 0 0.33416667908803488 -0.21958877749669539 0 0.31829174430146928 -0.23236202803244929 0 0.31716375606246711 -0.21988417516201059 0 0.32584089678246358 -0.23216956679731821 0 0.32584089678246358 -0.23216956679731821 0 0.33482169393483241 -0.23067716457853801 0 0.33416667908803488 -0.21958877749669539 0 0.33482169393483241 -0.23067716457853801 0 0.33416667908803488 -0.21958877749669539 0 0.34345521448737037 -0.23471882363442201 0 0.33482169393483241 -0.23067716457853801 0 0.34345521448737037 -0.23471882363442201 0 0.33083616901617252 -0.2515046018757397 0 0.32584089678246358 -0.23216956679731821 0 0.33482169393483241 -0.23067716457853801 0 0.33083616901617252 -0.2515046018757397 0 0.34345521448737037 -0.23471882363442201 0 0.35866836510460431 -0.24387061221872669 0 0.33083616901617252 -0.2515046018757397 0 0.35866836510460431 -0.24387061221872669 0 0.33083616901617252 -0.2515046018757397 0 0.33416667908803488 -0.21958877749669539 0 0.35867849734832991 -0.22196263337545391 0 0.33416667908803488 -0.21958877749669539 0 0.34345521448737037 -0.23471882363442201 0 0.35867849734832991 -0.22196263337545391 0 0.34345521448737037 -0.23471882363442201 0 0.35866836510460431 -0.24387061221872669 0 0.35867849734832991 -0.22196263337545391 0 0.35866836510460431 -0.24387061221872669 0 0.35867849734832991 -0.22196263337545391 0 0.37063356986830009 -0.2324407090630338 0 0.35867849734832991 -0.22196263337545391 0 0.37063356986830009 -0.2324407090630338 0 0.38319031560862499 -0.22433648925421251 0 0.35867849734832991 -0.22196263337545391 0 0.38319031560862499 -0.22433648925421251 0 0.35866836510460431 -0.24387061221872669 0 0.37063356986830009 -0.2324407090630338 0 0.38650056119303589 -0.23623662256171379 0 0.35866836510460431 -0.24387061221872669 0 0.38650056119303589 -0.23623662256171379 0 0.35866836510460431 -0.24387061221872669 0 0.38650056119303589 -0.23623662256171379 0 0.37666098301791873 -0.25658766975618591 0 0.38650056119303589 -0.23623662256171379 0 0.37666098301791873 -0.25658766975618591 0 0.391114334771963 -0.25102612265052882 0 0.38650056119303589 -0.23623662256171379 0 0.40036906043694481 -0.24343675146682139 0 0.40770213386892018 -0.226710345132971 0 0.38650056119303589 -0.23623662256171379 0 0.40036906043694481 -0.24343675146682139 0 0.391114334771963 -0.25102612265052882 0 0.40036906043694481 -0.24343675146682139 0 0.41611763170704741 -0.2471102234290326 0 0.40041064064375709 -0.25610044355986078 0 0.38650056119303589 -0.23623662256171379 0 0.38319031560862499 -0.22433648925421251 0 0.40770213386892018 -0.226710345132971 0 0.38319031560862499 -0.22433648925421251 0 0.3974269542438425 -0.21205362680620171 0 0.40770213386892018 -0.226710345132971 0 0.38319031560862499 -0.22433648925421251 0 0.40770213386892018 -0.226710345132971 0 0.37063356986830009 -0.2324407090630338 0 0.38650056119303589 -0.23623662256171379 0 0.38319031560862499 -0.22433648925421251 0 0.38126929142328608 -0.20854791823582519 0 0.39073884757584387 -0.19518696833220811 0 0.3974269542438425 -0.21205362680620171 0 0.38319031560862499 -0.22433648925421251 0 0.38126929142328608 -0.20854791823582519 0 0.3974269542438425 -0.21205362680620171 0 0.36621381707138501 -0.20341937060880891 0 0.38126929142328608 -0.20854791823582519 0 0.39073884757584387 -0.19518696833220811 0 0.36621381707138501 -0.20341937060880891 0 0.39073884757584387 -0.19518696833220811 0 0.39073884757584387 -0.19518696833220811 0 0.3974269542438425 -0.21205362680620171 0 0.41241522884482401 -0.1980844137720581 0 0.39073884757584387 -0.19518696833220811 0 0.41241522884482401 -0.1980844137720581 0 0.40528149427812571 -0.17939874674161421 0 0.3974269542438425 -0.21205362680620171 0 0.42116588299845492 -0.2154254314507098 0 0.40770213386892018 -0.226710345132971 0 0.3974269542438425 -0.21205362680620171 0 0.42116588299845492 -0.2154254314507098 0 0.41241522884482401 -0.1980844137720581 0 0.41241522884482401 -0.1980844137720581 0 0.40528149427812571 -0.17939874674161421 0 0.42733074068674931 -0.1851000137864873 0 0.41241522884482401 -0.1980844137720581 0 0.43505797581016409 -0.20400756589474181 0 0.42733074068674931 -0.1851000137864873 0 0.43505797581016409 -0.20400756589474181 0 0.42733074068674931 -0.1851000137864873 0 0.44696630131380649 -0.18946734327324549 0 0.42116588299845492 -0.2154254314507098 0 0.41241522884482401 -0.1980844137720581 0 0.43505797581016409 -0.20400756589474181 0 0.42116588299845492 -0.2154254314507098 0 0.43505797581016409 -0.20400756589474181 0 0.43221395212921537 -0.22908420101172949 0 0.43221395212921537 -0.22908420101172949 0 0.41611763170704741 -0.2471102234290326 0 0.43591918284985209 -0.25339129914353681 0 0.40036906043694481 -0.24343675146682139 0 0.41611763170704741 -0.2471102234290326 0 0.40770213386892018 -0.226710345132971 0 0.42116588299845492 -0.2154254314507098 0 0.43221395212921537 -0.22908420101172949 0 0.40770213386892018 -0.226710345132971 0 0.43221395212921537 -0.22908420101172949 0 0.40770213386892018 -0.226710345132971 0 0.43221395212921537 -0.22908420101172949 0 0.41611763170704741 -0.2471102234290326 0 0.40770213386892018 -0.226710345132971 0 0.39062623988436562 -0.1178116564265137 0 0.4017088804732013 -0.12953908341998191 0 0.38250903423046978 -0.13084347797709861 0 0.4017088804732013 -0.12953908341998191 0 0.38250903423046978 -0.13084347797709861 0 0.39295635994780648 -0.14495553809590311 0 0.4017088804732013 -0.12953908341998191 0 0.39295635994780648 -0.14495553809590311 0 0.40675106282599172 -0.1458507548134961 0 0.37389936933852802 -0.14563551401957611 0 0.38250903423046978 -0.13084347797709861 0 0.39295635994780648 -0.14495553809590311 0 0.37389936933852802 -0.14563551401957611 0 0.39295635994780648 -0.14495553809590311 0 0.38647247245969768 -0.1594956484341806 0 0.39295635994780648 -0.14495553809590311 0 0.40574266356319899 -0.15849173628763241 0 0.38647247245969768 -0.1594956484341806 0 0.39295635994780648 -0.14495553809590311 0 0.40574266356319899 -0.15849173628763241 0 0.40675106282599172 -0.1458507548134961 0 0.39459213579026953 -0.16868583406605581 0 0.40574266356319899 -0.15849173628763241 0 0.38647247245969768 -0.1594956484341806 0 0.39459213579026953 -0.16868583406605581 0 0.40574266356319899 -0.15849173628763241 0 0.40528149427812571 -0.17939874674161421 0 0.36400920207036003 -0.15923239566652181 0 0.38647247245969768 -0.1594956484341806 0 0.38087191286005589 -0.17735720480079609 0 0.39459213579026953 -0.16868583406605581 0 0.38647247245969768 -0.1594956484341806 0 0.38087191286005589 -0.17735720480079609 0 0.36599509945524411 -0.18665866760605329 0 0.39073884757584387 -0.19518696833220811 0 0.38087191286005589 -0.17735720480079609 0 0.39459213579026953 -0.16868583406605581 0 0.38087191286005589 -0.17735720480079609 0 0.40528149427812571 -0.17939874674161421 0 0.39073884757584387 -0.19518696833220811 0 0.38087191286005589 -0.17735720480079609 0 0.40528149427812571 -0.17939874674161421 0 0.40528149427812571 -0.17939874674161421 0 0.42733074068674931 -0.1851000137864873 0 0.42288552970723969 -0.16561213524753149 0 0.42733074068674931 -0.1851000137864873 0 0.42288552970723969 -0.16561213524753149 0 0.44137791416633559 -0.1740298777897327 0 0.42288552970723969 -0.16561213524753149 0 0.43124145996920132 -0.15053613375611999 0 0.44063260429246692 -0.1604381198068017 0 0.42288552970723969 -0.16561213524753149 0 0.44063260429246692 -0.1604381198068017 0 0.44137791416633559 -0.1740298777897327 0 0.40574266356319899 -0.15849173628763241 0 0.42288552970723969 -0.16561213524753149 0 0.41752701934725728 -0.14990265495706381 0 0.40574266356319899 -0.15849173628763241 0 0.40528149427812571 -0.17939874674161421 0 0.42288552970723969 -0.16561213524753149 0 0.40574266356319899 -0.15849173628763241 0 0.40675106282599172 -0.1458507548134961 0 0.41752701934725728 -0.14990265495706381 0 0.40675106282599172 -0.1458507548134961 0 0.41752701934725728 -0.14990265495706381 0 0.41393870737735111 -0.13680068269682361 0 0.41752701934725728 -0.14990265495706381 0 0.4252078808814147 -0.13846691630853719 0 0.41393870737735111 -0.13680068269682361 0 0.42288552970723969 -0.16561213524753149 0 0.41752701934725728 -0.14990265495706381 0 0.43124145996920132 -0.15053613375611999 0 0.43124145996920132 -0.15053613375611999 0 0.4252078808814147 -0.13846691630853719 0 0.43605769158264263 -0.13981112937207929 0 0.41752701934725728 -0.14990265495706381 0 0.43124145996920132 -0.15053613375611999 0 0.4252078808814147 -0.13846691630853719 0 0.41835665696605379 -0.12202144051617279 0 0.4252078808814147 -0.13846691630853719 0 0.43299874113576758 -0.1306098913169951 0 0.4252078808814147 -0.13846691630853719 0 0.43605769158264263 -0.13981112937207929 0 0.43299874113576758 -0.1306098913169951 0 0.4017088804732013 -0.12953908341998191 0 0.40675106282599172 -0.1458507548134961 0 0.41393870737735111 -0.13680068269682361 0 0.41835665696605379 -0.12202144051617279 0 0.4252078808814147 -0.13846691630853719 0 0.41393870737735111 -0.13680068269682361 0 0.41835665696605379 -0.12202144051617279 0 0.4017088804732013 -0.12953908341998191 0 0.41393870737735111 -0.13680068269682361 0 0.46517149914948219 -0.12137249055531869 0 0.46380637503059041 -0.13132997536488991 0 0.47539032622818961 -0.13271582894304479 0 0.46517149914948219 -0.12137249055531869 0 0.46380637503059041 -0.13132997536488991 0 0.45471825288194551 -0.12585871809431229 0 0.46380637503059041 -0.13132997536488991 0 0.46692533234421701 -0.1389922594609263 0 0.47539032622818961 -0.13271582894304479 0 0.46380637503059041 -0.13132997536488991 0 0.46692533234421701 -0.1389922594609263 0 0.45991321888571263 -0.14197757485360721 0 0.46380637503059041 -0.13132997536488991 0 0.45411841225964011 -0.13513675877187339 0 0.45991321888571263 -0.14197757485360721 0 0.46380637503059041 -0.13132997536488991 0 0.45411841225964011 -0.13513675877187339 0 0.45471825288194551 -0.12585871809431229 0 0.44308087596173212 -0.1221693231112648 0 0.45471825288194551 -0.12585871809431229 0 0.44471995461155511 -0.13347992647540369 0 0.45411841225964011 -0.13513675877187339 0 0.45471825288194551 -0.12585871809431229 0 0.44471995461155511 -0.13347992647540369 0 0.44308087596173212 -0.1221693231112648 0 0.43299874113576758 -0.1306098913169951 0 0.44471995461155511 -0.13347992647540369 0 0.43605769158264263 -0.13981112937207929 0 0.43299874113576758 -0.1306098913169951 0 0.44471995461155511 -0.13347992647540369 0 0.43605769158264263 -0.13981112937207929 0 0.44471995461155511 -0.13347992647540369 0 0.44612042131527457 -0.1459627790033404 0 0.45411841225964011 -0.13513675877187339 0 0.44471995461155511 -0.13347992647540369 0 0.44612042131527457 -0.1459627790033404 0 0.43124145996920132 -0.15053613375611999 0 0.43605769158264263 -0.13981112937207929 0 0.44612042131527457 -0.1459627790033404 0 0.43124145996920132 -0.15053613375611999 0 0.44612042131527457 -0.1459627790033404 0 0.44063260429246692 -0.1604381198068017 0 0.44612042131527457 -0.1459627790033404 0 0.45575188375454578 -0.15547484772686279 0 0.44063260429246692 -0.1604381198068017 0 0.45411841225964011 -0.13513675877187339 0 0.44612042131527457 -0.1459627790033404 0 0.45991321888571263 -0.14197757485360721 0 0.44612042131527457 -0.1459627790033404 0 0.45575188375454578 -0.15547484772686279 0 0.45991321888571263 -0.14197757485360721 0 0.46692533234421701 -0.1389922594609263 0 0.45991321888571263 -0.14197757485360721 0 0.46859140923237552 -0.14994565868216331 0 0.45575188375454578 -0.15547484772686279 0 0.45991321888571263 -0.14197757485360721 0 0.46859140923237552 -0.14994565868216331 0 0.45575188375454578 -0.15547484772686279 0 0.46859140923237552 -0.14994565868216331 0 0.46612843485607303 -0.16565408080756761 0 0.46612843485607303 -0.16565408080756761 0 0.45237024226965772 -0.16734818386024081 0 0.45725576282880059 -0.17785272747584729 0 0.45575188375454578 -0.15547484772686279 0 0.46612843485607303 -0.16565408080756761 0 0.45237024226965772 -0.16734818386024081 0 0.45575188375454578 -0.15547484772686279 0 0.44063260429246692 -0.1604381198068017 0 0.45237024226965772 -0.16734818386024081 0 0.44063260429246692 -0.1604381198068017 0 0.45237024226965772 -0.16734818386024081 0 0.44137791416633559 -0.1740298777897327 0 0.44137791416633559 -0.1740298777897327 0 0.45725576282880059 -0.17785272747584729 0 0.44696630131380649 -0.18946734327324549 0 0.45237024226965772 -0.16734818386024081 0 0.44137791416633559 -0.1740298777897327 0 0.45725576282880059 -0.17785272747584729 0 0.42733074068674931 -0.1851000137864873 0 0.44137791416633559 -0.1740298777897327 0 0.44696630131380649 -0.18946734327324549 0 0.45725576282880059 -0.17785272747584729 0 0.44696630131380649 -0.18946734327324549 0 0.46370613973740021 -0.18992032221637081 0 0.46612843485607303 -0.16565408080756761 0 0.45725576282880059 -0.17785272747584729 0 0.47223057295381649 -0.17917386756047071 0 0.45725576282880059 -0.17785272747584729 0 0.47223057295381649 -0.17917386756047071 0 0.46370613973740021 -0.18992032221637081 0 0.47223057295381649 -0.17917386756047071 0 0.46370613973740021 -0.18992032221637081 0 0.4765887306204506 -0.19119351893572731 0 0.47223057295381649 -0.17917386756047071 0 0.48228623355749228 -0.18097756972662321 0 0.48096646067464499 -0.17050466116450849 0 0.48228623355749228 -0.18097756972662321 0 0.4765887306204506 -0.19119351893572731 0 0.48950934180607097 -0.1890584360402438 0 0.47223057295381649 -0.17917386756047071 0 0.48228623355749228 -0.18097756972662321 0 0.4765887306204506 -0.19119351893572731 0 0.48228623355749228 -0.18097756972662321 0 0.49214937375448431 -0.174488117108204 0 0.48950934180607097 -0.1890584360402438 0 0.49214937375448431 -0.174488117108204 0 0.5 -0.1649332366395023 0 0.5 -0.19189952051725959 0 0.48228623355749228 -0.18097756972662321 0 0.49214937375448431 -0.174488117108204 0 0.48096646067464499 -0.17050466116450849 0 0.49214937375448431 -0.174488117108204 0 0.49248255423676102 -0.1655313832614255 0 0.48096646067464499 -0.17050466116450849 0 0.49248255423676102 -0.1655313832614255 0 0.47573271227866998 -0.15927861918288 0 0.48633081570005898 -0.1457259466632527 0 0.49248255423676102 -0.1655313832614255 0 0.5 -0.1649332366395023 0 0.49311801504290298 -0.1484485899603904 0 0.49248255423676102 -0.1655313832614255 0 0.49311801504290298 -0.1484485899603904 0 0.49214937375448431 -0.174488117108204 0 0.49248255423676102 -0.1655313832614255 0 0.5 -0.1649332366395023 0 0.49214937375448431 -0.174488117108204 0 0.49248255423676102 -0.1655313832614255 0 0.46859140923237552 -0.14994565868216331 0 0.46612843485607303 -0.16565408080756761 0 0.47573271227866998 -0.15927861918288 0 0.49248255423676102 -0.1655313832614255 0 0.48096646067464499 -0.17050466116450849 0 0.47573271227866998 -0.15927861918288 0 0.46612843485607303 -0.16565408080756761 0 0.47223057295381649 -0.17917386756047071 0 0.48096646067464499 -0.17050466116450849 0 0.46612843485607303 -0.16565408080756761 0 0.48096646067464499 -0.17050466116450849 0 0.47573271227866998 -0.15927861918288 0 0.47573271227866998 -0.15927861918288 0 0.47539032622818961 -0.13271582894304479 0 0.47573271227866998 -0.15927861918288 0 0.48633081570005898 -0.1457259466632527 0 0.47539032622818961 -0.13271582894304479 0 0.46859140923237552 -0.14994565868216331 0 0.47573271227866998 -0.15927861918288 0 0.47539032622818961 -0.13271582894304479 0 0.49248255423676102 -0.1655313832614255 0 0.48633081570005898 -0.1457259466632527 0 0.5 -0.1649332366395023 0 0.49311801504290298 -0.1484485899603904 0 0.5 -0.137966952761745 0 0.49248255423676102 -0.1655313832614255 0 0.49311801504290298 -0.1484485899603904 0 0.48633081570005898 -0.1457259466632527 0 0.49408665633132159 -0.1224090628125768 0 0.49311801504290298 -0.1484485899603904 0 0.49408665633132159 -0.1224090628125768 0 0.48633081570005898 -0.1457259466632527 0 0.48068937793888461 -0.12593949268323121 0 0.49408665633132159 -0.1224090628125768 0 0.49311801504290298 -0.1484485899603904 0 0.48633081570005898 -0.1457259466632527 0 0.49408665633132159 -0.1224090628125768 0 0.49311801504290298 -0.1484485899603904 0 0.5 -0.137966952761745 0 0.46692533234421701 -0.1389922594609263 0 0.46859140923237552 -0.14994565868216331 0 0.47539032622818961 -0.13271582894304479 0 0.48633081570005898 -0.1457259466632527 0 0.48068937793888461 -0.12593949268323121 0 0.48633081570005898 -0.1457259466632527 0 0.48068937793888461 -0.12593949268323121 0 0.47539032622818961 -0.13271582894304479 0 0.4609865354345995 -0.23063256106769159 0 0.44980172114689981 -0.2157114505073652 0 0.46893653354483211 -0.21485350215082341 0 0.4609865354345995 -0.23063256106769159 0 0.46893653354483211 -0.21485350215082341 0 0.47509604273869921 -0.23226989696277789 0 0.4609865354345995 -0.23063256106769159 0 0.46757974240813249 -0.24669858900260219 0 0.47509604273869921 -0.23226989696277789 0 0.4609865354345995 -0.23063256106769159 0 0.46757974240813249 -0.24669858900260219 0 0.45045738697435422 -0.2441335159392834 0 0.4609865354345995 -0.23063256106769159 0 0.45045738697435422 -0.2441335159392834 0 0.44836489892126719 -0.22989043213151741 0 0.43221395212921537 -0.22908420101172949 0 0.45045738697435422 -0.2441335159392834 0 0.43591918284985209 -0.25339129914353681 0 0.43221395212921537 -0.22908420101172949 0 0.44836489892126719 -0.22989043213151741 0 0.44980172114689981 -0.2157114505073652 0 0.43221395212921537 -0.22908420101172949 0 0.45045738697435422 -0.2441335159392834 0 0.44836489892126719 -0.22989043213151741 0 0.4609865354345995 -0.23063256106769159 0 0.44836489892126719 -0.22989043213151741 0 0.44980172114689981 -0.2157114505073652 0 0.43505797581016409 -0.20400756589474181 0 0.43221395212921537 -0.22908420101172949 0 0.44980172114689981 -0.2157114505073652 0 0.43505797581016409 -0.20400756589474181 0 0.44980172114689981 -0.2157114505073652 0 0.45575564360864329 -0.20173267767886499 0 0.43505797581016409 -0.20400756589474181 0 0.44696630131380649 -0.18946734327324549 0 0.45575564360864329 -0.20173267767886499 0 0.44696630131380649 -0.18946734327324549 0 0.45575564360864329 -0.20173267767886499 0 0.46370613973740021 -0.18992032221637081 0 0.45575564360864329 -0.20173267767886499 0 0.46370613973740021 -0.18992032221637081 0 0.46992522007215981 -0.20106330276412129 0 0.44980172114689981 -0.2157114505073652 0 0.45575564360864329 -0.20173267767886499 0 0.46893653354483211 -0.21485350215082341 0 0.45575564360864329 -0.20173267767886499 0 0.46893653354483211 -0.21485350215082341 0 0.46992522007215981 -0.20106330276412129 0 0.46893653354483211 -0.21485350215082341 0 0.47850069737436568 -0.20293204387166039 0 0.48754366082831541 -0.21849145946738641 0 0.46893653354483211 -0.21485350215082341 0 0.46992522007215981 -0.20106330276412129 0 0.47850069737436568 -0.20293204387166039 0 0.46370613973740021 -0.18992032221637081 0 0.46992522007215981 -0.20106330276412129 0 0.4765887306204506 -0.19119351893572731 0 0.46992522007215981 -0.20106330276412129 0 0.47850069737436568 -0.20293204387166039 0 0.4765887306204506 -0.19119351893572731 0 0.47850069737436568 -0.20293204387166039 0 0.4765887306204506 -0.19119351893572731 0 0.48950934180607097 -0.1890584360402438 0 0.49214937375448431 -0.174488117108204 0 0.49118073246606569 -0.20052764425601771 0 0.49214937375448431 -0.174488117108204 0 0.49118073246606569 -0.20052764425601771 0 0.48950934180607097 -0.1890584360402438 0 0.49118073246606569 -0.20052764425601771 0 0.48950934180607097 -0.1890584360402438 0 0.48754366082831541 -0.21849145946738641 0 0.49214937375448431 -0.174488117108204 0 0.49118073246606569 -0.20052764425601771 0 0.5 -0.19189952051725959 0 0.48950934180607097 -0.1890584360402438 0 0.48754366082831541 -0.21849145946738641 0 0.49118073246606569 -0.20052764425601771 0 0.5 -0.19189952051725959 0 0.5 -0.21886580439501679 0 0.47850069737436568 -0.20293204387166039 0 0.48950934180607097 -0.1890584360402438 0 0.48754366082831541 -0.21849145946738641 0 0.49118073246606569 -0.20052764425601771 0 0.48754366082831541 -0.21849145946738641 0 0.5 -0.21886580439501679 0 0.48754366082831541 -0.21849145946738641 0 0.5 -0.21886580439501679 0 0.4932804101697188 -0.23277845875742639 0 0.48754366082831541 -0.21849145946738641 0 0.48557797985055978 -0.24792448289452859 0 0.48754366082831541 -0.21849145946738641 0 0.4932804101697188 -0.23277845875742639 0 0.48557797985055978 -0.24792448289452859 0 0.5 -0.21886580439501679 0 0.4932804101697188 -0.23277845875742639 0 0.5 -0.24583208827277411 0 0.46893653354483211 -0.21485350215082341 0 0.48754366082831541 -0.21849145946738641 0 0.47509604273869921 -0.23226989696277789 0 0.48754366082831541 -0.21849145946738641 0 0.47509604273869921 -0.23226989696277789 0 0.48557797985055978 -0.24792448289452859 0 0.46757974240813249 -0.24669858900260219 0 0.47509604273869921 -0.23226989696277789 0 0.48557797985055978 -0.24792448289452859 0 0.4932804101697188 -0.23277845875742639 0 0.48557797985055978 -0.24792448289452859 0 0.5 -0.24583208827277411 0 0.48557797985055978 -0.24792448289452859 0 0.48361229887280421 -0.277357506321671 0 0.48557797985055978 -0.24792448289452859 0 0.5 -0.24583208827277411 0 0.5 -0.27279837215053132 0 0.5 -0.27279837215053132 0 0.48361229887280421 -0.277357506321671 0 0.48571795581354088 -0.29193716014168442 0 0.48557797985055978 -0.24792448289452859 0 0.5 -0.27279837215053132 0 0.48361229887280421 -0.277357506321671 0 0.48361229887280421 -0.277357506321671 0 0.47058539604636379 -0.27494773163894082 0 0.4724256780629833 -0.26182825857900632 0 0.48361229887280421 -0.277357506321671 0 0.47058539604636379 -0.27494773163894082 0 0.47194059518073511 -0.28784185561884912 0 0.48557797985055978 -0.24792448289452859 0 0.48361229887280421 -0.277357506321671 0 0.4724256780629833 -0.26182825857900632 0 0.46757974240813249 -0.24669858900260219 0 0.48557797985055978 -0.24792448289452859 0 0.4724256780629833 -0.26182825857900632 0 0.46757974240813249 -0.24669858900260219 0 0.4724256780629833 -0.26182825857900632 0 0.45573084913506351 -0.26478481026730599 0 0.46757974240813249 -0.24669858900260219 0 0.45045738697435422 -0.2441335159392834 0 0.45573084913506351 -0.26478481026730599 0 0.47058539604636379 -0.27494773163894082 0 0.4724256780629833 -0.26182825857900632 0 0.45573084913506351 -0.26478481026730599 0 0.47058539604636379 -0.27494773163894082 0 0.45573084913506351 -0.26478481026730599 0 0.45997547595798111 -0.28112548595299242 0 0.45573084913506351 -0.26478481026730599 0 0.45997547595798111 -0.28112548595299242 0 0.44643769059238381 -0.28119942287691668 0 0.43815780452435371 -0.26971281778625728 0 0.44643769059238381 -0.28119942287691668 0 0.42919172188061472 -0.28146746135768053 0 0.45573084913506351 -0.26478481026730599 0 0.43815780452435371 -0.26971281778625728 0 0.44643769059238381 -0.28119942287691668 0 0.45045738697435422 -0.2441335159392834 0 0.45573084913506351 -0.26478481026730599 0 0.43591918284985209 -0.25339129914353681 0 0.45573084913506351 -0.26478481026730599 0 0.43815780452435371 -0.26971281778625728 0 0.43591918284985209 -0.25339129914353681 0 0.44881940778795171 -0.30773332650786561 0 0.43939820809221353 -0.29226061875816239 0 0.45402392823142212 -0.2934638687058207 0 0.44881940778795171 -0.30773332650786561 0 0.43382618663747091 -0.31901183274833522 0 0.43466657104933393 -0.30497136931565161 0 0.44881940778795171 -0.30773332650786561 0 0.43939820809221353 -0.29226061875816239 0 0.43466657104933393 -0.30497136931565161 0 0.44643769059238381 -0.28119942287691668 0 0.43939820809221353 -0.29226061875816239 0 0.42919172188061472 -0.28146746135768053 0 0.44643769059238381 -0.28119942287691668 0 0.43939820809221353 -0.29226061875816239 0 0.45402392823142212 -0.2934638687058207 0 0.45402392823142212 -0.2934638687058207 0 0.46864790456291178 -0.30253089174712872 0 0.47194059518073511 -0.28784185561884912 0 0.45997547595798111 -0.28112548595299242 0 0.45402392823142212 -0.2934638687058207 0 0.47194059518073511 -0.28784185561884912 0 0.45997547595798111 -0.28112548595299242 0 0.44643769059238381 -0.28119942287691668 0 0.45402392823142212 -0.2934638687058207 0 0.47058539604636379 -0.27494773163894082 0 0.45997547595798111 -0.28112548595299242 0 0.47194059518073511 -0.28784185561884912 0 0.44881940778795171 -0.30773332650786561 0 0.45402392823142212 -0.2934638687058207 0 0.46864790456291178 -0.30253089174712872 0 0.44881940778795171 -0.30773332650786561 0 0.46864790456291178 -0.30253089174712872 0 0.46516028186576608 -0.31869680835887337 0 0.46864790456291178 -0.30253089174712872 0 0.48571795581354088 -0.29193716014168442 0 0.48503002399312412 -0.31245892851720702 0 0.46864790456291178 -0.30253089174712872 0 0.48503002399312412 -0.31245892851720702 0 0.46516028186576608 -0.31869680835887337 0 0.46864790456291178 -0.30253089174712872 0 0.47194059518073511 -0.28784185561884912 0 0.48571795581354088 -0.29193716014168442 0 0.48361229887280421 -0.277357506321671 0 0.47194059518073511 -0.28784185561884912 0 0.48571795581354088 -0.29193716014168442 0 0.5 -0.27279837215053132 0 0.48571795581354088 -0.29193716014168442 0 0.5 -0.29976465602828839 0 0.48571795581354088 -0.29193716014168442 0 0.48503002399312412 -0.31245892851720702 0 0.5 -0.29976465602828839 0 0.48503002399312412 -0.31245892851720702 0 0.49999999999999861 -0.32673093990604563 0 0.47989969142011268 -0.33079324625788481 0 0.48503002399312412 -0.31245892851720702 0 0.5 -0.29976465602828839 0 0.49999999999999861 -0.32673093990604563 0 0.49999999999999861 -0.32673093990604563 0 0.47989969142011268 -0.33079324625788481 0 0.5 -0.34288548442152827 0 0.47989969142011268 -0.33079324625788481 0 0.48281879762800939 -0.34595760503028861 0 0.49999999999999861 -0.32673093990604563 0 0.5 -0.34288548442152827 0 0.47989969142011268 -0.33079324625788481 0 0.47989969142011268 -0.33079324625788481 0 0.45979938284022681 -0.33485555260972422 0 0.47989969142011268 -0.33079324625788481 0 0.48281879762800939 -0.34595760503028861 0 0.45979938284022681 -0.33485555260972422 0 0.48503002399312412 -0.31245892851720702 0 0.47989969142011268 -0.33079324625788481 0 0.46516028186576608 -0.31869680835887337 0 0.50000000000000222 -0.35904002893701098 0 0.5 -0.38451216760558121 0 0.47882878227350278 -0.38030621602011427 0 0.50000000000000222 -0.35904002893701098 0 0.47257215942579017 -0.35977291126703881 0 0.50000000000000222 -0.35904002893701098 0 0.48281879762800939 -0.34595760503028861 0 0.47257215942579017 -0.35977291126703881 0 0.5 -0.34288548442152827 0 0.50000000000000222 -0.35904002893701098 0 0.48281879762800939 -0.34595760503028861 0 0.48281879762800939 -0.34595760503028861 0 0.47257215942579017 -0.35977291126703881 0 0.45979938284022681 -0.33485555260972422 0 0.50000000000000222 -0.35904002893701098 0 0.47257215942579017 -0.35977291126703881 0 0.47882878227350278 -0.38030621602011427 0 0.47257215942579017 -0.35977291126703881 0 0.47882878227350278 -0.38030621602011427 0 0.45725508005532173 -0.3777873946206447 0 0.47257215942579017 -0.35977291126703881 0 0.44514431885157829 -0.36050579359706653 0 0.45725508005532173 -0.3777873946206447 0 0.47257215942579017 -0.35977291126703881 0 0.44514431885157829 -0.36050579359706653 0 0.47257215942579017 -0.35977291126703881 0 0.44514431885157829 -0.36050579359706653 0 0.45979938284022681 -0.33485555260972422 0 0.44514431885157829 -0.36050579359706653 0 0.45979938284022681 -0.33485555260972422 0 0.43969907426034083 -0.33891785896156368 0 0.44514431885157829 -0.36050579359706653 0 0.45725508005532173 -0.3777873946206447 0 0.43415958041440028 -0.3854836608909934 0 0.47989969142011268 -0.33079324625788481 0 0.46516028186576608 -0.31869680835887337 0 0.45979938284022681 -0.33485555260972422 0 0.44881940778795171 -0.30773332650786561 0 0.46516028186576608 -0.31869680835887337 0 0.44876528059026999 -0.32380890451343042 0 0.46516028186576608 -0.31869680835887337 0 0.45979938284022681 -0.33485555260972422 0 0.44876528059026999 -0.32380890451343042 0 0.45979938284022681 -0.33485555260972422 0 0.43969907426034083 -0.33891785896156368 0 0.44876528059026999 -0.32380890451343042 0 0.45979938284022681 -0.33485555260972422 0 0.43969907426034083 -0.33891785896156368 0 0.43969907426034083 -0.33891785896156368 0 0.44876528059026999 -0.32380890451343042 0 0.43382618663747091 -0.31901183274833522 0 0.44881940778795171 -0.30773332650786561 0 0.44876528059026999 -0.32380890451343042 0 0.43382618663747091 -0.31901183274833522 0 0.43382618663747091 -0.31901183274833522 0 0.4167523755319984 -0.3214581282731811 0 0.42469773991117271 -0.30974785582620412 0 0.43382618663747091 -0.31901183274833522 0 0.42342193919872401 -0.33574889595031721 0 0.4167523755319984 -0.3214581282731811 0 0.43969907426034083 -0.33891785896156368 0 0.43382618663747091 -0.31901183274833522 0 0.42342193919872401 -0.33574889595031721 0 0.42342193919872401 -0.33574889595031721 0 0.40911558128644371 -0.3381179838414119 0 0.4167523755319984 -0.3214581282731811 0 0.40911558128644371 -0.3381179838414119 0 0.4167523755319984 -0.3214581282731811 0 0.40412667749741771 -0.32422251820000159 0 0.40657279312965822 -0.31498398309699521 0 0.4167523755319984 -0.3214581282731811 0 0.41260219002132081 -0.30595709049500841 0 0.40657279312965822 -0.31498398309699521 0 0.4167523755319984 -0.3214581282731811 0 0.40412667749741771 -0.32422251820000159 0 0.44514431885157829 -0.36050579359706653 0 0.41771647827736619 -0.36123867592709419 0 0.43415958041440028 -0.3854836608909934 0 0.44514431885157829 -0.36050579359706653 0 0.41771647827736619 -0.36123867592709419 0 0.44514431885157829 -0.36050579359706653 0 0.43969907426034083 -0.33891785896156368 0 0.41771647827736619 -0.36123867592709419 0 0.43969907426034083 -0.33891785896156368 0 0.42342193919872401 -0.33574889595031721 0 0.41771647827736619 -0.36123867592709419 0 0.40911558128644371 -0.3381179838414119 0 0.41771647827736619 -0.36123867592709419 0 0.39871351135606792 -0.34921048665052262 0 0.42342193919872401 -0.33574889595031721 0 0.40911558128644371 -0.3381179838414119 0 0.41771647827736619 -0.36123867592709419 0 0.41771647827736619 -0.36123867592709419 0 0.39028863770315408 -0.36197155825712451 0 0.39028863770315408 -0.36197155825712451 0 0.40149185337026239 -0.38215128282911348 0 0.41771647827736619 -0.36123867592709419 0 0.39028863770315408 -0.36197155825712451 0 0.40149185337026239 -0.38215128282911348 0 0.41771647827736619 -0.36123867592709419 0 0.39871351135606792 -0.34921048665052262 0 0.39028863770315408 -0.36197155825712451 0 0.39871351135606792 -0.34921048665052262 0 0.38330808568584612 -0.34939788108662689 0 0.39028863770315408 -0.36197155825712451 0 0.39871351135606792 -0.34921048665052262 0 0.38330808568584612 -0.34939788108662689 0 0.39313877382753049 -0.3353263341403549 0 0.38330808568584612 -0.34939788108662689 0 0.38345605721323228 -0.3621541274060131 0 0.36776579861554443 -0.34803064883252138 0 0.38330808568584612 -0.34939788108662689 0 0.37539665452532778 -0.33514746348034941 0 0.36776579861554443 -0.34803064883252138 0 0.38330808568584612 -0.34939788108662689 0 0.39028863770315408 -0.36197155825712451 0 0.38330808568584612 -0.34939788108662689 0 0.39028863770315408 -0.36197155825712451 0 0.38345605721323228 -0.3621541274060131 0 0.38330808568584612 -0.34939788108662689 0 0.38345605721323228 -0.3621541274060131 0 0.39028863770315408 -0.36197155825712451 0 0.38345605721323228 -0.3621541274060131 0 0.38377697706299613 -0.38981980555725831 0 0.39028863770315408 -0.36197155825712451 0 0.38345605721323228 -0.3621541274060131 0 0.39318759663988628 -0.32423013721891542 0 0.3973642890400747 -0.31520718377614643 0 0.40412667749741771 -0.32422251820000159 0 0.39318759663988628 -0.32423013721891542 0 0.40412667749741771 -0.32422251820000159 0 0.39313877382753049 -0.3353263341403549 0 0.39318759663988628 -0.32423013721891542 0 0.3973642890400747 -0.31520718377614643 0 0.3863961098565809 -0.31217448443772611 0 0.40657279312965822 -0.31498398309699521 0 0.3973642890400747 -0.31520718377614643 0 0.40412667749741771 -0.32422251820000159 0 0.40911558128644371 -0.3381179838414119 0 0.39871351135606792 -0.34921048665052262 0 0.39313877382753049 -0.3353263341403549 0 0.40911558128644371 -0.3381179838414119 0 0.40412667749741771 -0.32422251820000159 0 0.39313877382753049 -0.3353263341403549 0 0.38330808568584612 -0.34939788108662689 0 0.37539665452532778 -0.33514746348034941 0 0.38299258828626342 -0.3221996584745056 0 0.38330808568584612 -0.34939788108662689 0 0.39313877382753049 -0.3353263341403549 0 0.38299258828626342 -0.3221996584745056 0 0.38330808568584612 -0.34939788108662689 0 0.38299258828626342 -0.3221996584745056 0 0.38330808568584612 -0.34939788108662689 0 0.37539665452532778 -0.33514746348034941 0 0.37539665452532778 -0.33514746348034941 0 0.37679900271294831 -0.3281674588367024 0 0.38299258828626342 -0.3221996584745056 0 0.37679900271294831 -0.3281674588367024 0 0.38299258828626342 -0.3221996584745056 0 0.37732365148229441 -0.31862365556580391 0 0.39318759663988628 -0.32423013721891542 0 0.39313877382753049 -0.3353263341403549 0 0.38299258828626342 -0.3221996584745056 0 0.39318759663988628 -0.32423013721891542 0 0.38299258828626342 -0.3221996584745056 0 0.3863961098565809 -0.31217448443772611 0 0.37732365148229441 -0.31862365556580391 0 0.3863961098565809 -0.31217448443772611 0 0.37294533319086931 -0.30967963020601358 0 0.38299258828626342 -0.3221996584745056 0 0.37732365148229441 -0.31862365556580391 0 0.3863961098565809 -0.31217448443772611 0 0.37924677571148219 -0.2998365313877942 0 0.3863961098565809 -0.31217448443772611 0 0.37294533319086931 -0.30967963020601358 0 0.37924677571148219 -0.2998365313877942 0 0.38971880384935548 -0.30117197657558092 0 0.3863961098565809 -0.31217448443772611 0 0.38971880384935548 -0.30117197657558092 0 0.3863961098565809 -0.31217448443772611 0 0.39925755807293389 -0.30512496694405938 0 0.3973642890400747 -0.31520718377614643 0 0.3863961098565809 -0.31217448443772611 0 0.39925755807293389 -0.30512496694405938 0 0.38971880384935548 -0.30117197657558092 0 0.39925755807293389 -0.30512496694405938 0 0.39481285287057449 -0.29346010193772798 0 0.39925755807293389 -0.30512496694405938 0 0.40426123569735789 -0.2947790223898456 0 0.39481285287057449 -0.29346010193772798 0 0.39925755807293389 -0.30512496694405938 0 0.40426123569735789 -0.2947790223898456 0 0.41260219002132081 -0.30595709049500841 0 0.40657279312965822 -0.31498398309699521 0 0.39925755807293389 -0.30512496694405938 0 0.41260219002132081 -0.30595709049500841 0 0.40657279312965822 -0.31498398309699521 0 0.3973642890400747 -0.31520718377614643 0 0.39925755807293389 -0.30512496694405938 0 0.40457439515200122 -0.28373668613363678 0 0.40426123569735789 -0.2947790223898456 0 0.39481285287057449 -0.29346010193772798 0 0.40457439515200122 -0.28373668613363678 0 0.39481285287057449 -0.29346010193772798 0 0.39382973700167689 -0.27965639038802048 0 0.39481285287057449 -0.29346010193772798 0 0.38549360426252588 -0.28930760335587502 0 0.39382973700167689 -0.27965639038802048 0 0.37924677571148219 -0.2998365313877942 0 0.38971880384935548 -0.30117197657558092 0 0.38549360426252588 -0.28930760335587502 0 0.38971880384935548 -0.30117197657558092 0 0.39481285287057449 -0.29346010193772798 0 0.38549360426252588 -0.28930760335587502 0 0.37924677571148219 -0.2998365313877942 0 0.38549360426252588 -0.28930760335587502 0 0.37235398216260152 -0.28793899056949163 0 0.38549360426252588 -0.28930760335587502 0 0.37932485764384538 -0.27448842641624471 0 0.37235398216260152 -0.28793899056949163 0 0.37932485764384538 -0.27448842641624471 0 0.37666098301791873 -0.25658766975618591 0 0.36926959111252949 -0.26702983770972 0 0.37932485764384538 -0.27448842641624471 0 0.39075459997603068 -0.26551057557561608 0 0.39382973700167689 -0.27965639038802048 0 0.38549360426252588 -0.28930760335587502 0 0.37932485764384538 -0.27448842641624471 0 0.39382973700167689 -0.27965639038802048 0 0.37932485764384538 -0.27448842641624471 0 0.37666098301791873 -0.25658766975618591 0 0.39075459997603068 -0.26551057557561608 0 0.37666098301791873 -0.25658766975618591 0 0.391114334771963 -0.25102612265052882 0 0.39075459997603068 -0.26551057557561608 0 0.39075459997603068 -0.26551057557561608 0 0.40041064064375709 -0.25610044355986078 0 0.40697224225270912 -0.27009967816728631 0 0.40036906043694481 -0.24343675146682139 0 0.391114334771963 -0.25102612265052882 0 0.40041064064375709 -0.25610044355986078 0 0.391114334771963 -0.25102612265052882 0 0.39075459997603068 -0.26551057557561608 0 0.40041064064375709 -0.25610044355986078 0 0.39075459997603068 -0.26551057557561608 0 0.39382973700167689 -0.27965639038802048 0 0.40697224225270912 -0.27009967816728631 0 0.40457439515200122 -0.28373668613363678 0 0.39382973700167689 -0.27965639038802048 0 0.40697224225270912 -0.27009967816728631 0 0.40697224225270912 -0.27009967816728631 0 0.4166699197438789 -0.27580777845706028 0 0.42283747262907878 -0.26552222642761181 0 0.40457439515200122 -0.28373668613363678 0 0.40697224225270912 -0.27009967816728631 0 0.4166699197438789 -0.27580777845706028 0 0.4166699197438789 -0.27580777845706028 0 0.42919172188061472 -0.28146746135768053 0 0.41491228798580021 -0.28590676779548352 0 0.41611763170704741 -0.2471102234290326 0 0.40041064064375709 -0.25610044355986078 0 0.41158449680814813 -0.2597081428959479 0 0.40697224225270912 -0.27009967816728631 0 0.41158449680814813 -0.2597081428959479 0 0.42283747262907878 -0.26552222642761181 0 0.41611763170704741 -0.2471102234290326 0 0.41158449680814813 -0.2597081428959479 0 0.42283747262907878 -0.26552222642761181 0 0.40041064064375709 -0.25610044355986078 0 0.40697224225270912 -0.27009967816728631 0 0.41158449680814813 -0.2597081428959479 0 0.43815780452435371 -0.26971281778625728 0 0.42283747262907878 -0.26552222642761181 0 0.43591918284985209 -0.25339129914353681 0 0.41611763170704741 -0.2471102234290326 0 0.42283747262907878 -0.26552222642761181 0 0.43591918284985209 -0.25339129914353681 0 0.43815780452435371 -0.26971281778625728 0 0.42283747262907878 -0.26552222642761181 0 0.42919172188061472 -0.28146746135768053 0 0.4166699197438789 -0.27580777845706028 0 0.42283747262907878 -0.26552222642761181 0 0.42919172188061472 -0.28146746135768053 0 0.42919172188061472 -0.28146746135768053 0 0.42469143981361962 -0.2985785038599979 0 0.41491228798580021 -0.28590676779548352 0 0.43939820809221353 -0.29226061875816239 0 0.42919172188061472 -0.28146746135768053 0 0.42469143981361962 -0.2985785038599979 0 0.43939820809221353 -0.29226061875816239 0 0.43466657104933393 -0.30497136931565161 0 0.42469143981361962 -0.2985785038599979 0 0.43382618663747091 -0.31901183274833522 0 0.43466657104933393 -0.30497136931565161 0 0.42469773991117271 -0.30974785582620412 0 0.43466657104933393 -0.30497136931565161 0 0.42469773991117271 -0.30974785582620412 0 0.42469143981361962 -0.2985785038599979 0 0.42469143981361962 -0.2985785038599979 0 0.41260219002132081 -0.30595709049500841 0 0.41345623309920271 -0.29650501908647492 0 0.4167523755319984 -0.3214581282731811 0 0.42469773991117271 -0.30974785582620412 0 0.41260219002132081 -0.30595709049500841 0 0.42469773991117271 -0.30974785582620412 0 0.42469143981361962 -0.2985785038599979 0 0.41260219002132081 -0.30595709049500841 0 0.40426123569735789 -0.2947790223898456 0 0.41260219002132081 -0.30595709049500841 0 0.41345623309920271 -0.29650501908647492 0 0.40426123569735789 -0.2947790223898456 0 0.41345623309920271 -0.29650501908647492 0 0.41491228798580021 -0.28590676779548352 0 0.40457439515200122 -0.28373668613363678 0 0.4166699197438789 -0.27580777845706028 0 0.41491228798580021 -0.28590676779548352 0 0.40457439515200122 -0.28373668613363678 0 0.40426123569735789 -0.2947790223898456 0 0.41491228798580021 -0.28590676779548352 0 0.42469143981361962 -0.2985785038599979 0 0.41345623309920271 -0.29650501908647492 0 0.41491228798580021 -0.28590676779548352 0 0.45197194058793699 -0.49872832457439131 0 0.44794158448123211 -0.481891434429703 0 0.43062926234260651 -0.48180119995952703 0 0.45197194058793699 -0.49872832457439131 0 0.43062926234260651 -0.48180119995952703 0 0.45197194058793699 -0.49872832457439131 0 0.43062926234260651 -0.48180119995952703 0 0.43296197826673027 -0.5 0 0.45197194058793699 -0.49872832457439131 0 0.45691543775683119 -0.499999999999999 0 0.43296197826673027 -0.5 0 0.45197194058793699 -0.49872832457439131 0 0.44794158448123211 -0.481891434429703 0 0.45833594235266512 -0.4874994403911308 0 0.44794158448123211 -0.481891434429703 0 0.44271168035736591 -0.47205256551160107 0 0.46065764549881422 -0.47014296932619698 0 0.44794158448123211 -0.481891434429703 0 0.44271168035736591 -0.47205256551160107 0 0.43062926234260651 -0.48180119995952703 0 0.44794158448123211 -0.481891434429703 0 0.46065764549881422 -0.47014296932619698 0 0.45833594235266512 -0.4874994403911308 0 0.46065764549881422 -0.47014296932619698 0 0.45833594235266512 -0.4874994403911308 0 0.47954919139227209 -0.48158998281123627 0 0.45833594235266512 -0.4874994403911308 0 0.45691543775683119 -0.499999999999999 0 0.47954919139227209 -0.48158998281123627 0 0.45691543775683119 -0.499999999999999 0 0.47954919139227209 -0.48158998281123627 0 0.45197194058793699 -0.49872832457439131 0 0.45833594235266512 -0.4874994403911308 0 0.45691543775683119 -0.499999999999999 0 0.45691543775683119 -0.499999999999999 0 0.5 -0.5 0 0.47954919139227209 -0.48158998281123627 0 0.50000000000000178 -0.49398180522919949 0 0.47954919139227209 -0.48158998281123627 0 0.5 -0.5 0 0.50000000000000178 -0.49398180522919949 0 0.47954919139227209 -0.48158998281123627 0 0.47954919139227209 -0.48158998281123627 0 0.50000000000000422 -0.46495554629413532 0 0.50000000000000178 -0.49398180522919949 0 0.47954919139227209 -0.48158998281123627 0 0.50000000000000422 -0.46495554629413532 0 0.46065764549881422 -0.47014296932619698 0 0.47954919139227209 -0.48158998281123627 0 0.46065764549881422 -0.47014296932619698 0 0.47954919139227209 -0.48158998281123627 0 0.47924732222374627 -0.45934696221735899 0 0.47954919139227209 -0.48158998281123627 0 0.47924732222374627 -0.45934696221735899 0 0.50000000000000422 -0.46495554629413532 0 0.47924732222374627 -0.45934696221735899 0 0.50000000000000422 -0.46495554629413532 0 0.48940362225357531 -0.44940668389943172 0 0.50000000000000422 -0.46495554629413532 0 0.48940362225357531 -0.44940668389943172 0 0.50000000000001099 -0.43545644494272179 0 0.48940362225357531 -0.44940668389943172 0 0.47836716679053798 -0.43786778214350769 0 0.50000000000001099 -0.43545644494272179 0 0.47924732222374627 -0.45934696221735899 0 0.47836716679053798 -0.43786778214350769 0 0.46442283184515232 -0.4540256963627286 0 0.47924732222374627 -0.45934696221735899 0 0.48940362225357531 -0.44940668389943172 0 0.47836716679053798 -0.43786778214350769 0 0.47836716679053798 -0.43786778214350769 0 0.45673433358106502 -0.44027911934429242 0 0.47836716679053798 -0.43786778214350769 0 0.45673433358106502 -0.44027911934429242 0 0.46442283184515232 -0.4540256963627286 0 0.45673433358106502 -0.44027911934429242 0 0.46442283184515232 -0.4540256963627286 0 0.44932260021189602 -0.44954636718274238 0 0.46065764549881422 -0.47014296932619698 0 0.47924732222374627 -0.45934696221735899 0 0.46442283184515232 -0.4540256963627286 0 0.46065764549881422 -0.47014296932619698 0 0.46442283184515232 -0.4540256963627286 0 0.44932260021189602 -0.44954636718274238 0 0.46065764549881422 -0.47014296932619698 0 0.44176609960535468 -0.45869595584116007 0 0.44932260021189602 -0.44954636718274238 0 0.46065764549881422 -0.47014296932619698 0 0.44176609960535468 -0.45869595584116007 0 0.44271168035736591 -0.47205256551160107 0 0.46065764549881422 -0.47014296932619698 0 0.44176609960535468 -0.45869595584116007 0 0.44271168035736591 -0.47205256551160107 0 0.44176609960535468 -0.45869595584116007 0 0.43256380985882209 -0.4677312680014184 0 0.44176609960535468 -0.45869595584116007 0 0.43766801290080531 -0.44731337174095098 0 0.43312112620452731 -0.45635997649879428 0 0.44176609960535468 -0.45869595584116007 0 0.43766801290080531 -0.44731337174095098 0 0.44932260021189602 -0.44954636718274238 0 0.45673433358106502 -0.44027911934429242 0 0.4351015003715919 -0.44269045654507783 0 0.45673433358106502 -0.44027911934429242 0 0.44932260021189602 -0.44954636718274238 0 0.4351015003715919 -0.44269045654507783 0 0.43766801290080531 -0.44731337174095098 0 0.44932260021189602 -0.44954636718274238 0 0.4351015003715919 -0.44269045654507783 0 0.45673433358106502 -0.44027911934429242 0 0.44668589890465932 -0.41962389903845487 0 0.4351015003715919 -0.44269045654507783 0 0.44668589890465932 -0.41962389903845487 0 0.45887672642709049 -0.40122100188240079 0 0.43526311189760059 -0.40623406023720821 0 0.46300092594234971 -0.42445871066252161 0 0.48102777174177969 -0.41794472383175157 0 0.45887672642709049 -0.40122100188240079 0 0.44668589890465932 -0.41962389903845487 0 0.46300092594234971 -0.42445871066252161 0 0.45887672642709049 -0.40122100188240079 0 0.47836716679053798 -0.43786778214350769 0 0.45673433358106502 -0.44027911934429242 0 0.46300092594234971 -0.42445871066252161 0 0.45673433358106502 -0.44027911934429242 0 0.44668589890465932 -0.41962389903845487 0 0.46300092594234971 -0.42445871066252161 0 0.47836716679053798 -0.43786778214350769 0 0.46300092594234971 -0.42445871066252161 0 0.48102777174177969 -0.41794472383175157 0 0.47836716679053798 -0.43786778214350769 0 0.50000000000001099 -0.43545644494272179 0 0.48102777174177969 -0.41794472383175157 0 0.47836716679053798 -0.43786778214350769 0 0.50000000000001099 -0.43545644494272179 0 0.50000000000001099 -0.43545644494272179 0 0.5 -0.4099843062741515 0 0.48102777174177969 -0.41794472383175157 0 0.5 -0.4099843062741515 0 0.48102777174177969 -0.41794472383175157 0 0.48592181129068929 -0.39868009708520502 0 0.48592181129068929 -0.39868009708520502 0 0.47882878227350278 -0.38030621602011427 0 0.45887672642709049 -0.40122100188240079 0 0.48102777174177969 -0.41794472383175157 0 0.48592181129068929 -0.39868009708520502 0 0.45887672642709049 -0.40122100188240079 0 0.5 -0.4099843062741515 0 0.48592181129068929 -0.39868009708520502 0 0.5 -0.38451216760558121 0 0.48592181129068929 -0.39868009708520502 0 0.5 -0.38451216760558121 0 0.47882878227350278 -0.38030621602011427 0 0.47882878227350278 -0.38030621602011427 0 0.45725508005532173 -0.3777873946206447 0 0.45887672642709049 -0.40122100188240079 0 0.45887672642709049 -0.40122100188240079 0 0.43415958041440028 -0.3854836608909934 0 0.43526311189760059 -0.40623406023720821 0 0.45725508005532173 -0.3777873946206447 0 0.45887672642709049 -0.40122100188240079 0 0.43415958041440028 -0.3854836608909934 0 0.41771647827736619 -0.36123867592709419 0 0.43415958041440028 -0.3854836608909934 0 0.40149185337026239 -0.38215128282911348 0 0.43415958041440028 -0.3854836608909934 0 0.41269506903737169 -0.40233100740110178 0 0.40149185337026239 -0.38215128282911348 0 0.43415958041440028 -0.3854836608909934 0 0.43526311189760059 -0.40623406023720821 0 0.41269506903737169 -0.40233100740110178 0 0.41269506903737169 -0.40233100740110178 0 0.40149185337026239 -0.38215128282911348 0 0.39028863770315408 -0.36197155825712451 0 0.40149185337026239 -0.38215128282911348 0 0.38377697706299613 -0.38981980555725831 0 0.40149185337026239 -0.38215128282911348 0 0.38377697706299613 -0.38981980555725831 0 0.39551544909584652 -0.39794689487399432 0 0.38345605721323228 -0.3621541274060131 0 0.38377697706299613 -0.38981980555725831 0 0.38377697706299613 -0.38981980555725831 0 0.39551544909584652 -0.39794689487399432 0 0.38409789691275598 -0.41748548370850369 0 0.38377697706299613 -0.38981980555725831 0 0.38409789691275598 -0.41748548370850369 0 0.38377697706299613 -0.38981980555725831 0 0.38409789691275598 -0.41748548370850369 0 0.36550556753505009 -0.40846725578956949 0 0.41269506903737169 -0.40233100740110178 0 0.40149185337026239 -0.38215128282911348 0 0.39551544909584652 -0.39794689487399432 0 0.41269506903737169 -0.40233100740110178 0 0.39551544909584652 -0.39794689487399432 0 0.38409789691275598 -0.41748548370850369 0 0.41269506903737169 -0.40233100740110178 0 0.38409789691275598 -0.41748548370850369 0 0.39805518060777528 -0.43157787184141538 0 0.38409789691275598 -0.41748548370850369 0 0.38441881676251388 -0.44515116185974901 0 0.38409789691275598 -0.41748548370850369 0 0.39805518060777528 -0.43157787184141538 0 0.38441881676251388 -0.44515116185974901 0 0.38409789691275598 -0.41748548370850369 0 0.38441881676251388 -0.44515116185974901 0 0.36416521191137619 -0.42908779393213659 0 0.39805518060777528 -0.43157787184141538 0 0.42389828470448099 -0.42251073197309019 0 0.41152270311176781 -0.44531870363744019 0 0.41269506903737169 -0.40233100740110178 0 0.39805518060777528 -0.43157787184141538 0 0.42389828470448099 -0.42251073197309019 0 0.41269506903737169 -0.40233100740110178 0 0.42389828470448099 -0.42251073197309019 0 0.43526311189760059 -0.40623406023720821 0 0.41269506903737169 -0.40233100740110178 0 0.42389828470448099 -0.42251073197309019 0 0.44668589890465932 -0.41962389903845487 0 0.43526311189760059 -0.40623406023720821 0 0.42389828470448099 -0.42251073197309019 0 0.42389828470448099 -0.42251073197309019 0 0.4351015003715919 -0.44269045654507783 0 0.44668589890465932 -0.41962389903845487 0 0.42389828470448099 -0.42251073197309019 0 0.4351015003715919 -0.44269045654507783 0 0.42389828470448099 -0.42251073197309019 0 0.4351015003715919 -0.44269045654507783 0 0.41152270311176781 -0.44531870363744019 0 0.42873493793989792 -0.44971021550023088 0 0.4351015003715919 -0.44269045654507783 0 0.41152270311176781 -0.44531870363744019 0 0.4351015003715919 -0.44269045654507783 0 0.41152270311176781 -0.44531870363744019 0 0.43766801290080531 -0.44731337174095098 0 0.4351015003715919 -0.44269045654507783 0 0.43766801290080531 -0.44731337174095098 0 0.42873493793989792 -0.44971021550023088 0 0.43312112620452731 -0.45635997649879428 0 0.43766801290080531 -0.44731337174095098 0 0.42873493793989792 -0.44971021550023088 0 0.4351015003715919 -0.44269045654507783 0 0.44176609960535468 -0.45869595584116007 0 0.43312112620452731 -0.45635997649879428 0 0.43256380985882209 -0.4677312680014184 0 0.43312112620452731 -0.45635997649879428 0 0.43256380985882209 -0.4677312680014184 0 0.42487277071775631 -0.45834907141021147 0 0.43256380985882209 -0.4677312680014184 0 0.42487277071775631 -0.45834907141021147 0 0.40928658409727592 -0.46487407534466268 0 0.42873493793989792 -0.44971021550023088 0 0.43312112620452731 -0.45635997649879428 0 0.42487277071775631 -0.45834907141021147 0 0.42487277071775631 -0.45834907141021147 0 0.40928658409727592 -0.46487407534466268 0 0.41152270311176781 -0.44531870363744019 0 0.42873493793989792 -0.44971021550023088 0 0.42487277071775631 -0.45834907141021147 0 0.41152270311176781 -0.44531870363744019 0 0.41152270311176781 -0.44531870363744019 0 0.38794390585194338 -0.44794695072980112 0 0.39805518060777528 -0.43157787184141538 0 0.41152270311176781 -0.44531870363744019 0 0.38794390585194338 -0.44794695072980112 0 0.40928658409727592 -0.46487407534466268 0 0.41152270311176781 -0.44531870363744019 0 0.38794390585194338 -0.44794695072980112 0 0.39805518060777528 -0.43157787184141538 0 0.38441881676251388 -0.44515116185974901 0 0.38794390585194338 -0.44794695072980112 0 0.38441881676251388 -0.44515116185974901 0 0.3844557578981731 -0.44833576253458918 0 0.36334304513980498 -0.45068912370511899 0 0.3844557578981731 -0.44833576253458918 0 0.38459427635784121 -0.46027708409996843 0 0.36334304513980498 -0.45068912370511899 0 0.38794390585194338 -0.44794695072980112 0 0.3844557578981731 -0.44833576253458918 0 0.38459427635784121 -0.46027708409996843 0 0.38441881676251388 -0.44515116185974901 0 0.38794390585194338 -0.44794695072980112 0 0.38441881676251388 -0.44515116185974901 0 0.38794390585194338 -0.44794695072980112 0 0.3844557578981731 -0.44833576253458918 0 0.38794390585194338 -0.44794695072980112 0 0.3844557578981731 -0.44833576253458918 0 0.38441881676251388 -0.44515116185974901 0 0.3844557578981731 -0.44833576253458918 0 0.38459427635784121 -0.46027708409996843 0 0.39515984400336351 -0.46504397233787798 0 0.38482466782218472 -0.48013854204998341 0 0.38794390585194338 -0.44794695072980112 0 0.38459427635784121 -0.46027708409996843 0 0.39515984400336351 -0.46504397233787798 0 0.3844557578981731 -0.44833576253458918 0 0.38459427635784121 -0.46027708409996843 0 0.38459427635784121 -0.46027708409996843 0 0.39515984400336351 -0.46504397233787798 0 0.40928658409727592 -0.46487407534466268 0 0.38794390585194338 -0.44794695072980112 0 0.39515984400336351 -0.46504397233787798 0 0.40928658409727592 -0.46487407534466268 0 0.38794390585194338 -0.44794695072980112 0 0.40928658409727592 -0.46487407534466268 0 0.39515984400336351 -0.46504397233787798 0 0.40151961274198927 -0.48172369866522968 0 0.39515984400336351 -0.46504397233787798 0 0.40151961274198927 -0.48172369866522968 0 0.38482466782218472 -0.48013854204998341 0 0.38459427635784121 -0.46027708409996843 0 0.38482466782218472 -0.48013854204998341 0 0.38459427635784121 -0.46027708409996843 0 0.38482466782218472 -0.48013854204998341 0 0.37163059445165719 -0.470397968107792 0 0.38482466782218472 -0.48013854204998341 0 0.37053053542080799 -0.48595099317565688 0 0.37163059445165719 -0.470397968107792 0 0.40151961274198927 -0.48172369866522968 0 0.38482466782218472 -0.48013854204998341 0 0.3850550592865285 -0.4999999999999985 0 0.38482466782218472 -0.48013854204998341 0 0.3850550592865285 -0.4999999999999985 0 0.37053053542080799 -0.48595099317565688 0 0.38482466782218472 -0.48013854204998341 0 0.3850550592865285 -0.4999999999999985 0 0.40151961274198927 -0.48172369866522968 0 0.3850550592865285 -0.4999999999999985 0 0.40900851877662942 -0.5 0 0.40900851877662942 -0.5 0 0.41638940318844692 -0.48682626173493682 0 0.43296197826673027 -0.5 0 0.40151961274198927 -0.48172369866522968 0 0.40900851877662942 -0.5 0 0.41638940318844692 -0.48682626173493682 0 0.40928658409727592 -0.46487407534466268 0 0.41638940318844692 -0.48682626173493682 0 0.43062926234260651 -0.48180119995952703 0 0.40928658409727592 -0.46487407534466268 0 0.40151961274198927 -0.48172369866522968 0 0.41638940318844692 -0.48682626173493682 0 0.40928658409727592 -0.46487407534466268 0 0.43062926234260651 -0.48180119995952703 0 0.43256380985882209 -0.4677312680014184 0 0.40928658409727592 -0.46487407534466268 0 0.43062926234260651 -0.48180119995952703 0 0.44271168035736591 -0.47205256551160107 0 0.43256380985882209 -0.4677312680014184 0 0.43062926234260651 -0.48180119995952703 0 0.41638940318844692 -0.48682626173493682 0 0.43062926234260651 -0.48180119995952703 0 0.43296197826673027 -0.5 0 0.32732482578489303 -0.5 0 0.33666356082656729 -0.48218259646348538 0 0.31084530555300299 -0.47818746604870482 0 0.33666356082656729 -0.48218259646348538 0 0.33363484208569372 -0.46640494190869308 0 0.31084530555300299 -0.47818746604870482 0 0.33666356082656729 -0.48218259646348538 0 0.35476848202733641 -0.47064973929595633 0 0.33363484208569372 -0.46640494190869308 0 0.32732482578489303 -0.5 0 0.33666356082656729 -0.48218259646348538 0 0.35618994253571079 -0.5 0 0.35618994253571079 -0.5 0 0.37053053542080799 -0.48595099317565688 0 0.35476848202733641 -0.47064973929595633 0 0.3850550592865285 -0.4999999999999985 0 0.35618994253571079 -0.5 0 0.37053053542080799 -0.48595099317565688 0 0.37053053542080799 -0.48595099317565688 0 0.37163059445165719 -0.470397968107792 0 0.35476848202733641 -0.47064973929595633 0 0.33666356082656729 -0.48218259646348538 0 0.35618994253571079 -0.5 0 0.35476848202733641 -0.47064973929595633 0 0.35476848202733641 -0.47064973929595633 0 0.36334304513980498 -0.45068912370511899 0 0.34298472707962402 -0.45295839510422542 0 0.35476848202733641 -0.47064973929595633 0 0.34298472707962402 -0.45295839510422542 0 0.33363484208569372 -0.46640494190869308 0 0.38459427635784121 -0.46027708409996843 0 0.37163059445165719 -0.470397968107792 0 0.36334304513980498 -0.45068912370511899 0 0.37163059445165719 -0.470397968107792 0 0.35476848202733641 -0.47064973929595633 0 0.36334304513980498 -0.45068912370511899 0 0.38459427635784121 -0.46027708409996843 0 0.36334304513980498 -0.45068912370511899 0 0.3844557578981731 -0.44833576253458918 0 0.36334304513980498 -0.45068912370511899 0 0.38441881676251388 -0.44515116185974901 0 0.36334304513980498 -0.45068912370511899 0 0.36416521191137619 -0.42908779393213659 0 0.36334304513980498 -0.45068912370511899 0 0.33940990229184592 -0.43989115988852429 0 0.36334304513980498 -0.45068912370511899 0 0.33940990229184592 -0.43989115988852429 0 0.34298472707962402 -0.45295839510422542 0 0.36334304513980498 -0.45068912370511899 0 0.33940990229184592 -0.43989115988852429 0 0.36416521191137619 -0.42908779393213659 0 0.36334304513980498 -0.45068912370511899 0 0.34298472707962402 -0.45295839510422542 0 0.33940990229184592 -0.43989115988852429 0 0.32747525854687032 -0.44368224668836831 0 0.32203335888551421 -0.43205135012550849 0 0.34298472707962402 -0.45295839510422542 0 0.32262640901944312 -0.45522766650333302 0 0.32747525854687032 -0.44368224668836831 0 0.33940990229184592 -0.43989115988852429 0 0.34298472707962402 -0.45295839510422542 0 0.32747525854687032 -0.44368224668836831 0 0.34298472707962402 -0.45295839510422542 0 0.33363484208569372 -0.46640494190869308 0 0.32262640901944312 -0.45522766650333302 0 0.34298472707962402 -0.45295839510422542 0 0.32262640901944312 -0.45522766650333302 0 0.33363484208569372 -0.46640494190869308 0 0.32262640901944312 -0.45522766650333302 0 0.31084530555300299 -0.47818746604870482 0 0.32262640901944312 -0.45522766650333302 0 0.31638743753277088 -0.44478121002230803 0 0.30226809095926199 -0.45749693790243928 0 0.31638743753277088 -0.44478121002230803 0 0.32203335888551421 -0.43205135012550849 0 0.30648853934086512 -0.44064963787351669 0 0.31638743753277088 -0.44478121002230803 0 0.32747525854687032 -0.44368224668836831 0 0.32203335888551421 -0.43205135012550849 0 0.32262640901944312 -0.45522766650333302 0 0.31638743753277088 -0.44478121002230803 0 0.32747525854687032 -0.44368224668836831 0 0.32203335888551421 -0.43205135012550849 0 0.3154767594438872 -0.42909319607192847 0 0.33294390447444722 -0.42446393807234328 0 0.3154767594438872 -0.42909319607192847 0 0.32118086433709447 -0.41427621240758788 0 0.33294390447444722 -0.42446393807234328 0 0.32203335888551421 -0.43205135012550849 0 0.3154767594438872 -0.42909319607192847 0 0.3154767594438872 -0.42909319607192847 0 0.32118086433709447 -0.41427621240758788 0 0.31165222404903631 -0.41907330585177532 0 0.32118086433709447 -0.41427621240758788 0 0.30557874435829552 -0.40910879091062979 0 0.31165222404903631 -0.41907330585177532 0 0.32118086433709447 -0.41427621240758788 0 0.32365800220910262 -0.39696105807691001 0 0.30557874435829552 -0.40910879091062979 0 0.32118086433709447 -0.41427621240758788 0 0.33294390447444722 -0.42446393807234328 0 0.34391160706023938 -0.41302442600452338 0 0.32118086433709447 -0.41427621240758788 0 0.34391160706023938 -0.41302442600452338 0 0.32365800220910262 -0.39696105807691001 0 0.33294390447444722 -0.42446393807234328 0 0.34510765643447722 -0.42661682947438179 0 0.34391160706023938 -0.41302442600452338 0 0.33940990229184592 -0.43989115988852429 0 0.32203335888551421 -0.43205135012550849 0 0.33940990229184592 -0.43989115988852429 0 0.32203335888551421 -0.43205135012550849 0 0.33294390447444722 -0.42446393807234328 0 0.33940990229184592 -0.43989115988852429 0 0.33294390447444722 -0.42446393807234328 0 0.34510765643447722 -0.42661682947438179 0 0.33940990229184592 -0.43989115988852429 0 0.34510765643447722 -0.42661682947438179 0 0.36416521191137619 -0.42908779393213659 0 0.34510765643447722 -0.42661682947438179 0 0.36416521191137619 -0.42908779393213659 0 0.34391160706023938 -0.41302442600452338 0 0.38441881676251388 -0.44515116185974901 0 0.36416521191137619 -0.42908779393213659 0 0.38409789691275598 -0.41748548370850369 0 0.36416521191137619 -0.42908779393213659 0 0.36550556753505009 -0.40846725578956949 0 0.36416521191137619 -0.42908779393213659 0 0.34391160706023938 -0.41302442600452338 0 0.36416521191137619 -0.42908779393213659 0 0.36550556753505009 -0.40846725578956949 0 0.34391160706023938 -0.41302442600452338 0 0.36550556753505009 -0.40846725578956949 0 0.34391160706023938 -0.41302442600452338 0 0.35698673129494751 -0.3896408760100879 0 0.38377697706299613 -0.38981980555725831 0 0.36550556753505009 -0.40846725578956949 0 0.35698673129494751 -0.3896408760100879 0 0.38345605721323228 -0.3621541274060131 0 0.38377697706299613 -0.38981980555725831 0 0.35698673129494751 -0.3896408760100879 0 0.35698673129494751 -0.3896408760100879 0 0.33681826793280439 -0.37809741253598572 0 0.35521352880933238 -0.36290877850464831 0 0.34391160706023938 -0.41302442600452338 0 0.35698673129494751 -0.3896408760100879 0 0.32365800220910262 -0.39696105807691001 0 0.35698673129494751 -0.3896408760100879 0 0.33681826793280439 -0.37809741253598572 0 0.32365800220910262 -0.39696105807691001 0 0.34391160706023938 -0.41302442600452338 0 0.32365800220910262 -0.39696105807691001 0 0.32365800220910262 -0.39696105807691001 0 0.30340439735796582 -0.3808976901492967 0 0.32365800220910262 -0.39696105807691001 0 0.32126207694520681 -0.37731292048499848 0 0.30340439735796582 -0.3808976901492967 0 0.33681826793280439 -0.37809741253598572 0 0.32365800220910262 -0.39696105807691001 0 0.32126207694520681 -0.37731292048499848 0 0.32126207694520681 -0.37731292048499848 0 0.30340439735796582 -0.3808976901492967 0 0.31090321600502607 -0.37122113585037708 0 0.32365800220910262 -0.39696105807691001 0 0.29393984598187262 -0.39587933552058913 0 0.30557874435829552 -0.40910879091062979 0 0.32365800220910262 -0.39696105807691001 0 0.30340439735796582 -0.3808976901492967 0 0.29393984598187262 -0.39587933552058913 0 0.29393984598187262 -0.39587933552058913 0 0.28094077880799417 -0.40604977547840071 0 0.30557874435829552 -0.40910879091062979 0 0.29393984598187262 -0.39587933552058913 0 0.28684435135892111 -0.38097740435774552 0 0.28094077880799417 -0.40604977547840071 0 0.30340439735796582 -0.3808976901492967 0 0.29393984598187262 -0.39587933552058913 0 0.28684435135892111 -0.38097740435774552 0 0.30340439735796582 -0.3808976901492967 0 0.28684435135892111 -0.38097740435774552 0 0.28315079250682851 -0.36483432222168388 0 0.28684435135892111 -0.38097740435774552 0 0.27029525867841347 -0.38036994300301108 0 0.28094077880799417 -0.40604977547840071 0 0.28684435135892111 -0.38097740435774552 0 0.27029525867841347 -0.38036994300301108 0 0.27650752314835159 -0.37242380700814948 0 0.26226572621890049 -0.38797960067001869 0 0.26912261064857063 -0.36520916057538172 0 0.27029525867841347 -0.38036994300301108 0 0.26226572621890049 -0.38797960067001869 0 0.26682732387455399 -0.40195048528917232 0 0.27029525867841347 -0.38036994300301108 0 0.26226572621890049 -0.38797960067001869 0 0.26912261064857063 -0.36520916057538172 0 0.25115578665232452 -0.37796349236568272 0 0.26226572621890049 -0.38797960067001869 0 0.24671603634214531 -0.39614759421264722 0 0.25115578665232452 -0.37796349236568272 0 0.26226572621890049 -0.38797960067001869 0 0.26912261064857063 -0.36520916057538172 0 0.26226572621890049 -0.38797960067001869 0 0.26682732387455399 -0.40195048528917232 0 0.25506301757475153 -0.41075928131917461 0 0.26226572621890049 -0.38797960067001869 0 0.25506301757475153 -0.41075928131917461 0 0.24671603634214531 -0.39614759421264722 0 0.26226572621890049 -0.38797960067001869 0 0.25506301757475153 -0.41075928131917461 0 0.27029525867841347 -0.38036994300301108 0 0.28094077880799417 -0.40604977547840071 0 0.26682732387455399 -0.40195048528917232 0 0.27029525867841347 -0.38036994300301108 0 0.28094077880799417 -0.40604977547840071 0 0.28094077880799417 -0.40604977547840071 0 0.26682732387455399 -0.40195048528917232 0 0.26727759555342689 -0.43110604113865592 0 0.26682732387455399 -0.40195048528917232 0 0.25506301757475153 -0.41075928131917461 0 0.26727759555342689 -0.43110604113865592 0 0.25506301757475153 -0.41075928131917461 0 0.26727759555342689 -0.43110604113865592 0 0.2429688921692805 -0.43048247432352033 0 0.26727759555342689 -0.43110604113865592 0 0.24372663769304459 -0.44719712808524892 0 0.2429688921692805 -0.43048247432352033 0 0.26727759555342689 -0.43110604113865592 0 0.2429688921692805 -0.43048247432352033 0 0.26727759555342689 -0.43110604113865592 0 0.29158629893757332 -0.43172960795379089 0 0.28094077880799417 -0.40604977547840071 0 0.26727759555342689 -0.43110604113865592 0 0.29158629893757332 -0.43172960795379089 0 0.26727759555342689 -0.43110604113865592 0 0.29158629893757332 -0.43172960795379089 0 0.28495699866852631 -0.44821794764543371 0 0.28094077880799417 -0.40604977547840071 0 0.30557874435829552 -0.40910879091062979 0 0.30231475583138367 -0.42204952440352139 0 0.28094077880799417 -0.40604977547840071 0 0.29158629893757332 -0.43172960795379089 0 0.30231475583138367 -0.42204952440352139 0 0.28094077880799417 -0.40604977547840071 0 0.29158629893757332 -0.43172960795379089 0 0.30557874435829552 -0.40910879091062979 0 0.31165222404903631 -0.41907330585177532 0 0.30231475583138367 -0.42204952440352139 0 0.32203335888551421 -0.43205135012550849 0 0.29158629893757332 -0.43172960795379089 0 0.3154767594438872 -0.42909319607192847 0 0.29158629893757332 -0.43172960795379089 0 0.30231475583138367 -0.42204952440352139 0 0.32203335888551421 -0.43205135012550849 0 0.29158629893757332 -0.43172960795379089 0 0.30648853934086512 -0.44064963787351669 0 0.32203335888551421 -0.43205135012550849 0 0.3154767594438872 -0.42909319607192847 0 0.29158629893757332 -0.43172960795379089 0 0.3154767594438872 -0.42909319607192847 0 0.31165222404903631 -0.41907330585177532 0 0.30231475583138367 -0.42204952440352139 0 0.31638743753277088 -0.44478121002230803 0 0.30648853934086512 -0.44064963787351669 0 0.30226809095926199 -0.45749693790243928 0 0.29158629893757332 -0.43172960795379089 0 0.30648853934086512 -0.44064963787351669 0 0.30226809095926199 -0.45749693790243928 0 0.29158629893757332 -0.43172960795379089 0 0.30226809095926199 -0.45749693790243928 0 0.30226809095926199 -0.45749693790243928 0 0.31084530555300299 -0.47818746604870482 0 0.32262640901944312 -0.45522766650333302 0 0.30226809095926199 -0.45749693790243928 0 0.31084530555300299 -0.47818746604870482 0 0.32262640901944312 -0.45522766650333302 0 0.30226809095926199 -0.45749693790243928 0 0.30226809095926199 -0.45749693790243928 0 0.27421326213601732 -0.46062411277353021 0 0.30226809095926199 -0.45749693790243928 0 0.28495699866852631 -0.44821794764543371 0 0.27421326213601732 -0.46062411277353021 0 0.30226809095926199 -0.45749693790243928 0 0.27421326213601732 -0.46062411277353021 0 0.28609157354039572 -0.47788528647707912 0 0.29158629893757332 -0.43172960795379089 0 0.30226809095926199 -0.45749693790243928 0 0.28495699866852631 -0.44821794764543371 0 0.26727759555342689 -0.43110604113865592 0 0.28495699866852631 -0.44821794764543371 0 0.25920399556126728 -0.45337920835883072 0 0.26727759555342689 -0.43110604113865592 0 0.25920399556126728 -0.45337920835883072 0 0.24372663769304459 -0.44719712808524892 0 0.27421326213601732 -0.46062411277353021 0 0.26508168627509382 -0.4770041925227913 0 0.2461584333127726 -0.46375128764461981 0 0.25920399556126728 -0.45337920835883072 0 0.27421326213601732 -0.46062411277353021 0 0.2461584333127726 -0.46375128764461981 0 0.27421326213601732 -0.46062411277353021 0 0.2461584333127726 -0.46375128764461981 0 0.28495699866852631 -0.44821794764543371 0 0.25920399556126728 -0.45337920835883072 0 0.27421326213601732 -0.46062411277353021 0 0.27421326213601732 -0.46062411277353021 0 0.26508168627509382 -0.4770041925227913 0 0.28609157354039572 -0.47788528647707912 0 0.26508168627509382 -0.4770041925227913 0 0.24935057010302611 -0.48276027571872782 0 0.2461584333127726 -0.46375128764461981 0 0.26959459228325738 -0.5 0 0.24072947553243959 -0.5 0 0.24935057010302611 -0.48276027571872782 0 0.26508168627509382 -0.4770041925227913 0 0.26959459228325738 -0.5 0 0.24935057010302611 -0.48276027571872782 0 0.26508168627509382 -0.4770041925227913 0 0.26959459228325738 -0.5 0 0.28609157354039572 -0.47788528647707912 0 0.26959459228325738 -0.5 0 0.28609157354039572 -0.47788528647707912 0 0.29845970903407532 -0.5 0 0.30226809095926199 -0.45749693790243928 0 0.28609157354039572 -0.47788528647707912 0 0.31084530555300299 -0.47818746604870482 0 0.32732482578489303 -0.5 0 0.31084530555300299 -0.47818746604870482 0 0.29845970903407532 -0.5 0 0.28609157354039572 -0.47788528647707912 0 0.31084530555300299 -0.47818746604870482 0 0.29845970903407532 -0.5 0 0.32256635159124009 -0.28583300415670659 0 0.34502578747802581 -0.30336502501538842 0 0.32256635159124009 -0.28583300415670659 0 0.34233073812729897 -0.27539645866094231 0 0.34502578747802581 -0.30336502501538842 0 0.33085955695129832 -0.30308591924434819 0 0.32256635159124009 -0.28583300415670659 0 0.34502578747802581 -0.30336502501538842 0 0.33085955695129832 -0.30308591924434819 0 0.31747836327517381 -0.30709237417780988 0 0.33836772546075361 -0.31605327362748781 0 0.33085955695129832 -0.30308591924434819 0 0.34502578747802581 -0.30336502501538842 0 0.33836772546075361 -0.31605327362748781 0 0.33085955695129832 -0.30308591924434819 0 0.31747836327517381 -0.30709237417780988 0 0.32256635159124009 -0.28583300415670659 0 0.31747836327517381 -0.30709237417780988 0 0.32256635159124009 -0.28583300415670659 0 0.30559033408401343 -0.28874793735438009 0 0.32256635159124009 -0.28583300415670659 0 0.31775675597918529 -0.26884248115985587 0 0.3001069157044523 -0.26830098329802782 0 0.32256635159124009 -0.28583300415670659 0 0.31775675597918529 -0.26884248115985587 0 0.34233073812729897 -0.27539645866094231 0 0.3192444096746781 -0.24328484406878439 0 0.33083616901617252 -0.2515046018757397 0 0.30300397292774039 -0.25913859153275198 0 0.33083616901617252 -0.2515046018757397 0 0.30300397292774039 -0.25913859153275198 0 0.31775675597918529 -0.26884248115985587 0 0.33083616901617252 -0.2515046018757397 0 0.30300397292774039 -0.25913859153275198 0 0.33083616901617252 -0.2515046018757397 0 0.34233073812729897 -0.27539645866094231 0 0.35722017945539453 -0.26157020813809062 0 0.31775675597918529 -0.26884248115985587 0 0.33083616901617252 -0.2515046018757397 0 0.34233073812729897 -0.27539645866094231 0 0.34233073812729897 -0.27539645866094231 0 0.36387234433295962 -0.27547304652835891 0 0.35839914205776341 -0.29092710735458049 0 0.34233073812729897 -0.27539645866094231 0 0.35722017945539453 -0.26157020813809062 0 0.36387234433295962 -0.27547304652835891 0 0.35866836510460431 -0.24387061221872669 0 0.33083616901617252 -0.2515046018757397 0 0.35722017945539453 -0.26157020813809062 0 0.37666098301791873 -0.25658766975618591 0 0.35722017945539453 -0.26157020813809062 0 0.36926959111252949 -0.26702983770972 0 0.35866836510460431 -0.24387061221872669 0 0.37666098301791873 -0.25658766975618591 0 0.35722017945539453 -0.26157020813809062 0 0.35722017945539453 -0.26157020813809062 0 0.36387234433295962 -0.27547304652835891 0 0.36926959111252949 -0.26702983770972 0 0.37932485764384538 -0.27448842641624471 0 0.36387234433295962 -0.27547304652835891 0 0.36926959111252949 -0.26702983770972 0 0.37932485764384538 -0.27448842641624471 0 0.36387234433295962 -0.27547304652835891 0 0.37235398216260152 -0.28793899056949163 0 0.37924677571148219 -0.2998365313877942 0 0.37235398216260152 -0.28793899056949163 0 0.36857282094696042 -0.29874650318207852 0 0.37235398216260152 -0.28793899056949163 0 0.35839914205776341 -0.29092710735458049 0 0.36857282094696042 -0.29874650318207852 0 0.36387234433295962 -0.27547304652835891 0 0.37235398216260152 -0.28793899056949163 0 0.35839914205776341 -0.29092710735458049 0 0.34233073812729897 -0.27539645866094231 0 0.35839914205776341 -0.29092710735458049 0 0.34502578747802581 -0.30336502501538842 0 0.34502578747802581 -0.30336502501538842 0 0.36748522336481071 -0.3208970458740712 0 0.34502578747802581 -0.30336502501538842 0 0.35942349109336952 -0.30637589929930881 0 0.36748522336481071 -0.3208970458740712 0 0.35839914205776341 -0.29092710735458049 0 0.34502578747802581 -0.30336502501538842 0 0.35942349109336952 -0.30637589929930881 0 0.35942349109336952 -0.30637589929930881 0 0.37294533319086931 -0.30967963020601358 0 0.36748522336481071 -0.3208970458740712 0 0.35942349109336952 -0.30637589929930881 0 0.36857282094696042 -0.29874650318207852 0 0.37294533319086931 -0.30967963020601358 0 0.35839914205776341 -0.29092710735458049 0 0.35942349109336952 -0.30637589929930881 0 0.36857282094696042 -0.29874650318207852 0 0.37924677571148219 -0.2998365313877942 0 0.36857282094696042 -0.29874650318207852 0 0.37294533319086931 -0.30967963020601358 0 0.36748522336481071 -0.3208970458740712 0 0.36233934469778739 -0.33400648812308231 0 0.34991436429896761 -0.32443725093225112 0 0.37732365148229441 -0.31862365556580391 0 0.37294533319086931 -0.30967963020601358 0 0.36748522336481071 -0.3208970458740712 0 0.35942349109336952 -0.30637589929930881 0 0.36748522336481071 -0.3208970458740712 0 0.37539665452532778 -0.33514746348034941 0 0.37679900271294831 -0.3281674588367024 0 0.36748522336481071 -0.3208970458740712 0 0.37679900271294831 -0.3281674588367024 0 0.37732365148229441 -0.31862365556580391 0 0.36748522336481071 -0.3208970458740712 0 0.37679900271294831 -0.3281674588367024 0 0.36748522336481071 -0.3208970458740712 0 0.37539665452532778 -0.33514746348034941 0 0.36748522336481071 -0.3208970458740712 0 0.37539665452532778 -0.33514746348034941 0 0.36748522336481071 -0.3208970458740712 0 0.36233934469778739 -0.33400648812308231 0 0.36233934469778739 -0.33400648812308231 0 0.35113468268428749 -0.34152003149621801 0 0.36776579861554443 -0.34803064883252138 0 0.37539665452532778 -0.33514746348034941 0 0.36233934469778739 -0.33400648812308231 0 0.36776579861554443 -0.34803064883252138 0 0.35113468268428749 -0.34152003149621801 0 0.34991436429896761 -0.32443725093225112 0 0.33551445654725159 -0.33263663035745678 0 0.36233934469778739 -0.33400648812308231 0 0.35113468268428749 -0.34152003149621801 0 0.34991436429896761 -0.32443725093225112 0 0.34502578747802581 -0.30336502501538842 0 0.34991436429896761 -0.32443725093225112 0 0.33836772546075361 -0.31605327362748781 0 0.34502578747802581 -0.30336502501538842 0 0.36748522336481071 -0.3208970458740712 0 0.34991436429896761 -0.32443725093225112 0 0.38345605721323228 -0.3621541274060131 0 0.35521352880933238 -0.36290877850464831 0 0.38345605721323228 -0.3621541274060131 0 0.35698673129494751 -0.3896408760100879 0 0.35521352880933238 -0.36290877850464831 0 0.38345605721323228 -0.3621541274060131 0 0.36776579861554443 -0.34803064883252138 0 0.35521352880933238 -0.36290877850464831 0 0.35113468268428749 -0.34152003149621801 0 0.35521352880933238 -0.36290877850464831 0 0.33752948880435069 -0.34962270524419109 0 0.35113468268428749 -0.34152003149621801 0 0.36776579861554443 -0.34803064883252138 0 0.35521352880933238 -0.36290877850464831 0 0.35521352880933238 -0.36290877850464831 0 0.32697100040543281 -0.36366342960328368 0 0.33681826793280439 -0.37809741253598572 0 0.35521352880933238 -0.36290877850464831 0 0.32697100040543281 -0.36366342960328368 0 0.33681826793280439 -0.37809741253598572 0 0.32126207694520681 -0.37731292048499848 0 0.32697100040543281 -0.36366342960328368 0 0.35521352880933238 -0.36290877850464831 0 0.33752948880435069 -0.34962270524419109 0 0.32697100040543281 -0.36366342960328368 0 0.3188137755754491 -0.34738465625934911 0 0.32697100040543281 -0.36366342960328368 0 0.29872847200153307 -0.36441808070191722 0 0.33752948880435069 -0.34962270524419109 0 0.3188137755754491 -0.34738465625934911 0 0.32697100040543281 -0.36366342960328368 0 0.32126207694520681 -0.37731292048499848 0 0.32697100040543281 -0.36366342960328368 0 0.31090321600502607 -0.37122113585037708 0 0.32697100040543281 -0.36366342960328368 0 0.29872847200153307 -0.36441808070191722 0 0.33836772546075361 -0.31605327362748781 0 0.3198405053721477 -0.32920542072991421 0 0.33836772546075361 -0.31605327362748781 0 0.33551445654725159 -0.33263663035745678 0 0.3198405053721477 -0.32920542072991421 0 0.34991436429896761 -0.32443725093225112 0 0.33836772546075361 -0.31605327362748781 0 0.33551445654725159 -0.33263663035745678 0 0.33752948880435069 -0.34962270524419109 0 0.3188137755754491 -0.34738465625934911 0 0.33551445654725159 -0.33263663035745678 0 0.35113468268428749 -0.34152003149621801 0 0.33752948880435069 -0.34962270524419109 0 0.33551445654725159 -0.33263663035745678 0 0.3188137755754491 -0.34738465625934911 0 0.3198405053721477 -0.32920542072991421 0 0.30131328528354179 -0.34235756783234061 0 0.3188137755754491 -0.34738465625934911 0 0.33551445654725159 -0.33263663035745678 0 0.3198405053721477 -0.32920542072991421 0 0.31747836327517381 -0.30709237417780988 0 0.33836772546075361 -0.31605327362748781 0 0.3198405053721477 -0.32920542072991421 0 0.31747836327517381 -0.30709237417780988 0 0.3198405053721477 -0.32920542072991421 0 0.30032042833367489 -0.3225972478118172 0 0.3198405053721477 -0.32920542072991421 0 0.30131328528354179 -0.34235756783234061 0 0.3198405053721477 -0.32920542072991421 0 0.30032042833367489 -0.3225972478118172 0 0.30131328528354179 -0.34235756783234061 0 0.2875935225898813 -0.33913379010562722 0 0.28209499927075249 -0.32526645622080691 0 0.27407200008733329 -0.3506404326338618 0 0.30032042833367489 -0.3225972478118172 0 0.30131328528354179 -0.34235756783234061 0 0.2875935225898813 -0.33913379010562722 0 0.30032042833367489 -0.3225972478118172 0 0.2875935225898813 -0.33913379010562722 0 0.28209499927075249 -0.32526645622080691 0 0.28209499927075249 -0.32526645622080691 0 0.2901179984541723 -0.29989247980775208 0 0.30032042833367489 -0.3225972478118172 0 0.28209499927075249 -0.32526645622080691 0 0.2901179984541723 -0.29989247980775208 0 0.30340439735796582 -0.3808976901492967 0 0.31090321600502607 -0.37122113585037708 0 0.29872847200153307 -0.36441808070191722 0 0.32697100040543281 -0.36366342960328368 0 0.31090321600502607 -0.37122113585037708 0 0.29872847200153307 -0.36441808070191722 0 0.31090321600502607 -0.37122113585037708 0 0.29872847200153307 -0.36441808070191722 0 0.3188137755754491 -0.34738465625934911 0 0.30131328528354179 -0.34235756783234061 0 0.29872847200153307 -0.36441808070191722 0 0.2875935225898813 -0.33913379010562722 0 0.2827860651949361 -0.35550971493476707 0 0.27407200008733329 -0.3506404326338618 0 0.30131328528354179 -0.34235756783234061 0 0.29872847200153307 -0.36441808070191722 0 0.2827860651949361 -0.35550971493476707 0 0.30131328528354179 -0.34235756783234061 0 0.2827860651949361 -0.35550971493476707 0 0.30131328528354179 -0.34235756783234061 0 0.2875935225898813 -0.33913379010562722 0 0.2827860651949361 -0.35550971493476707 0 0.30340439735796582 -0.3808976901492967 0 0.28315079250682851 -0.36483432222168388 0 0.29872847200153307 -0.36441808070191722 0 0.2827860651949361 -0.35550971493476707 0 0.29872847200153307 -0.36441808070191722 0 0.2827860651949361 -0.35550971493476707 0 0.28315079250682851 -0.36483432222168388 0 0.30340439735796582 -0.3808976901492967 0 0.29872847200153307 -0.36441808070191722 0 0.28315079250682851 -0.36483432222168388 0 0.28684435135892111 -0.38097740435774552 0 0.28315079250682851 -0.36483432222168388 0 0.27650752314835159 -0.37242380700814948 0 0.29872847200153307 -0.36441808070191722 0 0.28315079250682851 -0.36483432222168388 0 0.27029525867841347 -0.38036994300301108 0 0.27650752314835159 -0.37242380700814948 0 0.26912261064857063 -0.36520916057538172 0 0.28315079250682851 -0.36483432222168388 0 0.27650752314835159 -0.37242380700814948 0 0.26912261064857063 -0.36520916057538172 0 0.28315079250682851 -0.36483432222168388 0 0.27677450542604931 -0.35977721529462409 0 0.26912261064857063 -0.36520916057538172 0 0.28315079250682851 -0.36483432222168388 0 0.26912261064857063 -0.36520916057538172 0 0.2827860651949361 -0.35550971493476707 0 0.28315079250682851 -0.36483432222168388 0 0.27677450542604931 -0.35977721529462409 0 0.28315079250682851 -0.36483432222168388 0 0.27677450542604931 -0.35977721529462409 0 0.27677450542604931 -0.35977721529462409 0 0.26912261064857063 -0.36520916057538172 0 0.26912261064857063 -0.36520916057538172 0 0.27230410129141641 -0.3562316861442526 0 0.26912261064857063 -0.36520916057538172 0 0.27230410129141641 -0.3562316861442526 0 0.26477458269860332 -0.35861580565938722 0 0.27677450542604931 -0.35977721529462409 0 0.26912261064857063 -0.36520916057538172 0 0.27230410129141641 -0.3562316861442526 0 0.27230410129141641 -0.3562316861442526 0 0.27407200008733329 -0.3506404326338618 0 0.2582657724096622 -0.34509772537164629 0 0.27230410129141641 -0.3562316861442526 0 0.27407200008733329 -0.3506404326338618 0 0.2827860651949361 -0.35550971493476707 0 0.27407200008733329 -0.3506404326338618 0 0.27677450542604931 -0.35977721529462409 0 0.27230410129141641 -0.3562316861442526 0 0.27677450542604931 -0.35977721529462409 0 0.27230410129141641 -0.3562316861442526 0 0.27407200008733329 -0.3506404326338618 0 0.2827860651949361 -0.35550971493476707 0 0.27677450542604931 -0.35977721529462409 0 0.27407200008733329 -0.3506404326338618 0 0.2827860651949361 -0.35550971493476707 0 0.27677450542604931 -0.35977721529462409 0 0.27407200008733329 -0.3506404326338618 0 0.25914972180762208 -0.34230209861644878 0 0.27407200008733329 -0.3506404326338618 0 0.2582657724096622 -0.34509772537164629 0 0.25914972180762208 -0.34230209861644878 0 0.27230410129141641 -0.3562316861442526 0 0.2582657724096622 -0.34509772537164629 0 0.25559113330153221 -0.35582899282297931 0 0.2527930708408988 -0.36564549208861841 0 0.24653110725696439 -0.35395694817226542 0 0.2582657724096622 -0.34509772537164629 0 0.25559113330153221 -0.35582899282297931 0 0.24653110725696439 -0.35395694817226542 0 0.27230410129141641 -0.3562316861442526 0 0.2582657724096622 -0.34509772537164629 0 0.26477458269860332 -0.35861580565938722 0 0.2582657724096622 -0.34509772537164629 0 0.25559113330153221 -0.35582899282297931 0 0.26477458269860332 -0.35861580565938722 0 0.25115578665232452 -0.37796349236568272 0 0.26912261064857063 -0.36520916057538172 0 0.25115578665232452 -0.37796349236568272 0 0.26912261064857063 -0.36520916057538172 0 0.2527930708408988 -0.36564549208861841 0 0.26912261064857063 -0.36520916057538172 0 0.26477458269860332 -0.35861580565938722 0 0.2527930708408988 -0.36564549208861841 0 0.26912261064857063 -0.36520916057538172 0 0.2527930708408988 -0.36564549208861841 0 0.25559113330153221 -0.35582899282297931 0 0.26477458269860332 -0.35861580565938722 0 0.2527930708408988 -0.36564549208861841 0 0.28209499927075249 -0.32526645622080691 0 0.25981290572675259 -0.32359364722942918 0 0.27148764406703008 -0.3075882185044469 0 0.28209499927075249 -0.32526645622080691 0 0.27407200008733329 -0.3506404326338618 0 0.25914972180762208 -0.34230209861644878 0 0.28209499927075249 -0.32526645622080691 0 0.27407200008733329 -0.3506404326338618 0 0.28209499927075249 -0.32526645622080691 0 0.25914972180762208 -0.34230209861644878 0 0.25981290572675259 -0.32359364722942918 0 0.25914972180762208 -0.34230209861644878 0 0.25221666007275939 -0.32992895350932872 0 0.25981290572675259 -0.32359364722942918 0 0.25914972180762208 -0.34230209861644878 0 0.24422744352790901 -0.33396376459903893 0 0.2582657724096622 -0.34509772537164629 0 0.24422744352790901 -0.33396376459903893 0 0.2582657724096622 -0.34509772537164629 0 0.25914972180762208 -0.34230209861644878 0 0.24422744352790901 -0.33396376459903893 0 0.25914972180762208 -0.34230209861644878 0 0.25221666007275939 -0.32992895350932872 0 0.24422744352790901 -0.33396376459903893 0 0.25221666007275939 -0.32992895350932872 0 0.25981290572675259 -0.32359364722942918 0 0.24567656922875419 -0.31985630359239781 0 0.25981290572675259 -0.32359364722942918 0 0.25317879419931089 -0.30608837572475017 0 0.24567656922875419 -0.31985630359239781 0 0.25981290572675259 -0.32359364722942918 0 0.25317879419931089 -0.30608837572475017 0 0.27148764406703008 -0.3075882185044469 0 0.25317879419931089 -0.30608837572475017 0 0.26250585377423719 -0.29451794409265569 0 0.27148764406703008 -0.3075882185044469 0 0.25317879419931089 -0.30608837572475017 0 0.26250585377423719 -0.29451794409265569 0 0.24920394114701519 -0.29176941157256642 0 0.26250585377423719 -0.29451794409265569 0 0.26069639218555202 -0.27779262155115553 0 0.24920394114701519 -0.29176941157256642 0 0.26250585377423719 -0.29451794409265569 0 0.27835629657953592 -0.2911465767156281 0 0.26069639218555202 -0.27779262155115553 0 0.27835629657953592 -0.2911465767156281 0 0.28597440315283679 -0.27558233802251231 0 0.26069639218555202 -0.27779262155115553 0 0.27835629657953592 -0.2911465767156281 0 0.27148764406703008 -0.3075882185044469 0 0.2901179984541723 -0.29989247980775208 0 0.26250585377423719 -0.29451794409265569 0 0.27835629657953592 -0.2911465767156281 0 0.27148764406703008 -0.3075882185044469 0 0.28209499927075249 -0.32526645622080691 0 0.27148764406703008 -0.3075882185044469 0 0.2901179984541723 -0.29989247980775208 0 0.27835629657953592 -0.2911465767156281 0 0.2901179984541723 -0.29989247980775208 0 0.28597440315283679 -0.27558233802251231 0 0.2901179984541723 -0.29989247980775208 0 0.29814099763759089 -0.27451850339469691 0 0.2901179984541723 -0.29989247980775208 0 0.29814099763759089 -0.27451850339469691 0 0.28597440315283679 -0.27558233802251231 0 0.27835629657953592 -0.2911465767156281 0 0.28597440315283679 -0.27558233802251231 0 0.2901179984541723 -0.29989247980775208 0 0.30559033408401343 -0.28874793735438009 0 0.29814099763759089 -0.27451850339469691 0 0.32256635159124009 -0.28583300415670659 0 0.30559033408401343 -0.28874793735438009 0 0.30496503067570652 -0.27392181689738199 0 0.31747836327517381 -0.30709237417780988 0 0.2901179984541723 -0.29989247980775208 0 0.30559033408401343 -0.28874793735438009 0 0.31747836327517381 -0.30709237417780988 0 0.30032042833367489 -0.3225972478118172 0 0.2901179984541723 -0.29989247980775208 0 0.3049266797793117 -0.23686172492080279 0 0.30300397292774039 -0.25913859153275198 0 0.29246005145957049 -0.26233177801074281 0 0.31775675597918529 -0.26884248115985587 0 0.30300397292774039 -0.25913859153275198 0 0.3001069157044523 -0.26830098329802782 0 0.30300397292774039 -0.25913859153275198 0 0.29246005145957049 -0.26233177801074281 0 0.30300397292774039 -0.25913859153275198 0 0.3001069157044523 -0.26830098329802782 0 0.29246005145957049 -0.26233177801074281 0 0.30300397292774039 -0.25913859153275198 0 0.3001069157044523 -0.26830098329802782 0 0.32256635159124009 -0.28583300415670659 0 0.3001069157044523 -0.26830098329802782 0 0.32256635159124009 -0.28583300415670659 0 0.30496503067570652 -0.27392181689738199 0 0.3001069157044523 -0.26830098329802782 0 0.30559033408401343 -0.28874793735438009 0 0.30496503067570652 -0.27392181689738199 0 0.29814099763759089 -0.27451850339469691 0 0.30496503067570652 -0.27392181689738199 0 0.29814099763759089 -0.27451850339469691 0 0.30496503067570652 -0.27392181689738199 0 0.29814099763759089 -0.27451850339469691 0 0.3001069157044523 -0.26830098329802782 0 0.29814099763759089 -0.27451850339469691 0 0.3001069157044523 -0.26830098329802782 0 0.29596580089707392 -0.26939575516801662 0 0.29814099763759089 -0.27451850339469691 0 0.3001069157044523 -0.26830098329802782 0 0.29279379614943207 -0.2721496108654276 0 0.28597440315283679 -0.27558233802251231 0 0.29246005145957049 -0.26233177801074281 0 0.29279379614943207 -0.2721496108654276 0 0.29246005145957049 -0.26233177801074281 0 0.29596580089707392 -0.26939575516801662 0 0.29279379614943207 -0.2721496108654276 0 0.29246005145957049 -0.26233177801074281 0 0.28597440315283679 -0.27558233802251231 0 0.29246005145957049 -0.26233177801074281 0 0.3001069157044523 -0.26830098329802782 0 0.29596580089707392 -0.26939575516801662 0 0.29246005145957049 -0.26233177801074281 0 0.29814099763759089 -0.27451850339469691 0 0.29596580089707392 -0.26939575516801662 0 0.29279379614943207 -0.2721496108654276 0 0.29814099763759089 -0.27451850339469691 0 0.29279379614943207 -0.2721496108654276 0 0.28597440315283679 -0.27558233802251231 0 0.29814099763759089 -0.27451850339469691 0 0.28597440315283679 -0.27558233802251231 0 0.28597440315283679 -0.27558233802251231 0 0.28416336545644411 -0.26430631175543029 0 0.29246005145957049 -0.26233177801074281 0 0.27191663552360912 -0.24629541812559541 0 0.29246005145957049 -0.26233177801074281 0 0.27191663552360912 -0.24629541812559541 0 0.28416336545644411 -0.26430631175543029 0 0.29246005145957049 -0.26233177801074281 0 0.28416336545644411 -0.26430631175543029 0 0.29246005145957049 -0.26233177801074281 0 0.28681506764528031 -0.24909201677635021 0 0.27191663552360912 -0.24629541812559541 0 0.29246005145957049 -0.26233177801074281 0 0.3001069157044523 -0.26830098329802782 0 0.29246005145957049 -0.26233177801074281 0 0.27191663552360912 -0.24629541812559541 0 0.28416336545644411 -0.26430631175543029 0 0.2674985460806269 -0.26246865727244661 0 0.28597440315283679 -0.27558233802251231 0 0.2674985460806269 -0.26246865727244661 0 0.26069639218555202 -0.27779262155115553 0 0.28597440315283679 -0.27558233802251231 0 0.28416336545644411 -0.26430631175543029 0 0.2674985460806269 -0.26246865727244661 0 0.28597440315283679 -0.27558233802251231 0 0.26069639218555202 -0.27779262155115553 0 0.2674985460806269 -0.26246865727244661 0 0.26069639218555202 -0.27779262155115553 0 0.24795738451006311 -0.2577032562273871 0 0.27191663552360912 -0.24629541812559541 0 0.25560193416489979 -0.24659806198470721 0 0.2674985460806269 -0.26246865727244661 0 0.25560193416489979 -0.24659806198470721 0 0.2674985460806269 -0.26246865727244661 0 0.24795738451006311 -0.2577032562273871 0 0.24795738451006311 -0.2577032562273871 0 0.2354183812182673 -0.2800029050797998 0 0.23050685115701741 -0.25438840625252512 0 0.24795738451006311 -0.2577032562273871 0 0.23050685115701741 -0.25438840625252512 0 0.24184400614806209 -0.24158664041967859 0 0.26069639218555202 -0.27779262155115553 0 0.24795738451006311 -0.2577032562273871 0 0.2354183812182673 -0.2800029050797998 0 0.26069639218555202 -0.27779262155115553 0 0.2354183812182673 -0.2800029050797998 0 0.2354183812182673 -0.2800029050797998 0 0.23050685115701741 -0.25438840625252512 0 0.21465133578226589 -0.26660985652484942 0 0.2354183812182673 -0.2800029050797998 0 0.21014037025098259 -0.28221318860844419 0 0.2354183812182673 -0.2800029050797998 0 0.21465133578226589 -0.26660985652484942 0 0.21014037025098259 -0.28221318860844419 0 0.23050685115701741 -0.25438840625252512 0 0.21465133578226589 -0.26660985652484942 0 0.21408358472910211 -0.24829254544199941 0 0.21465133578226589 -0.26660985652484942 0 0.1973869591089423 -0.25854664610706002 0 0.21465133578226589 -0.26660985652484942 0 0.1973869591089423 -0.25854664610706002 0 0.21408358472910211 -0.24829254544199941 0 0.21465133578226589 -0.26660985652484942 0 0.19842603567765529 -0.27221335539718911 0 0.1973869591089423 -0.25854664610706002 0 0.21465133578226589 -0.26660985652484942 0 0.19842603567765529 -0.27221335539718911 0 0.21014037025098259 -0.28221318860844419 0 0.19842603567765529 -0.27221335539718911 0 0.21014037025098259 -0.28221318860844419 0 0.1848623592836979 -0.28442347213708857 0 0.19842603567765529 -0.27221335539718911 0 0.1850891539623877 -0.26927361360850333 0 0.1848623592836979 -0.28442347213708857 0 0.19842603567765529 -0.27221335539718911 0 0.1973869591089423 -0.25854664610706002 0 0.1850891539623877 -0.26927361360850333 0 0.1973869591089423 -0.25854664610706002 0 0.18277568077667611 -0.26065323206262281 0 0.1850891539623877 -0.26927361360850333 0 0.1973869591089423 -0.25854664610706002 0 0.1801225824356335 -0.2504834356892387 0 0.19266205305411269 -0.30480619050398289 0 0.21155602840812579 -0.30751054589238352 0 0.19645406228100101 -0.32517191260024048 0 0.21014037025098259 -0.28221318860844419 0 0.1848623592836979 -0.28442347213708857 0 0.19266205305411269 -0.30480619050398289 0 0.21014037025098259 -0.28221318860844419 0 0.1848623592836979 -0.28442347213708857 0 0.21014037025098259 -0.28221318860844419 0 0.21155602840812579 -0.30751054589238352 0 0.2225978722574867 -0.29369494789747791 0 0.19266205305411269 -0.30480619050398289 0 0.21014037025098259 -0.28221318860844419 0 0.21155602840812579 -0.30751054589238352 0 0.21155602840812579 -0.30751054589238352 0 0.2225978722574867 -0.29369494789747791 0 0.23500788297222361 -0.30403617862500898 0 0.21155602840812579 -0.30751054589238352 0 0.23500788297222361 -0.30403617862500898 0 0.22753843717236719 -0.32072752090781809 0 0.2354183812182673 -0.2800029050797998 0 0.2225978722574867 -0.29369494789747791 0 0.23500788297222361 -0.30403617862500898 0 0.2354183812182673 -0.2800029050797998 0 0.21014037025098259 -0.28221318860844419 0 0.2225978722574867 -0.29369494789747791 0 0.26069639218555202 -0.27779262155115553 0 0.2354183812182673 -0.2800029050797998 0 0.24920394114701519 -0.29176941157256642 0 0.2354183812182673 -0.2800029050797998 0 0.24920394114701519 -0.29176941157256642 0 0.23500788297222361 -0.30403617862500898 0 0.25317879419931089 -0.30608837572475017 0 0.24920394114701519 -0.29176941157256642 0 0.23500788297222361 -0.30403617862500898 0 0.25317879419931089 -0.30608837572475017 0 0.23500788297222361 -0.30403617862500898 0 0.24567656922875419 -0.31985630359239781 0 0.24422744352790901 -0.33396376459903893 0 0.22753843717236719 -0.32072752090781809 0 0.23500788297222361 -0.30403617862500898 0 0.24567656922875419 -0.31985630359239781 0 0.22753843717236719 -0.32072752090781809 0 0.24567656922875419 -0.31985630359239781 0 0.24422744352790901 -0.33396376459903893 0 0.22753843717236719 -0.32072752090781809 0 0.25221666007275939 -0.32992895350932872 0 0.24567656922875419 -0.31985630359239781 0 0.24422744352790901 -0.33396376459903893 0 0.24422744352790901 -0.33396376459903893 0 0.23644781367865281 -0.33456363280466339 0 0.22753843717236719 -0.32072752090781809 0 0.2582657724096622 -0.34509772537164629 0 0.24422744352790901 -0.33396376459903893 0 0.24103080411923489 -0.34104670446016838 0 0.24103080411923489 -0.34104670446016838 0 0.22848954044410549 -0.33672433466609292 0 0.23469191260959171 -0.34858371307035668 0 0.24103080411923489 -0.34104670446016838 0 0.23644781367865281 -0.33456363280466339 0 0.22848954044410549 -0.33672433466609292 0 0.24422744352790901 -0.33396376459903893 0 0.24103080411923489 -0.34104670446016838 0 0.24125213032388609 -0.33575525005569562 0 0.24103080411923489 -0.34104670446016838 0 0.24125213032388609 -0.33575525005569562 0 0.23644781367865281 -0.33456363280466339 0 0.24422744352790901 -0.33396376459903893 0 0.24125213032388609 -0.33575525005569562 0 0.23644781367865281 -0.33456363280466339 0 0.23644781367865281 -0.33456363280466339 0 0.22848954044410549 -0.33672433466609292 0 0.22753843717236719 -0.32072752090781809 0 0.22848954044410549 -0.33672433466609292 0 0.22753843717236719 -0.32072752090781809 0 0.21345826021617781 -0.33020770116962078 0 0.22848954044410549 -0.33672433466609292 0 0.23469191260959171 -0.34858371307035668 0 0.21924112461623951 -0.34579740799479669 0 0.22848954044410549 -0.33672433466609292 0 0.21924112461623951 -0.34579740799479669 0 0.21345826021617781 -0.33020770116962078 0 0.2527930708408988 -0.36564549208861841 0 0.23646353103322701 -0.36608182360185382 0 0.25115578665232452 -0.37796349236568272 0 0.23646353103322701 -0.36608182360185382 0 0.22915253402853111 -0.37722812801113559 0 0.25115578665232452 -0.37796349236568272 0 0.2527930708408988 -0.36564549208861841 0 0.23646353103322701 -0.36608182360185382 0 0.2527930708408988 -0.36564549208861841 0 0.23646353103322701 -0.36608182360185382 0 0.24653110725696439 -0.35395694817226542 0 0.23646353103322701 -0.36608182360185382 0 0.24653110725696439 -0.35395694817226542 0 0.23469191260959171 -0.34858371307035668 0 0.2582657724096622 -0.34509772537164629 0 0.24103080411923489 -0.34104670446016838 0 0.24653110725696439 -0.35395694817226542 0 0.24103080411923489 -0.34104670446016838 0 0.24653110725696439 -0.35395694817226542 0 0.23469191260959171 -0.34858371307035668 0 0.23646353103322701 -0.36608182360185382 0 0.23469191260959171 -0.34858371307035668 0 0.2250844905019507 -0.36033682260802458 0 0.23469191260959171 -0.34858371307035668 0 0.21924112461623951 -0.34579740799479669 0 0.2250844905019507 -0.36033682260802458 0 0.2250844905019507 -0.36033682260802458 0 0.21640275415038601 -0.37203716612244458 0 0.22915253402853111 -0.37722812801113559 0 0.23646353103322701 -0.36608182360185382 0 0.2250844905019507 -0.36033682260802458 0 0.22915253402853111 -0.37722812801113559 0 0.21640275415038601 -0.37203716612244458 0 0.2098296864284146 -0.35998371576340671 0 0.2028700589789284 -0.37734644456953442 0 0.2250844905019507 -0.36033682260802458 0 0.21640275415038601 -0.37203716612244458 0 0.2098296864284146 -0.35998371576340671 0 0.21924112461623951 -0.34579740799479669 0 0.2098296864284146 -0.35998371576340671 0 0.199583163714211 -0.34593997653876929 0 0.21924112461623951 -0.34579740799479669 0 0.2250844905019507 -0.36033682260802458 0 0.2098296864284146 -0.35998371576340671 0 0.2098296864284146 -0.35998371576340671 0 0.199583163714211 -0.34593997653876929 0 0.19274757263903741 -0.36693741739918989 0 0.199583163714211 -0.34593997653876929 0 0.19274757263903741 -0.36693741739918989 0 0.17746179699802139 -0.35521955296801982 0 0.2098296864284146 -0.35998371576340671 0 0.19274757263903741 -0.36693741739918989 0 0.2028700589789284 -0.37734644456953442 0 0.21155602840812579 -0.30751054589238352 0 0.22753843717236719 -0.32072752090781809 0 0.21345826021617781 -0.33020770116962078 0 0.21155602840812579 -0.30751054589238352 0 0.21345826021617781 -0.33020770116962078 0 0.19645406228100101 -0.32517191260024048 0 0.199583163714211 -0.34593997653876929 0 0.21345826021617781 -0.33020770116962078 0 0.19645406228100101 -0.32517191260024048 0 0.21924112461623951 -0.34579740799479669 0 0.199583163714211 -0.34593997653876929 0 0.21345826021617781 -0.33020770116962078 0 0.199583163714211 -0.34593997653876929 0 0.19645406228100101 -0.32517191260024048 0 0.18445028446509559 -0.33809079679600618 0 0.19266205305411269 -0.30480619050398289 0 0.19645406228100101 -0.32517191260024048 0 0.1797883204881898 -0.32285339486174902 0 0.1797883204881898 -0.32285339486174902 0 0.16324768849744919 -0.3227808509654494 0 0.17306146670005229 -0.3058330501087772 0 0.19645406228100101 -0.32517191260024048 0 0.1797883204881898 -0.32285339486174902 0 0.18445028446509559 -0.33809079679600618 0 0.1797883204881898 -0.32285339486174902 0 0.18445028446509559 -0.33809079679600618 0 0.16885436793142811 -0.3404375681960376 0 0.1797883204881898 -0.32285339486174902 0 0.16885436793142811 -0.3404375681960376 0 0.16324768849744919 -0.3227808509654494 0 0.16885436793142811 -0.3404375681960376 0 0.15528560304171321 -0.3520269373370522 0 0.14963388231334551 -0.33562261129414023 0 0.16885436793142811 -0.3404375681960376 0 0.16324768849744919 -0.3227808509654494 0 0.14963388231334551 -0.33562261129414023 0 0.19274757263903741 -0.36693741739918989 0 0.17776772707428939 -0.37295859546435373 0 0.17746179699802139 -0.35521955296801982 0 0.17776772707428939 -0.37295859546435373 0 0.17746179699802139 -0.35521955296801982 0 0.16206066441736611 -0.36984486451014609 0 0.19274757263903741 -0.36693741739918989 0 0.17776772707428939 -0.37295859546435373 0 0.18709570916170551 -0.3847079922289775 0 0.18445028446509559 -0.33809079679600618 0 0.16885436793142811 -0.3404375681960376 0 0.17746179699802139 -0.35521955296801982 0 0.199583163714211 -0.34593997653876929 0 0.18445028446509559 -0.33809079679600618 0 0.17746179699802139 -0.35521955296801982 0 0.17746179699802139 -0.35521955296801982 0 0.16206066441736611 -0.36984486451014609 0 0.15528560304171321 -0.3520269373370522 0 0.16885436793142811 -0.3404375681960376 0 0.17746179699802139 -0.35521955296801982 0 0.15528560304171321 -0.3520269373370522 0 0.16206066441736611 -0.36984486451014609 0 0.14055129243268141 -0.36322195099291671 0 0.14960579326138179 -0.37719803152356612 0 0.16206066441736611 -0.36984486451014609 0 0.15528560304171321 -0.3520269373370522 0 0.14055129243268141 -0.36322195099291671 0 0.14055129243268141 -0.36322195099291671 0 0.13926033336125199 -0.37393801936380722 0 0.14960579326138179 -0.37719803152356612 0 0.15528560304171321 -0.3520269373370522 0 0.13445354178098801 -0.34527937369667239 0 0.14963388231334551 -0.33562261129414023 0 0.15528560304171321 -0.3520269373370522 0 0.13445354178098801 -0.34527937369667239 0 0.14055129243268141 -0.36322195099291671 0 0.13445354178098801 -0.34527937369667239 0 0.14055129243268141 -0.36322195099291671 0 0.1181321029238226 -0.35356822277873512 0 0.14055129243268141 -0.36322195099291671 0 0.1256480546403197 -0.37055384632459398 0 0.1181321029238226 -0.35356822277873512 0 0.14055129243268141 -0.36322195099291671 0 0.1256480546403197 -0.37055384632459398 0 0.13926033336125199 -0.37393801936380722 0 0.16324768849744919 -0.3227808509654494 0 0.14629805971542939 -0.31943799718684601 0 0.15749257966504471 -0.30793476596495239 0 0.16324768849744919 -0.3227808509654494 0 0.14629805971542939 -0.31943799718684601 0 0.14963388231334551 -0.33562261129414023 0 0.14629805971542939 -0.31943799718684601 0 0.14963388231334551 -0.33562261129414023 0 0.13101876618517971 -0.32613136330619619 0 0.14629805971542939 -0.31943799718684601 0 0.13492223174042889 -0.31489253380056292 0 0.14144839697752171 -0.30525167267830849 0 0.13445354178098801 -0.34527937369667239 0 0.14963388231334551 -0.33562261129414023 0 0.13101876618517971 -0.32613136330619619 0 0.13101876618517971 -0.32613136330619619 0 0.13492223174042889 -0.31489253380056292 0 0.1240151358346419 -0.30928910480810351 0 0.14629805971542939 -0.31943799718684601 0 0.13101876618517971 -0.32613136330619619 0 0.13492223174042889 -0.31489253380056292 0 0.14144839697752171 -0.30525167267830849 0 0.13430633734912881 -0.28884403919437918 0 0.1240151358346419 -0.30928910480810351 0 0.13492223174042889 -0.31489253380056292 0 0.14144839697752171 -0.30525167267830849 0 0.1240151358346419 -0.30928910480810351 0 0.13430633734912881 -0.28884403919437918 0 0.11805144501733431 -0.30245378566273012 0 0.1240151358346419 -0.30928910480810351 0 0.14144839697752171 -0.30525167267830849 0 0.15749257966504471 -0.30793476596495239 0 0.1595843483164133 -0.28663375566573301 0 0.14629805971542939 -0.31943799718684601 0 0.14144839697752171 -0.30525167267830849 0 0.15749257966504471 -0.30793476596495239 0 0.13430633734912881 -0.28884403919437918 0 0.15413180157793949 -0.27224475718968533 0 0.1595843483164133 -0.28663375566573301 0 0.14144839697752171 -0.30525167267830849 0 0.13430633734912881 -0.28884403919437918 0 0.1595843483164133 -0.28663375566573301 0 0.13430633734912881 -0.28884403919437918 0 0.1595843483164133 -0.28663375566573301 0 0.13430633734912881 -0.28884403919437918 0 0.13199737506607639 -0.28904593250430177 0 0.11805144501733431 -0.30245378566273012 0 0.13430633734912881 -0.28884403919437918 0 0.13142298349018691 -0.28368229279904139 0 0.1329473729328168 -0.27780182512601892 0 0.13430633734912881 -0.28884403919437918 0 0.11805144501733431 -0.30245378566273012 0 0.13430633734912881 -0.28884403919437918 0 0.13199737506607639 -0.28904593250430177 0 0.13199737506607639 -0.28904593250430177 0 0.12591204424150201 -0.28300834675642689 0 0.11941913265543359 -0.28794811942699738 0 0.13142298349018691 -0.28368229279904139 0 0.12591204424150201 -0.28300834675642689 0 0.1329473729328168 -0.27780182512601892 0 0.13430633734912881 -0.28884403919437918 0 0.13142298349018691 -0.28368229279904139 0 0.13199737506607639 -0.28904593250430177 0 0.13142298349018691 -0.28368229279904139 0 0.13199737506607639 -0.28904593250430177 0 0.12591204424150201 -0.28300834675642689 0 0.1329473729328168 -0.27780182512601892 0 0.13329429922167049 -0.26300964849405811 0 0.15413180157793949 -0.27224475718968533 0 0.12591204424150201 -0.28300834675642689 0 0.1329473729328168 -0.27780182512601892 0 0.1189076714457971 -0.27655008690831551 0 0.13430633734912881 -0.28884403919437918 0 0.1329473729328168 -0.27780182512601892 0 0.15413180157793949 -0.27224475718968533 0 0.1329473729328168 -0.27780182512601892 0 0.13329429922167049 -0.26300964849405811 0 0.1189076714457971 -0.27655008690831551 0 0.13329429922167049 -0.26300964849405811 0 0.15188635566873859 -0.25315609994904509 0 0.13360438743528111 -0.24792201064071129 0 0.13329429922167049 -0.26300964849405811 0 0.12350480426882821 -0.25139481519201218 0 0.13360438743528111 -0.24792201064071129 0 0.13329429922167049 -0.26300964849405811 0 0.11858073150515711 -0.26044478572921442 0 0.12350480426882821 -0.25139481519201218 0 0.13329429922167049 -0.26300964849405811 0 0.15188635566873859 -0.25315609994904509 0 0.15413180157793949 -0.27224475718968533 0 0.13430633734912881 -0.28884403919437918 0 0.15413180157793949 -0.27224475718968533 0 0.15413180157793949 -0.27224475718968533 0 0.1707520364421766 -0.27417429830292062 0 0.1595843483164133 -0.28663375566573301 0 0.15413180157793949 -0.27224475718968533 0 0.1707520364421766 -0.27417429830292062 0 0.1749818601367138 -0.25798590964428031 0 0.15188635566873859 -0.25315609994904509 0 0.17395726580675031 -0.25564547518499148 0 0.16953207428116379 -0.24553721044775009 0 0.15413180157793949 -0.27224475718968533 0 0.17395726580675031 -0.25564547518499148 0 0.1749818601367138 -0.25798590964428031 0 0.15188635566873859 -0.25315609994904509 0 0.15413180157793949 -0.27224475718968533 0 0.17395726580675031 -0.25564547518499148 0 0.15413180157793949 -0.27224475718968533 0 0.17395726580675031 -0.25564547518499148 0 0.17395726580675031 -0.25564547518499148 0 0.16953207428116379 -0.24553721044775009 0 0.1973869591089423 -0.25854664610706002 0 0.18277568077667611 -0.26065323206262281 0 0.1801225824356335 -0.2504834356892387 0 0.17395726580675031 -0.25564547518499148 0 0.1801225824356335 -0.2504834356892387 0 0.16953207428116379 -0.24553721044775009 0 0.1749818601367138 -0.25798590964428031 0 0.18277568077667611 -0.26065323206262281 0 0.1801225824356335 -0.2504834356892387 0 0.17395726580675031 -0.25564547518499148 0 0.1801225824356335 -0.2504834356892387 0 0.17395726580675031 -0.25564547518499148 0 0.1749818601367138 -0.25798590964428031 0 0.17395726580675031 -0.25564547518499148 0 0.1749818601367138 -0.25798590964428031 0 0.1801225824356335 -0.2504834356892387 0 0.1749818601367138 -0.25798590964428031 0 0.17839968282948851 -0.26552176340458172 0 0.18277568077667611 -0.26065323206262281 0 0.17839968282948851 -0.26552176340458172 0 0.18277568077667611 -0.26065323206262281 0 0.1850891539623877 -0.26927361360850333 0 0.1707520364421766 -0.27417429830292062 0 0.1749818601367138 -0.25798590964428031 0 0.17839968282948851 -0.26552176340458172 0 0.1707520364421766 -0.27417429830292062 0 0.17839968282948851 -0.26552176340458172 0 0.1850891539623877 -0.26927361360850333 0 0.1707520364421766 -0.27417429830292062 0 0.1850891539623877 -0.26927361360850333 0 0.1848623592836979 -0.28442347213708857 0 0.1848623592836979 -0.28442347213708857 0 0.1595843483164133 -0.28663375566573301 0 0.1848623592836979 -0.28442347213708857 0 0.17306146670005229 -0.3058330501087772 0 0.1595843483164133 -0.28663375566573301 0 0.19266205305411269 -0.30480619050398289 0 0.1797883204881898 -0.32285339486174902 0 0.17306146670005229 -0.3058330501087772 0 0.19266205305411269 -0.30480619050398289 0 0.1848623592836979 -0.28442347213708857 0 0.17306146670005229 -0.3058330501087772 0 0.17306146670005229 -0.3058330501087772 0 0.15749257966504471 -0.30793476596495239 0 0.1595843483164133 -0.28663375566573301 0 0.16324768849744919 -0.3227808509654494 0 0.17306146670005229 -0.3058330501087772 0 0.15749257966504471 -0.30793476596495239 0 0.1707520364421766 -0.27417429830292062 0 0.1848623592836979 -0.28442347213708857 0 0.1595843483164133 -0.28663375566573301 0 0.19023576580517551 -0.5 0 0.19709406165010651 -0.48273854098192498 0 0.17585260685159279 -0.48171830434776491 0 0.19023576580517551 -0.5 0 0.19709406165010651 -0.48273854098192498 0 0.20583479378584801 -0.49027405609152552 0 0.19709406165010651 -0.48273854098192498 0 0.17959593672388591 -0.46078441397320308 0 0.19709406165010651 -0.48273854098192498 0 0.2024573169259502 -0.46814806396696002 0 0.17959593672388591 -0.46078441397320308 0 0.19709406165010651 -0.48273854098192498 0 0.20880600986560149 -0.48071653432368128 0 0.2024573169259502 -0.46814806396696002 0 0.20880600986560149 -0.48071653432368128 0 0.2214037069148162 -0.47259249762502381 0 0.2024573169259502 -0.46814806396696002 0 0.20880600986560149 -0.48071653432368128 0 0.21755551093954889 -0.48791520515202152 0 0.2214037069148162 -0.47259249762502381 0 0.19023576580517551 -0.5 0 0.20583479378584801 -0.49027405609152552 0 0.2154826206688075 -0.5 0 0.20880600986560149 -0.48071653432368128 0 0.21755551093954889 -0.48791520515202152 0 0.20583479378584801 -0.49027405609152552 0 0.19709406165010651 -0.48273854098192498 0 0.20880600986560149 -0.48071653432368128 0 0.20583479378584801 -0.49027405609152552 0 0.21755551093954889 -0.48791520515202152 0 0.20583479378584801 -0.49027405609152552 0 0.2154826206688075 -0.5 0 0.21755551093954889 -0.48791520515202152 0 0.2154826206688075 -0.5 0 0.2349298176717296 -0.49427107609091198 0 0.2154826206688075 -0.5 0 0.24072947553243959 -0.5 0 0.2349298176717296 -0.49427107609091198 0 0.21755551093954889 -0.48791520515202152 0 0.2349298176717296 -0.49427107609091198 0 0.2214037069148162 -0.47259249762502381 0 0.24072947553243959 -0.5 0 0.2349298176717296 -0.49427107609091198 0 0.2344385166264237 -0.47054708506271109 0 0.24072947553243959 -0.5 0 0.2344385166264237 -0.47054708506271109 0 0.24072947553243959 -0.5 0 0.24935057010302611 -0.48276027571872782 0 0.2344385166264237 -0.47054708506271109 0 0.24935057010302611 -0.48276027571872782 0 0.2344385166264237 -0.47054708506271109 0 0.2461584333127726 -0.46375128764461981 0 0.2349298176717296 -0.49427107609091198 0 0.2214037069148162 -0.47259249762502381 0 0.2349298176717296 -0.49427107609091198 0 0.2344385166264237 -0.47054708506271109 0 0.2214037069148162 -0.47259249762502381 0 0.2344385166264237 -0.47054708506271109 0 0.22173930507285031 -0.45523521842178438 0 0.22814755772040771 -0.44109417012542218 0 0.2344385166264237 -0.47054708506271109 0 0.2214037069148162 -0.47259249762502381 0 0.22173930507285031 -0.45523521842178438 0 0.2344385166264237 -0.47054708506271109 0 0.22814755772040771 -0.44109417012542218 0 0.2344385166264237 -0.47054708506271109 0 0.2461584333127726 -0.46375128764461981 0 0.24372663769304459 -0.44719712808524892 0 0.25920399556126728 -0.45337920835883072 0 0.2461584333127726 -0.46375128764461981 0 0.24372663769304459 -0.44719712808524892 0 0.2344385166264237 -0.47054708506271109 0 0.24372663769304459 -0.44719712808524892 0 0.22814755772040771 -0.44109417012542218 0 0.24372663769304459 -0.44719712808524892 0 0.22814755772040771 -0.44109417012542218 0 0.2429688921692805 -0.43048247432352033 0 0.22173930507285031 -0.45523521842178438 0 0.22814755772040771 -0.44109417012542218 0 0.21717085046169529 -0.44297227241781512 0 0.22814755772040771 -0.44109417012542218 0 0.21717085046169529 -0.44297227241781512 0 0.21866018878513421 -0.42985890750838462 0 0.21717085046169529 -0.44297227241781512 0 0.20942960457218149 -0.43775914687434919 0 0.2078775961579028 -0.45091391915913548 0 0.20942960457218149 -0.43775914687434919 0 0.2078775961579028 -0.45091391915913548 0 0.19435148540098801 -0.42923534069324798 0 0.22173930507285031 -0.45523521842178438 0 0.21717085046169529 -0.44297227241781512 0 0.2078775961579028 -0.45091391915913548 0 0.2214037069148162 -0.47259249762502381 0 0.2078775961579028 -0.45091391915913548 0 0.2024573169259502 -0.46814806396696002 0 0.2214037069148162 -0.47259249762502381 0 0.2078775961579028 -0.45091391915913548 0 0.2214037069148162 -0.47259249762502381 0 0.22173930507285031 -0.45523521842178438 0 0.2078775961579028 -0.45091391915913548 0 0.2024573169259502 -0.46814806396696002 0 0.18312919294120089 -0.44813363474178453 0 0.17959593672388591 -0.46078441397320308 0 0.2078775961579028 -0.45091391915913548 0 0.2024573169259502 -0.46814806396696002 0 0.18312919294120089 -0.44813363474178453 0 0.2024573169259502 -0.46814806396696002 0 0.18312919294120089 -0.44813363474178453 0 0.2078775961579028 -0.45091391915913548 0 0.19401956973545881 -0.43743456234398459 0 0.19435148540098801 -0.42923534069324798 0 0.2078775961579028 -0.45091391915913548 0 0.19435148540098801 -0.42923534069324798 0 0.2078775961579028 -0.45091391915913548 0 0.1928622033466029 -0.4428142749228694 0 0.18312919294120089 -0.44813363474178453 0 0.1885747486893484 -0.43935615370355457 0 0.1928622033466029 -0.4428142749228694 0 0.18312919294120089 -0.44813363474178453 0 0.1885747486893484 -0.43935615370355457 0 0.1928622033466029 -0.4428142749228694 0 0.19401956973545881 -0.43743456234398459 0 0.2078775961579028 -0.45091391915913548 0 0.1928622033466029 -0.4428142749228694 0 0.19401956973545881 -0.43743456234398459 0 0.19619314154933859 -0.42512346812574681 0 0.2030999581102598 -0.42449721577006849 0 0.19435148540098801 -0.42923534069324798 0 0.19619314154933859 -0.42512346812574681 0 0.2030999581102598 -0.42449721577006849 0 0.19839788000519501 -0.41867618667133022 0 0.19183594593225989 -0.43209275094175009 0 0.19401956973545881 -0.43743456234398459 0 0.19435148540098801 -0.42923534069324798 0 0.19183594593225989 -0.43209275094175009 0 0.19046893736050521 -0.42913574557795392 0 0.19435148540098801 -0.42923534069324798 0 0.19183594593225989 -0.43209275094175009 0 0.19401956973545881 -0.43743456234398459 0 0.1890301367030657 -0.43344784443510093 0 0.1885747486893484 -0.43935615370355457 0 0.19401956973545881 -0.43743456234398459 0 0.1890301367030657 -0.43344784443510093 0 0.19183594593225989 -0.43209275094175009 0 0.1890301367030657 -0.43344784443510093 0 0.19046893736050521 -0.42913574557795392 0 0.1890301367030657 -0.43344784443510093 0 0.19046893736050521 -0.42913574557795392 0 0.18584857825686341 -0.42963723883046417 0 0.18868516834307 -0.42595580291335899 0 0.19046893736050521 -0.42913574557795392 0 0.18584857825686341 -0.42963723883046417 0 0.18868516834307 -0.42595580291335899 0 0.1919637664892386 -0.42702026376132418 0 0.19211764937013981 -0.42453895309614242 0 0.18868516834307 -0.42595580291335899 0 0.19046893736050521 -0.42913574557795392 0 0.1919637664892386 -0.42702026376132418 0 0.19619314154933859 -0.42512346812574681 0 0.19441841530535439 -0.42659260010815542 0 0.19435148540098801 -0.42923534069324798 0 0.19046893736050521 -0.42913574557795392 0 0.1919637664892386 -0.42702026376132418 0 0.19435148540098801 -0.42923534069324798 0 0.19046893736050521 -0.42913574557795392 0 0.19435148540098801 -0.42923534069324798 0 0.1919637664892386 -0.42702026376132418 0 0.19441841530535439 -0.42659260010815542 0 0.19211764937013981 -0.42453895309614242 0 0.1919637664892386 -0.42702026376132418 0 0.19441841530535439 -0.42659260010815542 0 0.19435148540098801 -0.42923534069324798 0 0.19619314154933859 -0.42512346812574681 0 0.19211764937013981 -0.42453895309614242 0 0.19118210453773329 -0.42022330116428402 0 0.19619314154933859 -0.42512346812574681 0 0.19441841530535439 -0.42659260010815542 0 0.19211764937013981 -0.42453895309614242 0 0.18868516834307 -0.42595580291335899 0 0.19211764937013981 -0.42453895309614242 0 0.19118210453773329 -0.42022330116428402 0 0.18868516834307 -0.42595580291335899 0 0.19118210453773329 -0.42022330116428402 0 0.1847008502112997 -0.42345341252977869 0 0.19118210453773329 -0.42022330116428402 0 0.19169316311355539 -0.41147970159698699 0 0.19839788000519501 -0.41867618667133022 0 0.19118210453773329 -0.42022330116428402 0 0.19169316311355539 -0.41147970159698699 0 0.18550729574324351 -0.41660787713534392 0 0.19619314154933859 -0.42512346812574681 0 0.19118210453773329 -0.42022330116428402 0 0.19839788000519501 -0.41867618667133022 0 0.19169316311355539 -0.41147970159698699 0 0.19026626007510891 -0.4000851026195878 0 0.18246092782390991 -0.4088159324623627 0 0.19169316311355539 -0.41147970159698699 0 0.19839788000519501 -0.41867618667133022 0 0.20348746026673639 -0.40680154764868481 0 0.19839788000519501 -0.41867618667133022 0 0.20789709481064331 -0.419592175851633 0 0.20348746026673639 -0.40680154764868481 0 0.2030999581102598 -0.42449721577006849 0 0.19839788000519501 -0.41867618667133022 0 0.20789709481064331 -0.419592175851633 0 0.20789709481064331 -0.419592175851633 0 0.20348746026673639 -0.40680154764868481 0 0.21637677305784561 -0.41533807435277531 0 0.20348746026673639 -0.40680154764868481 0 0.21637677305784561 -0.41533807435277531 0 0.21522213865983339 -0.40347215594628649 0 0.20789709481064331 -0.419592175851633 0 0.21637677305784561 -0.41533807435277531 0 0.21866018878513421 -0.42985890750838462 0 0.19435148540098801 -0.42923534069324798 0 0.21866018878513421 -0.42985890750838462 0 0.20942960457218149 -0.43775914687434919 0 0.19435148540098801 -0.42923534069324798 0 0.21866018878513421 -0.42985890750838462 0 0.2030999581102598 -0.42449721577006849 0 0.19435148540098801 -0.42923534069324798 0 0.21866018878513421 -0.42985890750838462 0 0.2030999581102598 -0.42449721577006849 0 0.20789709481064331 -0.419592175851633 0 0.21866018878513421 -0.42985890750838462 0 0.21717085046169529 -0.44297227241781512 0 0.20942960457218149 -0.43775914687434919 0 0.21866018878513421 -0.42985890750838462 0 0.21866018878513421 -0.42985890750838462 0 0.2429688921692805 -0.43048247432352033 0 0.231906688608671 -0.41331777255237528 0 0.21866018878513421 -0.42985890750838462 0 0.2429688921692805 -0.43048247432352033 0 0.22814755772040771 -0.44109417012542218 0 0.21866018878513421 -0.42985890750838462 0 0.2429688921692805 -0.43048247432352033 0 0.25506301757475153 -0.41075928131917461 0 0.231906688608671 -0.41331777255237528 0 0.24671603634214531 -0.39614759421264722 0 0.25506301757475153 -0.41075928131917461 0 0.2429688921692805 -0.43048247432352033 0 0.231906688608671 -0.41331777255237528 0 0.21637677305784561 -0.41533807435277531 0 0.231906688608671 -0.41331777255237528 0 0.21522213865983339 -0.40347215594628649 0 0.21637677305784561 -0.41533807435277531 0 0.21866018878513421 -0.42985890750838462 0 0.231906688608671 -0.41331777255237528 0 0.23318896265607891 -0.39071782415598472 0 0.21330263007334241 -0.3892032324079831 0 0.21522213865983339 -0.40347215594628649 0 0.23318896265607891 -0.39071782415598472 0 0.21522213865983339 -0.40347215594628649 0 0.231906688608671 -0.41331777255237528 0 0.23318896265607891 -0.39071782415598472 0 0.21522213865983339 -0.40347215594628649 0 0.231906688608671 -0.41331777255237528 0 0.23318896265607891 -0.39071782415598472 0 0.24671603634214531 -0.39614759421264722 0 0.25115578665232452 -0.37796349236568272 0 0.23318896265607891 -0.39071782415598472 0 0.25115578665232452 -0.37796349236568272 0 0.23318896265607891 -0.39071782415598472 0 0.24671603634214531 -0.39614759421264722 0 0.25115578665232452 -0.37796349236568272 0 0.23318896265607891 -0.39071782415598472 0 0.22915253402853111 -0.37722812801113559 0 0.23318896265607891 -0.39071782415598472 0 0.22915253402853111 -0.37722812801113559 0 0.21330263007334241 -0.3892032324079831 0 0.21640275415038601 -0.37203716612244458 0 0.22915253402853111 -0.37722812801113559 0 0.21330263007334241 -0.3892032324079831 0 0.21640275415038601 -0.37203716612244458 0 0.21330263007334241 -0.3892032324079831 0 0.2028700589789284 -0.37734644456953442 0 0.21330263007334241 -0.3892032324079831 0 0.2028700589789284 -0.37734644456953442 0 0.19894220522946199 -0.3902351677057691 0 0.20348746026673639 -0.40680154764868481 0 0.21330263007334241 -0.3892032324079831 0 0.19894220522946199 -0.3902351677057691 0 0.20348746026673639 -0.40680154764868481 0 0.21330263007334241 -0.3892032324079831 0 0.21522213865983339 -0.40347215594628649 0 0.20348746026673639 -0.40680154764868481 0 0.19026626007510891 -0.4000851026195878 0 0.19894220522946199 -0.3902351677057691 0 0.19169316311355539 -0.41147970159698699 0 0.20348746026673639 -0.40680154764868481 0 0.19026626007510891 -0.4000851026195878 0 0.19026626007510891 -0.4000851026195878 0 0.19894220522946199 -0.3902351677057691 0 0.18709570916170551 -0.3847079922289775 0 0.2028700589789284 -0.37734644456953442 0 0.19894220522946199 -0.3902351677057691 0 0.18709570916170551 -0.3847079922289775 0 0.19274757263903741 -0.36693741739918989 0 0.2028700589789284 -0.37734644456953442 0 0.18709570916170551 -0.3847079922289775 0 0.18709570916170551 -0.3847079922289775 0 0.1779850173463654 -0.39732177138880648 0 0.1692785057637739 -0.38485563893497082 0 0.17776772707428939 -0.37295859546435373 0 0.18709570916170551 -0.3847079922289775 0 0.1692785057637739 -0.38485563893497082 0 0.19026626007510891 -0.4000851026195878 0 0.18709570916170551 -0.3847079922289775 0 0.1779850173463654 -0.39732177138880648 0 0.19026626007510891 -0.4000851026195878 0 0.1779850173463654 -0.39732177138880648 0 0.18246092782390991 -0.4088159324623627 0 0.1779850173463654 -0.39732177138880648 0 0.17228236212485651 -0.40855977946635808 0 0.18246092782390991 -0.4088159324623627 0 0.1779850173463654 -0.39732177138880648 0 0.16530169138509551 -0.39866219627094163 0 0.1692785057637739 -0.38485563893497082 0 0.16530169138509551 -0.39866219627094163 0 0.16288155228817691 -0.40754884496188082 0 0.17228236212485651 -0.40855977946635808 0 0.1779850173463654 -0.39732177138880648 0 0.16530169138509551 -0.39866219627094163 0 0.17228236212485651 -0.40855977946635808 0 0.16530169138509551 -0.39866219627094163 0 0.15427385365589291 -0.40177737362987781 0 0.16288155228817691 -0.40754884496188082 0 0.16530169138509551 -0.39866219627094163 0 0.1692785057637739 -0.38485563893497082 0 0.1552519836393037 -0.3891799263838398 0 0.16530169138509551 -0.39866219627094163 0 0.1552519836393037 -0.3891799263838398 0 0.15427385365589291 -0.40177737362987781 0 0.17776772707428939 -0.37295859546435373 0 0.16206066441736611 -0.36984486451014609 0 0.1692785057637739 -0.38485563893497082 0 0.1692785057637739 -0.38485563893497082 0 0.15904923677045629 -0.3802696153381307 0 0.1552519836393037 -0.3891799263838398 0 0.16206066441736611 -0.36984486451014609 0 0.15904923677045629 -0.3802696153381307 0 0.14960579326138179 -0.37719803152356612 0 0.16206066441736611 -0.36984486451014609 0 0.1692785057637739 -0.38485563893497082 0 0.15904923677045629 -0.3802696153381307 0 0.15904923677045629 -0.3802696153381307 0 0.14960579326138179 -0.37719803152356612 0 0.1552519836393037 -0.3891799263838398 0 0.14960579326138179 -0.37719803152356612 0 0.1552519836393037 -0.3891799263838398 0 0.1449481327267936 -0.38447910177888389 0 0.1449481327267936 -0.38447910177888389 0 0.13603884662093599 -0.38407155801566778 0 0.14339632561203641 -0.39279807962430041 0 0.1552519836393037 -0.3891799263838398 0 0.1449481327267936 -0.38447910177888389 0 0.14339632561203641 -0.39279807962430041 0 0.13926033336125199 -0.37393801936380722 0 0.14960579326138179 -0.37719803152356612 0 0.1449481327267936 -0.38447910177888389 0 0.1256480546403197 -0.37055384632459398 0 0.13926033336125199 -0.37393801936380722 0 0.13603884662093599 -0.38407155801566778 0 0.13603884662093599 -0.38407155801566778 0 0.1251448209869527 -0.38809034706625861 0 0.14339632561203641 -0.39279807962430041 0 0.1256480546403197 -0.37055384632459398 0 0.13603884662093599 -0.38407155801566778 0 0.1251448209869527 -0.38809034706625861 0 0.13926033336125199 -0.37393801936380722 0 0.1449481327267936 -0.38447910177888389 0 0.13603884662093599 -0.38407155801566778 0 0.13603884662093599 -0.38407155801566778 0 0.1251448209869527 -0.38809034706625861 0 0.1251448209869527 -0.38809034706625861 0 0.14339632561203641 -0.39279807962430041 0 0.14447294497170241 -0.40810477629143338 0 0.1251448209869527 -0.38809034706625861 0 0.12849426416985521 -0.40415357006555919 0 0.14447294497170241 -0.40810477629143338 0 0.1251448209869527 -0.38809034706625861 0 0.14447294497170241 -0.40810477629143338 0 0.14339632561203641 -0.39279807962430041 0 0.15427385365589291 -0.40177737362987781 0 0.14447294497170241 -0.40810477629143338 0 0.1552519836393037 -0.3891799263838398 0 0.14339632561203641 -0.39279807962430041 0 0.15427385365589291 -0.40177737362987781 0 0.1445996868714447 -0.41687615995575922 0 0.14447294497170241 -0.40810477629143338 0 0.16380106895645161 -0.42811920551660892 0 0.14447294497170241 -0.40810477629143338 0 0.16380106895645161 -0.42811920551660892 0 0.15847402775917679 -0.41244375785252801 0 0.14447294497170241 -0.40810477629143338 0 0.16380106895645161 -0.42811920551660892 0 0.15427385365589291 -0.40177737362987781 0 0.14447294497170241 -0.40810477629143338 0 0.15847402775917679 -0.41244375785252801 0 0.1445996868714447 -0.41687615995575922 0 0.14447294497170241 -0.40810477629143338 0 0.13460937436437029 -0.41495825145437909 0 0.12849426416985521 -0.40415357006555919 0 0.14447294497170241 -0.40810477629143338 0 0.13460937436437029 -0.41495825145437909 0 0.1445996868714447 -0.41687615995575922 0 0.13460937436437029 -0.41495825145437909 0 0.13812950759821691 -0.42362685951565637 0 0.13460937436437029 -0.41495825145437909 0 0.12890733534198759 -0.42768867267521332 0 0.12146095529411111 -0.4126086612511678 0 0.12849426416985521 -0.40415357006555919 0 0.13460937436437029 -0.41495825145437909 0 0.12146095529411111 -0.4126086612511678 0 0.12890733534198759 -0.42768867267521332 0 0.14440163381506499 -0.43498435397727397 0 0.13113581079950301 -0.44578124227434568 0 0.13460937436437029 -0.41495825145437909 0 0.12890733534198759 -0.42768867267521332 0 0.13812950759821691 -0.42362685951565637 0 0.12890733534198759 -0.42768867267521332 0 0.13812950759821691 -0.42362685951565637 0 0.14440163381506499 -0.43498435397727397 0 0.1445996868714447 -0.41687615995575922 0 0.14440163381506499 -0.43498435397727397 0 0.1620978117976653 -0.43883028696448118 0 0.1445996868714447 -0.41687615995575922 0 0.13812950759821691 -0.42362685951565637 0 0.14440163381506499 -0.43498435397727397 0 0.1445996868714447 -0.41687615995575922 0 0.1620978117976653 -0.43883028696448118 0 0.1445996868714447 -0.41687615995575922 0 0.16380106895645161 -0.42811920551660892 0 0.1620978117976653 -0.43883028696448118 0 0.16380106895645161 -0.42811920551660892 0 0.17696277620490891 -0.43314567006619342 0 0.1731160709178533 -0.42515699983609501 0 0.16380106895645161 -0.42811920551660892 0 0.1669407189236605 -0.41666858886283881 0 0.1731160709178533 -0.42515699983609501 0 0.16380106895645161 -0.42811920551660892 0 0.15847402775917679 -0.41244375785252801 0 0.1669407189236605 -0.41666858886283881 0 0.15847402775917679 -0.41244375785252801 0 0.16288155228817691 -0.40754884496188082 0 0.1669407189236605 -0.41666858886283881 0 0.15427385365589291 -0.40177737362987781 0 0.15847402775917679 -0.41244375785252801 0 0.16288155228817691 -0.40754884496188082 0 0.16288155228817691 -0.40754884496188082 0 0.1669407189236605 -0.41666858886283881 0 0.17228236212485651 -0.40855977946635808 0 0.1669407189236605 -0.41666858886283881 0 0.17749943302971941 -0.41906703792330691 0 0.17228236212485651 -0.40855977946635808 0 0.1669407189236605 -0.41666858886283881 0 0.17749943302971941 -0.41906703792330691 0 0.1731160709178533 -0.42515699983609501 0 0.17749943302971941 -0.41906703792330691 0 0.17228236212485651 -0.40855977946635808 0 0.18246092782390991 -0.4088159324623627 0 0.19169316311355539 -0.41147970159698699 0 0.18246092782390991 -0.4088159324623627 0 0.18550729574324351 -0.41660787713534392 0 0.17749943302971941 -0.41906703792330691 0 0.18550729574324351 -0.41660787713534392 0 0.1847008502112997 -0.42345341252977869 0 0.17749943302971941 -0.41906703792330691 0 0.18246092782390991 -0.4088159324623627 0 0.18550729574324351 -0.41660787713534392 0 0.19118210453773329 -0.42022330116428402 0 0.18550729574324351 -0.41660787713534392 0 0.1847008502112997 -0.42345341252977869 0 0.17749943302971941 -0.41906703792330691 0 0.1847008502112997 -0.42345341252977869 0 0.1803510347274089 -0.42816407422570291 0 0.16380106895645161 -0.42811920551660892 0 0.17696277620490891 -0.43314567006619342 0 0.18312919294120089 -0.44813363474178453 0 0.18868516834307 -0.42595580291335899 0 0.1847008502112997 -0.42345341252977869 0 0.18584857825686341 -0.42963723883046417 0 0.1847008502112997 -0.42345341252977869 0 0.1803510347274089 -0.42816407422570291 0 0.18584857825686341 -0.42963723883046417 0 0.1890301367030657 -0.43344784443510093 0 0.18584857825686341 -0.42963723883046417 0 0.18383264072041339 -0.43495045207403371 0 0.1885747486893484 -0.43935615370355457 0 0.1890301367030657 -0.43344784443510093 0 0.18383264072041339 -0.43495045207403371 0 0.1803510347274089 -0.42816407422570291 0 0.18383264072041339 -0.43495045207403371 0 0.17696277620490891 -0.43314567006619342 0 0.1803510347274089 -0.42816407422570291 0 0.18584857825686341 -0.42963723883046417 0 0.18383264072041339 -0.43495045207403371 0 0.1803510347274089 -0.42816407422570291 0 0.17696277620490891 -0.43314567006619342 0 0.1731160709178533 -0.42515699983609501 0 0.17749943302971941 -0.41906703792330691 0 0.1803510347274089 -0.42816407422570291 0 0.1731160709178533 -0.42515699983609501 0 0.16380106895645161 -0.42811920551660892 0 0.18312919294120089 -0.44813363474178453 0 0.18312919294120089 -0.44813363474178453 0 0.17959593672388591 -0.46078441397320308 0 0.1620978117976653 -0.43883028696448118 0 0.1885747486893484 -0.43935615370355457 0 0.18383264072041339 -0.43495045207403371 0 0.18312919294120089 -0.44813363474178453 0 0.18383264072041339 -0.43495045207403371 0 0.17696277620490891 -0.43314567006619342 0 0.18312919294120089 -0.44813363474178453 0 0.17959593672388591 -0.46078441397320308 0 0.16109772601211039 -0.45442263510608938 0 0.16708597985225401 -0.46934905455872378 0 0.16109772601211039 -0.45442263510608938 0 0.15623922323667561 -0.46599450611265908 0 0.16708597985225401 -0.46934905455872378 0 0.17959593672388591 -0.46078441397320308 0 0.1620978117976653 -0.43883028696448118 0 0.17959593672388591 -0.46078441397320308 0 0.16109772601211039 -0.45442263510608938 0 0.1620978117976653 -0.43883028696448118 0 0.16380106895645161 -0.42811920551660892 0 0.18312919294120089 -0.44813363474178453 0 0.1620978117976653 -0.43883028696448118 0 0.16109772601211039 -0.45442263510608938 0 0.1620978117976653 -0.43883028696448118 0 0.15211132848919259 -0.4421453806549957 0 0.14440163381506499 -0.43498435397727397 0 0.15211132848919259 -0.4421453806549957 0 0.14954116612642529 -0.45234900552443852 0 0.14440163381506499 -0.43498435397727397 0 0.14954116612642529 -0.45234900552443852 0 0.13113581079950301 -0.44578124227434568 0 0.14440163381506499 -0.43498435397727397 0 0.1620978117976653 -0.43883028696448118 0 0.15211132848919259 -0.4421453806549957 0 0.16109772601211039 -0.45442263510608938 0 0.15211132848919259 -0.4421453806549957 0 0.14954116612642529 -0.45234900552443852 0 0.12890733534198759 -0.42768867267521332 0 0.13113581079950301 -0.44578124227434568 0 0.11515502483114411 -0.44008917964212829 0 0.14954116612642529 -0.45234900552443852 0 0.13113581079950301 -0.44578124227434568 0 0.1301262976136969 -0.46465497148009233 0 0.13113581079950301 -0.44578124227434568 0 0.1301262976136969 -0.46465497148009233 0 0.11817820890471489 -0.45568859559386249 0 0.14954116612642529 -0.45234900552443852 0 0.15623922323667561 -0.46599450611265908 0 0.1446416111021685 -0.47617450276222001 0 0.14954116612642529 -0.45234900552443852 0 0.1301262976136969 -0.46465497148009233 0 0.1446416111021685 -0.47617450276222001 0 0.14954116612642529 -0.45234900552443852 0 0.1446416111021685 -0.47617450276222001 0 0.16109772601211039 -0.45442263510608938 0 0.14954116612642529 -0.45234900552443852 0 0.15623922323667561 -0.46599450611265908 0 0.15623922323667561 -0.46599450611265908 0 0.1446416111021685 -0.47617450276222001 0 0.15899981339729169 -0.48351100691575277 0 0.1301262976136969 -0.46465497148009233 0 0.1446416111021685 -0.47617450276222001 0 0.12492161197168369 -0.4876157403123495 0 0.1446416111021685 -0.47617450276222001 0 0.13974205607791149 -0.50000000000000133 0 0.12492161197168369 -0.4876157403123495 0 0.1446416111021685 -0.47617450276222001 0 0.13974205607791149 -0.50000000000000133 0 0.15899981339729169 -0.48351100691575277 0 0.13974205607791149 -0.50000000000000133 0 0.16498891094154339 -0.5 0 0.15899981339729169 -0.48351100691575277 0 0.1446416111021685 -0.47617450276222001 0 0.13974205607791149 -0.50000000000000133 0 0.16498891094154339 -0.5 0 0.15899981339729169 -0.48351100691575277 0 0.17585260685159279 -0.48171830434776491 0 0.15899981339729169 -0.48351100691575277 0 0.16708597985225401 -0.46934905455872378 0 0.17585260685159279 -0.48171830434776491 0 0.15623922323667561 -0.46599450611265908 0 0.15899981339729169 -0.48351100691575277 0 0.16708597985225401 -0.46934905455872378 0 0.17959593672388591 -0.46078441397320308 0 0.16708597985225401 -0.46934905455872378 0 0.17585260685159279 -0.48171830434776491 0 0.19709406165010651 -0.48273854098192498 0 0.17959593672388591 -0.46078441397320308 0 0.17585260685159279 -0.48171830434776491 0 0.19023576580517551 -0.5 0 0.16498891094154339 -0.5 0 0.17585260685159279 -0.48171830434776491 0 0.066783408435701963 -0.4768066887782626 0 0.080460279653000844 -0.49999999999999889 0 0.051022644180435561 -0.5 0 0.066783408435701963 -0.4768066887782626 0 0.081016921354838164 -0.48404253885125259 0 0.080460279653000844 -0.49999999999999889 0 0.066783408435701963 -0.4768066887782626 0 0.080460279653000844 -0.49999999999999889 0 0.066783408435701963 -0.4768066887782626 0 0.081016921354838164 -0.48404253885125259 0 0.085856891324660706 -0.46822377327437092 0 0.093091497640049245 -0.49449026701725313 0 0.085856891324660706 -0.46822377327437092 0 0.093091497640049245 -0.49449026701725313 0 0.099770940714702744 -0.47786185172841422 0 0.085856891324660706 -0.46822377327437092 0 0.081016921354838164 -0.48404253885125259 0 0.093091497640049245 -0.49449026701725313 0 0.085856891324660706 -0.46822377327437092 0 0.081016921354838164 -0.48404253885125259 0 0.093091497640049245 -0.49449026701725313 0 0.080460279653000844 -0.49999999999999889 0 0.093091497640049245 -0.49449026701725313 0 0.10703240766387589 -0.48729825948620692 0 0.099770940714702744 -0.47786185172841422 0 0.093091497640049245 -0.49449026701725313 0 0.080460279653000844 -0.49999999999999889 0 0.1101011678654561 -0.5 0 0.093091497640049245 -0.49449026701725313 0 0.10703240766387589 -0.48729825948620692 0 0.1101011678654561 -0.5 0 0.13974205607791149 -0.50000000000000133 0 0.1101011678654561 -0.5 0 0.12492161197168369 -0.4876157403123495 0 0.10703240766387589 -0.48729825948620692 0 0.1101011678654561 -0.5 0 0.12492161197168369 -0.4876157403123495 0 0.1301262976136969 -0.46465497148009233 0 0.12492161197168369 -0.4876157403123495 0 0.1132582615572026 -0.47172830530390858 0 0.10703240766387589 -0.48729825948620692 0 0.12492161197168369 -0.4876157403123495 0 0.1132582615572026 -0.47172830530390858 0 0.10703240766387589 -0.48729825948620692 0 0.1132582615572026 -0.47172830530390858 0 0.099770940714702744 -0.47786185172841422 0 0.099770940714702744 -0.47786185172841422 0 0.10121564972202771 -0.45618927926883768 0 0.085856891324660706 -0.46822377327437092 0 0.1132582615572026 -0.47172830530390858 0 0.099770940714702744 -0.47786185172841422 0 0.10121564972202771 -0.45618927926883768 0 0.1132582615572026 -0.47172830530390858 0 0.10121564972202771 -0.45618927926883768 0 0.11817820890471489 -0.45568859559386249 0 0.1301262976136969 -0.46465497148009233 0 0.1132582615572026 -0.47172830530390858 0 0.11817820890471489 -0.45568859559386249 0 0.10121564972202771 -0.45618927926883768 0 0.11817820890471489 -0.45568859559386249 0 0.11515502483114411 -0.44008917964212829 0 0.13113581079950301 -0.44578124227434568 0 0.11817820890471489 -0.45568859559386249 0 0.11515502483114411 -0.44008917964212829 0 0.10121564972202771 -0.45618927926883768 0 0.11515502483114411 -0.44008917964212829 0 0.098488937863877871 -0.43855136717482862 0 0.10121564972202771 -0.45618927926883768 0 0.098488937863877871 -0.43855136717482862 0 0.07862228500927218 -0.44195727953148872 0 0.07862228500927218 -0.44195727953148872 0 0.085856891324660706 -0.46822377327437092 0 0.07862228500927218 -0.44195727953148872 0 0.085856891324660706 -0.46822377327437092 0 0.070288225352003381 -0.45911071723103142 0 0.10121564972202771 -0.45618927926883768 0 0.07862228500927218 -0.44195727953148872 0 0.085856891324660706 -0.46822377327437092 0 0.066783408435701963 -0.4768066887782626 0 0.085856891324660706 -0.46822377327437092 0 0.070288225352003381 -0.45911071723103142 0 0.066783408435701963 -0.4768066887782626 0 0.070288225352003381 -0.45911071723103142 0 0.053106537218402597 -0.45361337755652659 0 0.07862228500927218 -0.44195727953148872 0 0.070288225352003381 -0.45911071723103142 0 0.060843673340640433 -0.4350447399584052 0 0.07862228500927218 -0.44195727953148872 0 0.071387678693883586 -0.41569078578860619 0 0.060843673340640433 -0.4350447399584052 0 0.07862228500927218 -0.44195727953148872 0 0.071387678693883586 -0.41569078578860619 0 0.076138077877882446 -0.4061688580987185 0 0.051634706323347317 -0.41520811361494819 0 0.071387678693883586 -0.41569078578860619 0 0.076138077877882446 -0.4061688580987185 0 0.051634706323347317 -0.41520811361494819 0 0.076138077877882446 -0.4061688580987185 0 0.060323500816315427 -0.40030792444341651 0 0.051634706323347317 -0.41520811361494819 0 0.071387678693883586 -0.41569078578860619 0 0.085653795360171772 -0.41619656609835098 0 0.076138077877882446 -0.4061688580987185 0 0.085653795360171772 -0.41619656609835098 0 0.10064144943241771 -0.39712960258248869 0 0.076138077877882446 -0.4061688580987185 0 0.098488937863877871 -0.43855136717482862 0 0.07862228500927218 -0.44195727953148872 0 0.095633568352765763 -0.4252002853346315 0 0.07862228500927218 -0.44195727953148872 0 0.071387678693883586 -0.41569078578860619 0 0.085653795360171772 -0.41619656609835098 0 0.07862228500927218 -0.44195727953148872 0 0.085653795360171772 -0.41619656609835098 0 0.095633568352765763 -0.4252002853346315 0 0.11515502483114411 -0.44008917964212829 0 0.098488937863877871 -0.43855136717482862 0 0.110817209638292 -0.42553288509957138 0 0.098488937863877871 -0.43855136717482862 0 0.095633568352765763 -0.4252002853346315 0 0.110817209638292 -0.42553288509957138 0 0.12890733534198759 -0.42768867267521332 0 0.11515502483114411 -0.44008917964212829 0 0.110817209638292 -0.42553288509957138 0 0.12890733534198759 -0.42768867267521332 0 0.110817209638292 -0.42553288509957138 0 0.12146095529411111 -0.4126086612511678 0 0.12146095529411111 -0.4126086612511678 0 0.1052113156892051 -0.41260267389563521 0 0.1162575114947364 -0.40261166882109722 0 0.110817209638292 -0.42553288509957138 0 0.12146095529411111 -0.4126086612511678 0 0.1052113156892051 -0.41260267389563521 0 0.12849426416985521 -0.40415357006555919 0 0.12146095529411111 -0.4126086612511678 0 0.1162575114947364 -0.40261166882109722 0 0.085653795360171772 -0.41619656609835098 0 0.095633568352765763 -0.4252002853346315 0 0.1052113156892051 -0.41260267389563521 0 0.085653795360171772 -0.41619656609835098 0 0.1052113156892051 -0.41260267389563521 0 0.10064144943241771 -0.39712960258248869 0 0.095633568352765763 -0.4252002853346315 0 0.110817209638292 -0.42553288509957138 0 0.1052113156892051 -0.41260267389563521 0 0.1052113156892051 -0.41260267389563521 0 0.10064144943241771 -0.39712960258248869 0 0.1162575114947364 -0.40261166882109722 0 0.1251448209869527 -0.38809034706625861 0 0.10064144943241771 -0.39712960258248869 0 0.1162575114947364 -0.40261166882109722 0 0.1251448209869527 -0.38809034706625861 0 0.12849426416985521 -0.40415357006555919 0 0.1162575114947364 -0.40261166882109722 0 0.1251448209869527 -0.38809034706625861 0 0.10064144943241771 -0.39712960258248869 0 0.1256480546403197 -0.37055384632459398 0 0.1251448209869527 -0.38809034706625861 0 0.10576654681299411 -0.36802398691320948 0 0.1251448209869527 -0.38809034706625861 0 0.10576654681299411 -0.36802398691320948 0 0.1251448209869527 -0.38809034706625861 0 0.10064144943241771 -0.39712960258248869 0 0.10576654681299411 -0.36802398691320948 0 0.10064144943241771 -0.39712960258248869 0 0.085437769283581808 -0.37747526753121807 0 0.10576654681299411 -0.36802398691320948 0 0.10064144943241771 -0.39712960258248869 0 0.085437769283581808 -0.37747526753121807 0 0.073709838639036643 -0.39018843917974749 0 0.10064144943241771 -0.39712960258248869 0 0.076138077877882446 -0.4061688580987185 0 0.073709838639036643 -0.39018843917974749 0 0.10064144943241771 -0.39712960258248869 0 0.076138077877882446 -0.4061688580987185 0 0.073709838639036643 -0.39018843917974749 0 0.055629770349768008 -0.38830665693485977 0 0.060323500816315427 -0.40030792444341651 0 0.076138077877882446 -0.4061688580987185 0 0.073709838639036643 -0.39018843917974749 0 0.060323500816315427 -0.40030792444341651 0 0.085437769283581808 -0.37747526753121807 0 0.073709838639036643 -0.39018843917974749 0 0.064088464074254489 -0.37174232548778408 0 0.073709838639036643 -0.39018843917974749 0 0.055629770349768008 -0.38830665693485977 0 0.064088464074254489 -0.37174232548778408 0 0.055629770349768008 -0.38830665693485977 0 0.064088464074254489 -0.37174232548778408 0 0.032395457780029953 -0.37417104136646001 0 0.060323500816315427 -0.40030792444341651 0 0.046923954998749018 -0.3997799307366911 0 0.051634706323347317 -0.41520811361494819 0 0.055629770349768008 -0.38830665693485977 0 0.060323500816315427 -0.40030792444341651 0 0.046923954998749018 -0.3997799307366911 0 0.046923954998749018 -0.3997799307366911 0 0.031997647747024592 -0.40277484292221871 0 0.032395457780029953 -0.37417104136646001 0 0.046923954998749018 -0.3997799307366911 0 0.031997647747024592 -0.40277484292221871 0 0.051634706323347317 -0.41520811361494819 0 0.055629770349768008 -0.38830665693485977 0 0.046923954998749018 -0.3997799307366911 0 0.032395457780029953 -0.37417104136646001 0 0.031997647747024592 -0.40277484292221871 0 0.01098146097070357 -0.39210035529239229 0 0.032395457780029953 -0.37417104136646001 0 0.0081934150469744164 -0.38588221288854552 0 0.032123250393177358 -0.37185336942929348 0 0.0081934150469744164 -0.38588221288854552 0 0.032395457780029953 -0.37417104136646001 0 0.032123250393177358 -0.37185336942929348 0 0.017455749637491792 -0.37635386851413238 0 0.0081934150469744164 -0.38588221288854552 0 0.032123250393177358 -0.37185336942929348 0 0.0081934150469744164 -0.38588221288854552 0 0.01098146097070357 -0.39210035529239229 0 0.032395457780029953 -0.37417104136646001 0 0.01098146097070357 -0.39210035529239229 0 0.032395457780029953 -0.37417104136646001 0 0.017455749637491792 -0.37635386851413238 0 0.01119089240455344 -0.3783889171665627 0 0.0081934150469744164 -0.38588221288854552 0 0.017455749637491792 -0.37635386851413238 0 0.01119089240455344 -0.3783889171665627 0 0.01333844084782039 -0.37374318849561011 0 0.0094726638497112329 -0.37500689344768823 0 0.01119089240455344 -0.3783889171665627 0 0.01333844084782039 -0.37374318849561011 0 0.0094726638497112329 -0.37500689344768823 0 0.01119089240455344 -0.3783889171665627 0 0.0070790726612925316 -0.37962056972841351 0 0.01119089240455344 -0.3783889171665627 0 0.0081934150469744164 -0.38588221288854552 0 0.0070790726612925316 -0.37962056972841351 0 -0.0039971830888542031 -0.38487249821840858 0 0.0081934150469744164 -0.38588221288854552 0 0.0031158053046095369 -0.38217675911513038 0 0.001028188193644269 -0.37902956558509743 0 0.0031158053046095369 -0.38217675911513038 0 0.0070790726612925316 -0.37962056972841351 0 -0.0039971830888542031 -0.38487249821840858 0 0.001028188193644269 -0.37902956558509743 0 0.0031158053046095369 -0.38217675911513038 0 0.001028188193644269 -0.37902956558509743 0 0.0056061310801953134 -0.37534275854514593 0 0.00313882802842756 -0.37205462437991083 0 0.001028188193644269 -0.37902956558509743 0 0.0056061310801953134 -0.37534275854514593 0 0.0070790726612925316 -0.37962056972841351 0 0.0094726638497112329 -0.37500689344768823 0 0.0056061310801953134 -0.37534275854514593 0 0.0070790726612925316 -0.37962056972841351 0 0.0081934150469744164 -0.38588221288854552 0 0.0031158053046095369 -0.38217675911513038 0 0.0070790726612925316 -0.37962056972841351 0 -0.01043253583862286 -0.41002966921832468 0 0.01098146097070357 -0.39210035529239229 0 -0.01043253583862286 -0.41002966921832468 0 0.01098146097070357 -0.39210035529239229 0 0.0094840433177520722 -0.41414073365895121 0 0.01098146097070357 -0.39210035529239229 0 0.020761578826625209 -0.40912337443417301 0 0.0094840433177520722 -0.41414073365895121 0 -0.0157364202992284 -0.39991105634779761 0 0.0081934150469744164 -0.38588221288854552 0 0.01098146097070357 -0.39210035529239229 0 0.031997647747024592 -0.40277484292221871 0 0.01098146097070357 -0.39210035529239229 0 0.020761578826625209 -0.40912337443417301 0 0.020761578826625209 -0.40912337443417301 0 0.0094840433177520722 -0.41414073365895121 0 0.02713133476881224 -0.424247369131178 0 0.031997647747024592 -0.40277484292221871 0 0.020761578826625209 -0.40912337443417301 0 0.02713133476881224 -0.424247369131178 0 -0.01043253583862286 -0.41002966921832468 0 0.0094840433177520722 -0.41414073365895121 0 0.0026279632142770931 -0.4332866246474078 0 0.0026279632142770931 -0.4332866246474078 0 0.02713133476881224 -0.424247369131178 0 0.0094840433177520722 -0.41414073365895121 0 0.0026279632142770931 -0.4332866246474078 0 0.02713133476881224 -0.424247369131178 0 0.0026279632142770931 -0.4332866246474078 0 0.02713133476881224 -0.424247369131178 0 0.027381949177890112 -0.43574224934021372 0 0.02713133476881224 -0.424247369131178 0 0.039429666001103147 -0.43042006633479052 0 0.051634706323347317 -0.41520811361494819 0 0.02713133476881224 -0.424247369131178 0 0.027381949177890112 -0.43574224934021372 0 0.039429666001103147 -0.43042006633479052 0 0.02713133476881224 -0.424247369131178 0 0.051634706323347317 -0.41520811361494819 0 0.031997647747024592 -0.40277484292221871 0 0.02713133476881224 -0.424247369131178 0 0.051634706323347317 -0.41520811361494819 0 0.071387678693883586 -0.41569078578860619 0 0.051634706323347317 -0.41520811361494819 0 0.060843673340640433 -0.4350447399584052 0 0.039429666001103147 -0.43042006633479052 0 0.051634706323347317 -0.41520811361494819 0 0.060843673340640433 -0.4350447399584052 0 0.039429666001103147 -0.43042006633479052 0 0.060843673340640433 -0.4350447399584052 0 0.053106537218402597 -0.45361337755652659 0 0.070288225352003381 -0.45911071723103142 0 0.060843673340640433 -0.4350447399584052 0 0.053106537218402597 -0.45361337755652659 0 0.066783408435701963 -0.4768066887782626 0 0.053106537218402597 -0.45361337755652659 0 0.034278239577329707 -0.45057735617619171 0 0.020842518324046079 -0.46296716697279899 0 0.040130227095970993 -0.47598517075540159 0 0.053106537218402597 -0.45361337755652659 0 0.034278239577329707 -0.45057735617619171 0 0.040130227095970993 -0.47598517075540159 0 0.027381949177890112 -0.43574224934021372 0 0.039429666001103147 -0.43042006633479052 0 0.034278239577329707 -0.45057735617619171 0 0.039429666001103147 -0.43042006633479052 0 0.053106537218402597 -0.45361337755652659 0 0.039429666001103147 -0.43042006633479052 0 0.053106537218402597 -0.45361337755652659 0 0.034278239577329707 -0.45057735617619171 0 0.027381949177890112 -0.43574224934021372 0 0.034278239577329707 -0.45057735617619171 0 0.022498538940943471 -0.44593512601476609 0 0.0026279632142770931 -0.4332866246474078 0 0.027381949177890112 -0.43574224934021372 0 0.022498538940943471 -0.44593512601476609 0 -0.004486613093427164 -0.45108458905496601 0 0.0026279632142770931 -0.4332866246474078 0 0.0082240972755627459 -0.45228350868415063 0 0.0026279632142770931 -0.4332866246474078 0 0.022498538940943471 -0.44593512601476609 0 0.0082240972755627459 -0.45228350868415063 0 -0.00036192100802574963 -0.46814403673081412 0 0.0082240972755627459 -0.45228350868415063 0 0.020842518324046079 -0.46296716697279899 0 -0.004486613093427164 -0.45108458905496601 0 -0.00036192100802574963 -0.46814403673081412 0 0.0082240972755627459 -0.45228350868415063 0 0.022498538940943471 -0.44593512601476609 0 0.0082240972755627459 -0.45228350868415063 0 0.020842518324046079 -0.46296716697279899 0 0.034278239577329707 -0.45057735617619171 0 0.022498538940943471 -0.44593512601476609 0 0.020842518324046079 -0.46296716697279899 0 0.020842518324046079 -0.46296716697279899 0 0.014246528018841759 -0.48020998688899941 0 0.040130227095970993 -0.47598517075540159 0 -0.00036192100802574963 -0.46814403673081412 0 0.020842518324046079 -0.46296716697279899 0 0.014246528018841759 -0.48020998688899941 0 -0.00036192100802574963 -0.46814403673081412 0 -0.003546631538578648 -0.48872452402083028 0 0.014246528018841759 -0.48020998688899941 0 -0.0078526267646957248 -0.5 0 -0.003546631538578648 -0.48872452402083028 0 0.021585008707869831 -0.5 0 -0.003546631538578648 -0.48872452402083028 0 0.014246528018841759 -0.48020998688899941 0 0.021585008707869831 -0.5 0 0.014246528018841759 -0.48020998688899941 0 0.021585008707869831 -0.5 0 0.040130227095970993 -0.47598517075540159 0 0.021585008707869831 -0.5 0 0.040130227095970993 -0.47598517075540159 0 0.051022644180435561 -0.5 0 0.066783408435701963 -0.4768066887782626 0 0.040130227095970993 -0.47598517075540159 0 0.051022644180435561 -0.5 0 0.066783408435701963 -0.4768066887782626 0 0.053106537218402597 -0.45361337755652659 0 0.040130227095970993 -0.47598517075540159 0 0.083831412504760977 -0.28137969295529353 0 0.092712832738444786 -0.30130934286757061 0 0.0754194353079089 -0.29235673389873318 0 0.083831412504760977 -0.28137969295529353 0 0.092712832738444786 -0.30130934286757061 0 0.10223026872786881 -0.28432025183165599 0 0.092712832738444786 -0.30130934286757061 0 0.0754194353079089 -0.29235673389873318 0 0.070101531121692762 -0.32086972222287319 0 0.0754194353079089 -0.29235673389873318 0 0.070101531121692762 -0.32086972222287319 0 0.055785663915822861 -0.3096653707036619 0 0.083831412504760977 -0.28137969295529353 0 0.0754194353079089 -0.29235673389873318 0 0.071080969541555045 -0.27061516815493492 0 0.0754194353079089 -0.29235673389873318 0 0.071080969541555045 -0.27061516815493492 0 0.0754194353079089 -0.29235673389873318 0 0.071080969541555045 -0.27061516815493492 0 0.059967260294257321 -0.27395746159764878 0 0.071080969541555045 -0.27061516815493492 0 0.061518479924558098 -0.26063341449936489 0 0.059967260294257321 -0.27395746159764878 0 0.071080969541555045 -0.27061516815493492 0 0.061518479924558098 -0.26063341449936489 0 0.06674250377520119 -0.24887360241113651 0 0.071080969541555045 -0.27061516815493492 0 0.06674250377520119 -0.24887360241113651 0 0.071080969541555045 -0.27061516815493492 0 0.06674250377520119 -0.24887360241113651 0 0.070587916148937904 -0.24805318416950739 0 0.071080969541555045 -0.27061516815493492 0 0.086409092438403112 -0.26618671800058191 0 0.070587916148937904 -0.24805318416950739 0 0.061518479924558098 -0.26063341449936489 0 0.064665278531761308 -0.2493167781530469 0 0.06674250377520119 -0.24887360241113651 0 0.086409092438403112 -0.26618671800058191 0 0.070587916148937904 -0.24805318416950739 0 0.093403234317505301 -0.24318553893543429 0 0.086409092438403112 -0.26618671800058191 0 0.070587916148937904 -0.24805318416950739 0 0.083831412504760977 -0.28137969295529353 0 0.086409092438403112 -0.26618671800058191 0 0.10223026872786881 -0.28432025183165599 0 0.083831412504760977 -0.28137969295529353 0 0.071080969541555045 -0.27061516815493492 0 0.086409092438403112 -0.26618671800058191 0 0.086409092438403112 -0.26618671800058191 0 0.1059412268821819 -0.2676819725910134 0 0.10223026872786881 -0.28432025183165599 0 0.086409092438403112 -0.26618671800058191 0 0.10223026872786881 -0.28432025183165599 0 0.1059412268821819 -0.2676819725910134 0 0.1189076714457971 -0.27655008690831551 0 0.10223026872786881 -0.28432025183165599 0 0.086409092438403112 -0.26618671800058191 0 0.10357837029368321 -0.25090802048529931 0 0.093403234317505301 -0.24318553893543429 0 0.1059412268821819 -0.2676819725910134 0 0.10357837029368321 -0.25090802048529931 0 0.11858073150515711 -0.26044478572921442 0 0.086409092438403112 -0.26618671800058191 0 0.1059412268821819 -0.2676819725910134 0 0.10357837029368321 -0.25090802048529931 0 0.10357837029368321 -0.25090802048529931 0 0.11858073150515711 -0.26044478572921442 0 0.1158260506959591 -0.24727973739471479 0 0.11858073150515711 -0.26044478572921442 0 0.12350480426882821 -0.25139481519201218 0 0.1158260506959591 -0.24727973739471479 0 0.1059412268821819 -0.2676819725910134 0 0.11858073150515711 -0.26044478572921442 0 0.1189076714457971 -0.27655008690831551 0 0.13329429922167049 -0.26300964849405811 0 0.11858073150515711 -0.26044478572921442 0 0.1189076714457971 -0.27655008690831551 0 0.1189076714457971 -0.27655008690831551 0 0.11941913265543359 -0.28794811942699738 0 0.10223026872786881 -0.28432025183165599 0 0.10223026872786881 -0.28432025183165599 0 0.11805144501733431 -0.30245378566273012 0 0.11941913265543359 -0.28794811942699738 0 0.10223026872786881 -0.28432025183165599 0 0.11805144501733431 -0.30245378566273012 0 0.12591204424150201 -0.28300834675642689 0 0.1189076714457971 -0.27655008690831551 0 0.11941913265543359 -0.28794811942699738 0 0.13199737506607639 -0.28904593250430177 0 0.11941913265543359 -0.28794811942699738 0 0.11805144501733431 -0.30245378566273012 0 0.092712832738444786 -0.30130934286757061 0 0.10223026872786881 -0.28432025183165599 0 0.11805144501733431 -0.30245378566273012 0 0.092712832738444786 -0.30130934286757061 0 0.11805144501733431 -0.30245378566273012 0 0.096637448208008847 -0.32038309958866318 0 0.11805144501733431 -0.30245378566273012 0 0.096637448208008847 -0.32038309958866318 0 0.11805144501733431 -0.30245378566273012 0 0.1240151358346419 -0.30928910480810351 0 0.1155672338856915 -0.31921171721549491 0 0.11805144501733431 -0.30245378566273012 0 0.1240151358346419 -0.30928910480810351 0 0.13101876618517971 -0.32613136330619619 0 0.1240151358346419 -0.30928910480810351 0 0.1155672338856915 -0.31921171721549491 0 0.11805144501733431 -0.30245378566273012 0 0.1155672338856915 -0.31921171721549491 0 0.096637448208008847 -0.32038309958866318 0 0.13101876618517971 -0.32613136330619619 0 0.1155672338856915 -0.31921171721549491 0 0.10811337418329189 -0.33780123271178047 0 0.13445354178098801 -0.34527937369667239 0 0.13101876618517971 -0.32613136330619619 0 0.10811337418329189 -0.33780123271178047 0 0.1155672338856915 -0.31921171721549491 0 0.10811337418329189 -0.33780123271178047 0 0.096637448208008847 -0.32038309958866318 0 0.10811337418329189 -0.33780123271178047 0 0.1181321029238226 -0.35356822277873512 0 0.086331524387192063 -0.35799143400201511 0 0.1181321029238226 -0.35356822277873512 0 0.10576654681299411 -0.36802398691320948 0 0.086331524387192063 -0.35799143400201511 0 0.1256480546403197 -0.37055384632459398 0 0.1181321029238226 -0.35356822277873512 0 0.10576654681299411 -0.36802398691320948 0 0.13445354178098801 -0.34527937369667239 0 0.10811337418329189 -0.33780123271178047 0 0.1181321029238226 -0.35356822277873512 0 0.086331524387192063 -0.35799143400201511 0 0.075223451398682584 -0.33831241351459551 0 0.053809454589356209 -0.35624172744052768 0 0.10811337418329189 -0.33780123271178047 0 0.086331524387192063 -0.35799143400201511 0 0.075223451398682584 -0.33831241351459551 0 0.086331524387192063 -0.35799143400201511 0 0.064088464074254489 -0.37174232548778408 0 0.053809454589356209 -0.35624172744052768 0 0.085437769283581808 -0.37747526753121807 0 0.10576654681299411 -0.36802398691320948 0 0.086331524387192063 -0.35799143400201511 0 0.085437769283581808 -0.37747526753121807 0 0.086331524387192063 -0.35799143400201511 0 0.064088464074254489 -0.37174232548778408 0 0.062614463356984396 -0.33743551115998149 0 0.075223451398682584 -0.33831241351459551 0 0.053809454589356209 -0.35624172744052768 0 0.075223451398682584 -0.33831241351459551 0 0.053809454589356209 -0.35624172744052768 0 0.10811337418329189 -0.33780123271178047 0 0.096637448208008847 -0.32038309958866318 0 0.075223451398682584 -0.33831241351459551 0 0.096637448208008847 -0.32038309958866318 0 0.075223451398682584 -0.33831241351459551 0 0.070101531121692762 -0.32086972222287319 0 0.092712832738444786 -0.30130934286757061 0 0.096637448208008847 -0.32038309958866318 0 0.070101531121692762 -0.32086972222287319 0 0.096637448208008847 -0.32038309958866318 0 0.075223451398682584 -0.33831241351459551 0 0.062614463356984396 -0.33743551115998149 0 0.075223451398682584 -0.33831241351459551 0 0.070101531121692762 -0.32086972222287319 0 0.062614463356984396 -0.33743551115998149 0 0.070101531121692762 -0.32086972222287319 0 0.055785663915822861 -0.3096653707036619 0 0.062614463356984396 -0.33743551115998149 0 0.042950232167289132 -0.32973938267464009 0 0.055785663915822861 -0.3096653707036619 0 0.062614463356984396 -0.33743551115998149 0 0.055785663915822861 -0.3096653707036619 0 0.062614463356984396 -0.33743551115998149 0 0.049487684352077711 -0.3427539425431666 0 0.042950232167289132 -0.32973938267464009 0 0.049487684352077711 -0.3427539425431666 0 0.042950232167289132 -0.32973938267464009 0 0.029649009753598049 -0.34580275792085158 0 0.042950232167289132 -0.32973938267464009 0 0.029649009753598049 -0.34580275792085158 0 0.024128431233370839 -0.32830943813655222 0 0.042950232167289132 -0.32973938267464009 0 0.024128431233370839 -0.32830943813655222 0 0.033131070970212548 -0.31229792761690778 0 0.042950232167289132 -0.32973938267464009 0 0.033131070970212548 -0.31229792761690778 0 0.055785663915822861 -0.3096653707036619 0 0.064088464074254489 -0.37174232548778408 0 0.053809454589356209 -0.35624172744052768 0 0.032395457780029953 -0.37417104136646001 0 0.062614463356984396 -0.33743551115998149 0 0.049487684352077711 -0.3427539425431666 0 0.053809454589356209 -0.35624172744052768 0 0.049487684352077711 -0.3427539425431666 0 0.053809454589356209 -0.35624172744052768 0 0.038744442686643697 -0.35528877047631569 0 0.049487684352077711 -0.3427539425431666 0 0.038744442686643697 -0.35528877047631569 0 0.029649009753598049 -0.34580275792085158 0 0.038744442686643697 -0.35528877047631569 0 0.02865281434500919 -0.3597920550477392 0 0.029649009753598049 -0.34580275792085158 0 0.038744442686643697 -0.35528877047631569 0 0.032123250393177358 -0.37185336942929348 0 0.02865281434500919 -0.3597920550477392 0 0.053809454589356209 -0.35624172744052768 0 0.032395457780029953 -0.37417104136646001 0 0.053809454589356209 -0.35624172744052768 0 0.032395457780029953 -0.37417104136646001 0 0.032123250393177358 -0.37185336942929348 0 0.053809454589356209 -0.35624172744052768 0 0.038744442686643697 -0.35528877047631569 0 0.032123250393177358 -0.37185336942929348 0 0.017455749637491792 -0.37635386851413238 0 0.016964449601726859 -0.37232433089403311 0 0.019752403385946839 -0.37282758759478701 0 0.017455749637491792 -0.37635386851413238 0 0.016964449601726859 -0.37232433089403311 0 0.01333844084782039 -0.37374318849561011 0 0.016964449601726859 -0.37232433089403311 0 0.02068240255110998 -0.36987905461259413 0 0.019752403385946839 -0.37282758759478701 0 0.01724571070008038 -0.36870429004963928 0 0.02068240255110998 -0.36987905461259413 0 0.019501372776815209 -0.36565210159485068 0 0.016964449601726859 -0.37232433089403311 0 0.01724571070008038 -0.36870429004963928 0 0.01428481235490219 -0.3699132486521054 0 0.01724571070008038 -0.36870429004963928 0 0.01551626648590592 -0.36591408958949118 0 0.01428481235490219 -0.3699132486521054 0 0.016964449601726859 -0.37232433089403311 0 0.01724571070008038 -0.36870429004963928 0 0.02068240255110998 -0.36987905461259413 0 0.02068240255110998 -0.36987905461259413 0 0.022964747544339019 -0.36690916112587563 0 0.019501372776815209 -0.36565210159485068 0 0.02068240255110998 -0.36987905461259413 0 0.024586464281452891 -0.36889325728345612 0 0.022964747544339019 -0.36690916112587563 0 0.02068240255110998 -0.36987905461259413 0 0.024147973879581491 -0.37254703825302249 0 0.024586464281452891 -0.36889325728345612 0 0.017455749637491792 -0.37635386851413238 0 0.019752403385946839 -0.37282758759478701 0 0.024147973879581491 -0.37254703825302249 0 0.02068240255110998 -0.36987905461259413 0 0.019752403385946839 -0.37282758759478701 0 0.024147973879581491 -0.37254703825302249 0 0.017455749637491792 -0.37635386851413238 0 0.032123250393177358 -0.37185336942929348 0 0.024147973879581491 -0.37254703825302249 0 0.032123250393177358 -0.37185336942929348 0 0.024147973879581491 -0.37254703825302249 0 0.026967813150886269 -0.36990186561984417 0 0.032123250393177358 -0.37185336942929348 0 0.026967813150886269 -0.36990186561984417 0 0.027013564049333329 -0.36631379751360499 0 0.026967813150886269 -0.36990186561984417 0 0.024586464281452891 -0.36889325728345612 0 0.027013564049333329 -0.36631379751360499 0 0.024586464281452891 -0.36889325728345612 0 0.027013564049333329 -0.36631379751360499 0 0.022964747544339019 -0.36690916112587563 0 0.024147973879581491 -0.37254703825302249 0 0.026967813150886269 -0.36990186561984417 0 0.024586464281452891 -0.36889325728345612 0 0.032123250393177358 -0.37185336942929348 0 0.027013564049333329 -0.36631379751360499 0 0.02865281434500919 -0.3597920550477392 0 0.027013564049333329 -0.36631379751360499 0 0.023039934062983661 -0.36380759462487222 0 0.022964747544339019 -0.36690916112587563 0 0.027013564049333329 -0.36631379751360499 0 0.02865281434500919 -0.3597920550477392 0 0.023039934062983661 -0.36380759462487222 0 0.02865281434500919 -0.3597920550477392 0 0.023039934062983661 -0.36380759462487222 0 0.017874291633733511 -0.36022264255491621 0 0.023039934062983661 -0.36380759462487222 0 0.019501372776815209 -0.36565210159485068 0 0.017874291633733511 -0.36022264255491621 0 0.023039934062983661 -0.36380759462487222 0 0.022964747544339019 -0.36690916112587563 0 0.019501372776815209 -0.36565210159485068 0 0.019501372776815209 -0.36565210159485068 0 0.017874291633733511 -0.36022264255491621 0 0.01551626648590592 -0.36591408958949118 0 0.01724571070008038 -0.36870429004963928 0 0.019501372776815209 -0.36565210159485068 0 0.01551626648590592 -0.36591408958949118 0 0.029649009753598049 -0.34580275792085158 0 0.01114283036565398 -0.34816784548211488 0 0.01462173927096593 -0.33977616800948912 0 0.017874291633733511 -0.36022264255491621 0 0.029649009753598049 -0.34580275792085158 0 0.0070829174492904861 -0.35913110990713598 0 0.029649009753598049 -0.34580275792085158 0 0.01114283036565398 -0.34816784548211488 0 0.0070829174492904861 -0.35913110990713598 0 0.029649009753598049 -0.34580275792085158 0 0.0070829174492904861 -0.35913110990713598 0 0.02865281434500919 -0.3597920550477392 0 0.017874291633733511 -0.36022264255491621 0 0.029649009753598049 -0.34580275792085158 0 0.01114283036565398 -0.34816784548211488 0 0.0018820081491096379 -0.35215421146137971 0 0.0024151645633119778 -0.34330519641580892 0 -0.003767562224240786 -0.36135824039844699 0 0.0003366517691050342 -0.35702385607026987 0 0.0070829174492904861 -0.35913110990713598 0 0.01114283036565398 -0.34816784548211488 0 0.0018820081491096379 -0.35215421146137971 0 0.0070829174492904861 -0.35913110990713598 0 0.0018820081491096379 -0.35215421146137971 0 0.0003366517691050342 -0.35702385607026987 0 0.0070829174492904861 -0.35913110990713598 0 0.017874291633733511 -0.36022264255491621 0 0.0070829174492904861 -0.35913110990713598 0 0.010169099336607781 -0.36213720754745787 0 0.017874291633733511 -0.36022264255491621 0 0.012471079384208829 -0.36395488440148838 0 0.010169099336607781 -0.36213720754745787 0 0.017874291633733511 -0.36022264255491621 0 0.01551626648590592 -0.36591408958949118 0 0.012471079384208829 -0.36395488440148838 0 0.01551626648590592 -0.36591408958949118 0 0.01184403062962491 -0.36692091348220318 0 0.012471079384208829 -0.36395488440148838 0 0.01184403062962491 -0.36692091348220318 0 0.012471079384208829 -0.36395488440148838 0 0.0083360616963930774 -0.36614141755064622 0 0.0083360616963930774 -0.36614141755064622 0 0.010169099336607781 -0.36213720754745787 0 0.0056186006951306896 -0.36266545781509602 0 0.012471079384208829 -0.36395488440148838 0 0.0083360616963930774 -0.36614141755064622 0 0.010169099336607781 -0.36213720754745787 0 0.01184403062962491 -0.36692091348220318 0 0.0083360616963930774 -0.36614141755064622 0 0.0093037628248603468 -0.36825722422132923 0 0.0070829174492904861 -0.35913110990713598 0 0.010169099336607781 -0.36213720754745787 0 0.0056186006951306896 -0.36266545781509602 0 -0.003064502032246555 -0.36850324202368318 0 0.0070829174492904861 -0.35913110990713598 0 0.0056186006951306896 -0.36266545781509602 0 0.0083360616963930774 -0.36614141755064622 0 0.0056186006951306896 -0.36266545781509602 0 0.00313882802842756 -0.37205462437991083 0 0.0083360616963930774 -0.36614141755064622 0 0.0073119026679009684 -0.37100213958461931 0 0.00313882802842756 -0.37205462437991083 0 0.0056061310801953134 -0.37534275854514593 0 0.0073119026679009684 -0.37100213958461931 0 0.00313882802842756 -0.37205462437991083 0 0.0094726638497112329 -0.37500689344768823 0 0.0056061310801953134 -0.37534275854514593 0 0.0073119026679009684 -0.37100213958461931 0 0.0094726638497112329 -0.37500689344768823 0 0.0073119026679009684 -0.37100213958461931 0 0.010848962750167611 -0.37081086921632611 0 0.0094726638497112329 -0.37500689344768823 0 0.010848962750167611 -0.37081086921632611 0 0.01333844084782039 -0.37374318849561011 0 0.0083360616963930774 -0.36614141755064622 0 0.0073119026679009684 -0.37100213958461931 0 0.0093037628248603468 -0.36825722422132923 0 0.0073119026679009684 -0.37100213958461931 0 0.0093037628248603468 -0.36825722422132923 0 0.010848962750167611 -0.37081086921632611 0 0.01184403062962491 -0.36692091348220318 0 0.0093037628248603468 -0.36825722422132923 0 0.010848962750167611 -0.37081086921632611 0 0.01184403062962491 -0.36692091348220318 0 0.010848962750167611 -0.37081086921632611 0 0.01428481235490219 -0.3699132486521054 0 0.01551626648590592 -0.36591408958949118 0 0.01184403062962491 -0.36692091348220318 0 0.01428481235490219 -0.3699132486521054 0 0.016964449601726859 -0.37232433089403311 0 0.01428481235490219 -0.3699132486521054 0 0.01333844084782039 -0.37374318849561011 0 0.010848962750167611 -0.37081086921632611 0 0.01428481235490219 -0.3699132486521054 0 0.01333844084782039 -0.37374318849561011 0 0.01955142347957374 -0.3134779274594503 0 0.024128431233370839 -0.32830943813655222 0 0.033131070970212548 -0.31229792761690778 0 0.01955142347957374 -0.3134779274594503 0 0.024128431233370839 -0.32830943813655222 0 0.0094858121179082541 -0.31958908770314293 0 0.029649009753598049 -0.34580275792085158 0 0.024128431233370839 -0.32830943813655222 0 0.01462173927096593 -0.33977616800948912 0 0.024128431233370839 -0.32830943813655222 0 0.01462173927096593 -0.33977616800948912 0 0.0074847136339209579 -0.3318227770583429 0 0.01462173927096593 -0.33977616800948912 0 0.0024151645633119778 -0.34330519641580892 0 0.0074847136339209579 -0.3318227770583429 0 0.01114283036565398 -0.34816784548211488 0 0.01462173927096593 -0.33977616800948912 0 0.0024151645633119778 -0.34330519641580892 0 -0.0048247292914743766 -0.33511999492224048 0 0.0024151645633119778 -0.34330519641580892 0 0.0074847136339209579 -0.3318227770583429 0 0.024128431233370839 -0.32830943813655222 0 0.0074847136339209579 -0.3318227770583429 0 0.0094858121179082541 -0.31958908770314293 0 -0.0029681218629519289 -0.32401569713955758 0 0.0074847136339209579 -0.3318227770583429 0 0.0094858121179082541 -0.31958908770314293 0 0.01955142347957374 -0.3134779274594503 0 0.0094858121179082541 -0.31958908770314293 0 0.010386326030255169 -0.30795569284622409 0 -0.0013654571246994251 -0.31111872375839289 0 -0.0029681218629519289 -0.32401569713955758 0 0.0094858121179082541 -0.31958908770314293 0 -0.0013654571246994251 -0.31111872375839289 0 0.0094858121179082541 -0.31958908770314293 0 0.010386326030255169 -0.30795569284622409 0 -0.0013654571246994251 -0.31111872375839289 0 0.010386326030255169 -0.30795569284622409 0 0.0026705155070595862 -0.29676827545427142 0 0.010386326030255169 -0.30795569284622409 0 0.0026705155070595862 -0.29676827545427142 0 0.018003087787931998 -0.29629803975430918 0 0.0026705155070595862 -0.29676827545427142 0 0.018003087787931998 -0.29629803975430918 0 0.0034228775624346531 -0.27956024016697489 0 0.018003087787931998 -0.29629803975430918 0 0.020180409575136071 -0.27603935116750927 0 0.0034228775624346531 -0.27956024016697489 0 0.018003087787931998 -0.29629803975430918 0 0.035260730151426202 -0.29349733677869838 0 0.020180409575136071 -0.27603935116750927 0 0.018003087787931998 -0.29629803975430918 0 0.033131070970212548 -0.31229792761690778 0 0.035260730151426202 -0.29349733677869838 0 0.01955142347957374 -0.3134779274594503 0 0.018003087787931998 -0.29629803975430918 0 0.033131070970212548 -0.31229792761690778 0 0.01955142347957374 -0.3134779274594503 0 0.010386326030255169 -0.30795569284622409 0 0.018003087787931998 -0.29629803975430918 0 0.033131070970212548 -0.31229792761690778 0 0.035260730151426202 -0.29349733677869838 0 0.055785663915822861 -0.3096653707036619 0 0.035260730151426202 -0.29349733677869838 0 0.048956864474661327 -0.2818952302473422 0 0.055785663915822861 -0.3096653707036619 0 0.035260730151426202 -0.29349733677869838 0 0.048956864474661327 -0.2818952302473422 0 0.034257029196002868 -0.27282106197292599 0 0.0754194353079089 -0.29235673389873318 0 0.048956864474661327 -0.2818952302473422 0 0.059967260294257321 -0.27395746159764878 0 0.0754194353079089 -0.29235673389873318 0 0.048956864474661327 -0.2818952302473422 0 0.055785663915822861 -0.3096653707036619 0 0.048956864474661327 -0.2818952302473422 0 0.055785663915822861 -0.3096653707036619 0 0.045735291495124841 -0.25938229928326778 0 0.042128065033499709 -0.25412508979102238 0 0.064665278531761308 -0.2493167781530469 0 0.045735291495124841 -0.25938229928326778 0 0.064665278531761308 -0.2493167781530469 0 0.061518479924558098 -0.26063341449936489 0 0.059967260294257321 -0.27395746159764878 0 0.045735291495124841 -0.25938229928326778 0 0.061518479924558098 -0.26063341449936489 0 0.045735291495124841 -0.25938229928326778 0 0.064665278531761308 -0.2493167781530469 0 0.042128065033499709 -0.25412508979102238 0 0.064665278531761308 -0.2493167781530469 0 0.042128065033499709 -0.25412508979102238 0 0.0529364352365055 -0.24956374240861789 0 0.064665278531761308 -0.2493167781530469 0 0.042128065033499709 -0.25412508979102238 0 0.045611330634543187 -0.24818378644094299 0 0.0529364352365055 -0.24956374240861789 0 0.048956864474661327 -0.2818952302473422 0 0.059967260294257321 -0.27395746159764878 0 0.045735291495124841 -0.25938229928326778 0 0.048956864474661327 -0.2818952302473422 0 0.042128065033499709 -0.25412508979102238 0 0.048956864474661327 -0.2818952302473422 0 0.034257029196002868 -0.27282106197292599 0 0.042128065033499709 -0.25412508979102238 0 0.042128065033499709 -0.25412508979102238 0 0.02468574628658295 -0.25784640628077488 0 0.029307653897379979 -0.2478990629859848 0 0.048956864474661327 -0.2818952302473422 0 0.045735291495124841 -0.25938229928326778 0 0.042128065033499709 -0.25412508979102238 0 0.042128065033499709 -0.25412508979102238 0 0.02468574628658295 -0.25784640628077488 0 0.034257029196002868 -0.27282106197292599 0 0.042128065033499709 -0.25412508979102238 0 0.02468574628658295 -0.25784640628077488 0 0.02468574628658295 -0.25784640628077488 0 0.0072434275396657533 -0.26156772277052542 0 0.02468574628658295 -0.25784640628077488 0 0.020180409575136071 -0.27603935116750927 0 0.0072434275396657533 -0.26156772277052542 0 0.02468574628658295 -0.25784640628077488 0 0.014639405744140171 -0.24669891793547999 0 0.029307653897379979 -0.2478990629859848 0 0.035260730151426202 -0.29349733677869838 0 0.034257029196002868 -0.27282106197292599 0 0.020180409575136071 -0.27603935116750927 0 0.034257029196002868 -0.27282106197292599 0 0.02468574628658295 -0.25784640628077488 0 0.020180409575136071 -0.27603935116750927 0 0.020180409575136071 -0.27603935116750927 0 0.0034228775624346531 -0.27956024016697489 0 0.0072434275396657533 -0.26156772277052542 0 -0.0080584849696134705 -0.24565963204858729 0 0.0072434275396657533 -0.26156772277052542 0 0.014639405744140171 -0.24669891793547999 0 0.02468574628658295 -0.25784640628077488 0 0.0072434275396657533 -0.26156772277052542 0 0.014639405744140171 -0.24669891793547999 0 -0.0080584849696134705 -0.24565963204858729 0 0.01235453191993083 -0.22826922062572069 0 -0.0080584849696134705 -0.24565963204858729 0 0.014639405744140171 -0.24669891793547999 0 0.01235453191993083 -0.22826922062572069 0 0.01235453191993083 -0.22826922062572069 0 0.030483418011089669 -0.2275471532957532 0 0.032767548809473877 -0.2108788092028526 0 0.01235453191993083 -0.22826922062572069 0 0.032767548809473877 -0.2108788092028526 0 0.01235453191993083 -0.22826922062572069 0 0.030483418011089669 -0.2275471532957532 0 0.025498280054139049 -0.2376131337858795 0 0.014639405744140171 -0.24669891793547999 0 0.01235453191993083 -0.22826922062572069 0 0.025498280054139049 -0.2376131337858795 0 0.014639405744140171 -0.24669891793547999 0 0.025498280054139049 -0.2376131337858795 0 0.029307653897379979 -0.2478990629859848 0 -0.0093921118566575659 -0.20223372155845001 0 0.014719174085286569 -0.20053193682050621 0 -0.001470390448203369 -0.1912506934557355 0 0.014719174085286569 -0.20053193682050621 0 0.01174661507722052 -0.184640726340591 0 -0.001470390448203369 -0.1912506934557355 0 0.014719174085286569 -0.20053193682050621 0 -0.0093921118566575659 -0.20223372155845001 0 -0.001470390448203369 -0.1912506934557355 0 0.014719174085286569 -0.20053193682050621 0 -0.0047526477166800109 -0.2198201769135828 0 -0.0093921118566575659 -0.20223372155845001 0 0.014719174085286569 -0.20053193682050621 0 -0.0047526477166800109 -0.2198201769135828 0 0.01235453191993083 -0.22826922062572069 0 0.014719174085286569 -0.20053193682050621 0 0.014719174085286569 -0.20053193682050621 0 0.032767548809473877 -0.2108788092028526 0 0.014719174085286569 -0.20053193682050621 0 0.031179706897447208 -0.19937014546746001 0 0.032767548809473877 -0.2108788092028526 0 0.01235453191993083 -0.22826922062572069 0 0.014719174085286569 -0.20053193682050621 0 0.032767548809473877 -0.2108788092028526 0 0.014719174085286569 -0.20053193682050621 0 0.031179706897447208 -0.19937014546746001 0 0.030814172792464008 -0.18467049784347961 0 0.014719174085286569 -0.20053193682050621 0 0.031179706897447208 -0.19937014546746001 0 0.014719174085286569 -0.20053193682050621 0 0.030814172792464008 -0.18467049784347961 0 0.01174661507722052 -0.184640726340591 0 0.031179706897447208 -0.19937014546746001 0 0.047640239709608047 -0.1982083541144167 0 0.030814172792464008 -0.18467049784347961 0 0.031179706897447208 -0.19937014546746001 0 0.032767548809473877 -0.2108788092028526 0 0.047640239709608047 -0.1982083541144167 0 0.031179706897447208 -0.19937014546746001 0 0.047640239709608047 -0.1982083541144167 0 0.047640239709608047 -0.1982083541144167 0 0.048951650128566913 -0.18371242074851241 0 0.030814172792464008 -0.18467049784347961 0 0.032767548809473877 -0.2108788092028526 0 0.052771603801631067 -0.2223468448180414 0 0.032767548809473877 -0.2108788092028526 0 0.047531931640164699 -0.20950241187684751 0 0.052771603801631067 -0.2223468448180414 0 0.032767548809473877 -0.2108788092028526 0 0.039129847093225978 -0.22203180285176841 0 0.052771603801631067 -0.2223468448180414 0 0.032767548809473877 -0.2108788092028526 0 0.047640239709608047 -0.1982083541144167 0 0.032767548809473877 -0.2108788092028526 0 0.047531931640164699 -0.20950241187684751 0 0.047640239709608047 -0.1982083541144167 0 0.057835451604018533 -0.2042372561098586 0 0.061612703561087299 -0.22316638363516811 0 0.057835451604018533 -0.2042372561098586 0 0.052771603801631067 -0.2223468448180414 0 0.061612703561087299 -0.22316638363516811 0 0.057835451604018533 -0.2042372561098586 0 0.047531931640164699 -0.20950241187684751 0 0.052771603801631067 -0.2223468448180414 0 0.057835451604018533 -0.2042372561098586 0 0.047531931640164699 -0.20950241187684751 0 0.047640239709608047 -0.1982083541144167 0 0.047640239709608047 -0.1982083541144167 0 0.07115793448996538 -0.19654846529117989 0 0.062687398639007297 -0.1853892649056337 0 0.047640239709608047 -0.1982083541144167 0 0.07115793448996538 -0.19654846529117989 0 0.057835451604018533 -0.2042372561098586 0 0.047640239709608047 -0.1982083541144167 0 0.07115793448996538 -0.19654846529117989 0 0.047640239709608047 -0.1982083541144167 0 0.062687398639007297 -0.1853892649056337 0 0.047640239709608047 -0.1982083541144167 0 0.062687398639007297 -0.1853892649056337 0 0.048951650128566913 -0.18371242074851241 0 0.04523964255252319 -0.2379484142158467 0 0.03986776287351123 -0.2449332971490748 0 0.039496661605532488 -0.23267049946045951 0 0.04523964255252319 -0.2379484142158467 0 0.039496661605532488 -0.23267049946045951 0 0.047536158747514698 -0.2325895687419855 0 0.04523964255252319 -0.2379484142158467 0 0.03986776287351123 -0.2449332971490748 0 0.047513059394656353 -0.24411301641505709 0 0.042128065033499709 -0.25412508979102238 0 0.03986776287351123 -0.2449332971490748 0 0.042128065033499709 -0.25412508979102238 0 0.045611330634543187 -0.24818378644094299 0 0.03986776287351123 -0.2449332971490748 0 0.045611330634543187 -0.24818378644094299 0 0.03986776287351123 -0.2449332971490748 0 0.047513059394656353 -0.24411301641505709 0 0.025498280054139049 -0.2376131337858795 0 0.029307653897379979 -0.2478990629859848 0 0.03986776287351123 -0.2449332971490748 0 0.042128065033499709 -0.25412508979102238 0 0.029307653897379979 -0.2478990629859848 0 0.03986776287351123 -0.2449332971490748 0 0.025498280054139049 -0.2376131337858795 0 0.03986776287351123 -0.2449332971490748 0 0.039496661605532488 -0.23267049946045951 0 0.030483418011089669 -0.2275471532957532 0 0.039129847093225978 -0.22203180285176841 0 0.039496661605532488 -0.23267049946045951 0 0.030483418011089669 -0.2275471532957532 0 0.025498280054139049 -0.2376131337858795 0 0.039496661605532488 -0.23267049946045951 0 0.030483418011089669 -0.2275471532957532 0 0.032767548809473877 -0.2108788092028526 0 0.039129847093225978 -0.22203180285176841 0 0.039129847093225978 -0.22203180285176841 0 0.04394638097866857 -0.22760115323969329 0 0.049629524031400522 -0.2240316003406666 0 0.039496661605532488 -0.23267049946045951 0 0.04394638097866857 -0.22760115323969329 0 0.047536158747514698 -0.2325895687419855 0 0.039129847093225978 -0.22203180285176841 0 0.039496661605532488 -0.23267049946045951 0 0.04394638097866857 -0.22760115323969329 0 0.049629524031400522 -0.2240316003406666 0 0.065389955518156226 -0.24209551116047759 0 0.047536158747514698 -0.2325895687419855 0 0.049629524031400522 -0.2240316003406666 0 0.053714312131653598 -0.23750993485386451 0 0.049629524031400522 -0.2240316003406666 0 0.058304943470488119 -0.23877490189274869 0 0.053714312131653598 -0.23750993485386451 0 0.04394638097866857 -0.22760115323969329 0 0.047536158747514698 -0.2325895687419855 0 0.049629524031400522 -0.2240316003406666 0 0.049629524031400522 -0.2240316003406666 0 0.061612703561087299 -0.22316638363516811 0 0.065389955518156226 -0.24209551116047759 0 0.039129847093225978 -0.22203180285176841 0 0.052771603801631067 -0.2223468448180414 0 0.049629524031400522 -0.2240316003406666 0 0.052771603801631067 -0.2223468448180414 0 0.049629524031400522 -0.2240316003406666 0 0.061612703561087299 -0.22316638363516811 0 0.049629524031400522 -0.2240316003406666 0 0.058304943470488119 -0.23877490189274869 0 0.065389955518156226 -0.24209551116047759 0 0.058304943470488119 -0.23877490189274869 0 0.053714312131653598 -0.23750993485386451 0 0.058847626100658801 -0.2446401331386405 0 0.053714312131653598 -0.23750993485386451 0 0.053699524385772107 -0.24428651861971001 0 0.058847626100658801 -0.2446401331386405 0 0.053714312131653598 -0.23750993485386451 0 0.050309903778972737 -0.23942912802140939 0 0.053699524385772107 -0.24428651861971001 0 0.04523964255252319 -0.2379484142158467 0 0.050309903778972737 -0.23942912802140939 0 0.047513059394656353 -0.24411301641505709 0 0.047536158747514698 -0.2325895687419855 0 0.053714312131653598 -0.23750993485386451 0 0.050309903778972737 -0.23942912802140939 0 0.04523964255252319 -0.2379484142158467 0 0.047536158747514698 -0.2325895687419855 0 0.050309903778972737 -0.23942912802140939 0 0.045611330634543187 -0.24818378644094299 0 0.047513059394656353 -0.24411301641505709 0 0.0529364352365055 -0.24956374240861789 0 0.050309903778972737 -0.23942912802140939 0 0.047513059394656353 -0.24411301641505709 0 0.053699524385772107 -0.24428651861971001 0 0.047513059394656353 -0.24411301641505709 0 0.053699524385772107 -0.24428651861971001 0 0.0529364352365055 -0.24956374240861789 0 0.0529364352365055 -0.24956374240861789 0 0.057892151390355709 -0.24750605569114459 0 0.064665278531761308 -0.2493167781530469 0 0.053699524385772107 -0.24428651861971001 0 0.0529364352365055 -0.24956374240861789 0 0.057892151390355709 -0.24750605569114459 0 0.053699524385772107 -0.24428651861971001 0 0.057892151390355709 -0.24750605569114459 0 0.058847626100658801 -0.2446401331386405 0 0.058847626100658801 -0.2446401331386405 0 0.061112067098197262 -0.24709374444906221 0 0.063943299570571557 -0.24559732997009409 0 0.058304943470488119 -0.23877490189274869 0 0.058847626100658801 -0.2446401331386405 0 0.063943299570571557 -0.24559732997009409 0 0.057892151390355709 -0.24750605569114459 0 0.061112067098197262 -0.24709374444906221 0 0.064665278531761308 -0.2493167781530469 0 0.057892151390355709 -0.24750605569114459 0 0.058847626100658801 -0.2446401331386405 0 0.061112067098197262 -0.24709374444906221 0 0.064665278531761308 -0.2493167781530469 0 0.06674250377520119 -0.24887360241113651 0 0.064665278531761308 -0.2493167781530469 0 0.063943299570571557 -0.24559732997009409 0 0.06674250377520119 -0.24887360241113651 0 0.061112067098197262 -0.24709374444906221 0 0.064665278531761308 -0.2493167781530469 0 0.063943299570571557 -0.24559732997009409 0 0.06674250377520119 -0.24887360241113651 0 0.065389955518156226 -0.24209551116047759 0 0.063943299570571557 -0.24559732997009409 0 0.06674250377520119 -0.24887360241113651 0 0.065389955518156226 -0.24209551116047759 0 0.065389955518156226 -0.24209551116047759 0 0.070587916148937904 -0.24805318416950739 0 0.06674250377520119 -0.24887360241113651 0 0.065389955518156226 -0.24209551116047759 0 0.070587916148937904 -0.24805318416950739 0 0.06674250377520119 -0.24887360241113651 0 0.070587916148937904 -0.24805318416950739 0 0.065389955518156226 -0.24209551116047759 0 0.074992114415436115 -0.2363185283082827 0 0.069646947524620625 -0.23047708017682109 0 0.058304943470488119 -0.23877490189274869 0 0.063943299570571557 -0.24559732997009409 0 0.065389955518156226 -0.24209551116047759 0 0.065389955518156226 -0.24209551116047759 0 0.074992114415436115 -0.2363185283082827 0 0.070587916148937904 -0.24805318416950739 0 0.074992114415436115 -0.2363185283082827 0 0.070587916148937904 -0.24805318416950739 0 0.09320932532930519 -0.23413923441639939 0 0.070587916148937904 -0.24805318416950739 0 0.09320932532930519 -0.23413923441639939 0 0.070587916148937904 -0.24805318416950739 0 0.093403234317505301 -0.24318553893543429 0 0.09320932532930519 -0.23413923441639939 0 0.070587916148937904 -0.24805318416950739 0 0.093403234317505301 -0.24318553893543429 0 0.09320932532930519 -0.23413923441639939 0 0.08235875752941689 -0.21888118917624211 0 0.07725023432089749 -0.22811568932106641 0 0.074992114415436115 -0.2363185283082827 0 0.09320932532930519 -0.23413923441639939 0 0.07725023432089749 -0.22811568932106641 0 0.09320932532930519 -0.23413923441639939 0 0.08235875752941689 -0.21888118917624211 0 0.099732821646917741 -0.21293794134908831 0 0.08235875752941689 -0.21888118917624211 0 0.071606090613466164 -0.22184511521462411 0 0.07725023432089749 -0.22811568932106641 0 0.061612703561087299 -0.22316638363516811 0 0.065389955518156226 -0.24209551116047759 0 0.069646947524620625 -0.23047708017682109 0 0.061612703561087299 -0.22316638363516811 0 0.065389955518156226 -0.24209551116047759 0 0.071606090613466164 -0.22184511521462411 0 0.07725023432089749 -0.22811568932106641 0 0.069646947524620625 -0.23047708017682109 0 0.074992114415436115 -0.2363185283082827 0 0.07725023432089749 -0.22811568932106641 0 0.069646947524620625 -0.23047708017682109 0 0.061612703561087299 -0.22316638363516811 0 0.071606090613466164 -0.22184511521462411 0 0.069975717263974627 -0.2116561351996176 0 0.061612703561087299 -0.22316638363516811 0 0.071606090613466164 -0.22184511521462411 0 0.069646947524620625 -0.23047708017682109 0 0.057835451604018533 -0.2042372561098586 0 0.061612703561087299 -0.22316638363516811 0 0.069975717263974627 -0.2116561351996176 0 0.057835451604018533 -0.2042372561098586 0 0.069975717263974627 -0.2116561351996176 0 0.07115793448996538 -0.19654846529117989 0 0.069975717263974627 -0.2116561351996176 0 0.07115793448996538 -0.19654846529117989 0 0.082488264208015777 -0.20488398737075719 0 0.08235875752941689 -0.21888118917624211 0 0.071606090613466164 -0.22184511521462411 0 0.069975717263974627 -0.2116561351996176 0 0.07115793448996538 -0.19654846529117989 0 0.071960904493696617 -0.18665569311549091 0 0.062687398639007297 -0.1853892649056337 0 0.07115793448996538 -0.19654846529117989 0 0.082085241330237035 -0.1861506854560665 0 0.071960904493696617 -0.18665569311549091 0 0.07115793448996538 -0.19654846529117989 0 0.094675629270322817 -0.1948885764679455 0 0.082085241330237035 -0.1861506854560665 0 0.07115793448996538 -0.19654846529117989 0 0.094675629270322817 -0.1948885764679455 0 0.07115793448996538 -0.19654846529117989 0 0.082488264208015777 -0.20488398737075719 0 0.094675629270322817 -0.1948885764679455 0 0.082488264208015777 -0.20488398737075719 0 0.099732821646917741 -0.21293794134908831 0 0.094675629270322817 -0.1948885764679455 0 0.08235875752941689 -0.21888118917624211 0 0.082488264208015777 -0.20488398737075719 0 0.099732821646917741 -0.21293794134908831 0 0.082488264208015777 -0.20488398737075719 0 0.099732821646917741 -0.21293794134908831 0 0.08235875752941689 -0.21888118917624211 0 0.069975717263974627 -0.2116561351996176 0 0.082488264208015777 -0.20488398737075719 0 0.099732821646917741 -0.21293794134908831 0 0.1169545412744107 -0.22151334236615419 0 0.094675629270322817 -0.1948885764679455 0 0.1181933240506801 -0.19322868764471021 0 0.094675629270322817 -0.1948885764679455 0 0.1181933240506801 -0.19322868764471021 0 0.10847519644819061 -0.17886826302386649 0 0.099732821646917741 -0.21293794134908831 0 0.094675629270322817 -0.1948885764679455 0 0.1181933240506801 -0.19322868764471021 0 0.1181933240506801 -0.19322868764471021 0 0.13133917971832279 -0.19230084760348409 0 0.1181933240506801 -0.19322868764471021 0 0.1169545412744107 -0.22151334236615419 0 0.1181933240506801 -0.19322868764471021 0 0.1169545412744107 -0.22151334236615419 0 0.12618997707797541 -0.2063940539986841 0 0.099732821646917741 -0.21293794134908831 0 0.1181933240506801 -0.19322868764471021 0 0.1169545412744107 -0.22151334236615419 0 0.1169545412744107 -0.22151334236615419 0 0.1162185524860733 -0.2383178937013635 0 0.12350480426882821 -0.25139481519201218 0 0.1162185524860733 -0.2383178937013635 0 0.13360438743528111 -0.24792201064071129 0 0.12350480426882821 -0.25139481519201218 0 0.1158260506959591 -0.24727973739471479 0 0.1162185524860733 -0.2383178937013635 0 0.10357837029368321 -0.25090802048529931 0 0.1158260506959591 -0.24727973739471479 0 0.1162185524860733 -0.2383178937013635 0 0.1158260506959591 -0.24727973739471479 0 0.1162185524860733 -0.2383178937013635 0 0.10357837029368321 -0.25090802048529931 0 0.093403234317505301 -0.24318553893543429 0 0.1162185524860733 -0.2383178937013635 0 0.093403234317505301 -0.24318553893543429 0 0.09320932532930519 -0.23413923441639939 0 0.1162185524860733 -0.2383178937013635 0 0.093403234317505301 -0.24318553893543429 0 0.1162185524860733 -0.2383178937013635 0 0.09320932532930519 -0.23413923441639939 0 0.1169545412744107 -0.22151334236615419 0 0.09320932532930519 -0.23413923441639939 0 0.099732821646917741 -0.21293794134908831 0 0.1169545412744107 -0.22151334236615419 0 0.09320932532930519 -0.23413923441639939 0 0.1169545412744107 -0.22151334236615419 0 0.1162185524860733 -0.2383178937013635 0 0.1063914152181237 -0.15128076624366801 0 0.098238466735447533 -0.14432563427994011 0 0.095748064796177326 -0.1600671718753203 0 0.1063914152181237 -0.15128076624366801 0 0.098238466735447533 -0.14432563427994011 0 0.10864491350963471 -0.139608057317963 0 0.1063914152181237 -0.15128076624366801 0 0.10864491350963471 -0.139608057317963 0 0.11306336684038561 -0.14441383630450311 0 0.098238466735447533 -0.14432563427994011 0 0.10459593891303121 -0.12974430385464611 0 0.09350199215719629 -0.1307860368537844 0 0.10459593891303121 -0.12974430385464611 0 0.09350199215719629 -0.1307860368537844 0 0.10862980718256771 -0.1173883224177953 0 0.10459593891303121 -0.12974430385464611 0 0.10864491350963471 -0.139608057317963 0 0.1137534246247271 -0.13074843191813801 0 0.098238466735447533 -0.14432563427994011 0 0.10459593891303121 -0.12974430385464611 0 0.10864491350963471 -0.139608057317963 0 0.10864491350963471 -0.139608057317963 0 0.1147939047659868 -0.1381927468785418 0 0.1137534246247271 -0.13074843191813801 0 0.1147939047659868 -0.1381927468785418 0 0.1137534246247271 -0.13074843191813801 0 0.11831914364550319 -0.13375263959979181 0 0.1147939047659868 -0.1381927468785418 0 0.1206014790407212 -0.13824420310562791 0 0.11306336684038561 -0.14441383630450311 0 0.10459593891303121 -0.12974430385464611 0 0.1137534246247271 -0.13074843191813801 0 0.11282193077599589 -0.1222674896986846 0 0.1137534246247271 -0.13074843191813801 0 0.11951729908301741 -0.12920496892286479 0 0.11845791967191539 -0.12186934725678419 0 0.11951729908301741 -0.12920496892286479 0 0.123348828340062 -0.12687639016292321 0 0.11845791967191539 -0.12186934725678419 0 0.11951729908301741 -0.12920496892286479 0 0.1237071791328791 -0.13277803567668681 0 0.11831914364550319 -0.13375263959979181 0 0.1137534246247271 -0.13074843191813801 0 0.11951729908301741 -0.12920496892286479 0 0.11831914364550319 -0.13375263959979181 0 0.11951729908301741 -0.12920496892286479 0 0.1237071791328791 -0.13277803567668681 0 0.123348828340062 -0.12687639016292321 0 0.1147939047659868 -0.1381927468785418 0 0.1206014790407212 -0.13824420310562791 0 0.11831914364550319 -0.13375263959979181 0 0.1237071791328791 -0.13277803567668681 0 0.1206014790407212 -0.13824420310562791 0 0.11831914364550319 -0.13375263959979181 0 0.1237071791328791 -0.13277803567668681 0 0.1206014790407212 -0.13824420310562791 0 0.12556619928585611 -0.13861553452786959 0 0.1206014790407212 -0.13824420310562791 0 0.11306336684038561 -0.14441383630450311 0 0.1148851216674613 -0.15474340797671471 0 0.1206014790407212 -0.13824420310562791 0 0.1193974015457006 -0.16573644537516899 0 0.12556619928585611 -0.13861553452786959 0 0.1206014790407212 -0.13824420310562791 0 0.1148851216674613 -0.15474340797671471 0 0.1193974015457006 -0.16573644537516899 0 0.1206014790407212 -0.13824420310562791 0 0.1193974015457006 -0.16573644537516899 0 0.10864491350963471 -0.139608057317963 0 0.1147939047659868 -0.1381927468785418 0 0.11306336684038561 -0.14441383630450311 0 0.1063914152181237 -0.15128076624366801 0 0.11306336684038561 -0.14441383630450311 0 0.1148851216674613 -0.15474340797671471 0 0.1193974015457006 -0.16573644537516899 0 0.10847519644819061 -0.17886826302386649 0 0.1068810705677978 -0.16352650008242289 0 0.1063914152181237 -0.15128076624366801 0 0.1148851216674613 -0.15474340797671471 0 0.1068810705677978 -0.16352650008242289 0 0.1148851216674613 -0.15474340797671471 0 0.1193974015457006 -0.16573644537516899 0 0.1068810705677978 -0.16352650008242289 0 0.1181933240506801 -0.19322868764471021 0 0.1193974015457006 -0.16573644537516899 0 0.12553906435139259 -0.18447572242809909 0 0.1181933240506801 -0.19322868764471021 0 0.1193974015457006 -0.16573644537516899 0 0.10847519644819061 -0.17886826302386649 0 0.1181933240506801 -0.19322868764471021 0 0.1193974015457006 -0.16573644537516899 0 0.1193974015457006 -0.16573644537516899 0 0.12553906435139259 -0.18447572242809909 0 0.1286018498814277 -0.17756503021997949 0 0.094675629270322817 -0.1948885764679455 0 0.10847519644819061 -0.17886826302386649 0 0.09573569100317908 -0.17630831807000469 0 0.10847519644819061 -0.17886826302386649 0 0.09573569100317908 -0.17630831807000469 0 0.1068810705677978 -0.16352650008242289 0 0.09573569100317908 -0.17630831807000469 0 0.1068810705677978 -0.16352650008242289 0 0.095748064796177326 -0.1600671718753203 0 0.1063914152181237 -0.15128076624366801 0 0.1068810705677978 -0.16352650008242289 0 0.095748064796177326 -0.1600671718753203 0 0.095748064796177326 -0.1600671718753203 0 0.085014138756564425 -0.1708758904619484 0 0.082227606495951455 -0.1540859221139379 0 0.085014138756564425 -0.1708758904619484 0 0.070953220834706648 -0.1773858073740914 0 0.082227606495951455 -0.1540859221139379 0 0.09573569100317908 -0.17630831807000469 0 0.095748064796177326 -0.1600671718753203 0 0.085014138756564425 -0.1708758904619484 0 0.094675629270322817 -0.1948885764679455 0 0.09573569100317908 -0.17630831807000469 0 0.082085241330237035 -0.1861506854560665 0 0.09573569100317908 -0.17630831807000469 0 0.085014138756564425 -0.1708758904619484 0 0.082085241330237035 -0.1861506854560665 0 0.085014138756564425 -0.1708758904619484 0 0.082085241330237035 -0.1861506854560665 0 0.070953220834706648 -0.1773858073740914 0 0.082085241330237035 -0.1861506854560665 0 0.071960904493696617 -0.18665569311549091 0 0.070953220834706648 -0.1773858073740914 0 0.070953220834706648 -0.1773858073740914 0 0.062687398639007297 -0.1853892649056337 0 0.05752657237993225 -0.17572593286016741 0 0.071960904493696617 -0.18665569311549091 0 0.070953220834706648 -0.1773858073740914 0 0.062687398639007297 -0.1853892649056337 0 0.070953220834706648 -0.1773858073740914 0 0.082227606495951455 -0.1540859221139379 0 0.059996157498208073 -0.1595957453015539 0 0.070953220834706648 -0.1773858073740914 0 0.05752657237993225 -0.17572593286016741 0 0.059996157498208073 -0.1595957453015539 0 0.070953220834706648 -0.1773858073740914 0 0.082227606495951455 -0.1540859221139379 0 0.06962784383244916 -0.14345857258831349 0 0.082227606495951455 -0.1540859221139379 0 0.080330299274757613 -0.13380799836123261 0 0.06962784383244916 -0.14345857258831349 0 0.082227606495951455 -0.1540859221139379 0 0.059996157498208073 -0.1595957453015539 0 0.098238466735447533 -0.14432563427994011 0 0.082227606495951455 -0.1540859221139379 0 0.09350199215719629 -0.1307860368537844 0 0.082227606495951455 -0.1540859221139379 0 0.09350199215719629 -0.1307860368537844 0 0.098238466735447533 -0.14432563427994011 0 0.095748064796177326 -0.1600671718753203 0 0.082227606495951455 -0.1540859221139379 0 0.080330299274757613 -0.13380799836123261 0 0.09350199215719629 -0.1307860368537844 0 0.085986559218385633 -0.1134219703290732 0 0.082227606495951455 -0.1540859221139379 0 0.080330299274757613 -0.13380799836123261 0 0.09350199215719629 -0.1307860368537844 0 0.06962784383244916 -0.14345857258831349 0 0.070307494669805556 -0.12728748992105371 0 0.054628430121225632 -0.1411530095130345 0 0.06962784383244916 -0.14345857258831349 0 0.080330299274757613 -0.13380799836123261 0 0.070307494669805556 -0.12728748992105371 0 0.070307494669805556 -0.12728748992105371 0 0.060346030374175713 -0.1255229666477197 0 0.06795534791333474 -0.1230148981317449 0 0.070307494669805556 -0.12728748992105371 0 0.060346030374175713 -0.1255229666477197 0 0.054628430121225632 -0.1411530095130345 0 0.070307494669805556 -0.12728748992105371 0 0.054628430121225632 -0.1411530095130345 0 0.054628430121225632 -0.1411530095130345 0 0.040470477957972581 -0.13239388152596529 0 0.051534337486770727 -0.123070091027681 0 0.060346030374175713 -0.1255229666477197 0 0.054628430121225632 -0.1411530095130345 0 0.051534337486770727 -0.123070091027681 0 0.054628430121225632 -0.1411530095130345 0 0.034901732798921031 -0.15341260344342081 0 0.059996157498208073 -0.1595957453015539 0 0.06962784383244916 -0.14345857258831349 0 0.054628430121225632 -0.1411530095130345 0 0.059996157498208073 -0.1595957453015539 0 0.054628430121225632 -0.1411530095130345 0 0.034901732798921031 -0.15341260344342081 0 0.040470477957972581 -0.13239388152596529 0 0.034901732798921031 -0.15341260344342081 0 0.040470477957972581 -0.13239388152596529 0 0.0225225819549019 -0.12982929706195651 0 0.040470477957972581 -0.13239388152596529 0 0.0225225819549019 -0.12982929706195651 0 0.038765307428043627 -0.1145044065837335 0 0.062687398639007297 -0.1853892649056337 0 0.048951650128566913 -0.18371242074851241 0 0.05752657237993225 -0.17572593286016741 0 0.048951650128566913 -0.18371242074851241 0 0.05752657237993225 -0.17572593286016741 0 0.043999002476521477 -0.17052479792322339 0 0.05752657237993225 -0.17572593286016741 0 0.059996157498208073 -0.1595957453015539 0 0.043999002476521477 -0.17052479792322339 0 0.034901732798921031 -0.15341260344342081 0 0.059996157498208073 -0.1595957453015539 0 0.034901732798921031 -0.15341260344342081 0 0.043999002476521477 -0.17052479792322339 0 0.029556986361813961 -0.16642197564955419 0 0.034901732798921031 -0.15341260344342081 0 0.059996157498208073 -0.1595957453015539 0 0.043999002476521477 -0.17052479792322339 0 0.043999002476521477 -0.17052479792322339 0 0.030814172792464008 -0.18467049784347961 0 0.029556986361813961 -0.16642197564955419 0 0.048951650128566913 -0.18371242074851241 0 0.043999002476521477 -0.17052479792322339 0 0.030814172792464008 -0.18467049784347961 0 0.030814172792464008 -0.18467049784347961 0 0.01630305450845522 -0.1713697541361941 0 0.029556986361813961 -0.16642197564955419 0 0.030814172792464008 -0.18467049784347961 0 0.01630305450845522 -0.1713697541361941 0 0.01174661507722052 -0.184640726340591 0 0.01630305450845522 -0.1713697541361941 0 0.029556986361813961 -0.16642197564955419 0 0.0098073080996340274 -0.14722946158528771 0 -0.00079089347172151003 -0.17130482069219971 0 0.01630305450845522 -0.1713697541361941 0 0.0098073080996340274 -0.14722946158528771 0 -0.00079089347172151003 -0.17130482069219971 0 0.01630305450845522 -0.1713697541361941 0 0.01174661507722052 -0.184640726340591 0 -0.00079089347172151003 -0.17130482069219971 0 -0.001470390448203369 -0.1912506934557355 0 0.01174661507722052 -0.184640726340591 0 0.034901732798921031 -0.15341260344342081 0 0.0098073080996340274 -0.14722946158528771 0 0.034901732798921031 -0.15341260344342081 0 0.029556986361813961 -0.16642197564955419 0 0.0098073080996340274 -0.14722946158528771 0 0.034901732798921031 -0.15341260344342081 0 0.0225225819549019 -0.12982929706195651 0 0.0098073080996340274 -0.14722946158528771 0 0.0225225819549019 -0.12982929706195651 0 0.0098073080996340274 -0.14722946158528771 0 0.0043993043058308066 -0.13131490851844729 0 0.0225225819549019 -0.12982929706195651 0 0.0043993043058308066 -0.13131490851844729 0 0.0078016226429509046 -0.11589312772247599 0 -0.0057508377372143876 -0.11936735290759071 0 0.0043993043058308066 -0.13131490851844729 0 0.0078016226429509046 -0.11589312772247599 0 -0.0016877313628738909 -0.1047126534159272 0 -0.0057508377372143876 -0.11936735290759071 0 0.0078016226429509046 -0.11589312772247599 0 0.0078016226429509046 -0.11589312772247599 0 0.021693105050580471 -0.1111709861400112 0 0.0097105712793640348 -0.1045441563445096 0 0.0225225819549019 -0.12982929706195651 0 0.021693105050580471 -0.1111709861400112 0 0.038765307428043627 -0.1145044065837335 0 0.0225225819549019 -0.12982929706195651 0 0.0078016226429509046 -0.11589312772247599 0 0.021693105050580471 -0.1111709861400112 0 0.021693105050580471 -0.1111709861400112 0 0.01823572356083316 -0.095526706222997415 0 0.031276439437800153 -0.1005524007590991 0 0.021693105050580471 -0.1111709861400112 0 0.038765307428043627 -0.1145044065837335 0 0.031276439437800153 -0.1005524007590991 0 0.021693105050580471 -0.1111709861400112 0 0.01823572356083316 -0.095526706222997415 0 0.0097105712793640348 -0.1045441563445096 0 0.01823572356083316 -0.095526706222997415 0 0.0097105712793640348 -0.1045441563445096 0 0.0048874746098515869 -0.094744987113775284 0 -0.0016877313628738909 -0.1047126534159272 0 0.0078016226429509046 -0.11589312772247599 0 0.0097105712793640348 -0.1045441563445096 0 -0.0016877313628738909 -0.1047126534159272 0 0.0097105712793640348 -0.1045441563445096 0 0.0048874746098515869 -0.094744987113775284 0 0.01823572356083316 -0.095526706222997415 0 0.0048874746098515869 -0.094744987113775284 0 0.0090880749120619449 -0.079712998134601809 0 -0.0047025153429677627 -0.088520405322652831 0 0.0048874746098515869 -0.094744987113775284 0 0.0090880749120619449 -0.079712998134601809 0 -0.0047025153429677627 -0.088520405322652831 0 0.0090880749120619449 -0.079712998134601809 0 -0.0089718182368431348 -0.0748332195086122 0 0.0090880749120619449 -0.079712998134601809 0 0.0024170205478812878 -0.068542929743318284 0 0.0024170205478812878 -0.068542929743318284 0 9.7351971471751713e-05 -0.060723252509624827 0 0.0075476486693333567 -0.060599103563355732 0 0.0090880749120619449 -0.079712998134601809 0 0.0024170205478812878 -0.068542929743318284 0 0.01487368883979252 -0.064322223252319788 0 0.0024170205478812878 -0.068542929743318284 0 0.01487368883979252 -0.064322223252319788 0 0.0075476486693333567 -0.060599103563355732 0 0.0090880749120619449 -0.079712998134601809 0 0.027517842819352399 -0.067942764421681429 0 0.030994233842884911 -0.082959752645602111 0 0.0090880749120619449 -0.079712998134601809 0 0.027517842819352399 -0.067942764421681429 0 0.0090880749120619449 -0.079712998134601809 0 0.01487368883979252 -0.064322223252319788 0 0.027517842819352399 -0.067942764421681429 0 0.01823572356083316 -0.095526706222997415 0 0.030994233842884911 -0.082959752645602111 0 0.031276439437800153 -0.1005524007590991 0 0.0090880749120619449 -0.079712998134601809 0 0.030994233842884911 -0.082959752645602111 0 0.01823572356083316 -0.095526706222997415 0 0.0090880749120619449 -0.079712998134601809 0 0.030994233842884911 -0.082959752645602111 0 0.030994233842884911 -0.082959752645602111 0 0.052900392773708033 -0.086206507156601636 0 0.030994233842884911 -0.082959752645602111 0 0.052900392773708033 -0.086206507156601636 0 0.04587705523721472 -0.098273731500205463 0 0.030994233842884911 -0.082959752645602111 0 0.04322181135996174 -0.072218220905176031 0 0.052900392773708033 -0.086206507156601636 0 0.027517842819352399 -0.067942764421681429 0 0.04322181135996174 -0.072218220905176031 0 0.045947610726643502 -0.056172530708761867 0 0.027517842819352399 -0.067942764421681429 0 0.030994233842884911 -0.082959752645602111 0 0.04322181135996174 -0.072218220905176031 0 0.058304942086693602 -0.072447023446579523 0 0.045947610726643502 -0.056172530708761867 0 0.07146127205775829 -0.063201388264948949 0 0.04322181135996174 -0.072218220905176031 0 0.058304942086693602 -0.072447023446579523 0 0.045947610726643502 -0.056172530708761867 0 0.04322181135996174 -0.072218220905176031 0 0.058304942086693602 -0.072447023446579523 0 0.052900392773708033 -0.086206507156601636 0 0.058304942086693602 -0.072447023446579523 0 0.052900392773708033 -0.086206507156601636 0 0.074806551704531085 -0.089453261667601161 0 0.056638179653287747 -0.10827988660012509 0 0.038765307428043627 -0.1145044065837335 0 0.04587705523721472 -0.098273731500205463 0 0.052900392773708033 -0.086206507156601636 0 0.04587705523721472 -0.098273731500205463 0 0.062700028383547782 -0.097153200837865411 0 0.056638179653287747 -0.10827988660012509 0 0.04587705523721472 -0.098273731500205463 0 0.062700028383547782 -0.097153200837865411 0 0.056638179653287747 -0.10827988660012509 0 0.051534337486770727 -0.123070091027681 0 0.038765307428043627 -0.1145044065837335 0 0.056638179653287747 -0.10827988660012509 0 0.060560891346580513 -0.1180119987458233 0 0.068975548228261782 -0.1132694891728343 0 0.056638179653287747 -0.10827988660012509 0 0.060560891346580513 -0.1180119987458233 0 0.051534337486770727 -0.123070091027681 0 0.060346030374175713 -0.1255229666477197 0 0.060560891346580513 -0.1180119987458233 0 0.051534337486770727 -0.123070091027681 0 0.040470477957972581 -0.13239388152596529 0 0.051534337486770727 -0.123070091027681 0 0.038765307428043627 -0.1145044065837335 0 0.030994233842884911 -0.082959752645602111 0 0.031276439437800153 -0.1005524007590991 0 0.04587705523721472 -0.098273731500205463 0 0.038765307428043627 -0.1145044065837335 0 0.031276439437800153 -0.1005524007590991 0 0.04587705523721472 -0.098273731500205463 0 0.02966386060400961 -0.001249207495422295 0 0.023258098348783739 -0.01196334278758039 0 0.038431066285422158 -0.01431824636028042 0 0.023258098348783739 -0.01196334278758039 0 0.01092598487126514 -0.01049224220495251 0 0.016173124270734751 -0.022189260080207569 0 0.01679191874188429 0.00036989283620795388 0 0.02966386060400961 -0.001249207495422295 0 0.023258098348783739 -0.01196334278758039 0 0.01679191874188429 0.00036989283620795388 0 0.023258098348783739 -0.01196334278758039 0 0.01092598487126514 -0.01049224220495251 0 0.01679191874188429 0.00036989283620795388 0 0.00571793613220767 -0.0013933726199292439 0 0.01092598487126514 -0.01049224220495251 0 0.00571793613220767 -0.0013933726199292439 0 0.001191863774382809 -0.0090902042722187295 0 0.01092598487126514 -0.01049224220495251 0 -0.0034533735751615269 -0.0031200744777948779 0 0.00571793613220767 -0.0013933726199292439 0 0.001191863774382809 -0.0090902042722187295 0 0.001191863774382809 -0.0090902042722187295 0 0.01092598487126514 -0.01049224220495251 0 0.0042919125402528166 -0.018312964280429781 0 -0.0041712514997064359 -0.01348727575066128 0 0.001191863774382809 -0.0090902042722187295 0 0.0042919125402528166 -0.018312964280429781 0 0.0042919125402528166 -0.018312964280429781 0 0.0077096212096417231 -0.028763626775038669 0 0.016173124270734751 -0.022189260080207569 0 0.01092598487126514 -0.01049224220495251 0 0.0042919125402528166 -0.018312964280429781 0 0.016173124270734751 -0.022189260080207569 0 -0.0035256653559218852 -0.01963818636738987 0 0.0042919125402528166 -0.018312964280429781 0 5.7915888156767563e-05 -0.026155355212212461 0 0.0042919125402528166 -0.018312964280429781 0 5.7915888156767563e-05 -0.026155355212212461 0 0.0077096212096417231 -0.028763626775038669 0 5.7915888156767563e-05 -0.026155355212212461 0 0.0077096212096417231 -0.028763626775038669 0 0.0019358410081795571 -0.032695467817506943 0 0.0077096212096417231 -0.028763626775038669 0 0.016173124270734751 -0.022189260080207569 0 0.01800590083071392 -0.036745778963769599 0 0.016173124270734751 -0.022189260080207569 0 0.029390641986383938 -0.02657037322122436 0 0.01800590083071392 -0.036745778963769599 0 0.023258098348783739 -0.01196334278758039 0 0.016173124270734751 -0.022189260080207569 0 0.029390641986383938 -0.02657037322122436 0 0.023258098348783739 -0.01196334278758039 0 0.029390641986383938 -0.02657037322122436 0 0.038431066285422158 -0.01431824636028042 0 0.01800590083071392 -0.036745778963769599 0 0.023619068424162021 -0.052587518787643797 0 0.032898917747631047 -0.040602159461235188 0 0.01800590083071392 -0.036745778963769599 0 0.01185340770806855 -0.047244231143168419 0 0.023619068424162021 -0.052587518787643797 0 0.029390641986383938 -0.02657037322122436 0 0.01800590083071392 -0.036745778963769599 0 0.032898917747631047 -0.040602159461235188 0 0.0077096212096417231 -0.028763626775038669 0 0.01800590083071392 -0.036745778963769599 0 0.0067757713681517069 -0.038509226143312363 0 0.0077096212096417231 -0.028763626775038669 0 0.0067757713681517069 -0.038509226143312363 0 0.0019358410081795571 -0.032695467817506943 0 -0.0011134606268889721 -0.038751911902321259 0 0.0067757713681517069 -0.038509226143312363 0 0.0019358410081795571 -0.032695467817506943 0 0.0067757713681517069 -0.038509226143312363 0 0.0023695236378624179 -0.046215750652769019 0 0.01185340770806855 -0.047244231143168419 0 -0.0011134606268889721 -0.038751911902321259 0 0.0067757713681517069 -0.038509226143312363 0 0.0023695236378624179 -0.046215750652769019 0 0.01800590083071392 -0.036745778963769599 0 0.0067757713681517069 -0.038509226143312363 0 0.01185340770806855 -0.047244231143168419 0 0.01185340770806855 -0.047244231143168419 0 0.0057047288037620457 -0.0542649917154652 0 0.014645453183759181 -0.055142120596050573 0 0.0023695236378624179 -0.046215750652769019 0 0.01185340770806855 -0.047244231143168419 0 0.0057047288037620457 -0.0542649917154652 0 -0.0026109280900245349 -0.053392068635790643 0 0.0023695236378624179 -0.046215750652769019 0 0.0057047288037620457 -0.0542649917154652 0 -0.0026109280900245349 -0.053392068635790643 0 0.0057047288037620457 -0.0542649917154652 0 9.7351971471751713e-05 -0.060723252509624827 0 0.0057047288037620457 -0.0542649917154652 0 9.7351971471751713e-05 -0.060723252509624827 0 0.0075476486693333567 -0.060599103563355732 0 0.01487368883979252 -0.064322223252319788 0 0.0075476486693333567 -0.060599103563355732 0 0.014645453183759181 -0.055142120596050573 0 0.0057047288037620457 -0.0542649917154652 0 0.0075476486693333567 -0.060599103563355732 0 0.014645453183759181 -0.055142120596050573 0 0.01487368883979252 -0.064322223252319788 0 0.014645453183759181 -0.055142120596050573 0 0.023619068424162021 -0.052587518787643797 0 0.01487368883979252 -0.064322223252319788 0 0.027517842819352399 -0.067942764421681429 0 0.023619068424162021 -0.052587518787643797 0 0.01185340770806855 -0.047244231143168419 0 0.014645453183759181 -0.055142120596050573 0 0.023619068424162021 -0.052587518787643797 0 0.023619068424162021 -0.052587518787643797 0 0.045947610726643502 -0.056172530708761867 0 0.032898917747631047 -0.040602159461235188 0 0.027517842819352399 -0.067942764421681429 0 0.023619068424162021 -0.052587518787643797 0 0.045947610726643502 -0.056172530708761867 0 0.027517842819352399 -0.067942764421681429 0 0.045947610726643502 -0.056172530708761867 0 0.045947610726643502 -0.056172530708761867 0 0.064304667317374012 -0.042027076182099762 0 0.07146127205775829 -0.063201388264948949 0 0.04732349347368274 -0.031423372095463219 0 0.06477969358065995 -0.02494857407975723 0 0.064304667317374012 -0.042027076182099762 0 0.045947610726643502 -0.056172530708761867 0 0.04732349347368274 -0.031423372095463219 0 0.064304667317374012 -0.042027076182099762 0 0.029390641986383938 -0.02657037322122436 0 0.04732349347368274 -0.031423372095463219 0 0.032898917747631047 -0.040602159461235188 0 0.045947610726643502 -0.056172530708761867 0 0.04732349347368274 -0.031423372095463219 0 0.032898917747631047 -0.040602159461235188 0 0.029390641986383938 -0.02657037322122436 0 0.04732349347368274 -0.031423372095463219 0 0.038431066285422158 -0.01431824636028042 0 0.04732349347368274 -0.031423372095463219 0 0.05505021736965611 -0.01310517954916882 0 0.038431066285422158 -0.01431824636028042 0 0.04732349347368274 -0.031423372095463219 0 0.05505021736965611 -0.01310517954916882 0 0.06477969358065995 -0.02494857407975723 0 0.058658900776209 0.0023639840925378359 0 0.05505021736965611 -0.01310517954916882 0 0.043198558762618321 -0.00023829520029129079 0 0.05505021736965611 -0.01310517954916882 0 0.043198558762618321 -0.00023829520029129079 0 0.038431066285422158 -0.01431824636028042 0 0.02966386060400961 -0.001249207495422295 0 0.043198558762618321 -0.00023829520029129079 0 0.038431066285422158 -0.01431824636028042 0 0.094732376142176083 0.00044397642212032562 0 0.074642744570978817 -0.0065358778072650706 0 0.095188044512863779 -0.016825049499280448 0 0.05505021736965611 -0.01310517954916882 0 0.074642744570978817 -0.0065358778072650706 0 0.06477969358065995 -0.02494857407975723 0 0.058658900776209 0.0023639840925378359 0 0.05505021736965611 -0.01310517954916882 0 0.074642744570978817 -0.0065358778072650706 0 0.074642744570978817 -0.0065358778072650706 0 0.06477969358065995 -0.02494857407975723 0 0.080991787287109165 -0.028883542241872371 0 0.074642744570978817 -0.0065358778072650706 0 0.080991787287109165 -0.028883542241872371 0 0.080991787287109165 -0.028883542241872371 0 0.096207686107793552 -0.033425488806970008 0 0.095188044512863779 -0.016825049499280448 0 0.074642744570978817 -0.0065358778072650706 0 0.080991787287109165 -0.028883542241872371 0 0.095188044512863779 -0.016825049499280448 0 0.080991787287109165 -0.028883542241872371 0 0.084534585373919391 -0.048395127196001357 0 0.096207686107793552 -0.033425488806970008 0 0.080991787287109165 -0.028883542241872371 0 0.064304667317374012 -0.042027076182099762 0 0.084534585373919391 -0.048395127196001357 0 0.06477969358065995 -0.02494857407975723 0 0.080991787287109165 -0.028883542241872371 0 0.064304667317374012 -0.042027076182099762 0 0.064304667317374012 -0.042027076182099762 0 0.084534585373919391 -0.048395127196001357 0 0.07146127205775829 -0.063201388264948949 0 0.084534585373919391 -0.048395127196001357 0 0.07146127205775829 -0.063201388264948949 0 0.086639069762808107 -0.069707644719061435 0 0.084534585373919391 -0.048395127196001357 0 0.096998646318434217 -0.059802850487388599 0 0.086639069762808107 -0.069707644719061435 0 0.096998646318434217 -0.059802850487388599 0 0.10649397108496469 -0.046000926617955781 0 0.1092366375603577 -0.062679352041892691 0 0.084534585373919391 -0.048395127196001357 0 0.096998646318434217 -0.059802850487388599 0 0.10649397108496469 -0.046000926617955781 0 0.1194683363675919 -0.054596763324888928 0 0.10649397108496469 -0.046000926617955781 0 0.12842713881223961 -0.041667162734856197 0 0.1194683363675919 -0.054596763324888928 0 0.1092366375603577 -0.062679352041892691 0 0.1210632563629909 -0.066582611230742189 0 0.1194683363675919 -0.054596763324888928 0 0.10649397108496469 -0.046000926617955781 0 0.1092366375603577 -0.062679352041892691 0 0.1194683363675919 -0.054596763324888928 0 0.1210632563629909 -0.066582611230742189 0 0.13069941664593279 -0.055797858977210187 0 0.10649397108496469 -0.046000926617955781 0 0.11383004228011059 -0.02702279847974012 0 0.12842713881223961 -0.041667162734856197 0 0.096207686107793552 -0.033425488806970008 0 0.10649397108496469 -0.046000926617955781 0 0.11383004228011059 -0.02702279847974012 0 0.084534585373919391 -0.048395127196001357 0 0.096207686107793552 -0.033425488806970008 0 0.10649397108496469 -0.046000926617955781 0 0.096207686107793552 -0.033425488806970008 0 0.095188044512863779 -0.016825049499280448 0 0.11383004228011059 -0.02702279847974012 0 0.095188044512863779 -0.016825049499280448 0 0.11383004228011059 -0.02702279847974012 0 0.1104806879240797 -0.0035401757462522961 0 0.11383004228011059 -0.02702279847974012 0 0.1104806879240797 -0.0035401757462522961 0 0.12578573051774269 -0.01346059975362378 0 0.12949372161206399 0.002034182974538255 0 0.1104806879240797 -0.0035401757462522961 0 0.12578573051774269 -0.01346059975362378 0 0.094732376142176083 0.00044397642212032562 0 0.095188044512863779 -0.016825049499280448 0 0.1104806879240797 -0.0035401757462522961 0 0.091455751195569424 -0.09776205557014038 0 0.073736763009720263 -0.1036186920574048 0 0.074806551704531085 -0.089453261667601161 0 0.091455751195569424 -0.09776205557014038 0 0.085986559218385633 -0.1134219703290732 0 0.073736763009720263 -0.1036186920574048 0 0.080330299274757613 -0.13380799836123261 0 0.070307494669805556 -0.12728748992105371 0 0.085986559218385633 -0.1134219703290732 0 0.070307494669805556 -0.12728748992105371 0 0.085986559218385633 -0.1134219703290732 0 0.085986559218385633 -0.1134219703290732 0 0.06795534791333474 -0.1230148981317449 0 0.068975548228261782 -0.1132694891728343 0 0.085986559218385633 -0.1134219703290732 0 0.06795534791333474 -0.1230148981317449 0 0.070307494669805556 -0.12728748992105371 0 0.085986559218385633 -0.1134219703290732 0 0.06795534791333474 -0.1230148981317449 0 0.085986559218385633 -0.1134219703290732 0 0.068975548228261782 -0.1132694891728343 0 0.073736763009720263 -0.1036186920574048 0 0.060560891346580513 -0.1180119987458233 0 0.06795534791333474 -0.1230148981317449 0 0.068975548228261782 -0.1132694891728343 0 0.060346030374175713 -0.1255229666477197 0 0.060560891346580513 -0.1180119987458233 0 0.06795534791333474 -0.1230148981317449 0 0.056638179653287747 -0.10827988660012509 0 0.073736763009720263 -0.1036186920574048 0 0.062700028383547782 -0.097153200837865411 0 0.056638179653287747 -0.10827988660012509 0 0.068975548228261782 -0.1132694891728343 0 0.073736763009720263 -0.1036186920574048 0 0.073736763009720263 -0.1036186920574048 0 0.062700028383547782 -0.097153200837865411 0 0.074806551704531085 -0.089453261667601161 0 0.052900392773708033 -0.086206507156601636 0 0.062700028383547782 -0.097153200837865411 0 0.074806551704531085 -0.089453261667601161 0 0.052900392773708033 -0.086206507156601636 0 0.074806551704531085 -0.089453261667601161 0 0.074806551704531085 -0.089453261667601161 0 0.07146127205775829 -0.063201388264948949 0 0.086639069762808107 -0.069707644719061435 0 0.058304942086693602 -0.072447023446579523 0 0.074806551704531085 -0.089453261667601161 0 0.07146127205775829 -0.063201388264948949 0 0.086639069762808107 -0.069707644719061435 0 0.092476448648033255 -0.084167196802686875 0 0.099556914474172378 -0.073226043895741597 0 0.074806551704531085 -0.089453261667601161 0 0.086639069762808107 -0.069707644719061435 0 0.092476448648033255 -0.084167196802686875 0 0.091455751195569424 -0.09776205557014038 0 0.074806551704531085 -0.089453261667601161 0 0.092476448648033255 -0.084167196802686875 0 0.091455751195569424 -0.09776205557014038 0 0.092476448648033255 -0.084167196802686875 0 0.098531910145911644 -0.089901594412717376 0 0.1021594096438974 -0.083754238160640607 0 0.1118387007539923 -0.075866916694639075 0 0.1080360310961465 -0.093922887117401682 0 0.092476448648033255 -0.084167196802686875 0 0.098531910145911644 -0.089901594412717376 0 0.1021594096438974 -0.083754238160640607 0 0.092476448648033255 -0.084167196802686875 0 0.1021594096438974 -0.083754238160640607 0 0.099556914474172378 -0.073226043895741597 0 0.098531910145911644 -0.089901594412717376 0 0.1021594096438974 -0.083754238160640607 0 0.1080360310961465 -0.093922887117401682 0 0.096998646318434217 -0.059802850487388599 0 0.086639069762808107 -0.069707644719061435 0 0.099556914474172378 -0.073226043895741597 0 0.099556914474172378 -0.073226043895741597 0 0.1092366375603577 -0.062679352041892691 0 0.1118387007539923 -0.075866916694639075 0 0.1021594096438974 -0.083754238160640607 0 0.099556914474172378 -0.073226043895741597 0 0.1118387007539923 -0.075866916694639075 0 0.096998646318434217 -0.059802850487388599 0 0.099556914474172378 -0.073226043895741597 0 0.1092366375603577 -0.062679352041892691 0 0.1118387007539923 -0.075866916694639075 0 0.1210632563629909 -0.066582611230742189 0 0.13008550297390739 -0.074423803905730487 0 0.1092366375603577 -0.062679352041892691 0 0.1118387007539923 -0.075866916694639075 0 0.1210632563629909 -0.066582611230742189 0 0.1080360310961465 -0.093922887117401682 0 0.13452608206727679 -0.087598073620864511 0 0.13008550297390739 -0.074423803905730487 0 0.1080360310961465 -0.093922887117401682 0 0.13008550297390739 -0.074423803905730487 0 0.1118387007539923 -0.075866916694639075 0 0.1080360310961465 -0.093922887117401682 0 0.13008550297390739 -0.074423803905730487 0 0.1206542337142498 -0.1024816156058128 0 0.11025632064283129 -0.100510021974969 0 0.13452608206727679 -0.087598073620864511 0 0.11025632064283129 -0.100510021974969 0 0.1080360310961465 -0.093922887117401682 0 0.13452608206727679 -0.087598073620864511 0 0.11025632064283129 -0.100510021974969 0 0.13452608206727679 -0.087598073620864511 0 0.12361063739113751 -0.1089829458286235 0 0.1206542337142498 -0.1024816156058128 0 0.12876157111383599 -0.1019247387795295 0 0.12361063739113751 -0.1089829458286235 0 0.1206542337142498 -0.1024816156058128 0 0.11600277673680361 -0.1095044238092165 0 0.1206542337142498 -0.1024816156058128 0 0.1108006194675545 -0.1065779719214702 0 0.11600277673680361 -0.1095044238092165 0 0.1206542337142498 -0.1024816156058128 0 0.1108006194675545 -0.1065779719214702 0 0.11025632064283129 -0.100510021974969 0 0.085986559218385633 -0.1134219703290732 0 0.11025632064283129 -0.100510021974969 0 0.1080360310961465 -0.093922887117401682 0 0.091455751195569424 -0.09776205557014038 0 0.098531910145911644 -0.089901594412717376 0 0.1080360310961465 -0.093922887117401682 0 0.085986559218385633 -0.1134219703290732 0 0.11025632064283129 -0.100510021974969 0 0.1047763778184411 -0.1074861515936308 0 0.091455751195569424 -0.09776205557014038 0 0.085986559218385633 -0.1134219703290732 0 0.1080360310961465 -0.093922887117401682 0 0.085986559218385633 -0.1134219703290732 0 0.11025632064283129 -0.100510021974969 0 0.085986559218385633 -0.1134219703290732 0 0.1080360310961465 -0.093922887117401682 0 0.1108006194675545 -0.1065779719214702 0 0.11025632064283129 -0.100510021974969 0 0.1047763778184411 -0.1074861515936308 0 0.09350199215719629 -0.1307860368537844 0 0.085986559218385633 -0.1134219703290732 0 0.1047763778184411 -0.1074861515936308 0 0.09350199215719629 -0.1307860368537844 0 0.1047763778184411 -0.1074861515936308 0 0.09350199215719629 -0.1307860368537844 0 0.1047763778184411 -0.1074861515936308 0 0.10862980718256771 -0.1173883224177953 0 0.1108006194675545 -0.1065779719214702 0 0.1047763778184411 -0.1074861515936308 0 0.10862980718256771 -0.1173883224177953 0 0.10459593891303121 -0.12974430385464611 0 0.10862980718256771 -0.1173883224177953 0 0.11282193077599589 -0.1222674896986846 0 0.1137534246247271 -0.13074843191813801 0 0.11282193077599589 -0.1222674896986846 0 0.11845791967191539 -0.12186934725678419 0 0.10862980718256771 -0.1173883224177953 0 0.11282193077599589 -0.1222674896986846 0 0.11746934809364951 -0.1161487547769032 0 0.11282193077599589 -0.1222674896986846 0 0.11746934809364951 -0.1161487547769032 0 0.11845791967191539 -0.12186934725678419 0 0.10862980718256771 -0.1173883224177953 0 0.11600277673680361 -0.1095044238092165 0 0.11746934809364951 -0.1161487547769032 0 0.1108006194675545 -0.1065779719214702 0 0.10862980718256771 -0.1173883224177953 0 0.11600277673680361 -0.1095044238092165 0 0.12361063739113751 -0.1089829458286235 0 0.11746934809364951 -0.1161487547769032 0 0.12529301680347721 -0.1168799996503154 0 0.12361063739113751 -0.1089829458286235 0 0.11600277673680361 -0.1095044238092165 0 0.11746934809364951 -0.1161487547769032 0 0.11845791967191539 -0.12186934725678419 0 0.12630050298042411 -0.12245592564795341 0 0.12529301680347721 -0.1168799996503154 0 0.11746934809364951 -0.1161487547769032 0 0.11845791967191539 -0.12186934725678419 0 0.12529301680347721 -0.1168799996503154 0 0.123348828340062 -0.12687639016292321 0 0.11845791967191539 -0.12186934725678419 0 0.12630050298042411 -0.12245592564795341 0 0.12630050298042411 -0.12245592564795341 0 0.13193042709743341 -0.1213594743776511 0 0.12529301680347721 -0.1168799996503154 0 0.12630050298042411 -0.12245592564795341 0 0.13193042709743341 -0.1213594743776511 0 0.12875565592263391 -0.12809429938570999 0 0.12361063739113751 -0.1089829458286235 0 0.13265712390398529 -0.1095837942728599 0 0.12529301680347721 -0.1168799996503154 0 0.13193042709743341 -0.1213594743776511 0 0.13265712390398529 -0.1095837942728599 0 0.12529301680347721 -0.1168799996503154 0 0.13265712390398529 -0.1095837942728599 0 0.141457361289023 -0.1186638722253137 0 0.14303859478838579 -0.1067295355001987 0 0.13193042709743341 -0.1213594743776511 0 0.13265712390398529 -0.1095837942728599 0 0.141457361289023 -0.1186638722253137 0 0.13193042709743341 -0.1213594743776511 0 0.141457361289023 -0.1186638722253137 0 0.1371125260112642 -0.13100173381717989 0 0.141457361289023 -0.1186638722253137 0 0.1530641146142325 -0.1147763665519914 0 0.14303859478838579 -0.1067295355001987 0 0.141457361289023 -0.1186638722253137 0 0.1530641146142325 -0.1147763665519914 0 0.15156751390321649 -0.12848562061151469 0 0.15319377847480151 -0.10228717329999509 0 0.14356602317981609 -0.097574537371012016 0 0.15214569972204611 -0.090196114556389012 0 0.1530641146142325 -0.1147763665519914 0 0.15319377847480151 -0.10228717329999509 0 0.14303859478838579 -0.1067295355001987 0 0.14303859478838579 -0.1067295355001987 0 0.14356602317981609 -0.097574537371012016 0 0.13650987901066 -0.1006821359088929 0 0.15319377847480151 -0.10228717329999509 0 0.14303859478838579 -0.1067295355001987 0 0.14356602317981609 -0.097574537371012016 0 0.14356602317981609 -0.097574537371012016 0 0.13650987901066 -0.1006821359088929 0 0.13452608206727679 -0.087598073620864511 0 0.13650987901066 -0.1006821359088929 0 0.12876157111383599 -0.1019247387795295 0 0.13452608206727679 -0.087598073620864511 0 0.13265712390398529 -0.1095837942728599 0 0.14303859478838579 -0.1067295355001987 0 0.13650987901066 -0.1006821359088929 0 0.13265712390398529 -0.1095837942728599 0 0.13650987901066 -0.1006821359088929 0 0.12876157111383599 -0.1019247387795295 0 0.12361063739113751 -0.1089829458286235 0 0.13265712390398529 -0.1095837942728599 0 0.12876157111383599 -0.1019247387795295 0 0.1206542337142498 -0.1024816156058128 0 0.12876157111383599 -0.1019247387795295 0 0.13452608206727679 -0.087598073620864511 0 0.13452608206727679 -0.087598073620864511 0 0.13008550297390739 -0.074423803905730487 0 0.1443388869055707 -0.074093442599663717 0 0.1210632563629909 -0.066582611230742189 0 0.13008550297390739 -0.074423803905730487 0 0.1378901422382286 -0.065141886520810197 0 0.1210632563629909 -0.066582611230742189 0 0.1378901422382286 -0.065141886520810197 0 0.13069941664593279 -0.055797858977210187 0 0.13008550297390739 -0.074423803905730487 0 0.1378901422382286 -0.065141886520810197 0 0.1443388869055707 -0.074093442599663717 0 0.1378901422382286 -0.065141886520810197 0 0.1443388869055707 -0.074093442599663717 0 0.14845045667510839 -0.068947823294811042 0 0.1378901422382286 -0.065141886520810197 0 0.1482855290232265 -0.062509281753238111 0 0.14845045667510839 -0.068947823294811042 0 0.1443388869055707 -0.074093442599663717 0 0.15637456595840549 -0.072524369015058085 0 0.15879584349172199 -0.074686125266759329 0 0.1443388869055707 -0.074093442599663717 0 0.14845045667510839 -0.068947823294811042 0 0.15637456595840549 -0.072524369015058085 0 0.1482855290232265 -0.062509281753238111 0 0.15364828237331349 -0.067433824892769681 0 0.15652694385902599 -0.063157866606958074 0 0.14845045667510839 -0.068947823294811042 0 0.15364828237331349 -0.067433824892769681 0 0.15637456595840549 -0.072524369015058085 0 0.15364828237331349 -0.067433824892769681 0 0.15652694385902599 -0.063157866606958074 0 0.15817514291358711 -0.068684324294872479 0 0.15364828237331349 -0.067433824892769681 0 0.15817514291358711 -0.068684324294872479 0 0.15637456595840549 -0.072524369015058085 0 0.1482855290232265 -0.062509281753238111 0 0.14845045667510839 -0.068947823294811042 0 0.15364828237331349 -0.067433824892769681 0 0.13452608206727679 -0.087598073620864511 0 0.1443388869055707 -0.074093442599663717 0 0.15879584349172199 -0.074686125266759329 0 0.13452608206727679 -0.087598073620864511 0 0.15214569972204611 -0.090196114556389012 0 0.15879584349172199 -0.074686125266759329 0 0.14356602317981609 -0.097574537371012016 0 0.13452608206727679 -0.087598073620864511 0 0.15214569972204611 -0.090196114556389012 0 0.13452608206727679 -0.087598073620864511 0 0.15879584349172199 -0.074686125266759329 0 0.16289225264402449 -0.088052813037539521 0 0.15879584349172199 -0.074686125266759329 0 0.17664412184913261 -0.09062136060856657 0 0.15214569972204611 -0.090196114556389012 0 0.16289225264402449 -0.088052813037539521 0 0.1639833455131976 -0.096707651718443199 0 0.15879584349172199 -0.074686125266759329 0 0.17664412184913261 -0.09062136060856657 0 0.15879584349172199 -0.074686125266759329 0 0.17656367562483899 -0.076834240046349089 0 0.17664412184913261 -0.09062136060856657 0 0.15214569972204611 -0.090196114556389012 0 0.16289225264402449 -0.088052813037539521 0 0.15879584349172199 -0.074686125266759329 0 0.16289225264402449 -0.088052813037539521 0 0.17664412184913261 -0.09062136060856657 0 0.1639833455131976 -0.096707651718443199 0 0.15879584349172199 -0.074686125266759329 0 0.17656367562483899 -0.076834240046349089 0 0.177532849092917 -0.064717702240173994 0 0.15879584349172199 -0.074686125266759329 0 0.16531569216686151 -0.06494670594336184 0 0.177532849092917 -0.064717702240173994 0 0.15879584349172199 -0.074686125266759329 0 0.177532849092917 -0.064717702240173994 0 0.15652694385902599 -0.063157866606958074 0 0.15817514291358711 -0.068684324294872479 0 0.16531569216686151 -0.06494670594336184 0 0.15817514291358711 -0.068684324294872479 0 0.15879584349172199 -0.074686125266759329 0 0.16531569216686151 -0.06494670594336184 0 0.15817514291358711 -0.068684324294872479 0 0.15637456595840549 -0.072524369015058085 0 0.15879584349172199 -0.074686125266759329 0 0.15637456595840549 -0.072524369015058085 0 0.15879584349172199 -0.074686125266759329 0 0.17656367562483899 -0.076834240046349089 0 0.177532849092917 -0.064717702240173994 0 0.19328188806558419 -0.07731177206989652 0 0.17656367562483899 -0.076834240046349089 0 0.17664412184913261 -0.09062136060856657 0 0.19328188806558419 -0.07731177206989652 0 0.17664412184913261 -0.09062136060856657 0 0.17763152743943481 -0.1060068574193543 0 0.1944924002065429 -0.1065565959503742 0 0.17664412184913261 -0.09062136060856657 0 0.1944924002065429 -0.1065565959503742 0 0.17664412184913261 -0.09062136060856657 0 0.17763152743943481 -0.1060068574193543 0 0.1639833455131976 -0.096707651718443199 0 0.17763152743943481 -0.1060068574193543 0 0.1752179343679314 -0.1232214963077168 0 0.16458481497267341 -0.1084741448912044 0 0.17763152743943481 -0.1060068574193543 0 0.1752179343679314 -0.1232214963077168 0 0.1944924002065429 -0.1065565959503742 0 0.1752179343679314 -0.1232214963077168 0 0.1944924002065429 -0.1065565959503742 0 0.1530641146142325 -0.1147763665519914 0 0.1752179343679314 -0.1232214963077168 0 0.15156751390321649 -0.12848562061151469 0 0.1530641146142325 -0.1147763665519914 0 0.1752179343679314 -0.1232214963077168 0 0.16458481497267341 -0.1084741448912044 0 0.1530641146142325 -0.1147763665519914 0 0.15319377847480151 -0.10228717329999509 0 0.16458481497267341 -0.1084741448912044 0 0.15319377847480151 -0.10228717329999509 0 0.1639833455131976 -0.096707651718443199 0 0.16458481497267341 -0.1084741448912044 0 0.15319377847480151 -0.10228717329999509 0 0.15214569972204611 -0.090196114556389012 0 0.1639833455131976 -0.096707651718443199 0 0.17763152743943481 -0.1060068574193543 0 0.1639833455131976 -0.096707651718443199 0 0.16458481497267341 -0.1084741448912044 0 0.14374347907762411 0.01013166170502392 0 0.14235702862779581 -0.010108582017845339 0 0.15924746739114259 -0.01560027189112736 0 0.15701690388062359 0.0017519640960013401 0 0.14374347907762411 0.01013166170502392 0 0.15924746739114259 -0.01560027189112736 0 0.14235702862779581 -0.010108582017845339 0 0.1574287691802235 -0.01729644809382027 0 0.15924746739114259 -0.01560027189112736 0 0.14374347907762411 0.01013166170502392 0 0.15924746739114259 -0.01560027189112736 0 0.12949372161206399 0.002034182974538255 0 0.14235702862779581 -0.010108582017845339 0 0.12578573051774269 -0.01346059975362378 0 0.14235702862779581 -0.010108582017845339 0 0.12578573051774269 -0.01346059975362378 0 0.13817424048821181 -0.02648357481866696 0 0.11383004228011059 -0.02702279847974012 0 0.12578573051774269 -0.01346059975362378 0 0.13817424048821181 -0.02648357481866696 0 0.14235702862779581 -0.010108582017845339 0 0.13817424048821181 -0.02648357481866696 0 0.1574287691802235 -0.01729644809382027 0 0.13817424048821181 -0.02648357481866696 0 0.15125472287846131 -0.031155501573469049 0 0.1574287691802235 -0.01729644809382027 0 0.13817424048821181 -0.02648357481866696 0 0.1574287691802235 -0.01729644809382027 0 0.15125472287846131 -0.031155501573469049 0 0.15580954425373039 -0.037926716530881081 0 0.14451524088987511 -0.039398399500485598 0 0.15125472287846131 -0.031155501573469049 0 0.15580954425373039 -0.037926716530881081 0 0.16138224693453471 -0.028937702620992021 0 0.15580954425373039 -0.037926716530881081 0 0.14451524088987511 -0.039398399500485598 0 0.15163880722236589 -0.047234917982955572 0 0.14451524088987511 -0.039398399500485598 0 0.1417869916842418 -0.051922523362084777 0 0.15163880722236589 -0.047234917982955572 0 0.13817424048821181 -0.02648357481866696 0 0.15125472287846131 -0.031155501573469049 0 0.14451524088987511 -0.039398399500485598 0 0.11383004228011059 -0.02702279847974012 0 0.13817424048821181 -0.02648357481866696 0 0.12842713881223961 -0.041667162734856197 0 0.14451524088987511 -0.039398399500485598 0 0.12842713881223961 -0.041667162734856197 0 0.1417869916842418 -0.051922523362084777 0 0.13817424048821181 -0.02648357481866696 0 0.14451524088987511 -0.039398399500485598 0 0.12842713881223961 -0.041667162734856197 0 0.12842713881223961 -0.041667162734856197 0 0.13069941664593279 -0.055797858977210187 0 0.1417869916842418 -0.051922523362084777 0 0.1194683363675919 -0.054596763324888928 0 0.12842713881223961 -0.041667162734856197 0 0.13069941664593279 -0.055797858977210187 0 0.1378901422382286 -0.065141886520810197 0 0.13069941664593279 -0.055797858977210187 0 0.1417869916842418 -0.051922523362084777 0 0.1378901422382286 -0.065141886520810197 0 0.1482855290232265 -0.062509281753238111 0 0.1417869916842418 -0.051922523362084777 0 0.1482855290232265 -0.062509281753238111 0 0.1417869916842418 -0.051922523362084777 0 0.15083083554059001 -0.055115862924854229 0 0.1417869916842418 -0.051922523362084777 0 0.15163880722236589 -0.047234917982955572 0 0.15083083554059001 -0.055115862924854229 0 0.15163880722236589 -0.047234917982955572 0 0.15083083554059001 -0.055115862924854229 0 0.15874179243661349 -0.055243687967477507 0 0.15652694385902599 -0.063157866606958074 0 0.15083083554059001 -0.055115862924854229 0 0.15874179243661349 -0.055243687967477507 0 0.1482855290232265 -0.062509281753238111 0 0.15652694385902599 -0.063157866606958074 0 0.15083083554059001 -0.055115862924854229 0 0.16531569216686151 -0.06494670594336184 0 0.15874179243661349 -0.055243687967477507 0 0.16793267129860501 -0.055887726399702242 0 0.15652694385902599 -0.063157866606958074 0 0.16531569216686151 -0.06494670594336184 0 0.15874179243661349 -0.055243687967477507 0 0.15163880722236589 -0.047234917982955572 0 0.15874179243661349 -0.055243687967477507 0 0.1629496066103216 -0.046954267614488822 0 0.15874179243661349 -0.055243687967477507 0 0.1629496066103216 -0.046954267614488822 0 0.16793267129860501 -0.055887726399702242 0 0.1629496066103216 -0.046954267614488822 0 0.16793267129860501 -0.055887726399702242 0 0.1751234161863113 -0.047576268233009013 0 0.16531569216686151 -0.06494670594336184 0 0.177532849092917 -0.064717702240173994 0 0.16793267129860501 -0.055887726399702242 0 0.177532849092917 -0.064717702240173994 0 0.1962698546941116 -0.054749279213587992 0 0.177532849092917 -0.064717702240173994 0 0.1751234161863113 -0.047576268233009013 0 0.1962698546941116 -0.054749279213587992 0 0.177532849092917 -0.064717702240173994 0 0.16793267129860501 -0.055887726399702242 0 0.1751234161863113 -0.047576268233009013 0 0.1751234161863113 -0.047576268233009013 0 0.18968165838570189 -0.039414702669574198 0 0.1962698546941116 -0.054749279213587992 0 0.1751234161863113 -0.047576268233009013 0 0.1714968981130513 -0.027690031059151191 0 0.18553062137528001 -0.023249231438568638 0 0.1751234161863113 -0.047576268233009013 0 0.18553062137528001 -0.023249231438568638 0 0.1751234161863113 -0.047576268233009013 0 0.18553062137528001 -0.023249231438568638 0 0.18968165838570189 -0.039414702669574198 0 0.1751234161863113 -0.047576268233009013 0 0.1653523424195899 -0.037816997211704423 0 0.1714968981130513 -0.027690031059151191 0 0.1653523424195899 -0.037816997211704423 0 0.16138224693453471 -0.028937702620992021 0 0.1714968981130513 -0.027690031059151191 0 0.1629496066103216 -0.046954267614488822 0 0.1751234161863113 -0.047576268233009013 0 0.1653523424195899 -0.037816997211704423 0 0.15580954425373039 -0.037926716530881081 0 0.1629496066103216 -0.046954267614488822 0 0.1653523424195899 -0.037816997211704423 0 0.15580954425373039 -0.037926716530881081 0 0.15163880722236589 -0.047234917982955572 0 0.1629496066103216 -0.046954267614488822 0 0.15580954425373039 -0.037926716530881081 0 0.1653523424195899 -0.037816997211704423 0 0.16138224693453471 -0.028937702620992021 0 0.16617923222687581 -0.02073316153348739 0 0.1714968981130513 -0.027690031059151191 0 0.1766832978722353 -0.0081093213689735506 0 0.15125472287846131 -0.031155501573469049 0 0.16138224693453471 -0.028937702620992021 0 0.1574287691802235 -0.01729644809382027 0 0.16138224693453471 -0.028937702620992021 0 0.1574287691802235 -0.01729644809382027 0 0.16617923222687581 -0.02073316153348739 0 0.16138224693453471 -0.028937702620992021 0 0.16617923222687581 -0.02073316153348739 0 0.1714968981130513 -0.027690031059151191 0 0.1714968981130513 -0.027690031059151191 0 0.18553062137528001 -0.023249231438568638 0 0.1766832978722353 -0.0081093213689735506 0 0.19593782656424771 0.001077805355871994 0 0.18553062137528001 -0.023249231438568638 0 0.1766832978722353 -0.0081093213689735506 0 0.19593782656424771 0.001077805355871994 0 0.18341751240963211 0.00061568397150330858 0 0.1766832978722353 -0.0081093213689735506 0 0.19593782656424771 0.001077805355871994 0 0.1766832978722353 -0.0081093213689735506 0 0.17325987661650349 0.0042648455274535337 0 0.18341751240963211 0.00061568397150330858 0 0.1766832978722353 -0.0081093213689735506 0 0.1574287691802235 -0.01729644809382027 0 0.16617923222687581 -0.02073316153348739 0 0.1766832978722353 -0.0081093213689735506 0 0.17325987661650349 0.0042648455274535337 0 0.1766832978722353 -0.0081093213689735506 0 0.16460404253818639 -0.0005485413642497026 0 0.1574287691802235 -0.01729644809382027 0 0.1766832978722353 -0.0081093213689735506 0 0.15924746739114259 -0.01560027189112736 0 0.1766832978722353 -0.0081093213689735506 0 0.16460404253818639 -0.0005485413642497026 0 0.15924746739114259 -0.01560027189112736 0 0.15701690388062359 0.0017519640960013401 0 0.16460404253818639 -0.0005485413642497026 0 0.15924746739114259 -0.01560027189112736 0 0.1574287691802235 -0.01729644809382027 0 0.1766832978722353 -0.0081093213689735506 0 0.20590763576530829 0.0033268355861740722 0 0.20735475128454231 -0.0068777629920839002 0 0.22744893828151519 -0.0091251255713614941 0 0.20590763576530829 0.0033268355861740722 0 0.22744893828151519 -0.0091251255713614941 0 0.20735475128454231 -0.0068777629920839002 0 0.20990048174711651 -0.016729142574554001 0 0.22744893828151519 -0.0091251255713614941 0 0.20735475128454231 -0.0068777629920839002 0 0.2010851656157881 -0.01014334389335826 0 0.20990048174711651 -0.016729142574554001 0 0.20735475128454231 -0.0068777629920839002 0 0.19538333160442831 -0.002738630072423164 0 0.2010851656157881 -0.01014334389335826 0 0.19593782656424771 0.001077805355871994 0 0.18553062137528001 -0.023249231438568638 0 0.18553062137528001 -0.023249231438568638 0 0.19538333160442831 -0.002738630072423164 0 0.19642497237337811 -0.015860786438536511 0 0.19593782656424771 0.001077805355871994 0 0.18553062137528001 -0.023249231438568638 0 0.19538333160442831 -0.002738630072423164 0 0.20590763576530829 0.0033268355861740722 0 0.20735475128454231 -0.0068777629920839002 0 0.19538333160442831 -0.002738630072423164 0 0.2010851656157881 -0.01014334389335826 0 0.19642497237337811 -0.015860786438536511 0 0.20990048174711651 -0.016729142574554001 0 0.19538333160442831 -0.002738630072423164 0 0.2010851656157881 -0.01014334389335826 0 0.19642497237337811 -0.015860786438536511 0 0.18553062137528001 -0.023249231438568638 0 0.1990830391120543 -0.026018368262645031 0 0.18968165838570189 -0.039414702669574198 0 0.19642497237337811 -0.015860786438536511 0 0.1990830391120543 -0.026018368262645031 0 0.20990048174711651 -0.016729142574554001 0 0.18553062137528001 -0.023249231438568638 0 0.19642497237337811 -0.015860786438536511 0 0.1990830391120543 -0.026018368262645031 0 0.1990830391120543 -0.026018368262645031 0 0.20990048174711651 -0.016729142574554001 0 0.21387746167879479 -0.034837978191991817 0 0.21387746167879479 -0.034837978191991817 0 0.2180915561158204 -0.058673476670523757 0 0.21387746167879479 -0.034837978191991817 0 0.18968165838570189 -0.039414702669574198 0 0.1962698546941116 -0.054749279213587992 0 0.1990830391120543 -0.026018368262645031 0 0.21387746167879479 -0.034837978191991817 0 0.18968165838570189 -0.039414702669574198 0 0.21387746167879479 -0.034837978191991817 0 0.1962698546941116 -0.054749279213587992 0 0.2180915561158204 -0.058673476670523757 0 0.1962698546941116 -0.054749279213587992 0 0.2180915561158204 -0.058673476670523757 0 0.2091639558596444 -0.072924240797123979 0 0.21387746167879479 -0.034837978191991817 0 0.2180915561158204 -0.058673476670523757 0 0.23006518668848311 -0.051160718315772957 0 0.2180915561158204 -0.058673476670523757 0 0.23006518668848311 -0.051160718315772957 0 0.23556645458518519 -0.071043548314011246 0 0.23006518668848311 -0.051160718315772957 0 0.24164484712506901 -0.056959101199104911 0 0.23556645458518519 -0.071043548314011246 0 0.24164484712506901 -0.056959101199104911 0 0.24882725861752331 -0.059578121478965212 0 0.24164484712506901 -0.056959101199104911 0 0.24882725861752331 -0.059578121478965212 0 0.24938780400303001 -0.047352155117508059 0 0.24164484712506901 -0.056959101199104911 0 0.24938780400303001 -0.047352155117508059 0 0.23951694682058261 -0.046896674633115747 0 0.23006518668848311 -0.051160718315772957 0 0.24164484712506901 -0.056959101199104911 0 0.23951694682058261 -0.046896674633115747 0 0.23951694682058261 -0.046896674633115747 0 0.24421700669423499 -0.036990757300935741 0 0.23332224291470791 -0.038456946330762118 0 0.24938780400303001 -0.047352155117508059 0 0.23951694682058261 -0.046896674633115747 0 0.24421700669423499 -0.036990757300935741 0 0.24421700669423499 -0.036990757300935741 0 0.23332224291470791 -0.038456946330762118 0 0.23267097837905559 -0.023925579027906381 0 0.21387746167879479 -0.034837978191991817 0 0.23006518668848311 -0.051160718315772957 0 0.23332224291470791 -0.038456946330762118 0 0.21387746167879479 -0.034837978191991817 0 0.23332224291470791 -0.038456946330762118 0 0.23267097837905559 -0.023925579027906381 0 0.23006518668848311 -0.051160718315772957 0 0.23951694682058261 -0.046896674633115747 0 0.23332224291470791 -0.038456946330762118 0 0.20990048174711651 -0.016729142574554001 0 0.21387746167879479 -0.034837978191991817 0 0.23267097837905559 -0.023925579027906381 0 0.20990048174711651 -0.016729142574554001 0 0.23267097837905559 -0.023925579027906381 0 0.22744893828151519 -0.0091251255713614941 0 0.23267097837905559 -0.023925579027906381 0 0.24899024079772161 -0.0215770867288981 0 0.22744893828151519 -0.0091251255713614941 0 0.24421700669423499 -0.036990757300935741 0 0.23267097837905559 -0.023925579027906381 0 0.24899024079772161 -0.0215770867288981 0 0.25308285036203498 -0.03256940699965867 0 0.24421700669423499 -0.036990757300935741 0 0.24899024079772161 -0.0215770867288981 0 0.24899024079772161 -0.0215770867288981 0 0.22744893828151519 -0.0091251255713614941 0 0.24899024079772161 -0.0215770867288981 0 0.2444704141750727 -0.0094373062236474958 0 0.22744893828151519 -0.0091251255713614941 0 0.24899024079772161 -0.0215770867288981 0 0.2444704141750727 -0.0094373062236474958 0 0.2444704141750727 -0.0094373062236474958 0 0.22893458673431399 -0.00089655804134538761 0 0.23914767988150079 0.0048590001187119756 0 0.2444704141750727 -0.0094373062236474958 0 0.23914767988150079 0.0048590001187119756 0 0.2444704141750727 -0.0094373062236474958 0 0.22893458673431399 -0.00089655804134538761 0 0.2444704141750727 -0.0094373062236474958 0 0.22893458673431399 -0.00089655804134538761 0 0.22744893828151519 -0.0091251255713614941 0 0.21339875929355481 0.0076441901409559487 0 0.22893458673431399 -0.00089655804134538761 0 0.22744893828151519 -0.0091251255713614941 0 0.21096444890486279 -0.10904317430457849 0 0.20839902537969471 -0.094532785549715379 0 0.1944924002065429 -0.1065565959503742 0 0.21096444890486279 -0.10904317430457849 0 0.20839902537969471 -0.094532785549715379 0 0.22743649760318321 -0.1115297526587824 0 0.21096444890486279 -0.10904317430457849 0 0.21352987243003041 -0.12355356305944221 0 0.22743649760318321 -0.1115297526587824 0 0.21352987243003041 -0.12355356305944221 0 0.1944924002065429 -0.1065565959503742 0 0.21096444890486279 -0.10904317430457849 0 0.21352987243003041 -0.12355356305944221 0 0.1944924002065429 -0.1065565959503742 0 0.1752179343679314 -0.1232214963077168 0 0.1944924002065429 -0.1065565959503742 0 0.19290765242250421 -0.12572022476840269 0 0.21352987243003041 -0.12355356305944221 0 0.1944924002065429 -0.1065565959503742 0 0.19290765242250421 -0.12572022476840269 0 0.17664412184913261 -0.09062136060856657 0 0.1944924002065429 -0.1065565959503742 0 0.1935229579135003 -0.091704821078326185 0 0.20839902537969471 -0.094532785549715379 0 0.1944924002065429 -0.1065565959503742 0 0.20839902537969471 -0.094532785549715379 0 0.1944924002065429 -0.1065565959503742 0 0.1935229579135003 -0.091704821078326185 0 0.17664412184913261 -0.09062136060856657 0 0.1935229579135003 -0.091704821078326185 0 0.19328188806558419 -0.07731177206989652 0 0.20839902537969471 -0.094532785549715379 0 0.1935229579135003 -0.091704821078326185 0 0.19328188806558419 -0.07731177206989652 0 0.1962698546941116 -0.054749279213587992 0 0.19328188806558419 -0.07731177206989652 0 0.2091639558596444 -0.072924240797123979 0 0.177532849092917 -0.064717702240173994 0 0.1962698546941116 -0.054749279213587992 0 0.19328188806558419 -0.07731177206989652 0 0.2180915561158204 -0.058673476670523757 0 0.2091639558596444 -0.072924240797123979 0 0.22230565055284579 -0.082508975149055808 0 0.20839902537969471 -0.094532785549715379 0 0.2091639558596444 -0.072924240797123979 0 0.22230565055284579 -0.082508975149055808 0 0.20839902537969471 -0.094532785549715379 0 0.19328188806558419 -0.07731177206989652 0 0.2091639558596444 -0.072924240797123979 0 0.20839902537969471 -0.094532785549715379 0 0.22230565055284579 -0.082508975149055808 0 0.22230565055284579 -0.082508975149055808 0 0.23556645458518519 -0.071043548314011246 0 0.23987473258963221 -0.089432530605184413 0 0.2180915561158204 -0.058673476670523757 0 0.22230565055284579 -0.082508975149055808 0 0.23556645458518519 -0.071043548314011246 0 0.2180915561158204 -0.058673476670523757 0 0.22230565055284579 -0.082508975149055808 0 0.22230565055284579 -0.082508975149055808 0 0.23556645458518519 -0.071043548314011246 0 0.25078634396980071 -0.075245354593830374 0 0.24882725861752331 -0.059578121478965212 0 0.23556645458518519 -0.071043548314011246 0 0.24164484712506901 -0.056959101199104911 0 0.24882725861752331 -0.059578121478965212 0 0.23556645458518519 -0.071043548314011246 0 0.24882725861752331 -0.059578121478965212 0 0.23556645458518519 -0.071043548314011246 0 0.25669975304008619 -0.089885429800622307 0 0.25078634396980071 -0.075245354593830374 0 0.23987473258963221 -0.089432530605184413 0 0.25078634396980071 -0.075245354593830374 0 0.23556645458518519 -0.071043548314011246 0 0.23987473258963221 -0.089432530605184413 0 0.23987473258963221 -0.089432530605184413 0 0.24895986423086119 -0.10814680445365769 0 0.22743649760318321 -0.1115297526587824 0 0.25669975304008619 -0.089885429800622307 0 0.23987473258963221 -0.089432530605184413 0 0.24895986423086119 -0.10814680445365769 0 0.22230565055284579 -0.082508975149055808 0 0.22743649760318321 -0.1115297526587824 0 0.22230565055284579 -0.082508975149055808 0 0.23987473258963221 -0.089432530605184413 0 0.22743649760318321 -0.1115297526587824 0 0.20839902537969471 -0.094532785549715379 0 0.22230565055284579 -0.082508975149055808 0 0.22743649760318321 -0.1115297526587824 0 0.24895986423086119 -0.10814680445365769 0 0.22743649760318321 -0.1115297526587824 0 0.2442740601995684 -0.12974252718241039 0 0.22743649760318321 -0.1115297526587824 0 0.2442740601995684 -0.12974252718241039 0 0.2325673446535188 -0.1405505301685093 0 0.2442740601995684 -0.12974252718241039 0 0.24255634751865959 -0.14946887558527891 0 0.2325673446535188 -0.1405505301685093 0 0.24255634751865959 -0.14946887558527891 0 0.2325673446535188 -0.1405505301685093 0 0.23582954507630841 -0.1590019850127225 0 0.25383149558425172 -0.14596201818091509 0 0.2442740601995684 -0.12974252718241039 0 0.24255634751865959 -0.14946887558527891 0 0.25383149558425172 -0.14596201818091509 0 0.24255634751865959 -0.14946887558527891 0 0.2457441474414723 -0.15902650193771031 0 0.24255634751865959 -0.14946887558527891 0 0.2325673446535188 -0.1405505301685093 0 0.24255634751865959 -0.14946887558527891 0 0.23582954507630841 -0.1590019850127225 0 0.2457441474414723 -0.15902650193771031 0 0.2325673446535188 -0.1405505301685093 0 0.21777455516178901 -0.14704202368010569 0 0.23582954507630841 -0.1590019850127225 0 0.2325673446535188 -0.1405505301685093 0 0.23582954507630841 -0.1590019850127225 0 0.21352987243003041 -0.12355356305944221 0 0.2325673446535188 -0.1405505301685093 0 0.21352987243003041 -0.12355356305944221 0 0.22743649760318321 -0.1115297526587824 0 0.2325673446535188 -0.1405505301685093 0 0.22743649760318321 -0.1115297526587824 0 0.2325673446535188 -0.1405505301685093 0 0.21352987243003041 -0.12355356305944221 0 0.2325673446535188 -0.1405505301685093 0 0.21777455516178901 -0.14704202368010569 0 0.21352987243003041 -0.12355356305944221 0 0.21777455516178901 -0.14704202368010569 0 0.20096425806957249 -0.13804348554765611 0 0.21777455516178901 -0.14704202368010569 0 0.20096425806957249 -0.13804348554765611 0 0.20194463151290801 -0.15651878827583871 0 0.21777455516178901 -0.14704202368010569 0 0.20194463151290801 -0.15651878827583871 0 0.2198317545642893 -0.165081830530697 0 0.20096425806957249 -0.13804348554765611 0 0.20194463151290801 -0.15651878827583871 0 0.18341918449566499 -0.14383001414573909 0 0.20194463151290801 -0.15651878827583871 0 0.18341918449566499 -0.14383001414573909 0 0.18522032609526429 -0.16564530774154601 0 0.21352987243003041 -0.12355356305944221 0 0.20096425806957249 -0.13804348554765611 0 0.19290765242250421 -0.12572022476840269 0 0.20096425806957249 -0.13804348554765611 0 0.19290765242250421 -0.12572022476840269 0 0.18341918449566499 -0.14383001414573909 0 0.20158046135979321 -0.1720183828543736 0 0.18522032609526429 -0.16564530774154601 0 0.18389788247934569 -0.1859179870116138 0 0.20158046135979321 -0.1720183828543736 0 0.20224098673050939 -0.18852687472124641 0 0.18389788247934569 -0.1859179870116138 0 0.20158046135979321 -0.1720183828543736 0 0.20194463151290801 -0.15651878827583871 0 0.18522032609526429 -0.16564530774154601 0 0.20158046135979321 -0.1720183828543736 0 0.20194463151290801 -0.15651878827583871 0 0.2198317545642893 -0.165081830530697 0 0.20158046135979321 -0.1720183828543736 0 0.21691473836265529 -0.17981598739939811 0 0.2198317545642893 -0.165081830530697 0 0.20158046135979321 -0.1720183828543736 0 0.21691473836265529 -0.17981598739939811 0 0.20224098673050939 -0.18852687472124641 0 0.21691473836265529 -0.17981598739939811 0 0.2136315331754752 -0.1915906712411585 0 0.20224098673050939 -0.18852687472124641 0 0.21691473836265529 -0.17981598739939811 0 0.2363404823827166 -0.1735149084677525 0 0.22670990022838369 -0.19287367212165329 0 0.21691473836265529 -0.17981598739939811 0 0.2198317545642893 -0.165081830530697 0 0.2363404823827166 -0.1735149084677525 0 0.21777455516178901 -0.14704202368010569 0 0.2198317545642893 -0.165081830530697 0 0.23582954507630841 -0.1590019850127225 0 0.2198317545642893 -0.165081830530697 0 0.23582954507630841 -0.1590019850127225 0 0.2363404823827166 -0.1735149084677525 0 0.25504809089951319 -0.16596793489827341 0 0.2457441474414723 -0.15902650193771031 0 0.2363404823827166 -0.1735149084677525 0 0.23582954507630841 -0.1590019850127225 0 0.2457441474414723 -0.15902650193771031 0 0.2363404823827166 -0.1735149084677525 0 0.25035932680677792 -0.19167626156947479 0 0.2363404823827166 -0.1735149084677525 0 0.22670990022838369 -0.19287367212165329 0 0.25035932680677792 -0.19167626156947479 0 0.25504809089951319 -0.16596793489827341 0 0.2363404823827166 -0.1735149084677525 0 0.25035932680677792 -0.19167626156947479 0 0.22843043437170249 -0.2100366825603204 0 0.22670990022838369 -0.19287367212165329 0 0.25035932680677792 -0.19167626156947479 0 0.22843043437170249 -0.2100366825603204 0 0.24984927567372611 -0.21533511008433351 0 0.22843043437170249 -0.2100366825603204 0 0.24984927567372611 -0.21533511008433351 0 0.22843043437170249 -0.2100366825603204 0 0.2314007297958699 -0.2146683680114366 0 0.25035932680677792 -0.19167626156947479 0 0.24984927567372611 -0.21533511008433351 0 0.22843043437170249 -0.2100366825603204 0 0.22843043437170249 -0.2100366825603204 0 0.2123278170596857 -0.2235189336033005 0 0.22843043437170249 -0.2100366825603204 0 0.2314007297958699 -0.2146683680114366 0 0.2251391712982026 -0.22373483452334991 0 0.22843043437170249 -0.2100366825603204 0 0.22670990022838369 -0.19287367212165329 0 0.20866050738035241 -0.20514615072233619 0 0.21691473836265529 -0.17981598739939811 0 0.22670990022838369 -0.19287367212165329 0 0.2136315331754752 -0.1915906712411585 0 0.25560193416489979 -0.24659806198470721 0 0.25165868265973951 -0.23048189306851599 0 0.24184400614806209 -0.24158664041967859 0 0.25560193416489979 -0.24659806198470721 0 0.24795738451006311 -0.2577032562273871 0 0.24184400614806209 -0.24158664041967859 0 0.24184400614806209 -0.24158664041967859 0 0.2379480997640562 -0.2269920595752157 0 0.2288238766813975 -0.23612894300476431 0 0.25165868265973951 -0.23048189306851599 0 0.2314007297958699 -0.2146683680114366 0 0.25165868265973951 -0.23048189306851599 0 0.2314007297958699 -0.2146683680114366 0 0.2379480997640562 -0.2269920595752157 0 0.25165868265973951 -0.23048189306851599 0 0.24984927567372611 -0.21533511008433351 0 0.2314007297958699 -0.2146683680114366 0 0.25165868265973951 -0.23048189306851599 0 0.24184400614806209 -0.24158664041967859 0 0.2379480997640562 -0.2269920595752157 0 0.22843043437170249 -0.2100366825603204 0 0.2251391712982026 -0.22373483452334991 0 0.2123278170596857 -0.2235189336033005 0 0.2314007297958699 -0.2146683680114366 0 0.2379480997640562 -0.2269920595752157 0 0.23131477210800919 -0.2238856264557402 0 0.2314007297958699 -0.2146683680114366 0 0.23131477210800919 -0.2238856264557402 0 0.2251391712982026 -0.22373483452334991 0 0.2251391712982026 -0.22373483452334991 0 0.2288238766813975 -0.23612894300476431 0 0.21732477700780711 -0.2352094196163883 0 0.23131477210800919 -0.2238856264557402 0 0.2251391712982026 -0.22373483452334991 0 0.2288238766813975 -0.23612894300476431 0 0.2379480997640562 -0.2269920595752157 0 0.23131477210800919 -0.2238856264557402 0 0.2288238766813975 -0.23612894300476431 0 0.23050685115701741 -0.25438840625252512 0 0.2288238766813975 -0.23612894300476431 0 0.21408358472910211 -0.24829254544199941 0 0.23050685115701741 -0.25438840625252512 0 0.24184400614806209 -0.24158664041967859 0 0.2288238766813975 -0.23612894300476431 0 0.2288238766813975 -0.23612894300476431 0 0.21408358472910211 -0.24829254544199941 0 0.21732477700780711 -0.2352094196163883 0 0.21408358472910211 -0.24829254544199941 0 0.21732477700780711 -0.2352094196163883 0 0.19622519974765479 -0.23700118464626391 0 0.2123278170596857 -0.2235189336033005 0 0.19622519974765479 -0.23700118464626391 0 0.21732477700780711 -0.2352094196163883 0 0.2123278170596857 -0.2235189336033005 0 0.19622519974765479 -0.23700118464626391 0 0.2251391712982026 -0.22373483452334991 0 0.21732477700780711 -0.2352094196163883 0 0.2123278170596857 -0.2235189336033005 0 0.2123278170596857 -0.2235189336033005 0 0.19524045239889379 -0.2214585813895194 0 0.19622519974765479 -0.23700118464626391 0 0.19524045239889379 -0.2214585813895194 0 0.19622519974765479 -0.23700118464626391 0 0.1786639468208967 -0.22499517674962571 0 0.1973869591089423 -0.25854664610706002 0 0.1801225824356335 -0.2504834356892387 0 0.19622519974765479 -0.23700118464626391 0 0.1973869591089423 -0.25854664610706002 0 0.21408358472910211 -0.24829254544199941 0 0.19622519974765479 -0.23700118464626391 0 0.1801225824356335 -0.2504834356892387 0 0.19622519974765479 -0.23700118464626391 0 0.2136315331754752 -0.1915906712411585 0 0.20866050738035241 -0.20514615072233619 0 0.20224098673050939 -0.18852687472124641 0 0.22670990022838369 -0.19287367212165329 0 0.2136315331754752 -0.1915906712411585 0 0.20866050738035241 -0.20514615072233619 0 0.22843043437170249 -0.2100366825603204 0 0.2123278170596857 -0.2235189336033005 0 0.20866050738035241 -0.20514615072233619 0 0.22843043437170249 -0.2100366825603204 0 0.20866050738035241 -0.20514615072233619 0 0.2123278170596857 -0.2235189336033005 0 0.20866050738035241 -0.20514615072233619 0 0.1960998068429588 -0.20848908251978829 0 0.2123278170596857 -0.2235189336033005 0 0.19524045239889379 -0.2214585813895194 0 0.1960998068429588 -0.20848908251978829 0 0.20866050738035241 -0.20514615072233619 0 0.1960998068429588 -0.20848908251978829 0 0.19235270594087561 -0.19715425638937101 0 0.19524045239889379 -0.2214585813895194 0 0.1960998068429588 -0.20848908251978829 0 0.18058355032947701 -0.2065071732792971 0 0.1960998068429588 -0.20848908251978829 0 0.19235270594087561 -0.19715425638937101 0 0.18058355032947701 -0.2065071732792971 0 0.20866050738035241 -0.20514615072233619 0 0.19235270594087561 -0.19715425638937101 0 0.20224098673050939 -0.18852687472124641 0 0.19235270594087561 -0.19715425638937101 0 0.20224098673050939 -0.18852687472124641 0 0.18389788247934569 -0.1859179870116138 0 0.18058355032947701 -0.2065071732792971 0 0.16784960947632069 -0.19445123273982709 0 0.18389788247934569 -0.1859179870116138 0 0.16784960947632069 -0.19445123273982709 0 0.18389788247934569 -0.1859179870116138 0 0.19235270594087561 -0.19715425638937101 0 0.18058355032947701 -0.2065071732792971 0 0.18389788247934569 -0.1859179870116138 0 0.19524045239889379 -0.2214585813895194 0 0.18058355032947701 -0.2065071732792971 0 0.1786639468208967 -0.22499517674962571 0 0.18058355032947701 -0.2065071732792971 0 0.16857400180744789 -0.2161364336104217 0 0.1786639468208967 -0.22499517674962571 0 0.18058355032947701 -0.2065071732792971 0 0.16425972322201729 -0.20581213891196801 0 0.16857400180744789 -0.2161364336104217 0 0.16425972322201729 -0.20581213891196801 0 0.16857400180744789 -0.2161364336104217 0 0.15562114279325989 -0.21247161824508071 0 0.16425972322201729 -0.20581213891196801 0 0.15180133647329541 -0.2029844784680396 0 0.15562114279325989 -0.21247161824508071 0 0.16425972322201729 -0.20581213891196801 0 0.16784960947632069 -0.19445123273982709 0 0.15180133647329541 -0.2029844784680396 0 0.15642721869538881 -0.18937294249779851 0 0.16784960947632069 -0.19445123273982709 0 0.15180133647329541 -0.2029844784680396 0 0.18058355032947701 -0.2065071732792971 0 0.16425972322201729 -0.20581213891196801 0 0.16784960947632069 -0.19445123273982709 0 0.16784960947632069 -0.19445123273982709 0 0.15180133647329541 -0.2029844784680396 0 0.15642721869538881 -0.18937294249779851 0 0.16784960947632069 -0.19445123273982709 0 0.16159166139844169 -0.18190084769253151 0 0.1801225824356335 -0.2504834356892387 0 0.19622519974765479 -0.23700118464626391 0 0.17963068302446389 -0.2377257192996953 0 0.1801225824356335 -0.2504834356892387 0 0.16953207428116379 -0.24553721044775009 0 0.1801225824356335 -0.2504834356892387 0 0.17963068302446389 -0.2377257192996953 0 0.16953207428116379 -0.24553721044775009 0 0.19622519974765479 -0.23700118464626391 0 0.17963068302446389 -0.2377257192996953 0 0.1786639468208967 -0.22499517674962571 0 0.19524045239889379 -0.2214585813895194 0 0.1786639468208967 -0.22499517674962571 0 0.17963068302446389 -0.2377257192996953 0 0.1786639468208967 -0.22499517674962571 0 0.16208744124289959 -0.2285317721097313 0 0.1786639468208967 -0.22499517674962571 0 0.16208744124289959 -0.2285317721097313 0 0.16857400180744789 -0.2161364336104217 0 0.16208744124289959 -0.2285317721097313 0 0.15562114279325989 -0.21247161824508071 0 0.16857400180744789 -0.2161364336104217 0 0.1786639468208967 -0.22499517674962571 0 0.16208744124289959 -0.2285317721097313 0 0.16208744124289959 -0.2285317721097313 0 0.15562114279325989 -0.21247161824508071 0 0.17963068302446389 -0.2377257192996953 0 0.16208744124289959 -0.2285317721097313 0 0.16953207428116379 -0.24553721044775009 0 0.16208744124289959 -0.2285317721097313 0 0.16953207428116379 -0.24553721044775009 0 0.1422041229892243 -0.2327738755342785 0 0.16208744124289959 -0.2285317721097313 0 0.16953207428116379 -0.24553721044775009 0 0.15188635566873859 -0.25315609994904509 0 0.1422041229892243 -0.2327738755342785 0 0.13360438743528111 -0.24792201064071129 0 0.15188635566873859 -0.25315609994904509 0 0.16953207428116379 -0.24553721044775009 0 0.1422041229892243 -0.2327738755342785 0 0.16953207428116379 -0.24553721044775009 0 0.1422041229892243 -0.2327738755342785 0 0.1422041229892243 -0.2327738755342785 0 0.14741114933555999 -0.21924459225947571 0 0.13428011488398131 -0.2123009257425798 0 0.16208744124289959 -0.2285317721097313 0 0.14741114933555999 -0.21924459225947571 0 0.15562114279325989 -0.21247161824508071 0 0.16208744124289959 -0.2285317721097313 0 0.1422041229892243 -0.2327738755342785 0 0.14741114933555999 -0.21924459225947571 0 0.16208744124289959 -0.2285317721097313 0 0.1422041229892243 -0.2327738755342785 0 0.1169545412744107 -0.22151334236615419 0 0.1422041229892243 -0.2327738755342785 0 0.1169545412744107 -0.22151334236615419 0 0.1422041229892243 -0.2327738755342785 0 0.13428011488398131 -0.2123009257425798 0 0.1169545412744107 -0.22151334236615419 0 0.1162185524860733 -0.2383178937013635 0 0.1422041229892243 -0.2327738755342785 0 0.1162185524860733 -0.2383178937013635 0 0.1422041229892243 -0.2327738755342785 0 0.13360438743528111 -0.24792201064071129 0 0.1162185524860733 -0.2383178937013635 0 0.1422041229892243 -0.2327738755342785 0 0.14446728585931851 -0.1882828485776204 0 0.15180133647329541 -0.2029844784680396 0 0.14305629074414891 -0.18152816382131631 0 0.15180133647329541 -0.2029844784680396 0 0.14305629074414891 -0.18152816382131631 0 0.15096039959246649 -0.18850626305253579 0 0.15180133647329541 -0.2029844784680396 0 0.14305629074414891 -0.18152816382131631 0 0.14446728585931851 -0.1882828485776204 0 0.15180133647329541 -0.2029844784680396 0 0.13886255318721891 -0.1983119118400673 0 0.14446728585931851 -0.1882828485776204 0 0.15180133647329541 -0.2029844784680396 0 0.15642721869538881 -0.18937294249779851 0 0.15096039959246649 -0.18850626305253579 0 0.15180133647329541 -0.2029844784680396 0 0.14741114933555999 -0.21924459225947571 0 0.15180133647329541 -0.2029844784680396 0 0.13428011488398131 -0.2123009257425798 0 0.15180133647329541 -0.2029844784680396 0 0.13428011488398131 -0.2123009257425798 0 0.13886255318721891 -0.1983119118400673 0 0.14741114933555999 -0.21924459225947571 0 0.15180133647329541 -0.2029844784680396 0 0.15562114279325989 -0.21247161824508071 0 0.15180133647329541 -0.2029844784680396 0 0.15562114279325989 -0.21247161824508071 0 0.15180133647329541 -0.2029844784680396 0 0.13428011488398131 -0.2123009257425798 0 0.1169545412744107 -0.22151334236615419 0 0.13428011488398131 -0.2123009257425798 0 0.12618997707797541 -0.2063940539986841 0 0.1169545412744107 -0.22151334236615419 0 0.13428011488398131 -0.2123009257425798 0 0.13428011488398131 -0.2123009257425798 0 0.12618997707797541 -0.2063940539986841 0 0.13886255318721891 -0.1983119118400673 0 0.12618997707797541 -0.2063940539986841 0 0.13886255318721891 -0.1983119118400673 0 0.13133917971832279 -0.19230084760348409 0 0.1181933240506801 -0.19322868764471021 0 0.12618997707797541 -0.2063940539986841 0 0.13133917971832279 -0.19230084760348409 0 0.13886255318721891 -0.1983119118400673 0 0.13133917971832279 -0.19230084760348409 0 0.13616876172927639 -0.18628613504777949 0 0.14446728585931851 -0.1882828485776204 0 0.13886255318721891 -0.1983119118400673 0 0.13616876172927639 -0.18628613504777949 0 0.13133917971832279 -0.19230084760348409 0 0.12553906435139259 -0.18447572242809909 0 0.13616876172927639 -0.18628613504777949 0 0.1181933240506801 -0.19322868764471021 0 0.13133917971832279 -0.19230084760348409 0 0.12553906435139259 -0.18447572242809909 0 0.13553453684246389 -0.17636279456591711 0 0.14305629074414891 -0.18152816382131631 0 0.1343112450150025 -0.16007184917459291 0 0.12553906435139259 -0.18447572242809909 0 0.1286018498814277 -0.17756503021997949 0 0.13616876172927639 -0.18628613504777949 0 0.1286018498814277 -0.17756503021997949 0 0.13553453684246389 -0.17636279456591711 0 0.13616876172927639 -0.18628613504777949 0 0.13553453684246389 -0.17636279456591711 0 0.13616876172927639 -0.18628613504777949 0 0.14305629074414891 -0.18152816382131631 0 0.14446728585931851 -0.1882828485776204 0 0.13616876172927639 -0.18628613504777949 0 0.14305629074414891 -0.18152816382131631 0 0.14305629074414891 -0.18152816382131631 0 0.1525567524570331 -0.18013946742298881 0 0.14800129943058271 -0.16963871600925509 0 0.1525567524570331 -0.18013946742298881 0 0.14800129943058271 -0.16963871600925509 0 0.15866090245786149 -0.1702642940157669 0 0.15642721869538881 -0.18937294249779851 0 0.15096039959246649 -0.18850626305253579 0 0.1525567524570331 -0.18013946742298881 0 0.15096039959246649 -0.18850626305253579 0 0.14305629074414891 -0.18152816382131631 0 0.1525567524570331 -0.18013946742298881 0 0.14305629074414891 -0.18152816382131631 0 0.14800129943058271 -0.16963871600925509 0 0.1343112450150025 -0.16007184917459291 0 0.1525901734376047 -0.1570067244237443 0 0.14800129943058271 -0.16963871600925509 0 0.1343112450150025 -0.16007184917459291 0 0.1525901734376047 -0.1570067244237443 0 0.14800129943058271 -0.16963871600925509 0 0.15866090245786149 -0.1702642940157669 0 0.14305629074414891 -0.18152816382131631 0 0.1343112450150025 -0.16007184917459291 0 0.1193974015457006 -0.16573644537516899 0 0.1286018498814277 -0.17756503021997949 0 0.1343112450150025 -0.16007184917459291 0 0.1286018498814277 -0.17756503021997949 0 0.13553453684246389 -0.17636279456591711 0 0.1343112450150025 -0.16007184917459291 0 0.1193974015457006 -0.16573644537516899 0 0.1343112450150025 -0.16007184917459291 0 0.12556619928585611 -0.13861553452786959 0 0.1343112450150025 -0.16007184917459291 0 0.13444046604097501 -0.1413751602008293 0 0.12556619928585611 -0.13861553452786959 0 0.1343112450150025 -0.16007184917459291 0 0.12556619928585611 -0.13861553452786959 0 0.1343112450150025 -0.16007184917459291 0 0.13444046604097501 -0.1413751602008293 0 0.14507788791901169 -0.14309244685263831 0 0.13193042709743341 -0.1213594743776511 0 0.12875565592263391 -0.12809429938570999 0 0.1371125260112642 -0.13100173381717989 0 0.12875565592263391 -0.12809429938570999 0 0.1301344719737407 -0.13409423663186559 0 0.1371125260112642 -0.13100173381717989 0 0.123348828340062 -0.12687639016292321 0 0.12630050298042411 -0.12245592564795341 0 0.12875565592263391 -0.12809429938570999 0 0.1237071791328791 -0.13277803567668681 0 0.123348828340062 -0.12687639016292321 0 0.12875565592263391 -0.12809429938570999 0 0.1237071791328791 -0.13277803567668681 0 0.12875565592263391 -0.12809429938570999 0 0.1301344719737407 -0.13409423663186559 0 0.13444046604097501 -0.1413751602008293 0 0.1301344719737407 -0.13409423663186559 0 0.12556619928585611 -0.13861553452786959 0 0.1237071791328791 -0.13277803567668681 0 0.1301344719737407 -0.13409423663186559 0 0.12556619928585611 -0.13861553452786959 0 0.13444046604097501 -0.1413751602008293 0 0.1301344719737407 -0.13409423663186559 0 0.1371125260112642 -0.13100173381717989 0 0.13444046604097501 -0.1413751602008293 0 0.1371125260112642 -0.13100173381717989 0 0.14507788791901169 -0.14309244685263831 0 0.15156751390321649 -0.12848562061151469 0 0.14507788791901169 -0.14309244685263831 0 0.16251919893843531 -0.1426839067643951 0 0.141457361289023 -0.1186638722253137 0 0.1371125260112642 -0.13100173381717989 0 0.15156751390321649 -0.12848562061151469 0 0.1371125260112642 -0.13100173381717989 0 0.15156751390321649 -0.12848562061151469 0 0.14507788791901169 -0.14309244685263831 0 0.1525901734376047 -0.1570067244237443 0 0.1343112450150025 -0.16007184917459291 0 0.14507788791901169 -0.14309244685263831 0 0.1525901734376047 -0.1570067244237443 0 0.14507788791901169 -0.14309244685263831 0 0.16251919893843531 -0.1426839067643951 0 0.1525901734376047 -0.1570067244237443 0 0.16251919893843531 -0.1426839067643951 0 0.16851820186957051 -0.15952371773606819 0 0.16251919893843531 -0.1426839067643951 0 0.18341918449566499 -0.14383001414573909 0 0.16851820186957051 -0.15952371773606819 0 0.1752179343679314 -0.1232214963077168 0 0.15156751390321649 -0.12848562061151469 0 0.16251919893843531 -0.1426839067643951 0 0.1752179343679314 -0.1232214963077168 0 0.19290765242250421 -0.12572022476840269 0 0.18341918449566499 -0.14383001414573909 0 0.1752179343679314 -0.1232214963077168 0 0.16251919893843531 -0.1426839067643951 0 0.18341918449566499 -0.14383001414573909 0 0.18341918449566499 -0.14383001414573909 0 0.18522032609526429 -0.16564530774154601 0 0.16851820186957051 -0.15952371773606819 0 0.18522032609526429 -0.16564530774154601 0 0.1724638239056043 -0.1752763017862759 0 0.16851820186957051 -0.15952371773606819 0 0.18522032609526429 -0.16564530774154601 0 0.18389788247934569 -0.1859179870116138 0 0.1724638239056043 -0.1752763017862759 0 0.16784960947632069 -0.19445123273982709 0 0.18389788247934569 -0.1859179870116138 0 0.1724638239056043 -0.1752763017862759 0 0.1724638239056043 -0.1752763017862759 0 0.16159166139844169 -0.18190084769253151 0 0.15866090245786149 -0.1702642940157669 0 0.16784960947632069 -0.19445123273982709 0 0.1724638239056043 -0.1752763017862759 0 0.16159166139844169 -0.18190084769253151 0 0.15642721869538881 -0.18937294249779851 0 0.1525567524570331 -0.18013946742298881 0 0.16159166139844169 -0.18190084769253151 0 0.1525567524570331 -0.18013946742298881 0 0.16159166139844169 -0.18190084769253151 0 0.15866090245786149 -0.1702642940157669 0 0.1724638239056043 -0.1752763017862759 0 0.16851820186957051 -0.15952371773606819 0 0.15866090245786149 -0.1702642940157669 0 0.1525901734376047 -0.1570067244237443 0 0.16851820186957051 -0.15952371773606819 0 0.15866090245786149 -0.1702642940157669 0 
</DataArray>
</Points>
<Cells>
<DataArray type="UInt32" Name="connectivity" format="ascii">
0 1 2 3 4 5 6 7 8 9 10 11 12 13 14 15 16 17 18 19 20 21 22 23 24 25 26 27 28 29 30 31 32 33 34 35 36 37 38 39 40 41 42 43 44 45 46 47 48 49 50 51 52 53 54 55 56 57 58 59 60 61 62 63 64 65 66 67 68 69 70 71 72 73 74 75 76 77 78 79 80 81 82 83 84 85 86 87 88 89 90 91 92 93 94 95 96 97 98 99 100 101 102 103 104 105 106 107 108 109 110 111 112 113 114 115 116 117 118 119 120 121 122 123 124 125 126 127 128 129 130 131 132 133 134 135 136 137 138 139 140 141 142 143 144 145 146 147 148 149 150 151 152 153 154 155 156 157 158 159 160 161 162 163 164 165 166 167 168 169 170 171 172 173 174 175 176 177 178 179 180 181 182 183 184 185 186 187 188 189 190 191 192 193 194 195 196 197 198 199 200 201 202 203 204 205 206 207 208 209 210 211 212 213 214 215 216 217 218 219 220 221 222 223 224 225 226 227 228 229 230 231 232 233 234 235 236 237 238 239 240 241 242 243 244 245 246 247 248 249 250 251 252 253 254 255 256 257 258 259 260 261 262 263 264 265 266 267 268 269 270 271 272 273 274 275 276 277 278 279 280 281 282 283 284 285 286 287 288 289 290 291 292 293 294 295 296 297 298 299 300 301 302 303 304 305 306 307 308 309 310 311 312 313 314 315 316 317 318 319 320 321 322 323 324 325 326 327 328 329 330 331 332 333 334 335 336 337 338 339 340 341 342 343 344 345 346 347 348 349 350 351 352 353 354 355 356 357 358 359 360 361 362 363 364 365 366 367 368 369 370 371 372 373 374 375 376 377 378 379 380 381 382 383 384 385 386 387 388 389 390 391 392 393 394 395 396 397 398 399 400 401 402 403 404 405 406 407 408 409 410 411 412 413 414 415 416 417 418 419 420 421 422 423 424 425 426 427 428 429 430 431 432 433 434 435 436 437 438 439 440 441 442 443 444 445 446 447 448 449 450 451 452 453 454 455 456 457 458 459 460 461 462 463 464 465 466 467 468 469 470 471 472 473 474 475 476 477 478 479 480 481 482 483 484 485 486 487 488 489 490 491 492 493 494 495 496 497 498 499 500 501 502 503 504 505 506 507 508 509 510 511 512 513 514 515 516 517 518 519 520 521 522 523 524 525 526 527 528 529 530 531 532 533 534 535 536 537 538 539 540 541 542 543 544 545 546 547 548 549 550 551 552 553 554 555 556 557 558 559 560 561 562 563 564 565 566 567 568 569 570 571 572 573 574 575 576 577 578 579 580 581 582 583 584 585 586 587 588 589 590 591 592 593 594 595 596 597 598 599 600 601 602 603 604 605 606 607 608 609 610 611 612 613 614 615 616 617 618 619 620 621 622 623 624 625 626 627 628 629 630 631 632 633 634 635 636 637 638 639 640 641 642 643 644 645 646 647 648 649 650 651 652 653 654 655 656 657 658 659 660 661 662 663 664 665 666 667 668 669 670 671 672 673 674 675 676 677 678 679 680 681 682 683 684 685 686 687 688 689 690 691 692 693 694 695 696 697 698 699 700 701 702 703 704 705 706 707 708 709 710 711 712 713 714 715 716 717 718 719 720 721 722 723 724 725 726 727 728 729 730 731 732 733 734 735 736 737 738 739 740 741 742 743 744 745 746 747 748 749 750 751 752 753 754 755 756 757 758 759 760 761 762 763 764 765 766 767 768 769 770 771 772 773 774 775 776 777 778 779 780 781 782 783 784 785 786 787 788 789 790 791 792 793 794 795 796 797 798 799 800 801 802 803 804 805 806 807 808 809 810 811 812 813 814 815 816 817 818 819 820 821 822 823 824 825 826 827 828 829 830 831 832 833 834 835 836 837 838 839 840 841 842 843 844 845 846 847 848 849 850 851 852 853 854 855 856 857 858 859 860 861 862 863 864 865 866 867 868 869 870 871 872 873 874 875 876 877 878 879 880 881 882 883 884 885 886 887 888 889 890 891 892 893 894 895 896 897 898 899 900 901 902 903 904 905 906 907 908 909 910 911 912 913 914 915 916 917 918 919 920 921 922 923 924 925 926 927 928 929 930 931 932 933 934 935 936 937 938 939 940 941 942 943 944 945 946 947 948 949 950 951 952 953 954 955 956 957 958 959 960 961 962 963 964 965 966 967 968 969 970 971 972 973 974 975 976 977 978 979 980 981 982 983 984 985 986 987 988 989 990 991 992 993 994 995 996 997 998 999 1000 1001 1002 1003 1004 1005 1006 1007 1008 1009 1010 1011 1012 1013 1014 1015 1016 1017 1018 1019 1020 1021 1022 1023 1024 1025 1026 1027 1028 1029 1030 1031 1032 1033 1034 1035 1036 1037 1038 1039 1040 1041 1042 1043 1044 1045 1046 1047 1048 1049 1050 1051 1052 1053 1054 1055 1056 1057 1058 1059 1060 1061 1062 1063 1064 1065 1066 1067 1068 1069 1070 1071 1072 1073 1074 1075 1076 1077 1078 1079 1080 1081 1082 1083 1084 1085 1086 1087 1088 1089 1090 1091 1092 1093 1094 1095 1096 1097 1098 1099 1100 1101 1102 1103 1104 1105 1106 1107 1108 1109 1110 1111 1112 1113 1114 1115 1116 1117 1118 1119 1120 1121 1122 1123 1124 1125 1126 1127 1128 1129 1130 1131 1132 1133 1134 1135 1136 1137 1138 1139 1140 1141 1142 1143 1144 1145 1146 1147 1148 1149 1150 1151 1152 1153 1154 1155 1156 1157 1158 1159 1160 1161 1162 1163 1164 1165 1166 1167 1168 1169 1170 1171 1172 1173 1174 1175 1176 1177 1178 1179 1180 1181 1182 1183 1184 1185 1186 1187 1188 1189 1190 1191 1192 1193 1194 1195 1196 1197 1198 1199 1200 1201 1202 1203 1204 1205 1206 1207 1208 1209 1210 1211 1212 1213 1214 1215 1216 1217 1218 1219 1220 1221 1222 1223 1224 1225 1226 1227 1228 1229 1230 1231 1232 1233 1234 1235 1236 1237 1238 1239 1240 1241 1242 1243 1244 1245 1246 1247 1248 1249 1250 1251 1252 1253 1254 1255 1256 1257 1258 1259 1260 1261 1262 1263 1264 1265 1266 1267 1268 1269 1270 1271 1272 1273 1274 1275 1276 1277 1278 1279 1280 1281 1282 1283 1284 1285 1286 1287 1288 1289 1290 1291 1292 1293 1294 1295 1296 1297 1298 1299 1300 1301 1302 1303 1304 1305 1306 1307 1308 1309 1310 1311 1312 1313 1314 1315 1316 1317 1318 1319 1320 1321 1322 1323 1324 1325 1326 1327 1328 1329 1330 1331 1332 1333 1334 1335 1336 1337 1338 1339 1340 1341 1342 1343 1344 1345 1346 1347 1348 1349 1350 1351 1352 1353 1354 1355 1356 1357 1358 1359 1360 1361 1362 1363 1364 1365 1366 1367 1368 1369 1370 1371 1372 1373 1374 1375 1376 1377 1378 1379 1380 1381 1382 1383 1384 1385 1386 1387 1388 1389 1390 1391 1392 1393 1394 1395 1396 1397 1398 1399 1400 1401 1402 1403 1404 1405 1406 1407 1408 1409 1410 1411 1412 1413 1414 1415 1416 1417 1418 1419 1420 1421 1422 1423 1424 1425 1426 1427 1428 1429 1430 1431 1432 1433 1434 1435 1436 1437 1438 1439 1440 1441 1442 1443 1444 1445 1446 1447 1448 1449 1450 1451 1452 1453 1454 1455 1456 1457 1458 1459 1460 1461 1462 1463 1464 1465 1466 1467 1468 1469 1470 1471 1472 1473 1474 1475 1476 1477 1478 1479 1480 1481 1482 1483 1484 1485 1486 1487 1488 1489 1490 1491 1492 1493 1494 1495 1496 1497 1498 1499 1500 1501 1502 1503 1504 1505 1506 1507 1508 1509 1510 1511 1512 1513 1514 1515 1516 1517 1518 1519 1520 1521 1522 1523 1524 1525 1526 1527 1528 1529 1530 1531 1532 1533 1534 1535 1536 1537 1538 1539 1540 1541 1542 1543 1544 1545 1546 1547 1548 1549 1550 1551 1552 1553 1554 1555 1556 1557 1558 1559 1560 1561 1562 1563 1564 1565 1566 1567 1568 1569 1570 1571 1572 1573 1574 1575 1576 1577 1578 1579 1580 1581 1582 1583 1584 1585 1586 1587 1588 1589 1590 1591 1592 1593 1594 1595 1596 1597 1598 1599 1600 1601 1602 1603 1604 1605 1606 1607 1608 1609 1610 1611 1612 1613 1614 1615 1616 1617 1618 1619 1620 1621 1622 1623 1624 1625 1626 1627 1628 1629 1630 1631 1632 1633 1634 1635 1636 1637 1638 1639 1640 1641 1642 1643 1644 1645 1646 1647 1648 1649 1650 1651 1652 1653 1654 1655 1656 1657 1658 1659 1660 1661 1662 1663 1664 1665 1666 1667 1668 1669 1670 1671 1672 1673 1674 1675 1676 1677 1678 1679 1680 1681 1682 1683 1684 1685 1686 1687 1688 1689 1690 1691 1692 1693 1694 1695 1696 1697 1698 1699 1700 1701 1702 1703 1704 1705 1706 1707 1708 1709 1710 1711 1712 1713 1714 1715 1716 1717 1718 1719 1720 1721 1722 1723 1724 1725 1726 1727 1728 1729 1730 1731 1732 1733 1734 1735 1736 1737 1738 1739 1740 1741 1742 1743 1744 1745 1746 1747 1748 1749 1750 1751 1752 1753 1754 1755 1756 1757 1758 1759 1760 1761 1762 1763 1764 1765 1766 1767 1768 1769 1770 1771 1772 1773 1774 1775 1776 1777 1778 1779 1780 1781 1782 1783 1784 1785 1786 1787 1788 1789 1790 1791 1792 1793 1794 1795 1796 1797 1798 1799 1800 1801 1802 1803 1804 1805 1806 1807 1808 1809 1810 1811 1812 1813 1814 1815 1816 1817 1818 1819 1820 1821 1822 1823 1824 1825 1826 1827 1828 1829 1830 1831 1832 1833 1834 1835 1836 1837 1838 1839 1840 1841 1842 1843 1844 1845 1846 1847 1848 1849 1850 1851 1852 1853 1854 1855 1856 1857 1858 1859 1860 1861 1862 1863 1864 1865 1866 1867 1868 1869 1870 1871 1872 1873 1874 1875 1876 1877 1878 1879 1880 1881 1882 1883 1884 1885 1886 1887 1888 1889 1890 1891 1892 1893 1894 1895 1896 1897 1898 1899 1900 1901 1902 1903 1904 1905 1906 1907 1908 1909 1910 1911 1912 1913 1914 1915 1916 1917 1918 1919 1920 1921 1922 1923 1924 1925 1926 1927 1928 1929 1930 1931 1932 1933 1934 1935 1936 1937 1938 1939 1940 1941 1942 1943 1944 1945 1946 1947 1948 1949 1950 1951 1952 1953 1954 1955 1956 1957 1958 1959 1960 1961 1962 1963 1964 1965 1966 1967 1968 1969 1970 1971 1972 1973 1974 1975 1976 1977 1978 1979 1980 1981 1982 1983 1984 1985 1986 1987 1988 1989 1990 1991 1992 1993 1994 1995 1996 1997 1998 1999 2000 2001 2002 2003 2004 2005 2006 2007 2008 2009 2010 2011 2012 2013 2014 2015 2016 2017 2018 2019 2020 2021 2022 2023 2024 2025 2026 2027 2028 2029 2030 2031 2032 2033 2034 2035 2036 2037 2038 2039 2040 2041 2042 2043 2044 2045 2046 2047 2048 2049 2050 2051 2052 2053 2054 2055 2056 2057 2058 2059 2060 2061 2062 2063 2064 2065 2066 2067 2068 2069 2070 2071 2072 2073 2074 2075 2076 2077 2078 2079 2080 2081 2082 2083 2084 2085 2086 2087 2088 2089 2090 2091 2092 2093 2094 2095 2096 2097 2098 2099 2100 2101 2102 2103 2104 2105 2106 2107 2108 2109 2110 2111 2112 2113 2114 2115 2116 2117 2118 2119 2120 2121 2122 2123 2124 2125 2126 2127 2128 2129 2130 2131 2132 2133 2134 2135 2136 2137 2138 2139 2140 2141 2142 2143 2144 2145 2146 2147 2148 2149 2150 2151 2152 2153 2154 2155 2156 2157 2158 2159 2160 2161 2162 2163 2164 2165 2166 2167 2168 2169 2170 2171 2172 2173 2174 2175 2176 2177 2178 2179 2180 2181 2182 2183 2184 2185 2186 2187 2188 2189 2190 2191 2192 2193 2194 2195 2196 2197 2198 2199 2200 2201 2202 2203 2204 2205 2206 2207 2208 2209 2210 2211 2212 2213 2214 2215 2216 2217 2218 2219 2220 2221 2222 2223 2224 2225 2226 2227 2228 2229 2230 2231 2232 2233 2234 2235 2236 2237 2238 2239 2240 2241 2242 2243 2244 2245 2246 2247 2248 2249 2250 2251 2252 2253 2254 2255 2256 2257 2258 2259 2260 2261 2262 2263 2264 2265 2266 2267 2268 2269 2270 2271 2272 2273 2274 2275 2276 2277 2278 2279 2280 2281 2282 2283 2284 2285 2286 2287 2288 2289 2290 2291 2292 2293 2294 2295 2296 2297 2298 2299 2300 2301 2302 2303 2304 2305 2306 2307 2308 2309 2310 2311 2312 2313 2314 2315 2316 2317 2318 2319 2320 2321 2322 2323 2324 2325 2326 2327 2328 2329 2330 2331 2332 2333 2334 2335 2336 2337 2338 2339 2340 2341 2342 2343 2344 2345 2346 2347 2348 2349 2350 2351 2352 2353 2354 2355 2356 2357 2358 2359 2360 2361 2362 2363 2364 2365 2366 2367 2368 2369 2370 2371 2372 2373 2374 2375 2376 2377 2378 2379 2380 2381 2382 2383 2384 2385 2386 2387 2388 2389 2390 2391 2392 2393 2394 2395 2396 2397 2398 2399 2400 2401 2402 2403 2404 2405 2406 2407 2408 2409 2410 2411 2412 2413 2414 2415 2416 2417 2418 2419 2420 2421 2422 2423 2424 2425 2426 2427 2428 2429 2430 2431 2432 2433 2434 2435 2436 2437 2438 2439 2440 2441 2442 2443 2444 2445 2446 2447 2448 2449 2450 2451 2452 2453 2454 2455 2456 2457 2458 2459 2460 2461 2462 2463 2464 2465 2466 2467 2468 2469 2470 2471 2472 2473 2474 2475 2476 2477 2478 2479 2480 2481 2482 2483 2484 2485 2486 2487 2488 2489 2490 2491 2492 2493 2494 2495 2496 2497 2498 2499 2500 2501 2502 2503 2504 2505 2506 2507 2508 2509 2510 2511 2512 2513 2514 2515 2516 2517 2518 2519 2520 2521 2522 2523 2524 2525 2526 2527 2528 2529 2530 2531 2532 2533 2534 2535 2536 2537 2538 2539 2540 2541 2542 2543 2544 2545 2546 2547 2548 2549 2550 2551 2552 2553 2554 2555 2556 2557 2558 2559 2560 2561 2562 2563 2564 2565 2566 2567 2568 2569 2570 2571 2572 2573 2574 2575 2576 2577 2578 2579 2580 2581 2582 2583 2584 2585 2586 2587 2588 2589 2590 2591 2592 2593 2594 2595 2596 2597 2598 2599 2600 2601 2602 2603 2604 2605 2606 2607 2608 2609 2610 2611 2612 2613 2614 2615 2616 2617 2618 2619 2620 2621 2622 2623 2624 2625 2626 2627 2628 2629 2630 2631 2632 2633 2634 2635 2636 2637 2638 2639 2640 2641 2642 2643 2644 2645 2646 2647 2648 2649 2650 2651 2652 2653 2654 2655 2656 2657 2658 2659 2660 2661 2662 2663 2664 2665 2666 2667 2668 2669 2670 2671 2672 2673 2674 2675 2676 2677 2678 2679 2680 2681 2682 2683 2684 2685 2686 2687 2688 2689 2690 2691 2692 2693 2694 2695 2696 2697 2698 2699 2700 2701 2702 2703 2704 2705 2706 2707 2708 2709 2710 2711 2712 2713 2714 2715 2716 2717 2718 2719 2720 2721 2722 2723 2724 2725 2726 2727 2728 2729 2730 2731 2732 2733 2734 2735 2736 2737 2738 2739 2740 2741 2742 2743 2744 2745 2746 2747 2748 2749 2750 2751 2752 2753 2754 2755 2756 2757 2758 2759 2760 2761 2762 2763 2764 2765 2766 2767 2768 2769 2770 2771 2772 2773 2774 2775 2776 2777 2778 2779 2780 2781 2782 2783 2784 2785 2786 2787 2788 2789 2790 2791 2792 2793 2794 2795 2796 2797 2798 2799 2800 2801 2802 2803 2804 2805 2806 2807 2808 2809 2810 2811 2812 2813 2814 2815 2816 2817 2818 2819 2820 2821 2822 2823 2824 2825 2826 2827 2828 2829 2830 2831 2832 2833 2834 2835 2836 2837 2838 2839 2840 2841 2842 2843 2844 2845 2846 2847 2848 2849 2850 2851 2852 2853 2854 2855 2856 2857 2858 2859 2860 2861 2862 2863 2864 2865 2866 2867 2868 2869 2870 2871 2872 2873 2874 2875 2876 2877 2878 2879 2880 2881 2882 2883 2884 2885 2886 2887 2888 2889 2890 2891 2892 2893 2894 2895 2896 2897 2898 2899 2900 2901 2902 2903 2904 2905 2906 2907 2908 2909 2910 2911 2912 2913 2914 2915 2916 2917 2918 2919 2920 2921 2922 2923 2924 2925 2926 2927 2928 2929 2930 2931 2932 2933 2934 2935 2936 2937 2938 2939 2940 2941 2942 2943 2944 2945 2946 2947 2948 2949 2950 2951 2952 2953 2954 2955 2956 2957 2958 2959 2960 2961 2962 2963 2964 2965 2966 2967 2968 2969 2970 2971 2972 2973 2974 2975 2976 2977 2978 2979 2980 2981 2982 2983 2984 2985 2986 2987 2988 2989 2990 2991 2992 2993 2994 2995 2996 2997 2998 2999 3000 3001 3002 3003 3004 3005 3006 3007 3008 3009 3010 3011 3012 3013 3014 3015 3016 3017 3018 3019 3020 3021 3022 3023 3024 3025 3026 3027 3028 3029 3030 3031 3032 3033 3034 3035 3036 3037 3038 3039 3040 3041 3042 3043 3044 3045 3046 3047 3048 3049 3050 3051 3052 3053 3054 3055 3056 3057 3058 3059 3060 3061 3062 3063 3064 3065 3066 3067 3068 3069 3070 3071 3072 3073 3074 3075 3076 3077 3078 3079 3080 3081 3082 3083 3084 3085 3086 3087 3088 3089 3090 3091 3092 3093 3094 3095 3096 3097 3098 3099 3100 3101 3102 3103 3104 3105 3106 3107 3108 3109 3110 3111 3112 3113 3114 3115 3116 3117 3118 3119 3120 3121 3122 3123 3124 3125 3126 3127 3128 3129 3130 3131 3132 3133 3134 3135 3136 3137 3138 3139 3140 3141 3142 3143 3144 3145 3146 3147 3148 3149 3150 3151 3152 3153 3154 3155 3156 3157 3158 3159 3160 3161 3162 3163 3164 3165 3166 3167 3168 3169 3170 3171 3172 3173 3174 3175 3176 3177 3178 3179 3180 3181 3182 3183 3184 3185 3186 3187 3188 3189 3190 3191 3192 3193 3194 3195 3196 3197 3198 3199 3200 3201 3202 3203 3204 3205 3206 3207 3208 3209 3210 3211 3212 3213 3214 3215 3216 3217 3218 3219 3220 3221 3222 3223 3224 3225 3226 3227 3228 3229 3230 3231 3232 3233 3234 3235 3236 3237 3238 3239 3240 3241 3242 3243 3244 3245 3246 3247 3248 3249 3250 3251 3252 3253 3254 3255 3256 3257 3258 3259 3260 3261 3262 3263 3264 3265 3266 3267 3268 3269 3270 3271 3272 3273 3274 3275 3276 3277 3278 3279 3280 3281 3282 3283 3284 3285 3286 3287 3288 3289 3290 3291 3292 3293 3294 3295 3296 3297 3298 3299 3300 3301 3302 3303 3304 3305 3306 3307 3308 3309 3310 3311 3312 3313 3314 3315 3316 3317 3318 3319 3320 3321 3322 3323 3324 3325 3326 3327 3328 3329 3330 3331 3332 3333 3334 3335 3336 3337 3338 3339 3340 3341 3342 3343 3344 3345 3346 3347 3348 3349 3350 3351 3352 3353 3354 3355 3356 3357 3358 3359 3360 3361 3362 3363 3364 3365 3366 3367 3368 3369 3370 3371 3372 3373 3374 3375 3376 3377 3378 3379 3380 3381 3382 3383 3384 3385 3386 3387 3388 3389 3390 3391 3392 3393 3394 3395 3396 3397 3398 3399 3400 3401 3402 3403 3404 3405 3406 3407 3408 3409 3410 3411 3412 3413 3414 3415 3416 3417 3418 3419 3420 3421 3422 3423 3424 3425 3426 3427 3428 3429 3430 3431 3432 3433 3434 3435 3436 3437 3438 3439 3440 3441 3442 3443 3444 3445 3446 3447 3448 3449 3450 3451 3452 3453 3454 3455 3456 3457 3458 3459 3460 3461 3462 3463 3464 3465 3466 3467 3468 3469 3470 3471 3472 3473 3474 3475 3476 3477 3478 3479 3480 3481 3482 3483 3484 3485 3486 3487 3488 3489 3490 3491 3492 3493 3494 3495 3496 3497 3498 3499 3500 3501 3502 3503 3504 3505 3506 3507 3508 3509 3510 3511 3512 3513 3514 3515 3516 3517 3518 3519 3520 3521 3522 3523 3524 3525 3526 3527 3528 3529 3530 3531 3532 3533 3534 3535 3536 3537 3538 3539 3540 3541 3542 3543 3544 3545 3546 3547 3548 3549 3550 3551 3552 3553 3554 3555 3556 3557 3558 3559 3560 3561 3562 3563 3564 3565 3566 3567 3568 3569 3570 3571 3572 3573 3574 3575 3576 3577 3578 3579 3580 3581 3582 3583 3584 3585 3586 3587 3588 3589 3590 3591 3592 3593 3594 3595 3596 3597 3598 3599 3600 3601 3602 3603 3604 3605 3606 3607 3608 3609 3610 3611 3612 3613 3614 3615 3616 3617 3618 3619 3620 3621 3622 3623 3624 3625 3626 3627 3628 3629 3630 3631 3632 3633 3634 3635 3636 3637 3638 3639 3640 3641 3642 3643 3644 3645 3646 3647 3648 3649 3650 3651 3652 3653 3654 3655 3656 3657 3658 3659 3660 3661 3662 3663 3664 3665 3666 3667 3668 3669 3670 3671 3672 3673 3674 3675 3676 3677 3678 3679 3680 3681 3682 3683 3684 3685 3686 3687 3688 3689 3690 3691 3692 3693 3694 3695 3696 3697 3698 3699 3700 3701 3702 3703 3704 3705 3706 3707 3708 3709 3710 3711 3712 3713 3714 3715 3716 3717 3718 3719 3720 3721 3722 3723 3724 3725 3726 3727 3728 3729 3730 3731 3732 3733 3734 3735 3736 3737 3738 3739 3740 3741 3742 3743 3744 3745 3746 3747 3748 3749 3750 3751 3752 3753 3754 3755 3756 3757 3758 3759 3760 3761 3762 3763 3764 3765 3766 3767 3768 3769 3770 3771 3772 3773 3774 3775 3776 3777 3778 3779 3780 3781 3782 3783 3784 3785 3786 3787 3788 3789 3790 3791 3792 3793 3794 3795 3796 3797 3798 3799 3800 3801 3802 3803 3804 3805 3806 3807 3808 3809 3810 3811 3812 3813 3814 3815 3816 3817 3818 3819 3820 3821 3822 3823 3824 3825 3826 3827 3828 3829 3830 3831 3832 3833 3834 3835 3836 3837 3838 3839 3840 3841 3842 3843 3844 3845 3846 3847 3848 3849 3850 3851 3852 3853 3854 3855 3856 3857 3858 3859 3860 3861 3862 3863 3864 3865 3866 3867 3868 3869 3870 3871 3872 3873 3874 3875 3876 3877 3878 3879 3880 3881 3882 3883 3884 3885 3886 3887 3888 3889 3890 3891 3892 3893 3894 3895 3896 3897 3898 3899 3900 3901 3902 3903 3904 3905 3906 3907 3908 3909 3910 3911 3912 3913 3914 3915 3916 3917 3918 3919 3920 3921 3922 3923 3924 3925 3926 3927 3928 3929 3930 3931 3932 3933 3934 3935 3936 3937 3938 3939 3940 3941 3942 3943 3944 3945 3946 3947 3948 3949 3950 3951 3952 3953 3954 3955 3956 3957 3958 3959 3960 3961 3962 3963 3964 3965 3966 3967 3968 3969 3970 3971 3972 3973 3974 3975 3976 3977 3978 3979 3980 3981 3982 3983 3984 3985 3986 3987 3988 3989 3990 3991 3992 3993 3994 3995 3996 3997 3998 3999 4000 4001 4002 4003 4004 4005 4006 4007 4008 4009 4010 4011 4012 4013 4014 4015 4016 4017 4018 4019 4020 4021 4022 4023 4024 4025 4026 4027 4028 4029 4030 4031 4032 4033 4034 4035 4036 4037 4038 4039 4040 4041 4042 4043 4044 4045 4046 4047 4048 4049 4050 4051 4052 4053 4054 4055 4056 4057 4058 4059 4060 4061 4062 4063 4064 4065 4066 4067 4068 4069 4070 4071 4072 4073 4074 4075 4076 4077 4078 4079 4080 4081 4082 4083 4084 4085 4086 4087 4088 4089 4090 4091 4092 4093 4094 4095 4096 4097 4098 4099 4100 4101 4102 4103 4104 4105 4106 4107 4108 4109 4110 4111 4112 4113 4114 4115 4116 4117 4118 4119 4120 4121 4122 4123 4124 4125 4126 4127 4128 4129 4130 4131 4132 4133 4134 4135 4136 4137 4138 4139 4140 4141 4142 4143 4144 4145 4146 4147 4148 4149 4150 4151 4152 4153 4154 4155 4156 4157 4158 4159 4160 4161 4162 4163 4164 4165 4166 4167 4168 4169 4170 4171 4172 4173 4174 4175 4176 4177 4178 4179 4180 4181 4182 4183 4184 4185 4186 4187 4188 4189 4190 4191 4192 4193 4194 4195 4196 4197 4198 4199 4200 4201 4202 4203 4204 4205 4206 4207 4208 4209 4210 4211 4212 4213 4214 4215 4216 4217 4218 4219 4220 4221 4222 4223 4224 4225 4226 4227 4228 4229 4230 4231 4232 4233 4234 4235 4236 4237 4238 4239 4240 4241 4242 4243 4244 4245 4246 4247 4248 4249 4250 4251 4252 4253 4254 4255 4256 4257 4258 4259 4260 4261 4262 4263 4264 4265 4266 4267 4268 4269 4270 4271 4272 4273 4274 4275 4276 4277 4278 4279 4280 4281 4282 4283 4284 4285 4286 4287 4288 4289 4290 4291 4292 4293 4294 4295 4296 4297 4298 4299 4300 4301 4302 4303 4304 4305 4306 4307 4308 4309 4310 4311 4312 4313 4314 4315 4316 4317 4318 4319 4320 4321 4322 4323 4324 4325 4326 4327 4328 4329 4330 4331 4332 4333 4334 4335 4336 4337 4338 4339 4340 4341 4342 4343 4344 4345 4346 4347 4348 4349 4350 4351 4352 4353 4354 4355 4356 4357 4358 4359 4360 4361 4362 4363 4364 4365 4366 4367 4368 4369 4370 4371 4372 4373 4374 4375 4376 4377 4378 4379 4380 4381 4382 4383 4384 4385 4386 4387 4388 4389 4390 4391 4392 4393 4394 4395 4396 4397 4398 4399 4400 4401 4402 4403 4404 4405 4406 4407 4408 4409 4410 4411 4412 4413 4414 4415 4416 4417 4418 4419 4420 4421 4422 4423 4424 4425 4426 4427 4428 4429 4430 4431 4432 4433 4434 4435 4436 4437 4438 4439 4440 4441 4442 4443 4444 4445 4446 4447 4448 4449 4450 4451 4452 4453 4454 4455 4456 4457 4458 4459 4460 4461 4462 4463 4464 4465 4466 4467 4468 4469 4470 4471 4472 4473 4474 4475 4476 4477 4478 4479 4480 4481 4482 4483 4484 4485 4486 4487 4488 4489 4490 4491 4492 4493 4494 4495 4496 4497 4498 4499 4500 4501 4502 4503 4504 4505 4506 4507 4508 4509 4510 4511 4512 4513 4514 4515 4516 4517 4518 4519 4520 4521 4522 4523 4524 4525 4526 4527 4528 4529 4530 4531 4532 4533 4534 4535 4536 4537 4538 4539 4540 4541 4542 4543 4544 4545 4546 4547 4548 4549 4550 4551 4552 4553 4554 4555 4556 4557 4558 4559 4560 4561 4562 4563 4564 4565 4566 4567 4568 4569 4570 4571 4572 4573 4574 4575 4576 4577 4578 4579 4580 4581 4582 4583 4584 4585 4586 4587 4588 4589 4590 4591 4592 4593 4594 4595 4596 4597 4598 4599 4600 4601 4602 4603 4604 4605 4606 4607 4608 4609 4610 4611 4612 4613 4614 4615 4616 4617 4618 4619 4620 4621 4622 4623 4624 4625 4626 4627 4628 4629 4630 4631 4632 4633 4634 4635 4636 4637 4638 4639 4640 4641 4642 4643 4644 4645 4646 4647 4648 4649 4650 4651 4652 4653 4654 4655 4656 4657 4658 4659 4660 4661 4662 4663 4664 4665 4666 4667 4668 4669 4670 4671 4672 4673 4674 4675 4676 4677 4678 4679 4680 4681 4682 4683 4684 4685 4686 4687 4688 4689 4690 4691 4692 4693 4694 4695 4696 4697 4698 4699 4700 4701 4702 4703 4704 4705 4706 4707 4708 4709 4710 4711 4712 4713 4714 4715 4716 4717 4718 4719 4720 4721 4722 4723 4724 4725 4726 4727 4728 4729 4730 4731 4732 4733 4734 4735 4736 4737 4738 4739 4740 4741 4742 4743 4744 4745 4746 4747 4748 4749 4750 4751 4752 4753 4754 4755 4756 4757 4758 4759 4760 4761 4762 4763 4764 4765 4766 4767 4768 4769 4770 4771 4772 4773 4774 4775 4776 4777 4778 4779 4780 4781 4782 4783 4784 4785 4786 4787 4788 4789 4790 4791 4792 4793 4794 4795 4796 4797 4798 4799 4800 4801 4802 4803 4804 4805 4806 4807 4808 4809 4810 4811 4812 4813 4814 4815 4816 4817 4818 4819 4820 4821 4822 4823 4824 4825 4826 4827 4828 4829 4830 4831 4832 4833 4834 4835 4836 4837 4838 4839 4840 4841 4842 4843 4844 4845 4846 4847 4848 4849 4850 4851 4852 4853 4854 4855 4856 4857 4858 4859 4860 4861 4862 4863 4864 4865 4866 4867 4868 4869 4870 4871 4872 4873 4874 4875 4876 4877 4878 4879 4880 4881 4882 4883 4884 4885 4886 4887 4888 4889 4890 4891 4892 4893 4894 4895 4896 4897 4898 4899 4900 4901 4902 4903 4904 4905 4906 4907 4908 4909 4910 4911 4912 4913 4914 4915 4916 4917 4918 4919 4920 4921 4922 4923 4924 4925 4926 4927 4928 4929 4930 4931 4932 4933 4934 4935 4936 4937 4938 4939 4940 4941 4942 4943 4944 4945 4946 4947 4948 4949 4950 4951 4952 4953 4954 4955 4956 4957 4958 4959 4960 4961 4962 4963 4964 4965 4966 4967 4968 4969 4970 4971 4972 4973 4974 4975 4976 4977 4978 4979 4980 4981 4982 4983 4984 4985 4986 4987 4988 4989 4990 4991 4992 4993 4994 4995 4996 4997 4998 4999 5000 5001 5002 5003 5004 5005 5006 5007 5008 5009 5010 5011 5012 5013 5014 5015 5016 5017 5018 5019 5020 5021 5022 5023 5024 5025 5026 5027 5028 5029 5030 5031 5032 5033 5034 5035 5036 5037 5038 5039 5040 5041 5042 5043 5044 5045 5046 5047 5048 5049 5050 5051 5052 5053 5054 5055 5056 5057 5058 5059 5060 5061 5062 5063 5064 5065 5066 5067 5068 5069 5070 5071 5072 5073 5074 5075 5076 5077 5078 5079 5080 5081 5082 5083 5084 5085 5086 5087 5088 5089 5090 5091 5092 5093 5094 5095 5096 5097 5098 5099 5100 5101 5102 5103 5104 5105 5106 5107 5108 5109 5110 5111 5112 5113 5114 5115 5116 5117 5118 5119 5120 5121 5122 5123 5124 5125 5126 5127 5128 5129 5130 5131 5132 5133 5134 5135 5136 5137 5138 5139 5140 5141 5142 5143 5144 5145 5146 5147 5148 5149 5150 5151 5152 5153 5154 5155 5156 5157 5158 5159 5160 5161 5162 5163 5164 5165 5166 5167 5168 5169 5170 5171 5172 5173 5174 5175 5176 5177 5178 5179 5180 5181 5182 5183 5184 5185 5186 5187 5188 5189 5190 5191 5192 5193 5194 5195 5196 5197 5198 5199 5200 5201 5202 5203 5204 5205 5206 5207 5208 5209 5210 5211 5212 5213 5214 5215 5216 5217 5218 5219 5220 5221 5222 5223 5224 5225 5226 5227 5228 5229 5230 5231 5232 5233 5234 5235 5236 5237 5238 5239 5240 5241 5242 5243 5244 5245 5246 5247 5248 5249 5250 5251 5252 5253 5254 5255 5256 5257 5258 5259 5260 5261 5262 5263 5264 5265 5266 5267 5268 5269 5270 5271 5272 5273 5274 5275 5276 5277 5278 5279 5280 5281 5282 5283 5284 5285 5286 5287 5288 5289 5290 5291 5292 5293 5294 5295 5296 5297 5298 5299 5300 5301 5302 5303 5304 5305 5306 5307 5308 5309 5310 5311 5312 5313 5314 5315 5316 5317 5318 5319 5320 5321 5322 5323 5324 5325 5326 5327 5328 5329 5330 5331 5332 5333 5334 5335 5336 5337 5338 5339 5340 5341 5342 5343 5344 5345 5346 5347 5348 5349 5350 5351 5352 5353 5354 5355 5356 5357 5358 5359 5360 5361 5362 5363 5364 5365 5366 5367 5368 5369 5370 5371 5372 5373 5374 5375 5376 5377 5378 5379 5380 5381 5382 5383 5384 5385 5386 5387 5388 5389 5390 5391 5392 5393 5394 5395 5396 5397 5398 5399 5400 5401 5402 5403 5404 5405 5406 5407 5408 5409 5410 5411 5412 5413 5414 5415 5416 5417 5418 5419 5420 5421 5422 5423 5424 5425 5426 5427 5428 5429 5430 5431 5432 5433 5434 5435 5436 5437 5438 5439 5440 5441 5442 5443 5444 5445 5446 5447 5448 5449 5450 5451 5452 5453 5454 5455 5456 5457 5458 5459 5460 5461 5462 5463 5464 5465 5466 5467 5468 5469 5470 5471 5472 5473 5474 5475 5476 5477 5478 5479 5480 5481 5482 5483 5484 5485 5486 5487 5488 5489 5490 5491 5492 5493 5494 5495 5496 5497 5498 5499 5500 5501 5502 5503 5504 5505 5506 5507 5508 5509 5510 5511 5512 5513 5514 5515 5516 5517 5518 5519 5520 5521 5522 5523 5524 5525 5526 5527 5528 5529 5530 5531 5532 5533 5534 5535 5536 5537 5538 5539 5540 5541 5542 5543 5544 5545 5546 5547 5548 5549 5550 5551 5552 5553 5554 5555 5556 5557 5558 5559 5560 5561 5562 5563 5564 5565 5566 5567 5568 5569 5570 5571 5572 5573 5574 5575 5576 5577 5578 5579 5580 5581 5582 5583 5584 5585 5586 5587 5588 5589 5590 5591 5592 5593 5594 5595 5596 5597 5598 5599 5600 5601 5602 5603 5604 5605 5606 5607 5608 5609 5610 5611 5612 5613 5614 5615 5616 5617 5618 5619 5620 5621 5622 5623 5624 5625 5626 5627 5628 5629 5630 5631 5632 5633 5634 5635 5636 5637 5638 5639 5640 5641 5642 5643 5644 5645 5646 5647 5648 5649 5650 5651 5652 5653 5654 5655 5656 5657 5658 5659 5660 5661 5662 5663 5664 5665 5666 5667 5668 5669 5670 5671 5672 5673 5674 5675 5676 5677 5678 5679 5680 5681 5682 5683 5684 5685 5686 5687 5688 5689 5690 5691 5692 5693 5694 5695 5696 5697 5698 5699 5700 5701 5702 5703 5704 5705 5706 5707 5708 5709 5710 5711 5712 5713 5714 5715 5716 5717 5718 5719 5720 5721 5722 5723 5724 5725 5726 5727 5728 5729 5730 5731 5732 5733 5734 5735 5736 5737 5738 5739 5740 5741 5742 5743 5744 5745 5746 5747 5748 5749 5750 5751 5752 5753 5754 5755 5756 5757 5758 5759 5760 5761 5762 5763 5764 5765 5766 5767 5768 5769 5770 5771 5772 5773 5774 5775 5776 5777 5778 5779 5780 5781 5782 5783 5784 5785 5786 5787 5788 5789 5790 5791 5792 5793 5794 5795 5796 5797 5798 5799 5800 5801 5802 5803 5804 5805 5806 5807 5808 5809 5810 5811 5812 5813 5814 5815 5816 5817 5818 5819 5820 5821 5822 5823 5824 5825 5826 5827 5828 5829 5830 5831 5832 5833 5834 5835 5836 5837 5838 5839 5840 5841 5842 5843 5844 5845 5846 5847 5848 5849 5850 5851 5852 5853 5854 5855 5856 5857 5858 5859 5860 5861 5862 5863 5864 5865 5866 5867 5868 5869 5870 5871 5872 5873 5874 5875 5876 5877 5878 5879 5880 5881 5882 5883 5884 5885 5886 5887 5888 5889 5890 5891 5892 5893 5894 5895 5896 5897 5898 5899 5900 5901 5902 5903 5904 5905 5906 5907 5908 5909 5910 5911 5912 5913 5914 5915 5916 5917 5918 5919 5920 5921 5922 5923 5924 5925 5926 5927 5928 5929 5930 5931 5932 5933 5934 5935 5936 5937 5938 5939 5940 5941 5942 5943 5944 5945 5946 5947 5948 5949 5950 5951 5952 5953 5954 5955 5956 5957 5958 5959 5960 5961 5962 5963 5964 5965 5966 5967 5968 5969 5970 5971 5972 5973 5974 5975 5976 5977 5978 5979 5980 5981 5982 5983 5984 5985 5986 5987 5988 5989 5990 5991 5992 5993 5994 5995 5996 5997 5998 5999 6000 6001 6002 6003 6004 6005 6006 6007 6008 6009 6010 6011 6012 6013 6014 6015 6016 6017 6018 6019 6020 6021 6022 6023 6024 6025 6026 6027 6028 6029 6030 6031 6032 6033 6034 6035 6036 6037 6038 6039 6040 6041 6042 6043 6044 6045 6046 6047 6048 6049 6050 6051 6052 6053 6054 6055 6056 6057 6058 6059 6060 6061 6062 6063 6064 6065 6066 6067 6068 6069 6070 6071 6072 6073 6074 6075 6076 6077 6078 6079 6080 6081 6082 6083 6084 6085 6086 6087 6088 6089 6090 6091 6092 6093 6094 6095 6096 6097 6098 6099 6100 6101 6102 6103 6104 6105 6106 6107 6108 6109 6110 6111 6112 6113 6114 6115 6116 6117 6118 6119 6120 6121 6122 6123 6124 6125 6126 6127 6128 6129 6130 6131 6132 6133 6134 6135 6136 6137 6138 6139 6140 6141 6142 6143 6144 6145 6146 6147 6148 6149 6150 6151 6152 6153 6154 6155 6156 6157 6158 6159 6160 6161 6162 6163 6164 6165 6166 6167 6168 6169 6170 6171 6172 6173 6174 6175 6176 6177 6178 6179 6180 6181 6182 6183 6184 6185 6186 6187 6188 6189 6190 6191 6192 6193 6194 6195 6196 6197 6198 6199 6200 6201 6202 6203 6204 6205 6206 6207 6208 6209 6210 6211 6212 6213 6214 6215 6216 6217 6218 6219 6220 6221 6222 6223 6224 6225 6226 6227 6228 6229 6230 6231 6232 6233 6234 6235 6236 6237 6238 6239 6240 6241 6242 6243 6244 6245 6246 6247 6248 6249 6250 6251 6252 6253 6254 6255 6256 6257 6258 6259 6260 6261 6262 6263 6264 6265 6266 6267 6268 6269 6270 6271 6272 6273 6274 6275 6276 6277 6278 6279 6280 6281 6282 6283 6284 6285 6286 6287 6288 6289 6290 6291 6292 6293 6294 6295 6296 6297 6298 6299 6300 6301 6302 6303 6304 6305 6306 6307 6308 6309 6310 6311 6312 6313 6314 6315 6316 6317 6318 6319 6320 6321 6322 6323 6324 6325 6326 6327 6328 6329 6330 6331 6332 6333 6334 6335 6336 6337 6338 6339 6340 6341 6342 6343 6344 6345 6346 6347 6348 6349 6350 6351 6352 6353 6354 6355 6356 6357 6358 6359 6360 6361 6362 6363 6364 6365 6366 6367 6368 6369 6370 6371 6372 6373 6374 6375 6376 6377 6378 6379 6380 6381 6382 6383 6384 6385 6386 6387 6388 6389 6390 6391 6392 6393 6394 6395 6396 6397 6398 6399 6400 6401 6402 6403 6404 6405 6406 6407 6408 6409 6410 6411 6412 6413 6414 6415 6416 6417 6418 6419 6420 6421 6422 6423 6424 6425 6426 6427 6428 6429 6430 6431 6432 6433 6434 6435 6436 6437 6438 6439 6440 6441 6442 6443 6444 6445 6446 6447 6448 6449 6450 6451 6452 6453 6454 6455 6456 6457 6458 6459 6460 6461 6462 6463 6464 6465 6466 6467 6468 6469 6470 6471 6472 6473 6474 6475 6476 6477 6478 6479 6480 6481 6482 6483 6484 6485 6486 6487 6488 6489 6490 6491 6492 6493 6494 6495 6496 6497 6498 6499 6500 6501 6502 6503 6504 6505 6506 6507 6508 6509 6510 6511 6512 6513 6514 6515 6516 6517 6518 6519 6520 6521 6522 6523 6524 6525 6526 6527 6528 6529 6530 6531 6532 6533 6534 6535 6536 6537 6538 6539 6540 6541 6542 6543 6544 6545 6546 6547 6548 6549 6550 6551 6552 6553 6554 6555 6556 6557 6558 6559 6560 6561 6562 6563 6564 6565 6566 6567 6568 6569 6570 6571 6572 6573 6574 6575 6576 6577 6578 6579 6580 6581 6582 6583 6584 6585 6586 6587 6588 6589 6590 6591 6592 6593 6594 6595 6596 6597 6598 6599 6600 6601 6602 6603 6604 6605 6606 6607 6608 6609 6610 6611 6612 6613 6614 6615 6616 6617 6618 6619 6620 6621 6622 6623 6624 6625 6626 6627 6628 6629 6630 6631 6632 6633 6634 6635 6636 6637 6638 6639 6640 6641 6642 6643 6644 6645 6646 6647 6648 6649 6650 6651 6652 6653 6654 6655 6656 6657 6658 6659 6660 6661 6662 6663 6664 6665 6666 6667 6668 6669 6670 6671 6672 6673 6674 6675 6676 6677 6678 6679 6680 6681 6682 6683 6684 6685 6686 6687 6688 6689 6690 6691 6692 6693 6694 6695 6696 6697 6698 6699 6700 6701 6702 6703 6704 6705 6706 6707 6708 6709 6710 6711 6712 6713 6714 6715 6716 6717 6718 6719 6720 6721 6722 6723 6724 6725 6726 6727 6728 6729 6730 6731 6732 6733 6734 6735 6736 6737 6738 6739 6740 6741 6742 6743 6744 6745 6746 6747 6748 6749 6750 6751 6752 6753 6754 6755 6756 6757 6758 6759 6760 6761 6762 6763 6764 6765 6766 6767 6768 6769 6770 6771 6772 6773 6774 6775 6776 6777 6778 6779 6780 6781 6782 6783 6784 6785 6786 6787 6788 6789 6790 6791 6792 6793 6794 6795 6796 6797 6798 6799 6800 6801 6802 6803 6804 6805 6806 6807 6808 6809 6810 6811 6812 6813 6814 6815 6816 6817 6818 6819 6820 6821 6822 6823 6824 6825 6826 6827 6828 6829 6830 6831 6832 6833 6834 6835 6836 6837 6838 6839 6840 6841 6842 6843 6844 6845 6846 6847 6848 6849 6850 6851 6852 6853 6854 6855 6856 6857 6858 6859 6860 6861 6862 6863 6864 6865 6866 6867 6868 6869 6870 6871 6872 6873 6874 6875 6876 6877 6878 6879 6880 6881 6882 6883 6884 6885 6886 6887 6888 6889 6890 6891 6892 6893 6894 6895 6896 6897 6898 6899 6900 6901 6902 6903 6904 6905 6906 6907 6908 6909 6910 6911 6912 6913 6914 6915 6916 6917 6918 6919 6920 6921 6922 6923 6924 6925 6926 6927 6928 6929 6930 6931 6932 6933 6934 6935 6936 6937 6938 6939 6940 6941 6942 6943 6944 6945 6946 6947 6948 6949 6950 6951 6952 6953 6954 6955 6956 6957 6958 6959 6960 6961 6962 6963 6964 6965 6966 6967 6968 6969 6970 6971 6972 6973 6974 6975 6976 6977 6978 6979 6980 6981 6982 6983 6984 6985 6986 6987 6988 6989 6990 6991 6992 6993 6994 6995 6996 6997 6998 6999 7000 7001 7002 7003 7004 7005 7006 7007 7008 7009 7010 7011 7012 7013 7014 7015 7016 7017 7018 7019 7020 7021 7022 7023 7024 7025 7026 7027 7028 7029 7030 7031 7032 7033 7034 7035 7036 7037 7038 7039 7040 7041 7042 7043 7044 7045 7046 7047 7048 7049 7050 7051 7052 7053 7054 7055 7056 7057 7058 7059 7060 7061 7062 7063 7064 7065 7066 7067 7068 7069 7070 7071 7072 7073 7074 7075 7076 7077 7078 7079 7080 7081 7082 7083 7084 7085 7086 7087 7088 7089 7090 7091 7092 7093 7094 7095 7096 7097 7098 7099 7100 7101 7102 7103 7104 7105 7106 7107 7108 7109 7110 7111 7112 7113 7114 7115 7116 7117 7118 7119 7120 7121 7122 7123 7124 7125 7126 7127 7128 7129 7130 7131 7132 7133 7134 7135 7136 7137 7138 7139 7140 7141 7142 7143 7144 7145 7146 7147 7148 7149 7150 7151 7152 7153 7154 7155 7156 7157 7158 7159 7160 7161 7162 7163 7164 7165 7166 7167 7168 7169 7170 7171 7172 7173 7174 7175 7176 7177 7178 7179 7180 7181 7182 7183 7184 7185 7186 7187 7188 7189 7190 7191 7192 7193 7194 7195 7196 7197 7198 7199 7200 7201 7202 7203 7204 7205 7206 7207 7208 7209 7210 7211 7212 7213 7214 7215 7216 7217 7218 7219 7220 7221 7222 7223 7224 7225 7226 7227 7228 7229 7230 7231 7232 7233 7234 7235 7236 7237 7238 7239 7240 7241 7242 7243 7244 7245 7246 7247 7248 7249 7250 7251 7252 7253 7254 7255 7256 7257 7258 7259 7260 7261 7262 7263 7264 7265 7266 7267 7268 7269 7270 7271 7272 7273 7274 7275 7276 7277 7278 7279 7280 7281 7282 7283 7284 7285 7286 7287 7288 7289 7290 7291 7292 7293 7294 7295 7296 7297 7298 7299 7300 7301 7302 7303 7304 7305 7306 7307 7308 7309 7310 7311 7312 7313 7314 7315 7316 7317 7318 7319 7320 7321 7322 7323 7324 7325 7326 7327 7328 7329 7330 7331 7332 7333 7334 7335 7336 7337 7338 7339 7340 7341 7342 7343 7344 7345 7346 7347 7348 7349 7350 7351 7352 7353 7354 7355 7356 7357 7358 7359 7360 7361 7362 7363 7364 7365 7366 7367 7368 7369 7370 7371 7372 7373 7374 7375 7376 7377 7378 7379 7380 7381 7382 7383 7384 7385 7386 7387 7388 7389 7390 7391 7392 7393 7394 7395 7396 7397 7398 7399 7400 7401 7402 7403 7404 7405 7406 7407 7408 7409 7410 7411 7412 7413 7414 7415 7416 7417 7418 7419 7420 7421 7422 7423 7424 7425 7426 7427 7428 7429 7430 7431 7432 7433 7434 7435 7436 7437 7438 7439 7440 7441 7442 7443 7444 7445 7446 7447 7448 7449 7450 7451 7452 7453 7454 7455 7456 7457 7458 7459 7460 7461 7462 7463 7464 7465 7466 7467 7468 7469 7470 7471 7472 7473 7474 7475 7476 7477 7478 7479 7480 7481 7482 7483 7484 7485 7486 7487 7488 7489 7490 7491 7492 7493 7494 7495 7496 7497 7498 7499 7500 7501 7502 7503 7504 7505 7506 7507 7508 7509 7510 7511 7512 7513 7514 7515 7516 7517 7518 7519 7520 7521 7522 7523 7524 7525 7526 7527 7528 7529 7530 7531 7532 7533 7534 7535 7536 7537 7538 7539 7540 7541 7542 7543 7544 7545 7546 7547 7548 7549 7550 7551 7552 7553 7554 7555 7556 7557 7558 7559 7560 7561 7562 7563 7564 7565 7566 7567 7568 7569 7570 7571 7572 7573 7574 7575 7576 7577 7578 7579 7580 7581 7582 7583 7584 7585 7586 7587 7588 7589 7590 7591 7592 7593 7594 7595 7596 7597 7598 7599 7600 7601 7602 7603 7604 7605 7606 7607 7608 7609 7610 7611 7612 7613 7614 7615 7616 7617 7618 7619 7620 7621 7622 7623 7624 7625 7626 7627 7628 7629 7630 7631 7632 7633 7634 7635 7636 7637 7638 7639 7640 7641 7642 7643 7644 7645 7646 7647 7648 7649 7650 7651 7652 7653 7654 7655 7656 7657 7658 7659 7660 7661 7662 7663 7664 7665 7666 7667 7668 7669 7670 7671 7672 7673 7674 7675 7676 7677 7678 7679 7680 7681 7682 7683 7684 7685 7686 7687 7688 7689 7690 7691 7692 7693 7694 7695 7696 7697 7698 7699 7700 7701 7702 7703 7704 7705 7706 7707 7708 7709 7710 7711 7712 7713 7714 7715 7716 7717 7718 7719 7720 7721 7722 7723 7724 7725 7726 7727 7728 7729 7730 7731 7732 7733 7734 7735 7736 7737 7738 7739 7740 7741 7742 7743 7744 7745 7746 7747 7748 7749 7750 7751 7752 7753 7754 7755 7756 7757 7758 7759 7760 7761 7762 7763 7764 7765 7766 7767 7768 7769 7770 7771 7772 7773 7774 7775 7776 7777 7778 7779 7780 7781 7782 7783 7784 7785 7786 7787 7788 7789 7790 7791 7792 7793 7794 7795 7796 7797 7798 7799 7800 7801 7802 7803 7804 7805 7806 7807 7808 7809 7810 7811 7812 7813 7814 7815 7816 7817 7818 7819 7820 7821 7822 7823 7824 7825 7826 7827 7828 7829 7830 7831 7832 7833 7834 7835 7836 7837 7838 7839 7840 7841 7842 7843 7844 7845 7846 7847 7848 7849 7850 7851 7852 7853 7854 7855 7856 7857 7858 7859 7860 7861 7862 7863 7864 7865 7866 7867 7868 7869 7870 7871 7872 7873 7874 7875 7876 7877 7878 7879 7880 7881 7882 7883 7884 7885 7886 7887 7888 7889 7890 7891 7892 7893 7894 7895 7896 7897 7898 7899 7900 7901 7902 7903 7904 7905 7906 7907 7908 7909 7910 7911 7912 7913 7914 7915 7916 7917 7918 7919 7920 7921 7922 7923 7924 7925 7926 7927 7928 7929 7930 7931 7932 7933 7934 7935 7936 7937 7938 7939 7940 7941 7942 7943 7944 7945 7946 7947 7948 7949 7950 7951 7952 7953 7954 7955 7956 7957 7958 7959 7960 7961 7962 7963 7964 7965 7966 7967 7968 7969 7970 7971 7972 7973 7974 7975 7976 7977 7978 7979 7980 7981 7982 7983 7984 7985 7986 7987 7988 7989 7990 7991 7992 7993 7994 7995 7996 7997 7998 7999 8000 8001 8002 8003 8004 8005 8006 8007 8008 8009 8010 8011 8012 8013 8014 8015 8016 8017 8018 8019 8020 8021 8022 8023 8024 8025 8026 8027 8028 8029 8030 8031 8032 8033 8034 8035 8036 8037 8038 8039 8040 8041 8042 8043 8044 8045 8046 8047 8048 8049 8050 8051 8052 8053 8054 8055 8056 8057 8058 8059 8060 8061 8062 8063 8064 8065 8066 8067 8068 8069 8070 8071 8072 8073 8074 8075 8076 8077 8078 8079 8080 8081 8082 8083 8084 8085 8086 8087 8088 8089 8090 8091 8092 8093 8094 8095 8096 8097 8098 8099 8100 8101 8102 8103 8104 8105 8106 8107 8108 8109 8110 8111 8112 8113 8114 8115 8116 8117 8118 8119 8120 8121 8122 8123 8124 8125 8126 8127 8128 8129 8130 8131 8132 8133 8134 8135 8136 8137 8138 8139 8140 8141 8142 8143 8144 8145 8146 8147 8148 8149 8150 8151 8152 8153 8154 8155 8156 8157 8158 8159 8160 8161 8162 8163 8164 8165 8166 8167 8168 8169 8170 8171 8172 8173 8174 8175 8176 8177 8178 8179 8180 8181 8182 8183 8184 8185 8186 8187 8188 8189 8190 8191 8192 8193 8194 8195 8196 8197 8198 8199 8200 8201 8202 8203 8204 8205 8206 8207 8208 8209 8210 8211 8212 8213 8214 8215 8216 8217 8218 8219 8220 8221 8222 8223 8224 8225 8226 8227 8228 8229 8230 8231 8232 8233 8234 8235 8236 8237 8238 8239 8240 8241 8242 8243 8244 8245 8246 8247 8248 8249 8250 8251 8252 8253 8254 8255 8256 8257 8258 8259 8260 8261 8262 8263 8264 8265 8266 8267 8268 8269 8270 8271 8272 8273 8274 8275 8276 8277 8278 8279 8280 8281 8282 8283 8284 8285 8286 8287 8288 8289 8290 8291 8292 8293 8294 8295 8296 8297 8298 8299 8300 8301 8302 8303 8304 8305 8306 8307 8308 8309 8310 8311 8312 8313 8314 8315 8316 8317 8318 8319 8320 8321 8322 8323 8324 8325 8326 8327 8328 8329 8330 8331 8332 8333 8334 8335 8336 8337 8338 8339 8340 8341 8342 8343 8344 8345 8346 8347 8348 8349 8350 8351 8352 8353 8354 8355 8356 8357 8358 8359 8360 8361 8362 8363 8364 8365 8366 8367 8368 8369 8370 8371 8372 8373 8374 8375 8376 8377 8378 8379 8380 8381 8382 8383 8384 8385 8386 8387 8388 8389 8390 8391 8392 8393 8394 8395 8396 8397 8398 8399 8400 8401 8402 8403 8404 8405 8406 8407 8408 8409 8410 8411 8412 8413 8414 8415 8416 8417 8418 8419 8420 8421 8422 8423 8424 8425 8426 8427 8428 8429 8430 8431 8432 8433 8434 8435 8436 8437 8438 8439 8440 8441 8442 8443 8444 8445 8446 8447 8448 8449 8450 8451 8452 8453 8454 8455 8456 8457 8458 8459 8460 8461 8462 8463 8464 8465 8466 8467 8468 8469 8470 8471 8472 8473 8474 8475 8476 8477 8478 8479 8480 8481 8482 8483 8484 8485 8486 8487 8488 8489 8490 8491 8492 8493 8494 8495 8496 8497 8498 8499 8500 8501 8502 8503 8504 8505 8506 8507 8508 8509 8510 8511 8512 8513 8514 8515 8516 8517 8518 8519 8520 8521 8522 8523 8524 8525 8526 8527 8528 8529 8530 8531 8532 8533 8534 8535 8536 8537 8538 8539 8540 8541 8542 8543 8544 8545 8546 8547 8548 8549 8550 8551 8552 8553 8554 8555 8556 8557 8558 8559 8560 8561 8562 8563 8564 8565 8566 8567 8568 8569 8570 8571 8572 8573 8574 8575 8576 8577 8578 8579 8580 8581 8582 8583 8584 8585 8586 8587 8588 8589 8590 8591 8592 8593 8594 8595 8596 8597 8598 8599 8600 8601 8602 8603 8604 8605 8606 8607 8608 8609 8610 8611 8612 8613 8614 8615 8616 8617 8618 8619 8620 8621 8622 8623 8624 8625 8626 8627 8628 8629 8630 8631 8632 8633 8634 8635 8636 8637 8638 8639 8640 8641 8642 8643 8644 8645 8646 8647 8648 8649 8650 8651 8652 8653 8654 8655 8656 8657 8658 8659 8660 8661 8662 8663 8664 8665 8666 8667 8668 8669 8670 8671 8672 8673 8674 8675 8676 8677 8678 8679 8680 8681 8682 8683 8684 8685 8686 8687 8688 8689 8690 8691 8692 8693 8694 8695 8696 8697 8698 8699 8700 8701 8702 8703 8704 8705 8706 8707 8708 8709 8710 8711 8712 8713 8714 8715 8716 8717 8718 8719 8720 8721 8722 8723 8724 8725 8726 8727 8728 8729 8730 8731 8732 8733 8734 8735 8736 8737 8738 8739 8740 8741 8742 8743 8744 8745 8746 8747 8748 8749 8750 8751 8752 8753 8754 8755 8756 8757 8758 8759 8760 8761 8762 8763 8764 8765 8766 8767 8768 8769 8770 8771 8772 8773 8774 8775 8776 8777 8778 8779 8780 8781 8782 8783 8784 8785 8786 8787 8788 8789 8790 8791 8792 8793 8794 8795 8796 8797 8798 8799 8800 8801 8802 8803 8804 8805 8806 8807 8808 8809 8810 8811 8812 8813 8814 8815 8816 8817 8818 8819 8820 8821 8822 8823 8824 8825 8826 8827 8828 8829 8830 8831 8832 8833 8834 8835 8836 8837 8838 8839 8840 8841 8842 8843 8844 8845 8846 8847 8848 8849 8850 8851 8852 8853 8854 8855 8856 8857 8858 8859 8860 8861 8862 8863 8864 8865 8866 8867 8868 8869 8870 8871 8872 8873 8874 8875 8876 8877 8878 8879 8880 8881 8882 8883 8884 8885 8886 8887 8888 8889 8890 8891 8892 8893 8894 8895 8896 8897 8898 8899 8900 8901 8902 8903 8904 8905 8906 8907 8908 8909 8910 8911 8912 8913 8914 8915 8916 8917 8918 8919 8920 8921 8922 8923 8924 8925 8926 8927 8928 8929 8930 8931 8932 8933 8934 8935 8936 8937 8938 8939 8940 8941 8942 8943 8944 8945 8946 8947 8948 8949 8950 8951 8952 8953 8954 8955 8956 8957 8958 8959 8960 8961 8962 8963 8964 8965 8966 8967 8968 8969 8970 8971 8972 8973 8974 8975 8976 8977 8978 8979 8980 8981 8982 8983 8984 8985 8986 8987 8988 8989 8990 8991 8992 8993 8994 8995 8996 8997 8998 8999 9000 9001 9002 9003 9004 9005 9006 9007 9008 9009 9010 9011 9012 9013 9014 9015 9016 9017 9018 9019 9020 9021 9022 9023 9024 9025 9026 9027 9028 9029 9030 9031 9032 9033 9034 9035 9036 9037 9038 9039 9040 9041 9042 9043 9044 9045 9046 9047 9048 9049 9050 9051 9052 9053 9054 9055 9056 9057 9058 9059 9060 9061 9062 9063 9064 9065 9066 9067 9068 9069 9070 9071 9072 9073 9074 9075 9076 9077 9078 9079 9080 9081 9082 9083 9084 9085 9086 9087 9088 9089 9090 9091 9092 9093 9094 9095 9096 9097 9098 9099 9100 9101 9102 9103 9104 9105 9106 9107 9108 9109 9110 9111 9112 9113 9114 9115 9116 9117 9118 9119 9120 9121 9122 9123 9124 9125 9126 9127 9128 9129 9130 9131 9132 9133 9134 9135 9136 9137 9138 9139 9140 9141 9142 9143 9144 9145 9146 9147 9148 9149 9150 9151 9152 9153 9154 9155 9156 9157 9158 9159 9160 9161 9162 9163 9164 9165 9166 9167 9168 9169 9170 9171 9172 9173 9174 9175 9176 9177 9178 9179 9180 9181 9182 9183 9184 9185 9186 9187 9188 9189 9190 9191 9192 9193 9194 9195 9196 9197 9198 9199 9200 9201 9202 9203 9204 9205 9206 9207 9208 9209 9210 9211 9212 9213 9214 9215 9216 9217 9218 9219 9220 9221 9222 9223 9224 9225 9226 9227 9228 9229 9230 9231 9232 9233 9234 9235 9236 9237 9238 9239 9240 9241 9242 9243 9244 9245 9246 9247 9248 9249 9250 9251 9252 9253 9254 9255 9256 9257 9258 9259 9260 9261 9262 9263 9264 9265 9266 9267 9268 9269 9270 9271 9272 9273 9274 9275 9276 9277 9278 9279 9280 9281 9282 9283 9284 9285 9286 9287 9288 9289 9290 9291 9292 9293 9294 9295 9296 9297 9298 9299 9300 9301 9302 9303 9304 9305 9306 9307 9308 9309 9310 9311 9312 9313 9314 9315 9316 9317 9318 9319 9320 9321 9322 9323 9324 9325 9326 9327 9328 9329 9330 9331 9332 9333 9334 9335 9336 9337 9338 9339 9340 9341 9342 9343 9344 9345 9346 9347 9348 9349 9350 9351 9352 9353 9354 9355 9356 9357 9358 9359 9360 9361 9362 9363 9364 9365 9366 9367 9368 9369 9370 9371 9372 9373 9374 9375 9376 9377 9378 9379 9380 9381 9382 9383 9384 9385 9386 9387 9388 9389 9390 9391 9392 9393 9394 9395 9396 9397 9398 9399 9400 9401 9402 9403 9404 9405 9406 9407 9408 9409 9410 9411 9412 9413 9414 9415 9416 9417 9418 9419 9420 9421 9422 9423 9424 9425 9426 9427 9428 9429 9430 9431 9432 9433 9434 9435 9436 9437 9438 9439 9440 9441 9442 9443 9444 9445 9446 9447 9448 9449 9450 9451 9452 9453 9454 9455 9456 9457 9458 9459 9460 9461 9462 9463 9464 9465 9466 9467 9468 9469 9470 9471 9472 9473 9474 9475 9476 9477 9478 9479 9480 9481 9482 9483 9484 9485 9486 9487 9488 9489 9490 9491 9492 9493 9494 9495 9496 9497 9498 9499 9500 9501 9502 9503 9504 9505 9506 9507 9508 9509 9510 9511 9512 9513 9514 9515 9516 9517 9518 9519 9520 9521 9522 9523 9524 9525 9526 9527 9528 9529 9530 9531 9532 9533 9534 9535 9536 9537 9538 9539 9540 9541 9542 9543 9544 9545 9546 9547 9548 9549 9550 9551 9552 9553 9554 9555 9556 9557 9558 9559 9560 9561 9562 9563 9564 9565 9566 9567 9568 9569 9570 9571 9572 9573 9574 9575 9576 9577 9578 9579 9580 9581 9582 9583 9584 9585 9586 9587 9588 9589 9590 9591 9592 9593 9594 9595 9596 9597 9598 9599 9600 9601 9602 9603 9604 9605 9606 9607 9608 9609 9610 9611 9612 9613 9614 9615 9616 9617 9618 9619 9620 9621 9622 9623 9624 9625 9626 9627 9628 9629 9630 9631 9632 9633 9634 9635 9636 9637 9638 9639 9640 9641 9642 9643 9644 9645 9646 9647 9648 9649 9650 9651 9652 9653 9654 9655 9656 9657 9658 9659 9660 9661 9662 9663 9664 9665 9666 9667 9668 9669 9670 9671 9672 9673 9674 9675 9676 9677 9678 9679 9680 9681 9682 9683 9684 9685 9686 9687 9688 9689 9690 9691 9692 9693 9694 9695 9696 9697 9698 9699 9700 9701 9702 9703 9704 9705 9706 9707 9708 9709 9710 9711 9712 9713 9714 9715 9716 9717 9718 9719 9720 9721 9722 9723 9724 9725 9726 9727 9728 9729 9730 9731 9732 9733 9734 9735 9736 9737 9738 9739 9740 9741 9742 9743 9744 9745 9746 9747 9748 9749 9750 9751 9752 9753 9754 9755 9756 9757 9758 9759 9760 9761 9762 9763 9764 9765 9766 9767 9768 9769 9770 9771 9772 9773 9774 9775 9776 9777 9778 9779 9780 9781 9782 9783 9784 9785 9786 9787 9788 9789 9790 9791 9792 9793 9794 9795 9796 9797 9798 9799 9800 9801 9802 9803 9804 9805 9806 9807 9808 9809 9810 9811 9812 9813 9814 9815 9816 9817 9818 9819 9820 9821 9822 9823 9824 9825 9826 9827 9828 9829 9830 9831 9832 9833 9834 9835 9836 9837 9838 9839 9840 9841 9842 9843 9844 9845 9846 9847 9848 9849 9850 9851 9852 9853 9854 9855 9856 9857 9858 9859 9860 9861 9862 9863 9864 9865 9866 9867 9868 9869 9870 9871 9872 9873 9874 9875 9876 9877 9878 9879 9880 9881 9882 9883 9884 9885 9886 9887 9888 9889 9890 9891 9892 9893 9894 9895 9896 9897 9898 9899 9900 9901 9902 9903 9904 9905 9906 9907 9908 9909 9910 9911 9912 9913 9914 9915 9916 9917 9918 9919 9920 9921 9922 9923 9924 9925 9926 9927 9928 9929 9930 9931 9932 9933 9934 9935 9936 9937 9938 9939 9940 9941 9942 9943 9944 9945 9946 9947 9948 9949 9950 9951 9952 9953 9954 9955 9956 9957 9958 9959 9960 9961 9962 9963 9964 9965 9966 9967 9968 9969 9970 9971 9972 9973 9974 9975 9976 9977 9978 9979 9980 9981 9982 9983 9984 9985 9986 9987 9988 9989 9990 9991 9992 9993 9994 9995 9996 9997 9998 9999 10000 10001 10002 10003 10004 10005 10006 10007 10008 10009 10010 10011 10012 10013 10014 10015 10016 10017 10018 10019 10020 10021 10022 10023 10024 10025 10026 10027 10028 10029 10030 10031 10032 10033 10034 10035 10036 10037 10038 10039 10040 10041 10042 10043 10044 10045 10046 10047 10048 10049 10050 10051 10052 10053 10054 10055 10056 10057 10058 10059 10060 10061 10062 10063 10064 10065 10066 10067 10068 10069 10070 10071 10072 10073 10074 10075 10076 10077 10078 10079 10080 10081 10082 10083 10084 10085 10086 10087 10088 10089 10090 10091 10092 10093 10094 10095 10096 10097 10098 10099 10100 10101 10102 10103 10104 10105 10106 10107 10108 10109 10110 10111 10112 10113 10114 10115 10116 10117 10118 10119 10120 10121 10122 10123 10124 10125 10126 10127 10128 10129 10130 10131 10132 10133 10134 10135 10136 10137 10138 10139 10140 10141 10142 10143 10144 10145 10146 10147 10148 10149 10150 10151 10152 10153 10154 10155 10156 10157 10158 10159 10160 10161 10162 10163 10164 10165 10166 10167 10168 10169 10170 10171 10172 10173 10174 10175 10176 10177 10178 10179 10180 10181 10182 10183 10184 10185 10186 10187 10188 10189 10190 10191 10192 10193 10194 10195 10196 10197 10198 10199 10200 10201 10202 10203 10204 10205 10206 10207 10208 10209 10210 10211 10212 10213 10214 10215 10216 10217 10218 10219 10220 10221 10222 10223 10224 10225 10226 10227 10228 10229 10230 10231 10232 10233 10234 10235 10236 10237 10238 10239 10240 10241 10242 10243 10244 10245 10246 10247 10248 10249 10250 10251 10252 10253 10254 10255 10256 10257 10258 10259 10260 10261 10262 10263 10264 10265 10266 10267 10268 10269 10270 10271 10272 10273 10274 10275 10276 10277 10278 10279 10280 10281 10282 10283 10284 10285 10286 10287 10288 10289 10290 10291 10292 10293 10294 10295 10296 10297 10298 10299 10300 10301 10302 10303 10304 10305 10306 10307 10308 10309 10310 10311 10312 10313 10314 10315 10316 10317 10318 10319 10320 10321 10322 10323 10324 10325 10326 10327 10328 10329 10330 10331 10332 10333 10334 10335 10336 10337 10338 10339 10340 10341 10342 10343 10344 10345 10346 10347 10348 10349 10350 10351 10352 10353 10354 10355 10356 10357 10358 10359 10360 10361 10362 10363 10364 10365 10366 10367 10368 10369 10370 10371 10372 10373 10374 10375 10376 10377 10378 10379 10380 10381 10382 10383 10384 10385 10386 10387 10388 10389 10390 10391 10392 10393 10394 10395 10396 10397 10398 10399 10400 10401 10402 10403 10404 10405 10406 10407 10408 10409 10410 10411 10412 10413 10414 10415 10416 10417 10418 10419 10420 10421 10422 10423 10424 10425 10426 10427 10428 10429 10430 10431 10432 10433 10434 10435 10436 10437 10438 10439 10440 10441 10442 10443 10444 10445 10446 10447 10448 10449 10450 10451 10452 10453 10454 10455 10456 10457 10458 10459 10460 10461 10462 10463 10464 10465 10466 10467 10468 10469 10470 10471 10472 10473 10474 10475 10476 10477 10478 10479 10480 10481 10482 10483 10484 10485 10486 10487 10488 10489 10490 10491 10492 10493 10494 10495 10496 10497 10498 10499 10500 10501 10502 10503 10504 10505 10506 10507 10508 10509 10510 10511 10512 10513 10514 10515 10516 10517 10518 10519 10520 10521 10522 10523 10524 10525 10526 10527 10528 10529 10530 10531 10532 10533 10534 10535 10536 10537 10538 10539 10540 10541 10542 10543 10544 10545 10546 10547 10548 10549 10550 10551 10552 10553 10554 10555 10556 10557 10558 10559 10560 10561 10562 10563 10564 10565 10566 10567 10568 10569 10570 10571 10572 10573 10574 10575 10576 10577 10578 10579 10580 10581 10582 10583 10584 10585 10586 10587 10588 10589 10590 10591 10592 10593 10594 10595 10596 10597 10598 10599 10600 10601 10602 10603 10604 10605 10606 10607 10608 10609 10610 10611 10612 10613 10614 10615 10616 10617 10618 10619 10620 10621 10622 10623 10624 10625 10626 10627 10628 10629 10630 10631 10632 10633 10634 10635 10636 10637 10638 10639 10640 10641 10642 10643 10644 10645 10646 10647 10648 10649 10650 10651 10652 10653 10654 10655 10656 10657 10658 10659 10660 10661 10662 10663 10664 10665 10666 10667 10668 10669 10670 10671 10672 10673 10674 10675 10676 10677 10678 10679 10680 10681 10682 10683 10684 10685 10686 10687 10688 10689 10690 10691 10692 10693 10694 10695 10696 10697 10698 10699 10700 10701 10702 10703 10704 10705 10706 10707 10708 10709 10710 10711 10712 10713 10714 10715 10716 10717 10718 10719 10720 10721 10722 10723 10724 10725 10726 10727 10728 10729 10730 10731 10732 10733 10734 10735 10736 10737 10738 10739 10740 10741 10742 10743 10744 10745 10746 10747 10748 10749 10750 10751 10752 10753 10754 10755 10756 10757 10758 10759 10760 10761 10762 10763 10764 10765 10766 10767 10768 10769 10770 10771 10772 10773 10774 10775 10776 10777 10778 10779 10780 10781 10782 10783 10784 10785 10786 10787 10788 10789 10790 10791 10792 10793 10794 10795 10796 10797 10798 10799 10800 10801 10802 10803 10804 10805 10806 10807 10808 10809 10810 10811 10812 10813 10814 10815 10816 10817 10818 10819 10820 10821 10822 10823 10824 10825 10826 10827 10828 10829 10830 10831 10832 10833 10834 10835 10836 10837 10838 10839 10840 10841 10842 10843 10844 10845 10846 10847 10848 10849 10850 10851 10852 10853 10854 10855 10856 10857 10858 10859 10860 10861 10862 10863 10864 10865 10866 10867 10868 10869 10870 10871 10872 10873 10874 10875 10876 10877 10878 10879 10880 10881 10882 10883 10884 10885 10886 10887 10888 10889 10890 10891 10892 10893 10894 10895 10896 10897 10898 10899 10900 10901 10902 10903 10904 10905 10906 10907 10908 10909 10910 10911 10912 10913 10914 10915 10916 10917 10918 10919 10920 10921 10922 10923 10924 10925 10926 10927 10928 10929 10930 10931 10932 10933 10934 10935 10936 10937 10938 10939 10940 10941 10942 10943 10944 10945 10946 10947 10948 10949 10950 10951 10952 10953 10954 10955 10956 10957 10958 10959 10960 10961 10962 10963 10964 10965 10966 10967 10968 10969 10970 10971 10972 10973 10974 10975 10976 10977 10978 10979 10980 10981 10982 10983 10984 10985 10986 10987 10988 10989 10990 10991 10992 10993 10994 10995 10996 10997 10998 10999 11000 11001 11002 11003 11004 11005 11006 11007 11008 11009 11010 11011 11012 11013 11014 11015 11016 11017 11018 11019 11020 11021 11022 11023 11024 11025 11026 11027 11028 11029 11030 11031 11032 11033 11034 11035 11036 11037 11038 11039 11040 11041 11042 11043 11044 11045 11046 11047 11048 11049 11050 11051 11052 11053 11054 11055 11056 11057 11058 11059 11060 11061 11062 11063 11064 11065 11066 11067 11068 11069 11070 11071 11072 11073 11074 11075 11076 11077 11078 11079 11080 11081 11082 11083 11084 11085 11086 11087 11088 11089 11090 11091 11092 11093 11094 11095 11096 11097 11098 11099 11100 11101 11102 11103 11104 11105 11106 11107 11108 11109 11110 11111 11112 11113 11114 11115 11116 11117 11118 11119 11120 11121 11122 11123 11124 11125 11126 11127 11128 11129 11130 11131 11132 11133 11134 11135 11136 11137 11138 11139 11140 11141 11142 11143 11144 11145 11146 11147 11148 11149 11150 11151 11152 11153 11154 11155 11156 11157 11158 11159 11160 11161 11162 11163 11164 11165 11166 11167 11168 11169 11170 11171 11172 11173 11174 11175 11176 11177 11178 11179 11180 11181 11182 11183 11184 11185 11186 11187 11188 11189 11190 11191 11192 11193 11194 11195 11196 11197 11198 11199 11200 11201 11202 11203 11204 11205 11206 11207 11208 11209 11210 11211 11212 11213 11214 11215 11216 11217 11218 11219 11220 11221 11222 11223 11224 11225 11226 11227 11228 11229 11230 11231 11232 11233 11234 11235 11236 11237 11238 11239 11240 11241 11242 11243 11244 11245 11246 11247 11248 11249 11250 11251 11252 11253 11254 11255 11256 11257 11258 11259 11260 11261 11262 11263 11264 11265 11266 11267 11268 11269 11270 11271 11272 11273 11274 11275 11276 11277 11278 11279 11280 11281 11282 11283 11284 11285 11286 11287 11288 11289 11290 11291 11292 11293 11294 11295 11296 11297 11298 11299 11300 11301 11302 11303 11304 11305 11306 11307 11308 11309 11310 11311 11312 11313 11314 11315 11316 11317 11318 11319 11320 11321 11322 11323 11324 11325 11326 11327 11328 11329 11330 11331 11332 11333 11334 11335 11336 11337 11338 11339 11340 11341 11342 11343 11344 11345 11346 11347 11348 11349 11350 11351 11352 11353 11354 11355 11356 11357 11358 11359 11360 11361 11362 11363 11364 11365 11366 11367 11368 11369 11370 11371 11372 11373 11374 11375 11376 11377 11378 11379 11380 11381 11382 11383 11384 11385 11386 11387 11388 11389 11390 11391 11392 11393 11394 11395 11396 11397 11398 11399 11400 11401 11402 11403 11404 11405 11406 11407 11408 11409 11410 11411 11412 11413 11414 11415 11416 11417 11418 11419 11420 11421 11422 11423 11424 11425 11426 11427 11428 11429 11430 11431 11432 11433 11434 11435 11436 11437 11438 11439 11440 11441 11442 11443 11444 11445 11446 11447 11448 11449 11450 11451 11452 11453 11454 11455 11456 11457 11458 11459 11460 11461 11462 11463 11464 11465 11466 11467 11468 11469 11470 11471 11472 11473 11474 11475 11476 11477 11478 11479 11480 11481 11482 11483 11484 11485 11486 11487 11488 11489 11490 11491 11492 11493 11494 11495 11496 11497 11498 11499 11500 11501 11502 11503 11504 11505 11506 11507 11508 11509 11510 11511 11512 11513 11514 11515 11516 11517 11518 11519 11520 11521 11522 11523 11524 11525 11526 11527 11528 11529 11530 11531 11532 11533 11534 11535 11536 11537 11538 11539 11540 11541 11542 11543 11544 11545 11546 11547 11548 11549 11550 11551 11552 11553 11554 11555 11556 11557 11558 11559 11560 11561 11562 11563 11564 11565 11566 11567 11568 11569 11570 11571 11572 11573 11574 11575 11576 11577 11578 11579 11580 11581 11582 11583 11584 11585 11586 11587 11588 11589 11590 11591 11592 11593 11594 11595 11596 11597 11598 11599 11600 11601 11602 11603 11604 11605 11606 11607 11608 11609 11610 11611 11612 11613 11614 11615 11616 11617 11618 11619 11620 11621 11622 11623 11624 11625 11626 11627 11628 11629 11630 11631 11632 11633 11634 11635 11636 11637 11638 11639 11640 11641 11642 11643 11644 11645 11646 11647 11648 11649 11650 11651 11652 11653 11654 11655 11656 11657 11658 11659 11660 11661 11662 11663 11664 11665 11666 11667 11668 11669 11670 11671 11672 11673 11674 11675 11676 11677 11678 11679 11680 11681 11682 11683 11684 11685 11686 11687 11688 11689 11690 11691 11692 11693 11694 11695 11696 11697 11698 11699 11700 11701 11702 11703 11704 11705 11706 11707 11708 11709 11710 11711 11712 11713 11714 11715 11716 11717 11718 11719 11720 11721 11722 11723 11724 11725 11726 11727 11728 11729 11730 11731 11732 11733 11734 11735 11736 11737 11738 11739 11740 11741 11742 11743 11744 11745 11746 11747 11748 11749 11750 11751 11752 11753 11754 11755 11756 11757 11758 11759 11760 11761 11762 11763 11764 11765 11766 11767 11768 11769 11770 11771 11772 11773 11774 11775 11776 11777 11778 11779 11780 11781 11782 11783 11784 11785 11786 11787 11788 11789 11790 11791 11792 11793 11794 11795 11796 11797 11798 11799 11800 11801 11802 11803 11804 11805 11806 11807 11808 11809 11810 11811 11812 11813 11814 11815 11816 11817 11818 11819 11820 11821 11822 11823 11824 11825 11826 11827 11828 11829 11830 11831 11832 11833 11834 11835 11836 11837 11838 11839 11840 11841 11842 11843 11844 11845 11846 11847 11848 11849 11850 11851 11852 11853 11854 11855 11856 11857 11858 11859 11860 11861 11862 11863 11864 11865 11866 11867 11868 11869 11870 11871 11872 11873 11874 11875 11876 11877 11878 11879 11880 11881 11882 11883 11884 11885 11886 11887 11888 11889 11890 11891 11892 11893 11894 11895 11896 11897 11898 11899 11900 11901 11902 11903 11904 11905 11906 11907 11908 11909 11910 11911 11912 11913 11914 11915 11916 11917 11918 11919 11920 11921 11922 11923 11924 11925 11926 11927 11928 11929 11930 11931 11932 11933 11934 11935 11936 11937 11938 11939 11940 11941 11942 11943 11944 11945 11946 11947 11948 11949 11950 11951 11952 11953 11954 11955 11956 11957 11958 11959 11960 11961 11962 11963 11964 11965 11966 11967 11968 11969 11970 11971 11972 11973 11974 11975 11976 11977 11978 11979 11980 11981 11982 11983 11984 11985 11986 11987 11988 11989 11990 11991 11992 11993 11994 11995 11996 11997 11998 11999 12000 12001 12002 12003 12004 12005 12006 12007 12008 12009 12010 12011 12012 12013 12014 12015 12016 12017 12018 12019 12020 12021 12022 12023 12024 12025 12026 12027 12028 12029 12030 12031 12032 12033 12034 12035 12036 12037 12038 12039 12040 12041 12042 12043 12044 12045 12046 12047 12048 12049 12050 12051 12052 12053 12054 12055 12056 12057 12058 12059 12060 12061 12062 12063 12064 12065 12066 12067 12068 12069 12070 12071 12072 12073 12074 12075 12076 12077 12078 12079 12080 12081 12082 12083 12084 12085 12086 12087 12088 12089 12090 12091 12092 12093 12094 12095 12096 12097 12098 12099 12100 12101 12102 12103 12104 12105 12106 12107 12108 12109 12110 12111 12112 12113 12114 12115 12116 12117 12118 12119 12120 12121 12122 12123 12124 12125 12126 12127 12128 12129 12130 12131 12132 12133 12134 12135 12136 12137 12138 12139 12140 12141 12142 12143 12144 12145 12146 12147 12148 12149 12150 12151 12152 12153 12154 12155 12156 12157 12158 12159 12160 12161 12162 12163 12164 12165 12166 12167 12168 12169 12170 12171 12172 12173 12174 12175 12176 12177 12178 12179 12180 12181 12182 12183 12184 12185 12186 12187 12188 12189 12190 12191 12192 12193 12194 12195 12196 12197 12198 12199 12200 12201 12202 12203 12204 12205 12206 12207 12208 12209 12210 12211 12212 12213 12214 12215 12216 12217 12218 12219 12220 12221 12222 12223 12224 12225 12226 12227 12228 12229 12230 12231 12232 12233 12234 12235 12236 12237 12238 12239 12240 12241 12242 12243 12244 12245 12246 12247 12248 12249 12250 12251 12252 12253 12254 12255 12256 12257 12258 12259 12260 12261 12262 12263 12264 12265 12266 12267 12268 12269 12270 12271 12272 12273 12274 12275 12276 12277 12278 12279 12280 12281 12282 12283 12284 12285 12286 12287 12288 12289 12290 12291 12292 12293 12294 12295 12296 12297 12298 12299 12300 12301 12302 12303 12304 12305 12306 12307 12308 12309 12310 12311 12312 12313 12314 12315 12316 12317 12318 12319 12320 12321 12322 12323 12324 12325 12326 12327 12328 12329 12330 12331 12332 12333 12334 12335 12336 12337 12338 12339 12340 12341 12342 12343 12344 12345 12346 12347 12348 12349 12350 12351 12352 12353 12354 12355 12356 12357 12358 12359 12360 12361 12362 12363 12364 12365 12366 12367 12368 12369 12370 12371 12372 12373 12374 12375 12376 12377 12378 12379 12380 12381 12382 12383 12384 12385 12386 12387 12388 12389 12390 12391 12392 12393 12394 12395 12396 12397 12398 12399 12400 12401 12402 12403 12404 12405 12406 12407 12408 12409 12410 12411 12412 12413 12414 12415 12416 12417 12418 12419 12420 12421 12422 12423 12424 12425 12426 12427 12428 12429 12430 12431 12432 12433 12434 12435 12436 12437 12438 12439 12440 12441 12442 12443 12444 12445 12446 12447 12448 12449 12450 12451 12452 12453 12454 12455 12456 12457 12458 12459 12460 12461 12462 12463 12464 12465 12466 12467 12468 12469 12470 12471 12472 12473 12474 12475 12476 12477 12478 12479 12480 12481 12482 12483 12484 12485 12486 12487 12488 12489 12490 12491 12492 12493 12494 12495 12496 12497 12498 12499 12500 12501 12502 12503 12504 12505 12506 12507 12508 12509 12510 12511 12512 12513 12514 12515 12516 12517 12518 12519 12520 12521 12522 12523 12524 12525 12526 12527 12528 12529 12530 12531 12532 12533 12534 12535 12536 12537 12538 12539 12540 12541 12542 12543 12544 12545 12546 12547 12548 12549 12550 12551 12552 12553 12554 12555 12556 12557 12558 12559 12560 12561 12562 12563 12564 12565 12566 12567 12568 12569 12570 12571 12572 12573 12574 12575 12576 12577 12578 12579 12580 12581 12582 12583 12584 12585 12586 12587 12588 12589 12590 12591 12592 12593 12594 12595 12596 12597 12598 12599 12600 12601 12602 12603 12604 12605 12606 12607 12608 12609 12610 12611 12612 12613 12614 12615 12616 12617 12618 12619 12620 12621 12622 12623 12624 12625 12626 12627 12628 12629 12630 12631 12632 12633 12634 12635 12636 12637 12638 12639 12640 12641 12642 12643 12644 12645 12646 12647 12648 12649 12650 12651 12652 12653 12654 12655 12656 12657 12658 12659 12660 12661 12662 12663 12664 12665 12666 12667 12668 12669 12670 12671 12672 12673 12674 12675 12676 12677 12678 12679 12680 12681 12682 12683 12684 12685 12686 12687 12688 12689 12690 12691 12692 12693 12694 12695 12696 12697 12698 12699 12700 12701 12702 12703 12704 12705 12706 12707 12708 12709 12710 12711 12712 12713 12714 12715 12716 12717 12718 12719 12720 12721 12722 12723 12724 12725 12726 12727 12728 12729 12730 12731 12732 12733 12734 12735 12736 12737 12738 12739 12740 12741 12742 12743 12744 12745 12746 12747 12748 12749 12750 12751 12752 12753 12754 12755 12756 12757 12758 12759 12760 12761 12762 12763 12764 12765 12766 12767 12768 12769 12770 12771 12772 12773 12774 12775 12776 12777 12778 12779 12780 12781 12782 12783 12784 12785 12786 12787 12788 12789 12790 12791 12792 12793 12794 12795 12796 12797 12798 12799 12800 12801 12802 12803 12804 12805 12806 12807 12808 12809 12810 12811 12812 12813 12814 12815 12816 12817 12818 12819 12820 12821 12822 12823 12824 12825 12826 12827 12828 12829 12830 12831 12832 12833 12834 12835 12836 12837 12838 12839 12840 12841 12842 12843 12844 12845 12846 12847 12848 12849 12850 12851 12852 12853 12854 12855 12856 12857 12858 12859 12860 12861 12862 12863 12864 12865 12866 12867 12868 12869 12870 12871 12872 12873 12874 12875 12876 12877 12878 12879 12880 12881 12882 12883 12884 12885 12886 12887 12888 12889 12890 12891 12892 12893 12894 12895 12896 12897 12898 12899 12900 12901 12902 12903 12904 12905 12906 12907 12908 12909 12910 12911 12912 12913 12914 12915 12916 12917 12918 12919 12920 12921 12922 12923 12924 12925 12926 12927 12928 12929 12930 12931 12932 12933 12934 12935 12936 12937 12938 12939 12940 12941 12942 12943 12944 12945 12946 12947 12948 12949 12950 12951 12952 12953 12954 12955 12956 12957 12958 12959 12960 12961 12962 12963 12964 12965 12966 12967 12968 12969 12970 12971 12972 12973 12974 12975 12976 12977 12978 12979 12980 12981 12982 12983 12984 12985 12986 12987 12988 12989 12990 12991 12992 12993 12994 12995 12996 12997 12998 12999 13000 13001 13002 13003 13004 13005 13006 13007 13008 13009 13010 13011 13012 13013 13014 13015 13016 13017 13018 13019 13020 13021 13022 13023 13024 13025 13026 13027 13028 13029 13030 13031 13032 13033 13034 13035 13036 13037 13038 13039 13040 13041 13042 13043 13044 13045 13046 13047 13048 13049 13050 13051 13052 13053 13054 13055 13056 13057 13058 13059 13060 13061 13062 13063 13064 13065 13066 13067 13068 13069 13070 13071 13072 13073 13074 13075 13076 13077 13078 13079 13080 13081 13082 13083 13084 13085 13086 13087 13088 13089 13090 13091 13092 13093 13094 13095 13096 13097 13098 13099 13100 13101 13102 13103 13104 13105 13106 13107 13108 13109 13110 13111 13112 13113 13114 13115 13116 13117 13118 13119 13120 13121 13122 13123 13124 13125 13126 13127 13128 13129 13130 13131 13132 13133 13134 13135 13136 13137 13138 13139 13140 13141 13142 13143 13144 13145 13146 13147 13148 13149 13150 13151 13152 13153 13154 13155 13156 13157 13158 13159 13160 13161 13162 13163 13164 13165 13166 13167 13168 13169 13170 13171 13172 13173 13174 13175 13176 13177 13178 13179 13180 13181 13182 13183 13184 13185 13186 13187 13188 13189 13190 13191 13192 13193 13194 13195 13196 13197 13198 13199 13200 13201 13202 13203 13204 13205 13206 13207 13208 13209 13210 13211 13212 13213 13214 13215 13216 13217 13218 13219 13220 13221 13222 13223 13224 13225 13226 13227 13228 13229 13230 13231 13232 13233 13234 13235 13236 13237 13238 13239 13240 13241 13242 13243 13244 13245 13246 13247 13248 13249 13250 13251 13252 13253 13254 13255 13256 13257 13258 13259 13260 13261 13262 13263 13264 13265 13266 13267 13268 13269 13270 13271 13272 13273 13274 13275 13276 13277 13278 13279 13280 13281 13282 13283 13284 13285 13286 13287 13288 13289 13290 13291 13292 13293 13294 13295 13296 13297 13298 13299 13300 13301 13302 13303 13304 13305 13306 13307 13308 13309 13310 13311 13312 13313 13314 13315 13316 13317 13318 13319 13320 13321 13322 13323 13324 13325 13326 13327 13328 13329 13330 13331 13332 13333 13334 13335 13336 13337 13338 13339 13340 13341 13342 13343 13344 13345 13346 13347 13348 13349 13350 13351 13352 13353 13354 13355 13356 13357 13358 13359 13360 13361 13362 13363 13364 13365 13366 13367 13368 13369 13370 13371 13372 13373 13374 13375 13376 13377 13378 13379 13380 13381 13382 13383 13384 13385 13386 13387 13388 13389 13390 13391 13392 13393 13394 13395 13396 13397 13398 13399 13400 13401 13402 13403 13404 13405 13406 13407 13408 13409 13410 13411 13412 13413 13414 13415 13416 13417 13418 13419 13420 13421 13422 13423 13424 13425 13426 13427 13428 13429 13430 13431 13432 13433 13434 13435 13436 13437 13438 13439 13440 13441 13442 13443 13444 13445 13446 13447 13448 13449 13450 13451 13452 13453 13454 13455 13456 13457 13458 13459 13460 13461 13462 13463 13464 13465 13466 13467 13468 13469 13470 13471 13472 13473 13474 13475 13476 13477 13478 13479 13480 13481 13482 13483 13484 13485 13486 13487 13488 13489 13490 13491 13492 13493 13494 13495 13496 13497 13498 13499 13500 13501 13502 13503 13504 13505 13506 13507 13508 13509 13510 13511 13512 13513 13514 13515 13516 13517 13518 13519 13520 13521 13522 13523 13524 13525 13526 13527 13528 13529 13530 13531 13532 13533 13534 13535 13536 13537 13538 13539 13540 13541 13542 13543 13544 13545 13546 13547 13548 13549 13550 13551 13552 13553 13554 13555 13556 13557 13558 13559 13560 13561 13562 13563 13564 13565 13566 13567 13568 13569 13570 13571 13572 13573 13574 13575 13576 13577 13578 13579 13580 13581 13582 13583 13584 13585 13586 13587 13588 13589 13590 13591 13592 13593 13594 13595 13596 13597 13598 13599 13600 13601 13602 13603 13604 13605 13606 13607 13608 13609 13610 13611 13612 13613 13614 13615 13616 13617 13618 13619 13620 13621 13622 13623 13624 13625 13626 13627 13628 13629 13630 13631 13632 13633 13634 13635 13636 13637 13638 13639 13640 13641 13642 13643 13644 13645 13646 13647 13648 13649 13650 13651 13652 13653 13654 13655 13656 13657 13658 13659 13660 13661 13662 13663 13664 13665 13666 13667 13668 13669 13670 13671 13672 13673 13674 13675 13676 13677 13678 13679 13680 13681 13682 13683 13684 13685 13686 13687 13688 13689 13690 13691 13692 13693 13694 13695 13696 13697 13698 13699 13700 13701 13702 13703 13704 13705 13706 13707 13708 13709 13710 13711 13712 13713 13714 13715 13716 13717 13718 13719 13720 13721 13722 13723 13724 13725 13726 13727 13728 13729 13730 13731 13732 13733 13734 13735 13736 13737 13738 13739 13740 13741 13742 13743 13744 13745 13746 13747 13748 13749 13750 13751 13752 13753 13754 13755 13756 13757 13758 13759 13760 13761 13762 13763 13764 13765 13766 13767 13768 13769 13770 13771 13772 13773 13774 13775 13776 13777 13778 13779 13780 13781 13782 13783 13784 13785 13786 13787 13788 13789 13790 13791 13792 13793 13794 13795 13796 13797 13798 13799 13800 13801 13802 13803 13804 13805 13806 13807 13808 13809 13810 13811 13812 13813 13814 13815 13816 13817 13818 13819 13820 13821 13822 13823 13824 13825 13826 13827 13828 13829 13830 13831 13832 13833 13834 13835 13836 13837 13838 13839 13840 13841 13842 13843 13844 13845 13846 13847 13848 13849 13850 13851 13852 13853 13854 13855 13856 13857 13858 13859 13860 13861 13862 13863 13864 13865 13866 13867 13868 13869 13870 13871 13872 13873 13874 13875 13876 13877 13878 13879 13880 13881 13882 13883 13884 13885 13886 13887 13888 13889 13890 13891 13892 13893 13894 13895 13896 13897 13898 13899 13900 13901 13902 13903 13904 13905 13906 13907 13908 13909 13910 13911 13912 13913 13914 13915 13916 13917 13918 13919 13920 13921 13922 13923 13924 13925 13926 13927 13928 13929 13930 13931 13932 13933 13934 13935 13936 13937 13938 13939 13940 13941 13942 13943 13944 13945 13946 13947 13948 13949 13950 13951 13952 13953 13954 13955 13956 13957 13958 13959 13960 13961 13962 13963 13964 13965 13966 13967 13968 13969 13970 13971 13972 13973 13974 13975 13976 13977 13978 13979 13980 13981 13982 13983 13984 13985 13986 13987 13988 13989 13990 13991 13992 13993 13994 13995 13996 13997 13998 13999 14000 14001 14002 14003 14004 14005 14006 14007 14008 14009 14010 14011 14012 14013 14014 14015 14016 14017 14018 14019 14020 14021 14022 14023 14024 14025 14026 14027 14028 14029 14030 14031 14032 14033 14034 14035 14036 14037 14038 14039 14040 14041 14042 14043 14044 14045 14046 14047 14048 14049 14050 14051 14052 14053 14054 14055 14056 14057 14058 14059 14060 14061 14062 14063 14064 14065 14066 14067 14068 14069 14070 14071 14072 14073 14074 14075 14076 14077 14078 14079 14080 14081 14082 14083 14084 14085 14086 14087 14088 14089 14090 14091 14092 14093 14094 14095 14096 14097 14098 14099 14100 14101 14102 14103 14104 14105 14106 14107 14108 14109 14110 14111 14112 14113 14114 14115 14116 14117 14118 14119 14120 14121 14122 14123 14124 14125 14126 14127 14128 14129 14130 14131 14132 14133 14134 14135 14136 14137 14138 14139 14140 14141 14142 14143 14144 14145 14146 14147 14148 14149 14150 14151 14152 14153 14154 14155 14156 14157 14158 14159 14160 14161 14162 14163 14164 14165 14166 14167 14168 14169 14170 14171 14172 14173 14174 14175 14176 14177 14178 14179 14180 14181 14182 14183 14184 14185 14186 14187 14188 14189 14190 14191 14192 14193 14194 14195 14196 14197 14198 14199 14200 14201 14202 14203 14204 14205 14206 14207 14208 14209 14210 14211 14212 14213 14214 14215 14216 14217 14218 14219 14220 14221 14222 14223 14224 14225 14226 14227 14228 14229 14230 14231 14232 14233 14234 14235 14236 14237 14238 14239 14240 14241 14242 14243 14244 14245 14246 14247 14248 14249 14250 14251 14252 14253 14254 14255 14256 14257 14258 14259 14260 14261 14262 14263 14264 14265 14266 14267 14268 14269 14270 14271 14272 14273 14274 14275 14276 14277 14278 14279 14280 14281 14282 14283 14284 14285 14286 14287 14288 14289 14290 14291 14292 14293 14294 14295 14296 14297 14298 14299 14300 14301 14302 14303 14304 14305 14306 14307 14308 14309 14310 14311 14312 14313 14314 14315 14316 14317 14318 14319 14320 14321 14322 14323 14324 14325 14326 14327 14328 14329 14330 14331 14332 14333 14334 14335 14336 14337 14338 14339 14340 14341 14342 14343 14344 14345 14346 14347 14348 14349 14350 14351 14352 14353 14354 14355 14356 14357 14358 14359 14360 14361 14362 14363 14364 14365 14366 14367 14368 14369 14370 14371 14372 14373 14374 14375 14376 14377 14378 14379 14380 14381 14382 14383 14384 14385 14386 14387 14388 14389 14390 14391 14392 14393 14394 14395 14396 14397 14398 14399 14400 14401 14402 14403 14404 14405 14406 14407 14408 14409 14410 14411 14412 14413 14414 14415 14416 14417 14418 14419 14420 14421 14422 14423 14424 14425 14426 14427 14428 14429 14430 14431 14432 14433 14434 14435 14436 14437 14438 14439 14440 14441 14442 14443 14444 14445 14446 14447 14448 14449 14450 14451 14452 14453 14454 14455 14456 14457 14458 14459 14460 14461 14462 14463 14464 14465 14466 14467 14468 14469 14470 14471 14472 14473 14474 14475 14476 14477 14478 14479 14480 14481 14482 14483 14484 14485 14486 14487 14488 14489 14490 14491 14492 14493 14494 14495 14496 14497 14498 14499 14500 14501 14502 14503 14504 14505 14506 14507 14508 14509 14510 14511 14512 14513 14514 14515 14516 14517 14518 14519 14520 14521 14522 14523 14524 14525 14526 14527 14528 14529 14530 14531 14532 14533 14534 14535 14536 14537 14538 14539 14540 14541 14542 14543 14544 14545 14546 14547 14548 14549 14550 14551 14552 14553 14554 14555 14556 14557 14558 14559 14560 14561 14562 14563 14564 14565 14566 14567 14568 14569 14570 14571 14572 14573 14574 14575 14576 14577 14578 14579 14580 14581 14582 14583 14584 14585 14586 14587 14588 14589 14590 14591 14592 14593 14594 14595 14596 14597 14598 14599 14600 14601 14602 14603 14604 14605 14606 14607 14608 14609 14610 14611 14612 14613 14614 14615 14616 14617 14618 14619 14620 14621 14622 14623 14624 14625 14626 14627 14628 14629 14630 14631 14632 14633 14634 14635 14636 14637 14638 14639 14640 14641 14642 14643 14644 14645 14646 14647 14648 14649 14650 14651 14652 14653 14654 14655 14656 14657 14658 14659 14660 14661 14662 14663 14664 14665 14666 14667 14668 14669 14670 14671 14672 14673 14674 14675 14676 14677 14678 14679 14680 14681 14682 14683 14684 14685 14686 14687 14688 14689 14690 14691 14692 14693 14694 14695 14696 14697 14698 14699 14700 14701 14702 14703 14704 14705 14706 14707 14708 14709 14710 14711 14712 14713 14714 14715 14716 14717 14718 14719 14720 14721 14722 14723 14724 14725 14726 14727 14728 14729 14730 14731 14732 14733 14734 14735 14736 14737 14738 14739 14740 14741 14742 14743 14744 14745 14746 14747 14748 14749 14750 14751 14752 14753 14754 14755 14756 14757 14758 14759 14760 14761 14762 14763 14764 14765 14766 14767 14768 14769 14770 14771 14772 14773 14774 14775 14776 14777 14778 14779 14780 14781 14782 14783 14784 14785 14786 14787 14788 14789 14790 14791 14792 14793 14794 14795 14796 14797 14798 14799 14800 14801 14802 14803 14804 14805 14806 14807 14808 14809 14810 14811 14812 14813 14814 14815 14816 14817 14818 14819 14820 14821 14822 14823 14824 14825 14826 14827 14828 14829 14830 14831 14832 14833 14834 14835 14836 14837 14838 14839 14840 14841 14842 14843 14844 14845 14846 14847 14848 14849 14850 14851 14852 14853 14854 14855 14856 14857 14858 14859 14860 14861 14862 14863 14864 14865 14866 14867 14868 14869 14870 14871 14872 14873 14874 14875 14876 14877 14878 14879 14880 14881 14882 14883 14884 14885 14886 14887 14888 14889 14890 14891 14892 14893 14894 14895 14896 14897 14898 14899 14900 14901 14902 14903 14904 14905 14906 14907 14908 14909 14910 14911 14912 14913 14914 14915 14916 14917 14918 14919 14920 14921 14922 14923 14924 14925 14926 14927 14928 14929 14930 14931 14932 14933 14934 14935 14936 14937 14938 14939 14940 14941 14942 14943 14944 14945 14946 14947 14948 14949 14950 14951 14952 14953 14954 14955 14956 14957 14958 14959 14960 14961 14962 14963 14964 14965 14966 14967 14968 14969 14970 14971 14972 14973 14974 14975 14976 14977 14978 14979 14980 14981 14982 14983 14984 14985 14986 14987 14988 14989 14990 14991 14992 14993 14994 14995 14996 14997 14998 14999 15000 15001 15002 15003 15004 15005 15006 15007 15008 15009 15010 15011 15012 15013 15014 15015 15016 15017 15018 15019 15020 15021 15022 15023 15024 15025 15026 15027 15028 15029 15030 15031 15032 15033 15034 15035 15036 15037 15038 15039 15040 15041 15042 15043 15044 15045 15046 15047 15048 15049 15050 15051 15052 15053 15054 15055 15056 15057 15058 15059 15060 15061 15062 15063 15064 15065 15066 15067 15068 15069 15070 15071 15072 15073 15074 15075 15076 15077 15078 15079 15080 15081 15082 15083 15084 15085 15086 15087 15088 15089 15090 15091 15092 15093 15094 15095 15096 15097 15098 15099 15100 15101 15102 15103 15104 15105 15106 15107 15108 15109 15110 15111 15112 15113 15114 15115 15116 15117 15118 15119 15120 15121 15122 15123 15124 15125 15126 15127 15128 15129 15130 15131 15132 15133 15134 15135 15136 15137 15138 15139 15140 15141 15142 15143 15144 15145 15146 15147 15148 15149 15150 15151 15152 15153 15154 15155 15156 15157 15158 15159 15160 15161 15162 15163 15164 15165 15166 15167 15168 15169 15170 15171 15172 15173 15174 15175 15176 15177 15178 15179 15180 15181 15182 15183 15184 15185 15186 15187 15188 15189 15190 15191 15192 15193 15194 15195 15196 15197 15198 15199 15200 15201 15202 15203 15204 15205 15206 15207 15208 15209 15210 15211 15212 15213 15214 15215 15216 15217 15218 15219 15220 15221 15222 15223 15224 15225 15226 15227 15228 15229 15230 15231 15232 15233 15234 15235 15236 15237 15238 15239 15240 15241 15242 15243 15244 15245 15246 15247 15248 15249 15250 15251 15252 15253 15254 15255 15256 15257 15258 15259 15260 15261 15262 15263 15264 15265 15266 15267 15268 15269 15270 15271 15272 15273 15274 15275 15276 15277 15278 15279 15280 15281 15282 15283 15284 15285 15286 15287 15288 15289 15290 15291 15292 15293 15294 15295 15296 15297 15298 15299 15300 15301 15302 15303 15304 15305 15306 15307 15308 15309 15310 15311 15312 15313 15314 15315 15316 15317 15318 15319 15320 15321 15322 15323 15324 15325 15326 15327 15328 15329 15330 15331 15332 15333 15334 15335 15336 15337 15338 15339 15340 15341 15342 15343 15344 15345 15346 15347 15348 15349 15350 15351 15352 15353 15354 15355 15356 15357 15358 15359 15360 15361 15362 15363 15364 15365 15366 15367 15368 15369 15370 15371 15372 15373 15374 15375 15376 15377 15378 15379 15380 15381 15382 15383 15384 15385 15386 15387 15388 15389 15390 15391 15392 15393 15394 15395 15396 15397 15398 15399 15400 15401 15402 15403 15404 15405 15406 15407 15408 15409 15410 15411 15412 15413 15414 15415 15416 15417 15418 15419 15420 15421 15422 15423 15424 15425 15426 15427 15428 15429 15430 15431 15432 15433 15434 15435 15436 15437 15438 15439 15440 15441 15442 15443 15444 15445 15446 15447 15448 15449 15450 15451 15452 15453 15454 15455 15456 15457 15458 15459 15460 15461 15462 15463 15464 15465 15466 15467 15468 15469 15470 15471 15472 15473 15474 15475 15476 15477 15478 15479 15480 15481 15482 15483 15484 15485 15486 15487 15488 15489 15490 15491 15492 15493 15494 15495 15496 15497 15498 15499 15500 15501 15502 15503 15504 15505 15506 15507 15508 15509 15510 15511 15512 15513 15514 15515 15516 15517 15518 15519 15520 15521 15522 15523 15524 15525 15526 15527 15528 15529 15530 15531 15532 15533 15534 15535 15536 15537 15538 15539 15540 15541 15542 15543 15544 15545 15546 15547 15548 15549 15550 15551 15552 15553 15554 15555 15556 15557 15558 15559 15560 15561 15562 15563 15564 15565 15566 15567 15568 15569 15570 15571 15572 15573 15574 15575 15576 15577 15578 15579 15580 15581 15582 15583 15584 15585 15586 15587 15588 15589 15590 15591 15592 15593 15594 15595 15596 15597 15598 15599 15600 15601 15602 15603 15604 15605 15606 15607 15608 15609 15610 15611 15612 15613 15614 15615 15616 15617 15618 15619 15620 15621 15622 15623 15624 15625 15626 15627 15628 15629 15630 15631 15632 15633 15634 15635 15636 15637 15638 15639 15640 15641 15642 15643 15644 15645 15646 15647 15648 15649 15650 15651 15652 15653 15654 15655 15656 15657 15658 15659 15660 15661 15662 15663 15664 15665 15666 15667 15668 15669 15670 15671 15672 15673 15674 15675 15676 15677 15678 15679 15680 15681 15682 15683 15684 15685 15686 15687 15688 15689 15690 15691 15692 15693 15694 15695 15696 15697 15698 15699 15700 15701 15702 15703 15704 15705 15706 15707 15708 15709 15710 15711 15712 15713 15714 15715 15716 15717 15718 15719 15720 15721 15722 15723 15724 15725 15726 15727 15728 15729 15730 15731 15732 15733 15734 15735 15736 15737 15738 15739 15740 15741 15742 15743 15744 15745 15746 15747 15748 15749 15750 15751 15752 15753 15754 15755 15756 15757 15758 15759 15760 15761 15762 15763 15764 15765 15766 15767 15768 15769 15770 15771 15772 15773 15774 15775 15776 15777 15778 15779 15780 15781 15782 15783 15784 15785 15786 15787 15788 15789 15790 15791 15792 15793 15794 15795 15796 15797 15798 15799 15800 15801 15802 15803 15804 15805 15806 15807 15808 15809 15810 15811 15812 15813 15814 15815 15816 15817 15818 15819 15820 15821 15822 15823 15824 15825 15826 15827 15828 15829 15830 15831 15832 15833 15834 15835 15836 15837 15838 15839 15840 15841 15842 15843 15844 15845 15846 15847 15848 15849 15850 15851 15852 15853 15854 15855 15856 15857 15858 15859 15860 15861 15862 15863 15864 15865 15866 15867 15868 15869 15870 15871 15872 15873 15874 15875 15876 15877 15878 15879 15880 15881 15882 15883 15884 15885 15886 15887 15888 15889 15890 15891 15892 15893 15894 15895 15896 15897 15898 15899 15900 15901 15902 15903 15904 15905 15906 15907 15908 15909 15910 15911 15912 15913 15914 15915 15916 15917 15918 15919 15920 15921 15922 15923 15924 15925 15926 15927 15928 15929 15930 15931 15932 15933 15934 15935 15936 15937 15938 15939 15940 15941 15942 15943 15944 15945 15946 15947 15948 15949 15950 15951 15952 15953 15954 15955 15956 15957 15958 15959 15960 15961 15962 15963 15964 15965 15966 15967 15968 15969 15970 15971 15972 15973 15974 15975 15976 15977 15978 15979 15980 15981 15982 15983 15984 15985 15986 15987 15988 15989 15990 15991 15992 15993 15994 15995 15996 15997 15998 15999 16000 16001 16002 16003 16004 16005 16006 16007 16008 16009 16010 16011 16012 16013 16014 16015 16016 16017 16018 16019 16020 16021 16022 16023 16024 16025 16026 16027 16028 16029 16030 16031 16032 16033 16034 16035 16036 16037 16038 16039 16040 16041 16042 16043 16044 16045 16046 16047 16048 16049 16050 16051 16052 16053 16054 16055 16056 16057 16058 16059 16060 16061 16062 16063 16064 16065 16066 16067 16068 16069 16070 16071 16072 16073 16074 16075 16076 16077 16078 16079 16080 16081 16082 16083 16084 16085 16086 16087 16088 16089 16090 16091 16092 16093 16094 16095 16096 16097 16098 16099 16100 16101 16102 16103 16104 16105 16106 16107 16108 16109 16110 16111 16112 16113 16114 16115 16116 16117 16118 16119 16120 16121 16122 16123 16124 16125 16126 16127 16128 16129 16130 16131 16132 16133 16134 16135 16136 16137 16138 16139 16140 16141 16142 16143 16144 16145 16146 16147 16148 16149 16150 16151 16152 16153 16154 16155 16156 16157 16158 16159 16160 16161 16162 16163 16164 16165 16166 16167 16168 16169 16170 16171 16172 16173 16174 16175 16176 16177 16178 16179 16180 16181 16182 16183 16184 16185 16186 16187 16188 16189 16190 16191 16192 16193 16194 16195 16196 16197 16198 16199 16200 16201 16202 16203 16204 16205 16206 16207 16208 16209 16210 16211 16212 16213 16214 16215 16216 16217 16218 16219 16220 16221 16222 16223 16224 16225 16226 16227 16228 16229 16230 16231 16232 16233 16234 16235 16236 16237 16238 16239 16240 16241 16242 16243 16244 16245 16246 16247 16248 16249 16250 16251 16252 16253 16254 16255 16256 16257 16258 16259 16260 16261 16262 16263 16264 16265 16266 16267 16268 16269 16270 16271 16272 16273 16274 16275 16276 16277 16278 16279 16280 16281 16282 16283 16284 16285 16286 16287 16288 16289 16290 16291 16292 16293 16294 16295 16296 16297 16298 16299 16300 16301 16302 16303 16304 16305 16306 16307 16308 16309 16310 16311 16312 16313 16314 16315 16316 16317 16318 16319 16320 16321 16322 16323 16324 16325 16326 16327 16328 16329 16330 16331 16332 16333 16334 16335 16336 16337 16338 16339 16340 16341 16342 16343 16344 16345 16346 16347 16348 16349 16350 16351 16352 16353 16354 16355 16356 16357 16358 16359 16360 16361 16362 16363 16364 16365 16366 16367 16368 16369 16370 16371 16372 16373 16374 16375 16376 16377 16378 16379 16380 16381 16382 16383 16384 16385 16386 16387 16388 16389 16390 16391 16392 16393 16394 16395 16396 16397 16398 16399 16400 16401 16402 16403 16404 16405 16406 16407 16408 16409 16410 16411 16412 16413 16414 16415 16416 16417 16418 16419 16420 16421 16422 16423 16424 16425 16426 16427 16428 16429 16430 16431 16432 16433 16434 16435 16436 16437 16438 16439 16440 16441 16442 16443 16444 16445 16446 16447 16448 16449 16450 16451 16452 16453 16454 16455 16456 16457 16458 16459 16460 16461 16462 16463 16464 16465 16466 16467 16468 16469 16470 16471 16472 16473 16474 16475 16476 16477 16478 16479 16480 16481 16482 16483 16484 16485 16486 16487 16488 16489 16490 16491 16492 16493 16494 16495 16496 16497 16498 16499 16500 16501 16502 16503 16504 16505 16506 16507 16508 16509 16510 16511 16512 16513 16514 16515 16516 16517 16518 16519 16520 16521 16522 16523 16524 16525 16526 16527 16528 16529 16530 16531 16532 16533 16534 16535 16536 16537 16538 16539 16540 16541 16542 16543 16544 16545 16546 16547 16548 16549 16550 16551 16552 16553 16554 16555 16556 16557 16558 16559 16560 16561 16562 16563 16564 16565 16566 16567 16568 16569 16570 16571 16572 16573 16574 16575 16576 16577 16578 16579 16580 16581 16582 16583 16584 16585 16586 16587 16588 16589 16590 16591 16592 16593 16594 16595 16596 16597 16598 16599 16600 16601 16602 16603 16604 16605 16606 16607 16608 16609 16610 16611 16612 16613 16614 16615 16616 16617 16618 16619 16620 16621 16622 16623 16624 16625 16626 16627 16628 16629 16630 16631 16632 16633 16634 16635 16636 16637 16638 16639 16640 16641 16642 16643 16644 16645 16646 16647 16648 16649 16650 16651 16652 16653 16654 16655 16656 16657 16658 16659 16660 16661 16662 16663 16664 16665 16666 16667 16668 16669 16670 16671 16672 16673 16674 16675 16676 16677 16678 16679 16680 16681 16682 16683 16684 16685 16686 16687 16688 16689 16690 16691 16692 16693 16694 16695 16696 16697 16698 16699 16700 16701 16702 16703 16704 16705 16706 16707 16708 16709 16710 16711 16712 16713 16714 16715 16716 16717 16718 16719 16720 16721 16722 16723 16724 16725 16726 16727 16728 16729 16730 16731 16732 16733 16734 16735 16736 16737 16738 16739 16740 16741 16742 16743 16744 16745 16746 16747 16748 16749 16750 16751 16752 16753 16754 16755 16756 16757 16758 16759 16760 16761 16762 16763 16764 16765 16766 16767 16768 16769 16770 16771 16772 16773 16774 16775 16776 16777 16778 16779 16780 16781 16782 16783 16784 16785 16786 16787 16788 16789 16790 16791 16792 16793 16794 16795 16796 16797 16798 16799 16800 16801 16802 16803 16804 16805 16806 16807 16808 16809 16810 16811 16812 16813 16814 16815 16816 16817 16818 16819 16820 16821 16822 16823 16824 16825 16826 16827 16828 16829 16830 16831 16832 16833 16834 16835 16836 16837 16838 16839 16840 16841 16842 16843 16844 16845 16846 16847 16848 16849 16850 16851 16852 16853 16854 16855 16856 16857 16858 16859 16860 16861 16862 16863 16864 16865 16866 16867 16868 16869 16870 16871 16872 16873 16874 16875 16876 16877 16878 16879 16880 16881 16882 16883 16884 16885 16886 16887 16888 16889 16890 16891 16892 16893 16894 16895 16896 16897 16898 16899 16900 16901 16902 16903 16904 16905 16906 16907 16908 16909 16910 16911 16912 16913 16914 16915 16916 16917 16918 16919 16920 16921 16922 16923 16924 16925 16926 16927 16928 16929 16930 16931 16932 16933 16934 16935 16936 16937 16938 16939 16940 16941 16942 16943 16944 16945 16946 16947 16948 16949 16950 16951 16952 16953 16954 16955 16956 16957 16958 16959 16960 16961 16962 16963 16964 16965 16966 16967 16968 16969 16970 16971 16972 16973 16974 16975 16976 16977 16978 16979 16980 16981 16982 16983 16984 16985 16986 16987 16988 16989 16990 16991 16992 16993 16994 16995 16996 16997 16998 16999 17000 17001 17002 17003 17004 17005 17006 17007 17008 17009 17010 17011 17012 17013 17014 17015 17016 17017 17018 17019 17020 17021 17022 17023 17024 17025 17026 17027 17028 17029 17030 17031 17032 17033 17034 17035 17036 17037 17038 17039 17040 17041 17042 17043 17044 17045 17046 17047 17048 17049 17050 17051 17052 17053 17054 17055 17056 17057 17058 17059 17060 17061 17062 17063 17064 17065 17066 17067 17068 17069 17070 17071 17072 17073 17074 17075 17076 17077 17078 17079 17080 17081 17082 17083 17084 17085 17086 17087 17088 17089 17090 17091 17092 17093 17094 17095 17096 17097 17098 17099 17100 17101 17102 17103 17104 17105 17106 17107 17108 17109 17110 17111 17112 17113 17114 17115 17116 17117 17118 17119 17120 17121 17122 17123 17124 17125 17126 17127 17128 17129 17130 17131 17132 17133 17134 17135 17136 17137 17138 17139 17140 17141 17142 17143 17144 17145 17146 17147 17148 17149 17150 17151 17152 17153 17154 17155 17156 17157 17158 17159 17160 17161 17162 17163 17164 17165 17166 17167 17168 17169 17170 17171 17172 17173 17174 17175 17176 17177 17178 17179 17180 17181 17182 17183 17184 17185 17186 17187 17188 17189 17190 17191 17192 17193 17194 17195 17196 17197 17198 17199 17200 17201 17202 17203 17204 17205 17206 17207 17208 17209 17210 17211 17212 17213 17214 17215 17216 17217 17218 17219 17220 17221 17222 17223 17224 17225 17226 17227 17228 17229 17230 17231 17232 17233 17234 17235 17236 17237 17238 17239 17240 17241 17242 17243 17244 17245 17246 17247 17248 17249 17250 17251 17252 17253 17254 17255 17256 17257 17258 17259 17260 17261 17262 17263 17264 17265 17266 17267 17268 17269 17270 17271 17272 17273 17274 17275 17276 17277 17278 17279 17280 17281 17282 17283 17284 17285 17286 17287 17288 17289 17290 17291 17292 17293 17294 17295 17296 17297 17298 17299 17300 17301 17302 17303 17304 17305 17306 17307 17308 17309 17310 17311 17312 17313 17314 17315 17316 17317 17318 17319 17320 17321 17322 17323 17324 17325 17326 17327 17328 17329 17330 17331 17332 17333 17334 17335 17336 17337 17338 17339 17340 17341 17342 17343 17344 17345 17346 17347 17348 17349 17350 17351 17352 17353 17354 17355 17356 17357 17358 17359 17360 17361 17362 17363 17364 17365 17366 17367 17368 17369 17370 17371 17372 17373 17374 17375 17376 17377 17378 17379 17380 17381 17382 17383 17384 17385 17386 17387 17388 17389 17390 17391 17392 17393 17394 17395 17396 17397 17398 17399 17400 17401 17402 17403 17404 17405 17406 17407 17408 17409 17410 17411 17412 17413 17414 17415 17416 17417 17418 17419 17420 17421 17422 17423 17424 17425 17426 17427 17428 17429 17430 17431 17432 17433 17434 17435 17436 17437 17438 17439 17440 17441 17442 17443 17444 17445 17446 17447 17448 17449 17450 17451 17452 17453 17454 17455 17456 17457 17458 17459 17460 17461 17462 17463 17464 17465 17466 17467 17468 17469 17470 17471 17472 17473 17474 17475 17476 17477 17478 17479 17480 17481 17482 17483 17484 17485 17486 17487 17488 17489 17490 17491 17492 17493 17494 17495 17496 17497 17498 17499 17500 17501 17502 17503 17504 17505 17506 17507 17508 17509 17510 17511 17512 17513 17514 17515 17516 17517 17518 17519 17520 17521 17522 17523 17524 17525 17526 17527 17528 17529 17530 17531 17532 17533 17534 17535 17536 17537 17538 17539 17540 17541 17542 17543 17544 17545 17546 17547 17548 17549 17550 17551 17552 17553 17554 17555 17556 17557 17558 17559 17560 17561 17562 17563 17564 17565 17566 17567 17568 17569 17570 17571 17572 17573 17574 17575 17576 17577 17578 17579 17580 17581 17582 17583 17584 17585 17586 17587 17588 17589 17590 17591 17592 17593 17594 17595 17596 17597 17598 17599 17600 17601 17602 17603 17604 17605 17606 17607 17608 17609 17610 17611 17612 17613 17614 17615 17616 17617 17618 17619 17620 17621 17622 17623 17624 17625 17626 17627 17628 17629 17630 17631 17632 17633 17634 17635 17636 17637 17638 17639 17640 17641 17642 17643 17644 17645 17646 17647 17648 17649 17650 17651 17652 17653 17654 17655 17656 17657 17658 17659 17660 17661 17662 17663 17664 17665 17666 17667 17668 17669 17670 17671 17672 17673 17674 17675 17676 17677 17678 17679 17680 17681 17682 17683 17684 17685 17686 17687 17688 17689 17690 17691 17692 17693 17694 17695 17696 17697 17698 17699 17700 17701 17702 17703 17704 17705 17706 17707 17708 17709 17710 17711 17712 17713 17714 17715 17716 17717 17718 17719 17720 17721 17722 17723 17724 17725 17726 17727 17728 17729 17730 17731 17732 17733 17734 17735 17736 17737 17738 17739 17740 17741 17742 17743 17744 17745 17746 17747 17748 17749 17750 17751 17752 17753 17754 17755 17756 17757 17758 17759 17760 17761 17762 17763 17764 17765 17766 17767 17768 17769 17770 17771 17772 17773 17774 17775 17776 17777 17778 17779 17780 17781 17782 17783 17784 17785 17786 17787 17788 17789 17790 17791 17792 17793 17794 17795 17796 17797 17798 17799 17800 17801 17802 17803 17804 17805 17806 17807 17808 17809 17810 17811 17812 17813 17814 17815 17816 17817 17818 17819 17820 17821 17822 17823 17824 17825 17826 17827 17828 17829 17830 17831 17832 17833 17834 17835 17836 17837 17838 17839 17840 17841 17842 17843 17844 17845 17846 17847 17848 17849 17850 17851 17852 17853 17854 17855 17856 17857 17858 17859 17860 17861 17862 17863 17864 17865 17866 17867 17868 17869 17870 17871 17872 17873 17874 17875 17876 17877 17878 17879 17880 17881 17882 17883 17884 17885 17886 17887 17888 17889 17890 17891 17892 17893 17894 17895 17896 17897 17898 17899 17900 17901 17902 17903 17904 17905 17906 17907 17908 17909 17910 17911 17912 17913 17914 17915 17916 17917 17918 17919 17920 17921 17922 17923 17924 17925 17926 17927 17928 17929 17930 17931 17932 17933 17934 17935 17936 17937 17938 17939 17940 17941 17942 17943 17944 17945 17946 17947 17948 17949 17950 17951 17952 17953 17954 17955 17956 17957 17958 17959 17960 17961 17962 17963 17964 17965 17966 17967 17968 17969 17970 17971 17972 17973 17974 17975 17976 17977 17978 17979 17980 17981 17982 17983 17984 17985 17986 17987 17988 17989 17990 17991 17992 17993 17994 17995 17996 17997 17998 17999 18000 18001 18002 18003 18004 18005 18006 18007 18008 18009 18010 18011 18012 18013 18014 18015 18016 18017 18018 18019 18020 18021 18022 18023 18024 18025 18026 18027 18028 18029 18030 18031 18032 18033 18034 18035 18036 18037 18038 18039 18040 18041 18042 18043 18044 18045 18046 18047 18048 18049 18050 18051 18052 18053 18054 18055 18056 18057 18058 18059 18060 18061 18062 18063 18064 18065 18066 18067 18068 18069 18070 18071 18072 18073 18074 18075 18076 18077 18078 18079 18080 18081 18082 18083 18084 18085 18086 18087 18088 18089 18090 18091 18092 18093 18094 18095 18096 18097 18098 18099 18100 18101 18102 18103 18104 18105 18106 18107 18108 18109 18110 18111 18112 18113 18114 18115 18116 18117 18118 18119 18120 18121 18122 18123 18124 18125 18126 18127 18128 18129 18130 18131 18132 18133 18134 18135 18136 18137 18138 18139 18140 18141 18142 18143 18144 18145 18146 18147 18148 18149 18150 18151 18152 18153 18154 18155 18156 18157 18158 18159 18160 18161 18162 18163 18164 18165 18166 18167 18168 18169 18170 18171 18172 18173 18174 18175 18176 18177 18178 18179 18180 18181 18182 18183 18184 18185 18186 18187 18188 18189 18190 18191 18192 18193 18194 18195 18196 18197 18198 18199 18200 18201 18202 18203 18204 18205 18206 18207 18208 18209 18210 18211 18212 18213 18214 18215 18216 18217 18218 18219 18220 18221 18222 18223 18224 18225 18226 18227 18228 18229 18230 18231 18232 18233 18234 18235 18236 18237 18238 18239 18240 18241 18242 18243 18244 18245 18246 18247 18248 18249 18250 18251 18252 18253 18254 18255 18256 18257 18258 18259 18260 18261 18262 18263 18264 18265 18266 18267 18268 18269 18270 18271 18272 18273 18274 18275 18276 18277 18278 18279 18280 18281 18282 18283 18284 18285 18286 18287 18288 18289 18290 18291 18292 18293 18294 18295 18296 18297 18298 18299 18300 18301 18302 18303 18304 18305 18306 18307 18308 18309 18310 18311 18312 18313 18314 18315 18316 18317 18318 18319 18320 18321 18322 18323 18324 18325 18326 18327 18328 18329 18330 18331 18332 18333 18334 18335 18336 18337 18338 18339 18340 18341 18342 18343 18344 18345 18346 18347 18348 18349 18350 18351 18352 18353 18354 18355 18356 18357 18358 18359 18360 18361 18362 18363 18364 18365 18366 18367 18368 18369 18370 18371 18372 18373 18374 18375 18376 18377 18378 18379 18380 18381 18382 18383 18384 18385 18386 18387 18388 18389 18390 18391 18392 18393 18394 18395 18396 18397 18398 18399 18400 18401 18402 18403 18404 18405 18406 18407 18408 18409 18410 18411 18412 18413 18414 18415 18416 18417 18418 18419 18420 18421 18422 18423 18424 18425 18426 18427 18428 18429 18430 18431 18432 18433 18434 18435 18436 18437 18438 18439 18440 18441 18442 18443 18444 18445 18446 18447 18448 18449 18450 18451 18452 18453 18454 18455 18456 18457 18458 18459 18460 18461 18462 18463 18464 18465 18466 18467 18468 18469 18470 18471 18472 18473 18474 18475 18476 18477 18478 18479 18480 18481 18482 18483 18484 18485 18486 18487 18488 18489 18490 18491 18492 18493 18494 18495 18496 18497 18498 18499 18500 18501 18502 18503 18504 18505 18506 18507 18508 18509 18510 18511 18512 18513 18514 18515 18516 18517 18518 18519 18520 18521 18522 18523 18524 18525 18526 18527 18528 18529 18530 18531 18532 18533 18534 18535 18536 18537 18538 18539 18540 18541 18542 18543 18544 18545 18546 18547 18548 18549 18550 18551 18552 18553 18554 18555 18556 18557 18558 18559 18560 18561 18562 18563 18564 18565 18566 18567 18568 18569 18570 18571 18572 18573 18574 18575 18576 18577 18578 18579 18580 18581 18582 18583 18584 18585 18586 18587 18588 18589 18590 18591 18592 18593 18594 18595 18596 18597 18598 18599 18600 18601 18602 18603 18604 18605 18606 18607 18608 18609 18610 18611 18612 18613 18614 18615 18616 18617 18618 18619 18620 18621 18622 18623 18624 18625 18626 18627 18628 18629 18630 18631 18632 18633 18634 18635 18636 18637 18638 18639 18640 18641 18642 18643 18644 18645 18646 18647 18648 18649 18650 18651 18652 18653 18654 18655 18656 18657 18658 18659 18660 18661 18662 18663 18664 18665 18666 18667 18668 18669 18670 18671 18672 18673 18674 18675 18676 18677 18678 18679 18680 18681 18682 18683 18684 18685 18686 18687 18688 18689 18690 18691 18692 18693 18694 18695 18696 18697 18698 18699 18700 18701 18702 18703 18704 18705 18706 18707 18708 18709 18710 18711 18712 18713 18714 18715 18716 18717 18718 18719 18720 18721 18722 18723 18724 18725 18726 18727 18728 18729 18730 18731 18732 18733 18734 18735 18736 18737 18738 18739 18740 18741 18742 18743 18744 18745 18746 18747 18748 18749 18750 18751 18752 18753 18754 18755 18756 18757 18758 18759 18760 18761 18762 18763 18764 18765 18766 18767 18768 18769 18770 18771 18772 18773 18774 18775 18776 18777 18778 18779 18780 18781 18782 18783 18784 18785 18786 18787 18788 18789 18790 18791 18792 18793 18794 18795 18796 18797 18798 18799 18800 18801 18802 18803 18804 18805 18806 18807 18808 18809 18810 18811 18812 18813 18814 18815 18816 18817 18818 18819 18820 18821 18822 18823 18824 18825 18826 18827 18828 18829 18830 18831 18832 18833 18834 18835 18836 18837 18838 18839 18840 18841 18842 18843 18844 18845 18846 18847 18848 18849 18850 18851 18852 18853 18854 18855 18856 18857 18858 18859 18860 18861 18862 18863 18864 18865 18866 18867 18868 18869 18870 18871 18872 18873 18874 18875 18876 18877 18878 18879 18880 18881 18882 18883 18884 18885 18886 18887 18888 18889 18890 18891 18892 18893 18894 18895 18896 18897 18898 18899 18900 18901 18902 18903 18904 18905 18906 18907 18908 18909 18910 18911 18912 18913 18914 18915 18916 18917 18918 18919 18920 18921 18922 18923 18924 18925 18926 18927 18928 18929 18930 18931 18932 18933 18934 18935 18936 18937 18938 18939 18940 18941 18942 18943 18944 18945 18946 18947 18948 18949 18950 18951 18952 18953 18954 18955 18956 18957 18958 18959 18960 18961 18962 18963 18964 18965 18966 18967 18968 18969 18970 18971 18972 18973 18974 18975 18976 18977 18978 18979 18980 18981 18982 18983 18984 18985 18986 18987 18988 18989 18990 18991 18992 18993 18994 18995 18996 18997 18998 18999 19000 19001 19002 19003 19004 19005 19006 19007 19008 19009 19010 19011 19012 19013 19014 19015 19016 19017 19018 19019 19020 19021 19022 19023 19024 19025 19026 19027 19028 19029 19030 19031 19032 19033 19034 19035 19036 19037 19038 19039 19040 19041 19042 19043 19044 19045 19046 19047 19048 19049 19050 19051 19052 19053 19054 19055 19056 19057 19058 19059 19060 19061 19062 19063 19064 19065 19066 19067 19068 19069 19070 19071 19072 19073 19074 19075 19076 19077 19078 19079 19080 19081 19082 19083 19084 19085 19086 19087 19088 19089 19090 19091 19092 19093 19094 19095 19096 19097 19098 19099 19100 19101 19102 19103 19104 19105 19106 19107 19108 19109 19110 19111 19112 19113 19114 19115 19116 19117 19118 19119 19120 19121 19122 19123 19124 19125 19126 19127 19128 19129 19130 19131 19132 19133 19134 19135 19136 19137 19138 19139 19140 19141 19142 19143 19144 19145 19146 19147 19148 19149 19150 19151 19152 19153 19154 19155 19156 19157 19158 19159 19160 19161 19162 19163 19164 19165 19166 19167 19168 19169 19170 19171 19172 19173 19174 19175 19176 19177 19178 19179 19180 19181 19182 19183 19184 19185 19186 19187 19188 19189 19190 19191 19192 19193 19194 19195 19196 19197 19198 19199 19200 19201 19202 19203 19204 19205 19206 19207 19208 19209 19210 19211 19212 19213 19214 19215 19216 19217 19218 19219 19220 19221 19222 19223 19224 19225 19226 19227 19228 19229 19230 19231 19232 19233 19234 19235 19236 19237 19238 19239 19240 19241 19242 19243 19244 19245 19246 19247 19248 19249 19250 19251 19252 19253 19254 19255 19256 19257 19258 19259 19260 19261 19262 19263 19264 19265 19266 19267 19268 19269 19270 19271 19272 19273 19274 19275 19276 19277 19278 19279 19280 19281 19282 19283 19284 19285 19286 19287 19288 19289 19290 19291 19292 19293 19294 19295 19296 19297 19298 19299 19300 19301 19302 19303 19304 19305 19306 19307 19308 19309 19310 19311 19312 19313 19314 19315 19316 19317 19318 19319 19320 19321 19322 19323 19324 19325 19326 19327 19328 19329 19330 19331 19332 19333 19334 19335 19336 19337 19338 19339 19340 19341 19342 19343 19344 19345 19346 19347 19348 19349 19350 19351 19352 19353 19354 19355 19356 19357 19358 19359 19360 19361 19362 19363 19364 19365 19366 19367 19368 19369 19370 19371 19372 19373 19374 19375 19376 19377 19378 19379 19380 19381 19382 19383 19384 19385 19386 19387 19388 19389 19390 19391 19392 19393 19394 19395 19396 19397 19398 19399 19400 19401 19402 19403 19404 19405 19406 19407 19408 19409 19410 19411 19412 19413 19414 19415 19416 19417 19418 19419 19420 19421 19422 19423 19424 19425 19426 19427 19428 19429 19430 19431 19432 19433 19434 19435 19436 19437 19438 19439 19440 19441 19442 19443 19444 19445 19446 19447 19448 19449 19450 19451 19452 19453 19454 19455 19456 19457 19458 19459 19460 19461 19462 19463 19464 19465 19466 19467 19468 19469 19470 19471 19472 19473 19474 19475 19476 19477 19478 19479 19480 19481 19482 19483 19484 19485 19486 19487 19488 19489 19490 19491 19492 19493 19494 19495 19496 19497 19498 19499 19500 19501 19502 19503 19504 19505 19506 19507 19508 19509 19510 19511 19512 19513 19514 19515 19516 19517 19518 19519 19520 19521 19522 19523 19524 19525 19526 19527 19528 19529 19530 19531 19532 19533 19534 19535 19536 19537 19538 19539 19540 19541 19542 19543 19544 19545 19546 19547 19548 19549 19550 19551 19552 19553 19554 19555 19556 19557 19558 19559 19560 19561 19562 19563 19564 19565 19566 19567 19568 19569 19570 19571 19572 19573 19574 19575 19576 19577 19578 19579 19580 19581 19582 19583 19584 19585 19586 19587 19588 19589 19590 19591 19592 19593 19594 19595 19596 19597 19598 19599 19600 19601 19602 19603 19604 19605 19606 19607 19608 19609 19610 19611 19612 19613 19614 19615 19616 19617 19618 19619 19620 19621 19622 19623 19624 19625 19626 19627 19628 19629 19630 19631 19632 19633 19634 19635 19636 19637 19638 19639 19640 19641 19642 19643 19644 19645 19646 19647 19648 19649 19650 19651 19652 19653 19654 19655 19656 19657 19658 19659 19660 19661 19662 19663 19664 19665 19666 19667 19668 19669 19670 19671 19672 19673 19674 19675 19676 19677 19678 19679 19680 19681 19682 19683 19684 19685 19686 19687 19688 19689 19690 19691 19692 19693 19694 19695 19696 19697 19698 19699 19700 19701 19702 19703 19704 19705 19706 19707 19708 19709 19710 19711 19712 19713 19714 19715 19716 19717 19718 19719 19720 19721 19722 19723 19724 19725 19726 19727 19728 19729 19730 19731 19732 19733 19734 19735 19736 19737 19738 19739 19740 19741 19742 19743 19744 19745 19746 19747 19748 19749 19750 19751 19752 19753 19754 19755 19756 19757 19758 19759 19760 19761 19762 19763 19764 19765 19766 19767 19768 19769 19770 19771 19772 19773 19774 19775 19776 19777 19778 19779 19780 19781 19782 19783 19784 19785 19786 19787 19788 19789 19790 19791 19792 19793 19794 19795 19796 19797 19798 19799 19800 19801 19802 19803 19804 19805 19806 19807 19808 19809 19810 19811 19812 19813 19814 19815 19816 19817 19818 19819 19820 19821 19822 19823 19824 19825 19826 19827 19828 19829 19830 19831 19832 19833 19834 19835 19836 19837 19838 19839 19840 19841 19842 19843 19844 19845 19846 19847 19848 19849 19850 19851 19852 19853 19854 19855 19856 19857 19858 19859 19860 19861 19862 19863 19864 19865 19866 19867 19868 19869 19870 19871 19872 19873 19874 19875 19876 19877 19878 19879 19880 19881 19882 19883 19884 19885 19886 19887 19888 19889 19890 19891 19892 19893 19894 19895 19896 19897 19898 19899 19900 19901 19902 19903 19904 19905 19906 19907 19908 19909 19910 19911 19912 19913 19914 19915 19916 19917 19918 19919 19920 19921 19922 19923 19924 19925 19926 19927 19928 19929 19930 19931 19932 19933 19934 19935 19936 19937 19938 19939 19940 19941 19942 19943 19944 19945 19946 19947 19948 19949 19950 19951 19952 19953 19954 19955 19956 19957 19958 19959 19960 19961 19962 19963 19964 19965 19966 19967 19968 19969 19970 19971 19972 19973 19974 19975 19976 19977 19978 19979 19980 19981 19982 19983 19984 19985 19986 19987 19988 19989 19990 19991 19992 19993 19994 19995 19996 19997 19998 19999 20000 20001 20002 20003 20004 20005 20006 20007 20008 20009 20010 20011 20012 20013 20014 20015 20016 20017 20018 20019 20020 20021 20022 20023 20024 20025 20026 20027 20028 20029 20030 20031 20032 20033 20034 20035 20036 20037 20038 20039 20040 20041 20042 20043 20044 20045 20046 20047 20048 20049 20050 20051 20052 20053 20054 20055 20056 20057 20058 20059 20060 20061 20062 20063 20064 20065 20066 20067 20068 20069 20070 20071 20072 20073 20074 20075 20076 20077 20078 20079 20080 20081 20082 20083 20084 20085 20086 20087 20088 20089 20090 20091 20092 20093 20094 20095 20096 20097 20098 20099 20100 20101 20102 20103 20104 20105 20106 20107 20108 20109 20110 20111 20112 20113 20114 20115 20116 20117 20118 20119 20120 20121 20122 20123 20124 20125 20126 20127 20128 20129 20130 20131 20132 20133 20134 20135 20136 20137 20138 20139 20140 20141 20142 20143 20144 20145 20146 20147 20148 20149 20150 20151 20152 20153 20154 20155 20156 20157 20158 20159 20160 20161 20162 20163 20164 20165 20166 20167 20168 20169 20170 20171 20172 20173 20174 20175 20176 20177 20178 20179 20180 20181 20182 20183 20184 20185 20186 20187 20188 20189 20190 20191 20192 20193 20194 20195 20196 20197 20198 20199 20200 20201 20202 20203 20204 20205 20206 20207 20208 20209 20210 20211 20212 20213 20214 20215 20216 20217 20218 20219 20220 20221 20222 20223 20224 20225 20226 20227 20228 20229 20230 20231 20232 20233 20234 20235 20236 20237 20238 20239 20240 20241 20242 20243 20244 20245 20246 20247 20248 20249 20250 20251 20252 20253 20254 20255 20256 20257 20258 20259 20260 20261 20262 20263 20264 20265 20266 20267 20268 20269 20270 20271 20272 20273 20274 20275 20276 20277 20278 20279 20280 20281 20282 20283 20284 20285 20286 20287 20288 20289 20290 20291 20292 20293 20294 20295 20296 20297 20298 20299 20300 20301 20302 20303 20304 20305 20306 20307 20308 20309 20310 20311 20312 20313 20314 20315 20316 20317 20318 20319 20320 20321 20322 20323 20324 20325 20326 20327 20328 20329 20330 20331 20332 20333 20334 20335 20336 20337 20338 20339 20340 20341 20342 20343 20344 20345 20346 20347 20348 20349 20350 20351 20352 20353 20354 20355 20356 20357 20358 20359 20360 20361 20362 20363 20364 20365 20366 20367 20368 20369 20370 20371 20372 20373 20374 20375 20376 20377 20378 20379 20380 20381 20382 20383 20384 20385 20386 20387 20388 20389 20390 20391 20392 20393 20394 20395 20396 20397 20398 20399 20400 20401 20402 20403 20404 20405 20406 20407 20408 20409 20410 20411 20412 20413 20414 20415 20416 20417 20418 20419 20420 20421 20422 20423 20424 20425 20426 20427 20428 20429 20430 20431 20432 20433 20434 20435 20436 20437 20438 20439 20440 20441 20442 20443 20444 20445 20446 20447 20448 20449 20450 20451 20452 20453 20454 20455 20456 20457 20458 20459 20460 20461 20462 20463 20464 20465 20466 20467 20468 20469 20470 20471 20472 20473 20474 20475 20476 20477 20478 20479 20480 20481 20482 20483 20484 20485 20486 20487 20488 20489 20490 20491 20492 20493 20494 20495 20496 20497 20498 20499 20500 20501 20502 20503 20504 20505 20506 20507 20508 20509 20510 20511 20512 20513 20514 20515 20516 20517 20518 20519 20520 20521 20522 20523 20524 20525 20526 20527 20528 20529 20530 20531 20532 20533 20534 20535 20536 20537 20538 20539 20540 20541 20542 20543 20544 20545 20546 20547 20548 20549 20550 20551 20552 20553 20554 20555 20556 20557 20558 20559 20560 20561 20562 20563 20564 20565 20566 20567 20568 20569 20570 20571 20572 20573 20574 20575 20576 20577 20578 20579 20580 20581 20582 20583 20584 20585 20586 20587 20588 20589 20590 20591 20592 20593 20594 20595 20596 20597 20598 20599 20600 20601 20602 20603 20604 20605 20606 20607 20608 20609 20610 20611 20612 20613 20614 20615 20616 20617 20618 20619 20620 20621 20622 20623 20624 20625 20626 20627 20628 20629 20630 20631 20632 20633 20634 20635 20636 20637 20638 20639 20640 20641 20642 20643 20644 20645 20646 20647 20648 20649 20650 20651 20652 20653 20654 20655 20656 20657 20658 20659 20660 20661 20662 20663 20664 20665 20666 20667 20668 20669 20670 20671 20672 20673 20674 20675 20676 20677 20678 20679 20680 20681 20682 20683 20684 20685 20686 20687 20688 20689 20690 20691 20692 20693 20694 20695 20696 20697 20698 20699 20700 20701 20702 20703 20704 20705 20706 20707 20708 20709 20710 20711 20712 20713 20714 20715 20716 20717 20718 20719 20720 20721 20722 20723 20724 20725 20726 20727 20728 20729 20730 20731 20732 20733 20734 20735 20736 20737 20738 20739 20740 20741 20742 20743 20744 20745 20746 20747 20748 20749 20750 20751 20752 20753 20754 20755 20756 20757 20758 20759 20760 20761 20762 20763 20764 20765 20766 20767 20768 20769 20770 20771 20772 20773 20774 20775 20776 20777 20778 20779 20780 20781 20782 20783 20784 20785 20786 20787 20788 20789 20790 20791 20792 20793 20794 20795 20796 20797 20798 20799 20800 20801 20802 20803 20804 20805 20806 20807 20808 20809 20810 20811 20812 20813 20814 20815 20816 20817 20818 20819 20820 20821 20822 20823 20824 20825 20826 20827 20828 20829 20830 20831 20832 20833 20834 20835 20836 20837 20838 20839 20840 20841 20842 20843 20844 20845 20846 20847 20848 20849 20850 20851 20852 20853 20854 20855 20856 20857 20858 20859 20860 20861 20862 20863 20864 20865 20866 20867 20868 20869 20870 20871 20872 20873 20874 20875 20876 20877 20878 20879 20880 20881 20882 20883 20884 20885 20886 20887 20888 20889 20890 20891 20892 20893 20894 20895 20896 20897 20898 20899 20900 20901 20902 20903 20904 20905 20906 20907 20908 20909 20910 20911 20912 20913 20914 20915 20916 20917 20918 20919 20920 20921 20922 20923 20924 20925 20926 20927 20928 20929 20930 20931 20932 20933 20934 20935 20936 20937 20938 20939 20940 20941 20942 20943 20944 20945 20946 20947 20948 20949 20950 20951 20952 20953 20954 20955 20956 20957 20958 20959 20960 20961 20962 20963 20964 20965 20966 20967 20968 20969 20970 20971 20972 20973 20974 20975 20976 20977 20978 20979 20980 20981 20982 20983 20984 20985 20986 20987 20988 20989 20990 20991 20992 20993 20994 20995 20996 20997 20998 20999 21000 21001 21002 21003 21004 21005 21006 21007 21008 21009 21010 21011 21012 21013 21014 21015 21016 21017 21018 21019 21020 21021 21022 21023 21024 21025 21026 21027 21028 21029 21030 21031 21032 21033 21034 21035 21036 21037 21038 21039 21040 21041 21042 21043 21044 21045 21046 21047 21048 21049 21050 21051 21052 21053 21054 21055 21056 21057 21058 21059 21060 21061 21062 21063 21064 21065 21066 21067 21068 21069 21070 21071 21072 21073 21074 21075 21076 21077 21078 21079 21080 21081 21082 21083 21084 21085 21086 21087 21088 21089 21090 21091 21092 21093 21094 21095 21096 21097 21098 21099 21100 21101 21102 21103 21104 21105 21106 21107 21108 21109 21110 21111 21112 21113 21114 21115 21116 21117 21118 21119 21120 21121 21122 21123 21124 21125 21126 21127 21128 21129 21130 21131 21132 21133 21134 21135 21136 21137 21138 21139 21140 21141 21142 21143 21144 21145 21146 21147 21148 21149 21150 21151 21152 21153 21154 21155 21156 21157 21158 21159 21160 21161 21162 21163 21164 21165 21166 21167 21168 21169 21170 21171 21172 21173 21174 21175 21176 21177 21178 21179 21180 21181 21182 21183 21184 21185 21186 21187 21188 21189 21190 21191 21192 21193 21194 21195 21196 21197 21198 21199 21200 21201 21202 21203 21204 21205 21206 21207 21208 21209 21210 21211 21212 21213 21214 21215 21216 21217 21218 21219 21220 21221 21222 21223 21224 21225 21226 21227 21228 21229 21230 21231 21232 21233 21234 21235 21236 21237 21238 21239 21240 21241 21242 21243 21244 21245 21246 21247 21248 21249 21250 21251 21252 21253 21254 21255 21256 21257 21258 21259 21260 21261 21262 21263 21264 21265 21266 21267 21268 21269 21270 21271 21272 21273 21274 21275 21276 21277 21278 21279 21280 21281 21282 21283 21284 21285 21286 21287 21288 21289 21290 21291 21292 21293 21294 21295 21296 21297 21298 21299 21300 21301 21302 21303 21304 21305 21306 21307 21308 21309 21310 21311 21312 21313 21314 21315 21316 21317 21318 21319 21320 21321 21322 21323 21324 21325 21326 21327 21328 21329 21330 21331 21332 21333 21334 21335 21336 21337 21338 21339 21340 21341 21342 21343 21344 21345 21346 21347 21348 21349 21350 21351 21352 21353 21354 21355 21356 21357 21358 21359 21360 21361 21362 21363 21364 21365 21366 21367 21368 21369 21370 21371 21372 21373 21374 21375 21376 21377 21378 21379 21380 21381 21382 21383 21384 21385 21386 21387 21388 21389 21390 21391 21392 21393 21394 21395 21396 21397 21398 21399 21400 21401 21402 21403 21404 21405 21406 21407 21408 21409 21410 21411 21412 21413 21414 21415 21416 21417 21418 21419 21420 21421 21422 21423 21424 21425 21426 21427 21428 21429 21430 21431 21432 21433 21434 21435 21436 21437 21438 21439 21440 21441 21442 21443 21444 21445 21446 21447 21448 21449 21450 21451 21452 21453 21454 21455 21456 21457 21458 21459 21460 21461 21462 21463 21464 21465 21466 21467 21468 21469 21470 21471 21472 21473 21474 21475 21476 21477 21478 21479 21480 21481 21482 21483 21484 21485 21486 21487 21488 21489 21490 21491 21492 21493 21494 21495 21496 21497 21498 21499 21500 21501 21502 21503 21504 21505 21506 21507 21508 21509 21510 21511 21512 21513 21514 21515 21516 21517 21518 21519 21520 21521 21522 21523 21524 21525 21526 21527 21528 21529 21530 21531 21532 21533 21534 21535 21536 21537 21538 21539 21540 21541 21542 21543 21544 21545 21546 21547 21548 21549 21550 21551 21552 21553 21554 21555 21556 21557 21558 21559 21560 21561 21562 21563 21564 21565 21566 21567 21568 21569 21570 21571 21572 21573 21574 21575 21576 21577 21578 21579 21580 21581 21582 21583 21584 21585 21586 21587 21588 21589 21590 21591 21592 21593 21594 21595 21596 21597 21598 21599 21600 21601 21602 21603 21604 21605 21606 21607 21608 21609 21610 21611 21612 21613 21614 21615 21616 21617 21618 21619 21620 21621 21622 21623 21624 21625 21626 21627 21628 21629 21630 21631 21632 21633 21634 21635 21636 21637 21638 21639 21640 21641 21642 21643 21644 21645 21646 21647 21648 21649 21650 21651 21652 21653 21654 21655 21656 21657 21658 21659 21660 21661 21662 21663 21664 21665 21666 21667 21668 21669 21670 21671 21672 21673 21674 21675 21676 21677 21678 21679 21680 21681 21682 21683 21684 21685 21686 21687 21688 21689 21690 21691 21692 21693 21694 21695 21696 21697 21698 21699 21700 21701 21702 21703 21704 21705 21706 21707 21708 21709 21710 21711 21712 21713 21714 21715 21716 21717 21718 21719 21720 21721 21722 21723 21724 21725 21726 21727 21728 21729 21730 21731 21732 21733 21734 21735 21736 21737 21738 21739 21740 21741 21742 21743 21744 21745 21746 21747 21748 21749 21750 21751 21752 21753 21754 21755 21756 21757 21758 21759 21760 21761 21762 21763 21764 21765 21766 21767 21768 21769 21770 21771 21772 21773 21774 21775 21776 21777 21778 21779 21780 21781 21782 21783 21784 21785 21786 21787 21788 21789 21790 21791 21792 21793 21794 21795 21796 21797 21798 21799 21800 21801 21802 21803 21804 21805 21806 21807 21808 21809 21810 21811 21812 21813 21814 21815 21816 21817 21818 21819 21820 21821 21822 21823 21824 21825 21826 21827 21828 21829 21830 21831 21832 21833 21834 21835 21836 21837 21838 21839 21840 21841 21842 21843 21844 21845 21846 21847 21848 21849 21850 21851 21852 21853 21854 21855 21856 21857 21858 21859 21860 21861 21862 21863 21864 21865 21866 21867 21868 21869 21870 21871 21872 21873 21874 21875 21876 21877 21878 21879 21880 21881 21882 21883 21884 21885 21886 21887 21888 21889 21890 21891 21892 21893 21894 21895 21896 21897 21898 21899 21900 21901 21902 21903 21904 21905 21906 21907 21908 21909 21910 21911 21912 21913 21914 21915 21916 21917 21918 21919 21920 21921 21922 21923 21924 21925 21926 21927 21928 21929 21930 21931 21932 21933 21934 21935 21936 21937 21938 21939 21940 21941 21942 21943 21944 21945 21946 21947 21948 21949 21950 21951 21952 21953 21954 21955 21956 21957 21958 21959 21960 21961 21962 21963 21964 21965 21966 21967 21968 21969 21970 21971 21972 21973 21974 21975 21976 21977 21978 21979 21980 21981 21982 21983 21984 21985 21986 21987 21988 21989 21990 21991 21992 21993 21994 21995 21996 21997 21998 21999 22000 22001 22002 22003 22004 22005 22006 22007 22008 22009 22010 22011 22012 22013 22014 22015 22016 22017 22018 22019 22020 22021 22022 22023 22024 22025 22026 22027 22028 22029 22030 22031 22032 22033 22034 22035 22036 22037 22038 22039 22040 22041 22042 22043 22044 22045 22046 22047 22048 22049 22050 22051 22052 22053 22054 22055 22056 22057 22058 22059 22060 22061 22062 22063 22064 22065 22066 22067 22068 22069 22070 22071 22072 22073 22074 22075 22076 22077 22078 22079 22080 22081 22082 22083 22084 22085 22086 22087 22088 22089 22090 22091 22092 22093 22094 22095 22096 22097 22098 22099 22100 22101 22102 22103 22104 22105 22106 22107 22108 22109 22110 22111 22112 22113 22114 22115 22116 22117 22118 22119 22120 22121 22122 22123 22124 22125 22126 22127 22128 22129 22130 22131 22132 22133 22134 22135 22136 22137 22138 22139 22140 22141 22142 22143 22144 22145 22146 22147 22148 22149 22150 22151 22152 22153 22154 22155 22156 22157 22158 22159 22160 22161 22162 22163 22164 22165 22166 22167 22168 22169 22170 22171 22172 22173 22174 22175 22176 22177 22178 22179 22180 22181 22182 22183 22184 22185 22186 22187 22188 22189 22190 22191 22192 22193 22194 22195 22196 22197 22198 22199 22200 22201 22202 22203 22204 22205 22206 22207 22208 22209 22210 22211 22212 22213 22214 22215 22216 22217 22218 22219 22220 22221 22222 22223 22224 22225 22226 22227 22228 22229 22230 22231 22232 22233 22234 22235 22236 22237 22238 22239 22240 22241 22242 22243 22244 22245 22246 22247 22248 22249 22250 22251 22252 22253 22254 22255 22256 22257 22258 22259 22260 22261 22262 22263 22264 22265 22266 22267 22268 22269 22270 22271 22272 22273 22274 22275 22276 22277 22278 22279 22280 22281 22282 22283 22284 22285 22286 22287 22288 22289 22290 22291 22292 22293 22294 22295 22296 22297 22298 22299 22300 22301 22302 22303 22304 22305 22306 22307 22308 22309 22310 22311 22312 22313 22314 22315 22316 22317 22318 22319 22320 22321 22322 22323 22324 22325 22326 22327 22328 22329 22330 22331 22332 22333 22334 22335 22336 22337 22338 22339 22340 22341 22342 22343 22344 22345 22346 22347 22348 22349 22350 22351 22352 22353 22354 22355 22356 22357 22358 22359 22360 22361 22362 22363 22364 22365 22366 22367 22368 22369 22370 22371 22372 22373 22374 22375 22376 22377 22378 22379 22380 22381 22382 22383 22384 22385 22386 22387 22388 22389 22390 22391 22392 22393 22394 22395 22396 22397 22398 22399 22400 22401 22402 22403 22404 22405 22406 22407 22408 22409 22410 22411 22412 22413 22414 22415 22416 22417 22418 22419 22420 22421 22422 22423 22424 22425 22426 22427 22428 22429 22430 22431 22432 22433 22434 22435 22436 22437 22438 22439 22440 22441 22442 22443 22444 22445 22446 22447 22448 22449 22450 22451 22452 22453 22454 22455 22456 22457 22458 22459 22460 22461 22462 22463 22464 22465 22466 22467 22468 22469 22470 22471 22472 22473 22474 22475 22476 22477 22478 22479 22480 22481 22482 22483 22484 22485 22486 22487 22488 22489 22490 22491 22492 22493 22494 22495 22496 22497 22498 22499 22500 22501 22502 22503 22504 22505 22506 22507 22508 22509 22510 22511 22512 22513 22514 22515 22516 22517 22518 22519 22520 22521 22522 22523 22524 22525 22526 22527 22528 22529 22530 22531 22532 22533 22534 22535 22536 22537 22538 22539 22540 22541 22542 22543 22544 22545 22546 22547 22548 22549 22550 22551 22552 22553 22554 22555 22556 22557 22558 22559 22560 22561 22562 22563 22564 22565 22566 22567 22568 22569 22570 22571 22572 22573 22574 22575 22576 22577 22578 22579 22580 22581 22582 22583 22584 22585 22586 22587 22588 22589 22590 22591 22592 22593 22594 22595 22596 22597 22598 22599 22600 22601 22602 22603 22604 22605 22606 22607 22608 22609 22610 22611 22612 22613 22614 22615 22616 22617 22618 22619 22620 22621 22622 22623 22624 22625 22626 22627 22628 22629 22630 22631 22632 22633 22634 22635 22636 22637 22638 22639 22640 22641 22642 22643 22644 22645 22646 22647 22648 22649 22650 22651 22652 22653 22654 22655 22656 22657 22658 22659 22660 22661 22662 22663 22664 22665 22666 22667 22668 22669 22670 22671 22672 22673 22674 22675 22676 22677 22678 22679 22680 22681 22682 22683 22684 22685 22686 22687 22688 22689 22690 22691 22692 22693 22694 22695 22696 22697 22698 22699 22700 22701 22702 22703 22704 22705 22706 22707 22708 22709 22710 22711 22712 22713 22714 22715 22716 22717 22718 22719 22720 22721 22722 22723 22724 22725 22726 22727 22728 22729 22730 22731 22732 22733 22734 22735 22736 22737 22738 22739 22740 22741 22742 22743 22744 22745 22746 22747 22748 22749 22750 22751 22752 22753 22754 22755 22756 22757 22758 22759 22760 22761 22762 22763 22764 22765 22766 22767 22768 22769 22770 22771 22772 22773 22774 22775 22776 22777 22778 22779 22780 22781 22782 22783 22784 22785 22786 22787 22788 22789 22790 22791 22792 22793 22794 22795 22796 22797 22798 22799 22800 22801 22802 22803 22804 22805 22806 22807 22808 22809 22810 22811 22812 22813 22814 22815 22816 22817 22818 22819 22820 22821 22822 22823 22824 22825 22826 22827 22828 22829 22830 22831 22832 22833 22834 22835 22836 22837 22838 22839 22840 22841 22842 22843 22844 22845 22846 22847 22848 22849 22850 22851 22852 22853 22854 22855 22856 22857 22858 22859 22860 22861 22862 22863 22864 22865 22866 22867 22868 22869 22870 22871 22872 22873 22874 22875 22876 22877 22878 22879 22880 22881 22882 22883 22884 22885 22886 22887 22888 22889 22890 22891 22892 22893 22894 22895 22896 22897 22898 22899 22900 22901 22902 22903 22904 22905 22906 22907 22908 22909 22910 22911 22912 22913 22914 22915 22916 22917 22918 22919 22920 22921 22922 22923 22924 22925 22926 22927 22928 22929 22930 22931 22932 22933 22934 22935 22936 22937 22938 22939 22940 22941 22942 22943 22944 22945 22946 22947 22948 22949 22950 22951 22952 22953 22954 22955 22956 22957 22958 22959 22960 22961 22962 22963 22964 22965 22966 22967 22968 22969 22970 22971 22972 22973 22974 22975 22976 22977 22978 22979 22980 22981 22982 22983 22984 22985 22986 22987 22988 22989 22990 22991 22992 22993 22994 22995 22996 22997 22998 22999 23000 23001 23002 23003 23004 23005 23006 23007 23008 23009 23010 23011 23012 23013 23014 23015 23016 23017 23018 23019 23020 23021 23022 23023 23024 23025 23026 23027 23028 23029 23030 23031 23032 23033 23034 23035 23036 23037 23038 23039 23040 23041 23042 23043 23044 23045 23046 23047 23048 23049 23050 23051 23052 23053 23054 23055 23056 23057 23058 23059 23060 23061 23062 23063 23064 23065 23066 23067 23068 23069 23070 23071 23072 23073 23074 23075 23076 23077 23078 23079 23080 23081 23082 23083 23084 23085 23086 23087 23088 23089 23090 23091 23092 23093 23094 23095 23096 23097 23098 23099 23100 23101 23102 23103 23104 23105 23106 23107 23108 23109 23110 23111 23112 23113 23114 23115 23116 23117 23118 23119 23120 23121 23122 23123 23124 23125 23126 23127 23128 23129 23130 23131 23132 23133 23134 23135 23136 23137 23138 23139 23140 23141 23142 23143 23144 23145 23146 23147 23148 23149 23150 23151 23152 23153 23154 23155 23156 23157 23158 23159 23160 23161 23162 23163 23164 23165 23166 23167 23168 23169 23170 23171 23172 23173 23174 23175 23176 23177 23178 23179 23180 23181 23182 23183 23184 23185 23186 23187 23188 23189 23190 23191 23192 23193 23194 23195 23196 23197 23198 23199 23200 23201 23202 23203 23204 23205 23206 23207 23208 23209 23210 23211 23212 23213 23214 23215 23216 23217 23218 23219 23220 23221 23222 23223 23224 23225 23226 23227 23228 23229 23230 23231 23232 23233 23234 23235 23236 23237 23238 23239 23240 23241 23242 23243 23244 23245 23246 23247 23248 23249 23250 23251 23252 23253 23254 23255 23256 23257 23258 23259 23260 23261 23262 23263 23264 23265 23266 23267 23268 23269 23270 23271 23272 23273 23274 23275 23276 23277 23278 23279 23280 23281 23282 23283 23284 23285 23286 23287 23288 23289 23290 23291 23292 23293 23294 23295 23296 23297 23298 23299 23300 23301 23302 23303 23304 23305 23306 23307 23308 23309 23310 23311 23312 23313 23314 23315 23316 23317 23318 23319 23320 23321 23322 23323 23324 23325 23326 23327 23328 23329 23330 23331 23332 23333 23334 23335 23336 23337 23338 23339 23340 23341 23342 23343 23344 23345 23346 23347 23348 23349 23350 23351 23352 23353 23354 23355 23356 23357 23358 23359 23360 23361 23362 23363 23364 23365 23366 23367 23368 23369 23370 23371 23372 23373 23374 23375 23376 23377 23378 23379 23380 23381 23382 23383 23384 23385 23386 23387 23388 23389 23390 23391 23392 23393 23394 23395 23396 23397 23398 23399 23400 23401 23402 23403 23404 23405 23406 23407 23408 23409 23410 23411 23412 23413 23414 23415 23416 23417 23418 23419 23420 23421 23422 23423 23424 23425 23426 23427 23428 23429 23430 23431 23432 23433 23434 23435 23436 23437 23438 23439 23440 23441 23442 23443 23444 23445 23446 23447 23448 23449 23450 23451 23452 23453 23454 23455 23456 23457 23458 23459 23460 23461 23462 23463 23464 23465 23466 23467 23468 23469 23470 23471 23472 23473 23474 23475 23476 23477 23478 23479 23480 23481 23482 23483 23484 23485 23486 23487 23488 23489 23490 23491 23492 23493 23494 23495 23496 23497 23498 23499 23500 23501 23502 23503 23504 23505 23506 23507 23508 23509 23510 23511 23512 23513 23514 23515 23516 23517 23518 23519 23520 23521 23522 23523 23524 23525 23526 23527 23528 23529 23530 23531 23532 23533 23534 23535 23536 23537 23538 23539 23540 23541 23542 23543 23544 23545 23546 23547 23548 23549 23550 23551 23552 23553 23554 23555 23556 23557 23558 23559 23560 23561 23562 23563 23564 23565 23566 23567 23568 23569 23570 23571 23572 23573 23574 23575 23576 23577 23578 23579 23580 23581 23582 23583 23584 23585 23586 23587 23588 23589 23590 23591 23592 23593 23594 23595 23596 23597 23598 23599 23600 23601 23602 23603 23604 23605 23606 23607 23608 23609 23610 23611 23612 23613 23614 23615 23616 23617 23618 23619 23620 23621 23622 23623 23624 23625 23626 23627 23628 23629 23630 23631 23632 23633 23634 23635 23636 23637 23638 23639 23640 23641 23642 23643 23644 23645 23646 23647 23648 23649 23650 23651 23652 23653 23654 23655 23656 23657 23658 23659 23660 23661 23662 23663 23664 23665 23666 23667 23668 23669 23670 23671 23672 23673 23674 23675 23676 23677 23678 23679 23680 23681 23682 23683 23684 23685 23686 23687 23688 23689 23690 23691 23692 23693 23694 23695 23696 23697 23698 23699 23700 23701 23702 23703 23704 23705 23706 23707 23708 23709 23710 23711 23712 23713 23714 23715 23716 23717 23718 23719 23720 23721 23722 23723 23724 23725 23726 23727 23728 23729 23730 23731 23732 23733 23734 23735 23736 23737 23738 23739 23740 23741 23742 23743 23744 23745 23746 23747 23748 23749 23750 23751 23752 23753 23754 23755 23756 23757 23758 23759 23760 23761 23762 23763 23764 23765 23766 23767 23768 23769 23770 23771 23772 23773 23774 23775 23776 23777 23778 23779 23780 23781 23782 23783 23784 23785 23786 23787 23788 23789 23790 23791 23792 23793 23794 23795 23796 23797 23798 23799 23800 23801 23802 23803 23804 23805 23806 23807 23808 23809 23810 23811 23812 23813 23814 23815 23816 23817 23818 23819 23820 23821 23822 23823 23824 23825 23826 23827 23828 23829 23830 23831 23832 23833 23834 23835 23836 23837 23838 23839 23840 23841 23842 23843 23844 23845 23846 23847 23848 23849 23850 23851 23852 23853 23854 23855 23856 23857 23858 23859 23860 23861 23862 23863 23864 23865 23866 23867 23868 23869 23870 23871 23872 23873 23874 23875 23876 23877 23878 23879 23880 23881 23882 23883 23884 23885 23886 23887 23888 23889 23890 23891 23892 23893 23894 23895 23896 23897 23898 23899 23900 23901 23902 23903 23904 23905 23906 23907 23908 23909 23910 23911 23912 23913 23914 23915 23916 23917 23918 23919 23920 23921 23922 23923 23924 23925 23926 23927 23928 23929 23930 23931 23932 23933 23934 23935 23936 23937 23938 23939 23940 23941 23942 23943 23944 23945 23946 23947 23948 23949 23950 23951 23952 23953 23954 23955 23956 23957 23958 23959 23960 23961 23962 23963 23964 23965 23966 23967 23968 23969 23970 23971 23972 23973 23974 23975 23976 23977 23978 23979 23980 23981 23982 23983 23984 23985 23986 23987 23988 23989 23990 23991 23992 23993 23994 23995 23996 23997 23998 23999 24000 24001 24002 24003 24004 24005 24006 24007 24008 24009 24010 24011 24012 24013 24014 24015 24016 24017 24018 24019 24020 24021 24022 24023 24024 24025 24026 24027 24028 24029 24030 24031 24032 24033 24034 24035 24036 24037 24038 24039 24040 24041 24042 24043 24044 24045 24046 24047 24048 24049 24050 24051 24052 24053 24054 24055 24056 24057 24058 24059 24060 24061 24062 24063 24064 24065 24066 24067 24068 24069 24070 24071 24072 24073 24074 24075 24076 24077 24078 24079 24080 24081 24082 24083 24084 24085 24086 24087 24088 24089 24090 24091 24092 24093 24094 24095 24096 24097 24098 24099 24100 24101 24102 24103 24104 24105 24106 24107 24108 24109 24110 24111 24112 24113 24114 24115 24116 24117 24118 24119 24120 24121 24122 24123 24124 24125 24126 24127 24128 24129 24130 24131 24132 24133 24134 24135 24136 24137 24138 24139 24140 24141 24142 24143 24144 24145 24146 24147 24148 24149 24150 24151 24152 24153 24154 24155 24156 24157 24158 24159 24160 24161 24162 24163 24164 24165 24166 24167 24168 24169 24170 24171 24172 24173 24174 24175 24176 24177 24178 24179 24180 24181 24182 24183 24184 24185 24186 24187 24188 24189 24190 24191 24192 24193 24194 24195 24196 24197 24198 24199 24200 24201 24202 24203 24204 24205 24206 24207 24208 24209 24210 24211 24212 24213 24214 24215 24216 24217 24218 24219 24220 24221 24222 24223 24224 24225 24226 24227 24228 24229 24230 24231 24232 24233 24234 24235 24236 24237 24238 24239 24240 24241 24242 24243 24244 24245 24246 24247 24248 24249 24250 24251 24252 24253 24254 24255 24256 24257 24258 24259 24260 24261 24262 24263 24264 24265 24266 24267 24268 24269 24270 24271 24272 24273 24274 24275 24276 24277 24278 24279 24280 24281 24282 24283 24284 24285 24286 24287 24288 24289 24290 24291 24292 24293 24294 24295 24296 24297 24298 24299 24300 24301 24302 24303 24304 24305 24306 24307 24308 24309 24310 24311 24312 24313 24314 24315 24316 24317 24318 24319 24320 24321 24322 24323 24324 24325 24326 24327 24328 24329 24330 24331 24332 24333 24334 24335 24336 24337 24338 24339 24340 24341 24342 24343 24344 24345 24346 24347 24348 24349 24350 24351 24352 24353 24354 24355 24356 24357 24358 24359 24360 24361 24362 24363 24364 24365 24366 24367 24368 24369 24370 24371 24372 24373 24374 24375 24376 24377 24378 24379 24380 24381 24382 24383 24384 24385 24386 24387 24388 24389 24390 24391 24392 24393 24394 24395 24396 24397 24398 24399 24400 24401 24402 24403 24404 24405 24406 24407 24408 24409 24410 24411 24412 24413 24414 24415 24416 24417 24418 24419 24420 24421 24422 24423 24424 24425 24426 24427 24428 24429 24430 24431 24432 24433 24434 24435 24436 24437 24438 24439 24440 24441 24442 24443 24444 24445 24446 24447 24448 24449 24450 24451 24452 24453 24454 24455 24456 24457 24458 24459 24460 24461 24462 24463 24464 24465 24466 24467 24468 24469 24470 24471 24472 24473 24474 24475 24476 24477 24478 24479 24480 24481 24482 24483 24484 24485 24486 24487 24488 24489 24490 24491 24492 24493 24494 24495 24496 24497 24498 24499 24500 24501 24502 24503 24504 24505 24506 24507 24508 24509 24510 24511 24512 24513 24514 24515 24516 24517 24518 24519 24520 24521 24522 24523 24524 24525 24526 24527 24528 24529 24530 24531 24532 24533 24534 24535 24536 24537 24538 24539 24540 24541 24542 24543 24544 24545 24546 24547 24548 24549 24550 24551 24552 24553 24554 24555 24556 24557 24558 24559 24560 24561 24562 24563 24564 24565 24566 24567 24568 24569 24570 24571 24572 24573 24574 24575 24576 24577 24578 24579 24580 24581 24582 24583 24584 24585 24586 24587 24588 24589 24590 24591 24592 24593 24594 24595 24596 24597 24598 24599 24600 24601 24602 24603 24604 24605 24606 24607 24608 24609 24610 24611 24612 24613 24614 24615 24616 24617 24618 24619 24620 24621 24622 24623 24624 24625 24626 24627 24628 24629 24630 24631 24632 24633 24634 24635 24636 24637 24638 24639 24640 24641 24642 24643 24644 24645 24646 24647 24648 24649 24650 24651 24652 24653 24654 24655 24656 24657 24658 24659 24660 24661 24662 24663 24664 24665 24666 24667 24668 24669 24670 24671 24672 24673 24674 24675 24676 24677 24678 24679 24680 24681 24682 24683 24684 24685 24686 24687 24688 24689 24690 24691 24692 24693 24694 24695 24696 24697 24698 24699 24700 24701 24702 24703 24704 24705 24706 24707 24708 24709 24710 24711 24712 24713 24714 24715 24716 24717 24718 24719 24720 24721 24722 24723 24724 24725 24726 24727 24728 24729 24730 24731 24732 24733 24734 24735 24736 24737 24738 24739 24740 24741 24742 24743 24744 24745 24746 24747 24748 24749 24750 24751 24752 24753 24754 24755 24756 24757 24758 24759 24760 24761 24762 24763 24764 24765 24766 24767 24768 24769 24770 24771 24772 24773 24774 24775 24776 24777 24778 24779 24780 24781 24782 24783 24784 24785 24786 24787 24788 24789 24790 24791 24792 24793 24794 24795 24796 24797 24798 24799 24800 24801 24802 24803 24804 24805 24806 24807 24808 24809 24810 24811 24812 24813 24814 24815 24816 24817 24818 24819 24820 24821 24822 24823 24824 24825 24826 24827 24828 24829 24830 24831 24832 24833 24834 24835 24836 24837 24838 24839 24840 24841 24842 24843 24844 24845 24846 24847 24848 24849 24850 24851 24852 24853 24854 24855 24856 24857 24858 24859 24860 24861 24862 24863 24864 24865 24866 24867 24868 24869 24870 24871 24872 24873 24874 24875 24876 24877 24878 24879 24880 24881 24882 24883 24884 24885 24886 24887 24888 24889 24890 24891 24892 24893 24894 24895 24896 24897 24898 24899 24900 24901 24902 24903 24904 24905 24906 24907 24908 24909 24910 24911 24912 24913 24914 24915 24916 24917 24918 24919 24920 24921 24922 24923 24924 24925 24926 24927 24928 24929 24930 24931 24932 24933 24934 24935 24936 24937 24938 24939 24940 24941 24942 24943 24944 24945 24946 24947 24948 24949 24950 24951 24952 24953 24954 24955 24956 24957 24958 24959 24960 24961 24962 24963 24964 24965 24966 24967 24968 24969 24970 24971 24972 24973 24974 24975 24976 24977 24978 24979 24980 24981 24982 24983 24984 24985 24986 24987 24988 24989 24990 24991 24992 24993 24994 24995 24996 24997 24998 24999 25000 25001 25002 25003 25004 25005 25006 25007 25008 25009 25010 25011 25012 25013 25014 25015 25016 25017 25018 25019 25020 25021 25022 25023 25024 25025 25026 25027 25028 25029 25030 25031 25032 25033 25034 25035 25036 25037 25038 25039 25040 25041 25042 25043 25044 25045 25046 25047 25048 25049 25050 25051 25052 25053 25054 25055 25056 25057 25058 25059 25060 25061 25062 25063 25064 25065 25066 25067 25068 25069 25070 25071 25072 25073 25074 25075 25076 25077 25078 25079 25080 25081 25082 25083 25084 25085 25086 25087 25088 25089 25090 25091 25092 25093 25094 25095 25096 25097 25098 25099 25100 25101 25102 25103 25104 25105 25106 25107 25108 25109 25110 25111 25112 25113 25114 25115 25116 25117 25118 25119 25120 25121 25122 25123 25124 25125 25126 25127 25128 25129 25130 25131 25132 25133 25134 25135 25136 25137 25138 25139 25140 25141 25142 25143 25144 25145 25146 25147 25148 25149 25150 25151 25152 25153 25154 25155 25156 25157 25158 25159 25160 25161 25162 25163 25164 25165 25166 25167 25168 25169 25170 25171 25172 25173 25174 25175 25176 25177 25178 25179 25180 25181 25182 25183 25184 25185 25186 25187 25188 25189 25190 25191 25192 25193 25194 25195 25196 25197 25198 25199 25200 25201 25202 25203 25204 25205 25206 25207 25208 25209 25210 25211 25212 25213 25214 25215 25216 25217 25218 25219 25220 25221 25222 25223 25224 25225 25226 25227 25228 25229 25230 25231 25232 25233 25234 25235 25236 25237 25238 25239 25240 25241 25242 25243 25244 25245 25246 25247 25248 25249 25250 25251 25252 25253 25254 25255 25256 25257 25258 25259 25260 25261 25262 25263 25264 25265 25266 25267 25268 25269 25270 25271 25272 25273 25274 25275 25276 25277 25278 25279 25280 25281 25282 25283 25284 25285 25286 25287 25288 25289 25290 25291 25292 25293 25294 25295 25296 25297 25298 25299 25300 25301 25302 25303 25304 25305 25306 25307 25308 25309 25310 25311 25312 25313 25314 25315 25316 25317 25318 25319 25320 25321 25322 25323 25324 25325 25326 25327 25328 25329 25330 25331 25332 25333 25334 25335 25336 25337 25338 25339 25340 25341 25342 25343 25344 25345 25346 25347 25348 25349 25350 25351 25352 25353 25354 25355 25356 25357 25358 25359 25360 25361 25362 25363 25364 25365 25366 25367 25368 25369 25370 25371 25372 25373 25374 25375 25376 25377 25378 25379 25380 25381 25382 25383 25384 25385 25386 25387 25388 25389 25390 25391 25392 25393 25394 25395 25396 25397 25398 25399 25400 25401 25402 25403 25404 25405 25406 25407 25408 25409 25410 25411 25412 25413 25414 25415 25416 25417 25418 25419 25420 25421 25422 25423 25424 25425 25426 25427 25428 25429 25430 25431 25432 25433 25434 25435 25436 25437 25438 25439 25440 25441 25442 25443 25444 25445 25446 25447 25448 25449 25450 25451 25452 25453 25454 25455 25456 25457 25458 25459 25460 25461 25462 25463 25464 25465 25466 25467 25468 25469 25470 25471 25472 25473 25474 25475 25476 25477 25478 25479 25480 25481 25482 25483 25484 25485 25486 25487 25488 25489 25490 25491 25492 25493 25494 25495 25496 25497 25498 25499 25500 25501 25502 25503 25504 25505 25506 25507 25508 25509 25510 25511 25512 25513 25514 25515 25516 25517 25518 25519 25520 25521 25522 25523 25524 25525 25526 25527 25528 25529 25530 25531 25532 25533 25534 25535 25536 25537 25538 25539 25540 25541 25542 25543 25544 25545 25546 25547 25548 25549 25550 25551 25552 25553 25554 25555 25556 25557 25558 25559 25560 25561 25562 25563 25564 25565 25566 25567 25568 25569 25570 25571 25572 25573 25574 25575 25576 25577 25578 25579 25580 25581 25582 25583 25584 25585 25586 25587 25588 25589 25590 25591 25592 25593 25594 25595 25596 25597 25598 25599 25600 25601 25602 25603 25604 25605 25606 25607 25608 25609 25610 25611 25612 25613 25614 25615 25616 25617 25618 25619 25620 25621 25622 25623 25624 25625 25626 25627 25628 25629 25630 25631 25632 25633 25634 25635 25636 25637 25638 25639 25640 25641 25642 25643 25644 25645 25646 25647 25648 25649 25650 25651 25652 25653 25654 25655 25656 25657 25658 25659 25660 25661 25662 25663 25664 25665 25666 25667 25668 25669 25670 25671 25672 25673 25674 25675 25676 25677 25678 25679 25680 25681 25682 25683 25684 25685 25686 25687 25688 25689 25690 25691 25692 25693 25694 25695 25696 25697 25698 25699 25700 25701 25702 25703 25704 25705 25706 25707 25708 25709 25710 25711 25712 25713 25714 25715 25716 25717 25718 25719 25720 25721 25722 25723 25724 25725 25726 25727 25728 25729 25730 25731 25732 25733 25734 25735 25736 25737 25738 25739 25740 25741 25742 25743 25744 25745 25746 25747 25748 25749 25750 25751 25752 25753 25754 25755 25756 25757 25758 25759 25760 25761 25762 25763 25764 25765 25766 25767 25768 25769 25770 25771 25772 25773 25774 25775 25776 25777 25778 25779 25780 25781 25782 25783 25784 25785 25786 25787 25788 25789 25790 25791 25792 25793 25794 25795 25796 25797 25798 25799 25800 25801 25802 25803 25804 25805 25806 25807 25808 25809 25810 25811 25812 25813 25814 25815 25816 25817 25818 25819 25820 25821 25822 25823 25824 25825 25826 25827 25828 25829 25830 25831 25832 25833 25834 25835 25836 25837 25838 25839 25840 25841 25842 25843 25844 25845 25846 25847 25848 25849 25850 25851 25852 25853 25854 25855 25856 25857 25858 25859 25860 25861 25862 25863 25864 25865 25866 25867 25868 25869 25870 25871 25872 25873 25874 25875 25876 25877 25878 25879 25880 25881 25882 25883 25884 25885 25886 25887 25888 25889 25890 25891 25892 25893 25894 25895 25896 25897 25898 25899 25900 25901 25902 25903 25904 25905 25906 25907 25908 25909 25910 25911 25912 25913 25914 25915 25916 25917 25918 25919 25920 25921 25922 25923 25924 25925 25926 25927 25928 25929 25930 25931 25932 25933 25934 25935 25936 25937 25938 25939 25940 25941 25942 25943 25944 25945 25946 25947 25948 25949 25950 25951 25952 25953 25954 25955 25956 25957 25958 25959 25960 25961 25962 25963 25964 25965 25966 25967 25968 25969 25970 25971 25972 25973 25974 25975 25976 25977 25978 25979 25980 25981 25982 25983 25984 25985 25986 25987 25988 25989 25990 25991 25992 25993 25994 25995 25996 25997 25998 25999 26000 26001 26002 26003 26004 26005 26006 26007 26008 26009 26010 26011 26012 26013 26014 26015 26016 26017 26018 26019 26020 26021 26022 26023 26024 26025 26026 26027 26028 26029 26030 26031 26032 26033 26034 26035 26036 26037 26038 26039 26040 26041 26042 26043 26044 26045 26046 26047 26048 26049 26050 26051 26052 26053 26054 26055 26056 26057 26058 26059 26060 26061 26062 26063 26064 26065 26066 26067 26068 26069 26070 26071 26072 26073 26074 26075 26076 26077 26078 26079 26080 26081 26082 26083 26084 26085 26086 26087 26088 26089 26090 26091 26092 26093 26094 26095 26096 26097 26098 26099 26100 26101 26102 26103 26104 26105 26106 26107 26108 26109 26110 26111 26112 26113 26114 26115 26116 26117 26118 26119 26120 26121 26122 26123 26124 26125 26126 26127 26128 26129 26130 26131 26132 26133 26134 26135 26136 26137 26138 26139 26140 26141 26142 26143 26144 26145 26146 26147 26148 26149 26150 26151 26152 26153 26154 26155 26156 26157 26158 26159 26160 26161 26162 26163 26164 26165 26166 26167 26168 26169 26170 26171 26172 26173 26174 26175 26176 26177 26178 26179 26180 26181 26182 26183 26184 26185 26186 26187 26188 26189 26190 26191 26192 26193 26194 26195 26196 26197 26198 26199 26200 26201 26202 26203 26204 26205 26206 26207 26208 26209 26210 26211 26212 26213 26214 26215 26216 26217 26218 26219 26220 26221 26222 26223 26224 26225 26226 26227 26228 26229 26230 26231 26232 26233 26234 26235 26236 26237 26238 26239 26240 26241 26242 26243 26244 26245 26246 26247 26248 26249 26250 26251 26252 26253 26254 26255 26256 26257 26258 26259 26260 26261 26262 26263 26264 26265 26266 26267 26268 26269 26270 26271 26272 26273 26274 26275 26276 26277 26278 26279 26280 26281 26282 26283 26284 26285 26286 26287 26288 26289 26290 26291 26292 26293 26294 26295 26296 26297 26298 26299 26300 26301 26302 26303 26304 26305 26306 26307 26308 26309 26310 26311 26312 26313 26314 26315 26316 26317 26318 26319 26320 26321 26322 26323 26324 26325 26326 26327 26328 26329 26330 26331 26332 26333 26334 26335 26336 26337 26338 26339 26340 26341 26342 26343 26344 26345 26346 26347 26348 26349 26350 26351 26352 26353 26354 26355 26356 26357 26358 26359 26360 26361 26362 26363 26364 26365 26366 26367 26368 26369 26370 26371 26372 26373 26374 26375 26376 26377 26378 26379 26380 26381 26382 26383 26384 26385 26386 26387 26388 26389 26390 26391 26392 26393 26394 26395 26396 26397 26398 26399 26400 26401 26402 26403 26404 26405 26406 26407 26408 26409 26410 26411 26412 26413 26414 26415 26416 26417 26418 26419 26420 26421 26422 26423 26424 26425 26426 26427 26428 26429 26430 26431 26432 26433 26434 26435 26436 26437 26438 26439 26440 26441 26442 26443 26444 26445 26446 26447 26448 26449 26450 26451 26452 26453 26454 26455 26456 26457 26458 26459 26460 26461 26462 26463 26464 26465 26466 26467 26468 26469 26470 26471 26472 26473 26474 26475 26476 26477 26478 26479 26480 26481 26482 26483 26484 26485 26486 26487 26488 26489 26490 26491 26492 26493 26494 26495 26496 26497 26498 26499 26500 26501 26502 26503 26504 26505 26506 26507 26508 26509 26510 26511 26512 26513 26514 26515 26516 26517 26518 26519 26520 26521 26522 26523 26524 26525 26526 26527 26528 26529 26530 26531 26532 26533 26534 26535 26536 26537 26538 26539 26540 26541 26542 26543 26544 26545 26546 26547 26548 26549 26550 26551 26552 26553 26554 26555 26556 26557 26558 26559 26560 26561 26562 26563 26564 26565 26566 26567 26568 26569 26570 26571 26572 26573 26574 26575 26576 26577 26578 26579 26580 26581 26582 26583 26584 26585 26586 26587 26588 26589 26590 26591 26592 26593 26594 26595 26596 26597 26598 26599 26600 26601 26602 26603 26604 26605 26606 26607 26608 26609 26610 26611 26612 26613 26614 26615 26616 26617 26618 26619 26620 26621 26622 26623 26624 26625 26626 26627 26628 26629 26630 26631 26632 26633 26634 26635 26636 26637 26638 26639 26640 26641 26642 26643 26644 26645 26646 26647 26648 26649 26650 26651 26652 26653 26654 26655 26656 26657 26658 26659 26660 26661 26662 26663 26664 26665 26666 26667 26668 26669 26670 26671 26672 26673 26674 26675 26676 26677 26678 26679 26680 26681 26682 26683 26684 26685 26686 26687 26688 26689 26690 26691 26692 26693 26694 26695 26696 26697 26698 26699 26700 26701 26702 26703 26704 26705 26706 26707 26708 26709 26710 26711 26712 26713 26714 26715 26716 26717 26718 26719 26720 26721 26722 26723 26724 26725 26726 26727 26728 26729 26730 26731 26732 26733 26734 26735 26736 26737 26738 26739 26740 26741 26742 26743 26744 26745 26746 26747 26748 26749 26750 26751 26752 26753 26754 26755 26756 26757 26758 26759 26760 26761 26762 26763 26764 26765 26766 26767 26768 26769 26770 26771 26772 26773 26774 26775 26776 26777 26778 26779 26780 26781 26782 26783 26784 26785 26786 26787 26788 26789 26790 26791 26792 26793 26794 26795 26796 26797 26798 26799 26800 26801 26802 26803 26804 26805 26806 26807 26808 26809 26810 26811 26812 26813 26814 26815 26816 26817 26818 26819 26820 26821 26822 26823 26824 26825 26826 26827 26828 26829 26830 26831 26832 26833 26834 26835 26836 26837 26838 26839 26840 26841 26842 26843 26844 26845 26846 26847 26848 26849 26850 26851 26852 26853 26854 26855 26856 26857 26858 26859 26860 26861 26862 26863 26864 26865 26866 26867 26868 26869 26870 26871 26872 26873 26874 26875 26876 26877 26878 26879 26880 26881 26882 26883 26884 26885 26886 26887 26888 26889 26890 26891 26892 26893 26894 26895 26896 26897 26898 26899 26900 26901 26902 26903 26904 26905 26906 26907 26908 26909 26910 26911 26912 26913 26914 26915 26916 26917 26918 26919 26920 26921 26922 26923 26924 26925 26926 26927 26928 26929 26930 26931 26932 26933 26934 26935 26936 26937 26938 26939 26940 26941 26942 26943 26944 26945 26946 26947 26948 26949 26950 26951 26952 26953 26954 26955 26956 26957 26958 26959 26960 26961 26962 26963 26964 26965 26966 26967 26968 26969 26970 26971 26972 26973 26974 26975 26976 26977 26978 26979 26980 26981 26982 26983 26984 26985 26986 26987 26988 26989 26990 26991 26992 26993 26994 26995 26996 26997 26998 26999 27000 27001 27002 27003 27004 27005 27006 27007 27008 27009 27010 27011 27012 27013 27014 27015 27016 27017 27018 27019 27020 27021 27022 27023 27024 27025 27026 27027 27028 27029 27030 27031 27032 27033 27034 27035 27036 27037 27038 27039 27040 27041 27042 27043 27044 27045 27046 27047 27048 27049 27050 27051 27052 27053 27054 27055 27056 27057 27058 27059 27060 27061 27062 27063 27064 27065 27066 27067 27068 27069 27070 27071 27072 27073 27074 27075 27076 27077 27078 27079 27080 27081 27082 27083 27084 27085 27086 27087 27088 27089 27090 27091 27092 27093 27094 27095 27096 27097 27098 27099 27100 27101 27102 27103 27104 27105 27106 27107 27108 27109 27110 27111 27112 27113 27114 27115 27116 27117 27118 27119 27120 27121 27122 27123 27124 27125 27126 27127 27128 27129 27130 27131 27132 27133 27134 27135 27136 27137 27138 27139 27140 27141 27142 27143 27144 27145 27146 27147 27148 27149 27150 27151 27152 27153 27154 27155 27156 27157 27158 27159 27160 27161 27162 27163 27164 27165 27166 27167 27168 27169 27170 27171 27172 27173 27174 27175 27176 27177 27178 27179 27180 27181 27182 27183 27184 27185 27186 27187 27188 27189 27190 27191 27192 27193 27194 27195 27196 27197 27198 27199 27200 27201 27202 27203 27204 27205 27206 27207 27208 27209 27210 27211 27212 27213 27214 27215 27216 27217 27218 27219 27220 27221 27222 27223 27224 27225 27226 27227 27228 27229 27230 27231 27232 27233 27234 27235 27236 27237 27238 27239 27240 27241 27242 27243 27244 27245 27246 27247 27248 27249 27250 27251 27252 27253 27254 27255 27256 27257 27258 27259 27260 27261 27262 27263 27264 27265 27266 27267 27268 27269 27270 27271 27272 27273 27274 27275 27276 27277 27278 27279 27280 27281 27282 27283 27284 27285 27286 27287 27288 27289 27290 27291 27292 27293 27294 27295 27296 27297 27298 27299 27300 27301 27302 27303 27304 27305 27306 27307 27308 27309 27310 27311 27312 27313 27314 27315 27316 27317 27318 27319 27320 27321 27322 27323 27324 27325 27326 27327 27328 27329 27330 27331 27332 27333 27334 27335 27336 27337 27338 27339 27340 27341 27342 27343 27344 27345 27346 27347 27348 27349 27350 27351 27352 27353 27354 27355 27356 27357 27358 27359 27360 27361 27362 27363 27364 27365 27366 27367 27368 27369 27370 27371 27372 27373 27374 27375 27376 27377 27378 27379 27380 27381 27382 27383 27384 27385 27386 27387 27388 27389 27390 27391 27392 27393 27394 27395 27396 27397 27398 27399 27400 27401 27402 27403 27404 27405 27406 27407 27408 27409 27410 27411 27412 27413 27414 27415 27416 27417 27418 27419 27420 27421 27422 27423 27424 27425 27426 27427 27428 27429 27430 27431 27432 27433 27434 27435 27436 27437 27438 27439 27440 27441 27442 27443 27444 27445 27446 27447 27448 27449 27450 27451 27452 27453 27454 27455 27456 27457 27458 27459 27460 27461 27462 27463 27464 27465 27466 27467 27468 27469 27470 27471 27472 27473 27474 27475 27476 27477 27478 27479 27480 27481 27482 27483 27484 27485 27486 27487 27488 27489 27490 27491 27492 27493 27494 27495 27496 27497 27498 27499 27500 27501 27502 27503 27504 27505 27506 27507 27508 27509 27510 27511 27512 27513 27514 27515 27516 27517 27518 27519 27520 27521 27522 27523 27524 27525 27526 27527 27528 27529 27530 27531 27532 27533 27534 27535 27536 27537 27538 27539 27540 27541 27542 27543 27544 27545 27546 27547 27548 27549 27550 27551 27552 27553 27554 27555 27556 27557 27558 27559 27560 27561 27562 27563 27564 27565 27566 27567 27568 27569 27570 27571 27572 27573 27574 27575 27576 27577 27578 27579 27580 27581 27582 27583 27584 27585 27586 27587 27588 27589 27590 27591 27592 27593 27594 27595 27596 27597 27598 27599 27600 27601 27602 27603 27604 27605 27606 27607 27608 27609 27610 27611 27612 27613 27614 27615 27616 27617 27618 27619 27620 27621 27622 27623 27624 27625 27626 27627 27628 27629 27630 27631 27632 27633 27634 27635 27636 27637 27638 27639 27640 27641 27642 27643 27644 27645 27646 27647 27648 27649 27650 27651 27652 27653 27654 27655 27656 27657 27658 27659 27660 27661 27662 27663 27664 27665 27666 27667 27668 27669 27670 27671 27672 27673 27674 27675 27676 27677 27678 27679 27680 27681 27682 27683 27684 27685 27686 27687 27688 27689 27690 27691 27692 27693 27694 27695 27696 27697 27698 27699 27700 27701 27702 27703 27704 27705 27706 27707 27708 27709 27710 27711 27712 27713 27714 27715 27716 27717 27718 27719 27720 27721 27722 27723 27724 27725 27726 27727 27728 27729 27730 27731 27732 27733 27734 27735 27736 27737 27738 27739 27740 27741 27742 27743 27744 27745 27746 27747 27748 27749 27750 27751 27752 27753 27754 27755 27756 27757 27758 27759 27760 27761 27762 27763 27764 27765 27766 27767 27768 27769 27770 27771 27772 27773 27774 27775 27776 27777 27778 27779 27780 27781 27782 27783 27784 27785 27786 27787 27788 27789 27790 27791 27792 27793 27794 27795 27796 27797 27798 27799 27800 27801 27802 27803 27804 27805 27806 27807 27808 27809 27810 27811 27812 27813 27814 27815 27816 27817 27818 27819 27820 27821 27822 27823 27824 27825 27826 27827 27828 27829 27830 27831 27832 27833 27834 27835 27836 27837 27838 27839 27840 27841 27842 27843 27844 27845 27846 27847 27848 27849 27850 27851 27852 27853 27854 27855 27856 27857 27858 27859 27860 27861 27862 27863 27864 27865 27866 27867 27868 27869 27870 27871 27872 27873 27874 27875 27876 27877 27878 27879 27880 27881 27882 27883 27884 27885 27886 27887 27888 27889 27890 27891 27892 27893 27894 27895 27896 27897 27898 27899 27900 27901 27902 27903 27904 27905 27906 27907 27908 27909 27910 27911 27912 27913 27914 27915 27916 27917 27918 27919 27920 27921 27922 27923 27924 27925 27926 27927 27928 27929 27930 27931 27932 27933 27934 27935 27936 27937 27938 27939 27940 27941 27942 27943 27944 27945 27946 27947 27948 27949 27950 27951 27952 27953 27954 27955 27956 27957 27958 27959 27960 27961 27962 27963 27964 27965 27966 27967 27968 27969 27970 27971 27972 27973 27974 27975 27976 27977 27978 27979 27980 27981 27982 27983 27984 27985 27986 27987 27988 27989 27990 27991 27992 27993 27994 27995 27996 27997 27998 27999 28000 28001 28002 28003 28004 28005 28006 28007 28008 28009 28010 28011 28012 28013 28014 28015 28016 28017 28018 28019 28020 28021 28022 28023 28024 28025 28026 28027 28028 28029 28030 28031 28032 28033 28034 28035 28036 28037 28038 28039 28040 28041 28042 28043 28044 28045 28046 28047 28048 28049 28050 28051 28052 28053 28054 28055 28056 28057 28058 28059 28060 28061 28062 28063 28064 28065 28066 28067 28068 28069 28070 28071 28072 28073 28074 28075 28076 28077 28078 28079 28080 28081 28082 28083 28084 28085 28086 28087 28088 28089 28090 28091 28092 28093 28094 28095 28096 28097 28098 28099 28100 28101 28102 28103 28104 28105 28106 28107 28108 28109 28110 28111 28112 28113 28114 28115 28116 28117 28118 28119 28120 28121 28122 28123 28124 28125 28126 28127 28128 28129 28130 28131 28132 28133 28134 28135 28136 28137 28138 28139 28140 28141 28142 28143 28144 28145 28146 28147 28148 28149 28150 28151 28152 28153 28154 28155 28156 28157 28158 28159 28160 28161 28162 28163 28164 28165 28166 28167 28168 28169 28170 28171 28172 28173 28174 28175 28176 28177 28178 28179 28180 28181 28182 28183 28184 28185 28186 28187 28188 28189 28190 28191 28192 28193 28194 28195 28196 28197 28198 28199 28200 28201 28202 28203 28204 28205 28206 28207 28208 28209 28210 28211 28212 28213 28214 28215 28216 28217 28218 28219 28220 28221 28222 28223 28224 28225 28226 28227 28228 28229 28230 28231 28232 28233 28234 28235 28236 28237 28238 28239 28240 28241 28242 28243 28244 28245 28246 28247 28248 28249 28250 28251 28252 28253 28254 28255 28256 28257 28258 28259 28260 28261 28262 28263 28264 28265 28266 28267 28268 28269 28270 28271 28272 28273 28274 28275 28276 28277 28278 28279 28280 28281 28282 28283 28284 28285 28286 28287 28288 28289 28290 28291 28292 28293 28294 28295 28296 28297 28298 28299 28300 28301 28302 28303 28304 28305 28306 28307 28308 28309 28310 28311 28312 28313 28314 28315 28316 28317 28318 28319 28320 28321 28322 28323 28324 28325 28326 28327 28328 28329 28330 28331 28332 28333 28334 28335 28336 28337 28338 28339 28340 28341 28342 28343 28344 28345 28346 28347 28348 28349 28350 28351 28352 28353 28354 28355 28356 28357 28358 28359 28360 28361 28362 28363 28364 28365 28366 28367 28368 28369 28370 28371 28372 28373 28374 28375 28376 28377 28378 28379 28380 28381 28382 28383 28384 28385 28386 28387 28388 28389 28390 28391 28392 28393 28394 28395 28396 28397 28398 28399 28400 28401 28402 28403 28404 28405 28406 28407 28408 28409 28410 28411 28412 28413 28414 28415 28416 28417 28418 28419 28420 28421 28422 28423 28424 28425 28426 28427 28428 28429 28430 28431 28432 28433 28434 28435 28436 28437 28438 28439 28440 28441 28442 28443 28444 28445 28446 28447 28448 28449 28450 28451 28452 28453 28454 28455 28456 28457 28458 28459 28460 28461 28462 28463 28464 28465 28466 28467 28468 28469 28470 28471 28472 28473 28474 28475 28476 28477 28478 28479 28480 28481 28482 28483 28484 28485 28486 28487 28488 28489 28490 28491 28492 28493 28494 28495 28496 28497 28498 28499 28500 28501 28502 28503 28504 28505 28506 28507 28508 28509 28510 28511 28512 28513 28514 28515 28516 28517 28518 28519 28520 28521 28522 28523 28524 28525 28526 28527 28528 28529 28530 28531 28532 28533 28534 28535 28536 28537 28538 28539 28540 28541 28542 28543 28544 28545 28546 28547 28548 28549 28550 28551 28552 28553 28554 28555 28556 28557 28558 28559 28560 28561 28562 28563 28564 28565 28566 28567 28568 28569 28570 28571 28572 28573 28574 28575 28576 28577 28578 28579 28580 28581 28582 28583 28584 28585 28586 28587 28588 28589 28590 28591 28592 28593 28594 28595 28596 28597 28598 28599 28600 28601 28602 28603 28604 28605 28606 28607 28608 28609 28610 28611 28612 28613 28614 28615 28616 28617 28618 28619 28620 28621 28622 28623 28624 28625 28626 28627 28628 28629 28630 28631 28632 28633 28634 28635 28636 28637 28638 28639 28640 28641 28642 28643 28644 28645 28646 28647 28648 28649 28650 28651 28652 28653 28654 28655 28656 28657 28658 28659 28660 28661 28662 28663 28664 28665 28666 28667 28668 28669 28670 28671 28672 28673 28674 28675 28676 28677 28678 28679 28680 28681 28682 28683 28684 28685 28686 28687 28688 28689 28690 28691 28692 28693 28694 28695 28696 28697 28698 28699 28700 28701 28702 28703 28704 28705 28706 28707 28708 28709 28710 28711 28712 28713 28714 28715 28716 28717 28718 28719 28720 28721 28722 28723 28724 28725 28726 28727 28728 28729 28730 28731 28732 28733 28734 28735 28736 28737 28738 28739 28740 28741 28742 28743 28744 28745 28746 28747 28748 28749 28750 28751 28752 28753 28754 28755 28756 28757 28758 28759 28760 28761 28762 28763 28764 28765 28766 28767 28768 28769 28770 28771 28772 28773 28774 28775 28776 28777 28778 28779 28780 28781 28782 28783 28784 28785 28786 28787 28788 28789 28790 28791 28792 28793 28794 28795 28796 28797 28798 28799 28800 28801 28802 28803 28804 28805 28806 28807 28808 28809 28810 28811 28812 28813 28814 28815 28816 28817 28818 28819 28820 28821 28822 28823 28824 28825 28826 28827 28828 28829 28830 28831 28832 28833 28834 28835 28836 28837 28838 28839 28840 28841 28842 28843 28844 28845 28846 28847 28848 28849 28850 28851 28852 28853 28854 28855 28856 28857 28858 28859 28860 28861 28862 28863 28864 28865 28866 28867 28868 28869 28870 28871 28872 28873 28874 28875 28876 28877 28878 28879 28880 28881 28882 28883 28884 28885 28886 28887 28888 28889 28890 28891 28892 28893 28894 28895 28896 28897 28898 28899 28900 28901 28902 28903 28904 28905 28906 28907 28908 28909 28910 28911 28912 28913 28914 28915 28916 28917 28918 28919 28920 28921 28922 28923 28924 28925 28926 28927 28928 28929 28930 28931 28932 28933 28934 28935 28936 28937 28938 28939 28940 28941 28942 28943 28944 28945 28946 28947 28948 28949 28950 28951 28952 28953 28954 28955 28956 28957 28958 28959 28960 28961 28962 28963 28964 28965 28966 28967 28968 28969 28970 28971 28972 28973 28974 28975 28976 28977 28978 28979 28980 28981 28982 28983 28984 28985 28986 28987 28988 28989 28990 28991 28992 28993 28994 28995 28996 28997 28998 28999 29000 29001 29002 29003 29004 29005 29006 29007 29008 29009 29010 29011 29012 29013 29014 29015 29016 29017 29018 29019 29020 29021 29022 29023 29024 29025 29026 29027 29028 29029 29030 29031 29032 29033 29034 29035 29036 29037 29038 29039 29040 29041 29042 29043 29044 29045 29046 29047 29048 29049 29050 29051 29052 29053 29054 29055 29056 29057 29058 29059 29060 29061 29062 29063 29064 29065 29066 29067 29068 29069 29070 29071 29072 29073 29074 29075 29076 29077 29078 29079 29080 29081 29082 29083 29084 29085 29086 29087 29088 29089 29090 29091 29092 29093 29094 29095 29096 29097 29098 29099 29100 29101 29102 29103 29104 29105 29106 29107 29108 29109 29110 29111 29112 29113 29114 29115 29116 29117 29118 29119 29120 29121 29122 29123 29124 29125 29126 29127 29128 29129 29130 29131 29132 29133 29134 29135 29136 29137 29138 29139 29140 29141 29142 29143 29144 29145 29146 29147 29148 29149 29150 29151 29152 29153 29154 29155 29156 29157 29158 29159 29160 29161 29162 29163 29164 29165 29166 29167 29168 29169 29170 29171 29172 29173 29174 29175 29176 29177 29178 29179 29180 29181 29182 29183 29184 29185 29186 29187 29188 29189 29190 29191 29192 29193 29194 29195 29196 29197 29198 29199 29200 29201 29202 29203 29204 29205 29206 29207 29208 29209 29210 29211 29212 29213 29214 29215 29216 29217 29218 29219 29220 29221 29222 29223 29224 29225 29226 29227 29228 29229 29230 29231 29232 29233 29234 29235 29236 29237 29238 29239 29240 29241 29242 29243 29244 29245 29246 29247 29248 29249 29250 29251 29252 29253 29254 29255 29256 29257 29258 29259 29260 29261 29262 29263 29264 29265 29266 29267 29268 29269 29270 29271 29272 29273 29274 29275 29276 29277 29278 29279 29280 29281 29282 29283 29284 29285 29286 29287 29288 29289 29290 29291 29292 29293 29294 29295 29296 29297 29298 29299 29300 29301 29302 29303 29304 29305 29306 29307 29308 29309 29310 29311 29312 29313 29314 29315 29316 29317 29318 29319 29320 29321 29322 29323 29324 29325 29326 29327 29328 29329 29330 29331 29332 29333 29334 29335 29336 29337 29338 29339 29340 29341 29342 29343 29344 29345 29346 29347 29348 29349 29350 29351 29352 29353 29354 29355 29356 29357 29358 29359 29360 29361 29362 29363 29364 29365 29366 29367 29368 29369 29370 29371 29372 29373 29374 29375 29376 29377 29378 29379 29380 29381 29382 29383 29384 29385 29386 29387 29388 29389 29390 29391 29392 29393 29394 29395 29396 29397 29398 29399 29400 29401 29402 29403 29404 29405 29406 29407 29408 29409 29410 29411 29412 29413 29414 29415 29416 29417 29418 29419 29420 29421 29422 29423 29424 29425 29426 29427 29428 29429 29430 29431 29432 29433 29434 29435 29436 29437 29438 29439 29440 29441 29442 29443 29444 29445 29446 29447 29448 29449 29450 29451 29452 29453 29454 29455 29456 29457 29458 29459 29460 29461 29462 29463 29464 29465 29466 29467 29468 29469 29470 29471 29472 29473 29474 29475 29476 29477 29478 29479 29480 29481 29482 29483 29484 29485 29486 29487 29488 29489 29490 29491 29492 29493 29494 29495 29496 29497 29498 29499 29500 29501 29502 29503 29504 29505 29506 29507 29508 29509 29510 29511 29512 29513 29514 29515 29516 29517 29518 29519 29520 29521 29522 29523 29524 29525 29526 29527 29528 29529 29530 29531 29532 29533 29534 29535 29536 29537 29538 29539 29540 29541 29542 29543 29544 29545 29546 29547 29548 29549 29550 29551 29552 29553 29554 29555 29556 29557 29558 29559 29560 29561 29562 29563 29564 29565 29566 29567 29568 29569 29570 29571 29572 29573 29574 29575 29576 29577 29578 29579 29580 29581 29582 29583 29584 29585 29586 29587 29588 29589 29590 29591 29592 29593 29594 29595 29596 29597 29598 29599 29600 29601 29602 29603 29604 29605 29606 29607 29608 29609 29610 29611 29612 29613 29614 29615 29616 29617 29618 29619 29620 29621 29622 29623 29624 29625 29626 29627 29628 29629 29630 29631 29632 29633 29634 29635 29636 29637 29638 29639 29640 29641 29642 29643 29644 29645 29646 29647 29648 29649 29650 29651 29652 29653 29654 29655 29656 29657 29658 29659 29660 29661 29662 29663 29664 29665 29666 29667 29668 29669 29670 29671 29672 29673 29674 29675 29676 29677 29678 29679 29680 29681 29682 29683 29684 29685 29686 29687 29688 29689 29690 29691 29692 29693 29694 29695 29696 29697 29698 29699 29700 29701 29702 29703 29704 29705 29706 29707 29708 29709 29710 29711 29712 29713 29714 29715 29716 29717 29718 29719 29720 29721 29722 29723 29724 29725 29726 29727 29728 29729 29730 29731 29732 29733 29734 29735 29736 29737 29738 29739 29740 29741 29742 29743 29744 29745 29746 29747 29748 29749 29750 29751 29752 29753 29754 29755 29756 29757 29758 29759 29760 29761 29762 29763 29764 29765 29766 29767 29768 29769 29770 29771 29772 29773 29774 29775 29776 29777 29778 29779 29780 29781 29782 29783 29784 29785 29786 29787 29788 29789 29790 29791 29792 29793 29794 29795 29796 29797 29798 29799 29800 29801 29802 29803 29804 29805 29806 29807 29808 29809 29810 29811 29812 29813 29814 29815 29816 29817 29818 29819 29820 29821 29822 29823 29824 29825 29826 29827 29828 29829 29830 29831 29832 29833 29834 29835 29836 29837 29838 29839 29840 29841 29842 29843 29844 29845 29846 29847 29848 29849 29850 29851 29852 29853 29854 29855 29856 29857 29858 29859 29860 29861 29862 29863 29864 29865 29866 29867 29868 29869 29870 29871 29872 29873 29874 29875 29876 29877 29878 29879 29880 29881 29882 29883 29884 29885 29886 29887 29888 29889 29890 29891 29892 29893 29894 29895 29896 29897 29898 29899 29900 29901 29902 29903 29904 29905 29906 29907 29908 29909 29910 29911 29912 29913 29914 29915 29916 29917 29918 29919 29920 29921 29922 29923 29924 29925 29926 29927 29928 29929 29930 29931 29932 29933 29934 29935 29936 29937 29938 29939 29940 29941 29942 29943 29944 29945 29946 29947 29948 29949 29950 29951 29952 29953 29954 29955 29956 29957 29958 29959 29960 29961 29962 29963 29964 29965 29966 29967 29968 29969 29970 29971 29972 29973 29974 29975 29976 29977 29978 29979 29980 29981 29982 29983 29984 29985 29986 29987 29988 29989 29990 29991 29992 29993 29994 29995 29996 29997 29998 29999 30000 30001 30002 30003 30004 30005 30006 30007 30008 30009 30010 30011 30012 30013 30014 30015 30016 30017 30018 30019 30020 30021 30022 30023 30024 30025 30026 30027 30028 30029 30030 30031 30032 30033 30034 30035 30036 30037 30038 30039 30040 30041 30042 30043 30044 30045 30046 30047 30048 30049 30050 30051 30052 30053 30054 30055 30056 30057 30058 30059 30060 30061 30062 30063 30064 30065 30066 30067 30068 30069 30070 30071 30072 30073 30074 30075 30076 30077 30078 30079 30080 30081 30082 30083 30084 30085 30086 30087 30088 30089 30090 30091 30092 30093 30094 30095 30096 30097 30098 30099 30100 30101 30102 30103 30104 30105 30106 30107 30108 30109 30110 30111 30112 30113 30114 30115 30116 30117 30118 30119 30120 30121 30122 30123 30124 30125 30126 30127 30128 30129 30130 30131 30132 30133 30134 30135 30136 30137 30138 30139 30140 30141 30142 30143 30144 30145 30146 30147 30148 30149 30150 30151 30152 30153 30154 30155 30156 30157 30158 30159 30160 30161 30162 30163 30164 30165 30166 30167 30168 30169 30170 30171 30172 30173 30174 30175 30176 30177 30178 30179 30180 30181 30182 30183 30184 30185 30186 30187 30188 30189 30190 30191 30192 30193 30194 30195 30196 30197 30198 30199 30200 30201 30202 30203 30204 30205 30206 30207 30208 30209 30210 30211 30212 30213 30214 30215 30216 30217 30218 30219 30220 30221 30222 30223 30224 30225 30226 30227 30228 30229 30230 30231 30232 30233 30234 30235 30236 30237 30238 30239 30240 30241 30242 30243 30244 30245 30246 30247 30248 30249 30250 30251 30252 30253 30254 30255 30256 30257 30258 30259 30260 30261 30262 30263 30264 30265 30266 30267 30268 30269 30270 30271 30272 30273 30274 30275 30276 30277 30278 30279 30280 30281 30282 30283 30284 30285 30286 30287 30288 30289 30290 30291 30292 30293 30294 30295 30296 30297 30298 30299 30300 30301 30302 30303 30304 30305 30306 30307 30308 30309 30310 30311 30312 30313 30314 30315 30316 30317 30318 30319 30320 30321 30322 30323 30324 30325 30326 30327 30328 30329 30330 30331 30332 30333 30334 30335 30336 30337 30338 30339 30340 30341 30342 30343 30344 30345 30346 30347 30348 30349 30350 30351 30352 30353 30354 30355 30356 30357 30358 30359 30360 30361 30362 30363 30364 30365 30366 30367 30368 30369 30370 30371 30372 30373 30374 30375 30376 30377 30378 30379 30380 30381 30382 30383 30384 30385 30386 30387 30388 30389 30390 30391 30392 30393 30394 30395 30396 30397 30398 30399 30400 30401 30402 30403 30404 30405 30406 30407 30408 30409 30410 30411 30412 30413 30414 30415 30416 30417 30418 30419 30420 30421 30422 30423 30424 30425 30426 30427 30428 30429 30430 30431 30432 30433 30434 30435 30436 30437 30438 30439 30440 30441 30442 30443 30444 30445 30446 30447 30448 30449 30450 30451 30452 30453 30454 30455 30456 30457 30458 30459 30460 30461 30462 30463 30464 30465 30466 30467 30468 30469 30470 30471 30472 30473 30474 30475 30476 30477 30478 30479 30480 30481 30482 30483 30484 30485 30486 30487 30488 30489 30490 30491 30492 30493 30494 30495 30496 30497 30498 30499 30500 30501 30502 30503 30504 30505 30506 30507 30508 30509 30510 30511 30512 30513 30514 30515 30516 30517 30518 30519 30520 30521 30522 30523 30524 30525 30526 30527 30528 30529 30530 30531 30532 30533 30534 30535 30536 30537 30538 30539 30540 30541 30542 30543 30544 30545 30546 30547 30548 30549 30550 30551 30552 30553 30554 30555 30556 30557 30558 30559 30560 30561 30562 30563 30564 30565 30566 30567 30568 30569 30570 30571 30572 30573 30574 30575 30576 30577 30578 30579 30580 30581 30582 30583 30584 30585 30586 30587 30588 30589 30590 30591 30592 30593 30594 30595 30596 30597 30598 30599 30600 30601 30602 30603 30604 30605 30606 30607 30608 30609 30610 30611 30612 30613 30614 30615 30616 30617 30618 30619 30620 30621 30622 30623 30624 30625 30626 30627 30628 30629 30630 30631 30632 30633 30634 30635 30636 30637 30638 30639 30640 30641 30642 30643 30644 30645 30646 30647 30648 30649 30650 30651 30652 30653 30654 30655 30656 30657 30658 30659 30660 30661 30662 30663 30664 30665 30666 30667 30668 30669 30670 30671 30672 30673 30674 30675 30676 30677 30678 30679 30680 30681 30682 30683 30684 30685 30686 30687 30688 30689 30690 30691 30692 30693 30694 30695 30696 30697 30698 30699 30700 30701 30702 30703 30704 30705 30706 30707 30708 30709 30710 30711 30712 30713 30714 30715 30716 30717 30718 30719 30720 30721 30722 30723 30724 30725 30726 30727 30728 30729 30730 30731 30732 30733 30734 30735 30736 30737 30738 30739 30740 30741 30742 30743 30744 30745 30746 30747 30748 30749 30750 30751 30752 30753 30754 30755 30756 30757 30758 30759 30760 30761 30762 30763 30764 30765 30766 30767 30768 30769 30770 30771 30772 30773 30774 30775 30776 30777 30778 30779 30780 30781 30782 30783 30784 30785 30786 30787 30788 30789 30790 30791 30792 30793 30794 30795 30796 30797 30798 30799 30800 30801 30802 30803 30804 30805 30806 30807 30808 30809 30810 30811 30812 30813 30814 30815 30816 30817 30818 30819 30820 30821 30822 30823 30824 30825 30826 30827 30828 30829 30830 30831 30832 30833 30834 30835 30836 30837 30838 30839 30840 30841 30842 30843 30844 30845 30846 30847 30848 30849 30850 30851 30852 30853 30854 30855 30856 30857 30858 30859 30860 30861 30862 30863 30864 30865 30866 30867 30868 30869 30870 30871 30872 30873 30874 30875 30876 30877 30878 30879 30880 30881 30882 30883 30884 30885 30886 30887 30888 30889 30890 30891 30892 30893 30894 30895 30896 30897 30898 30899 30900 30901 30902 30903 30904 30905 30906 30907 30908 30909 30910 30911 30912 30913 30914 30915 30916 30917 30918 30919 30920 30921 30922 30923 30924 30925 30926 30927 30928 30929 30930 30931 30932 30933 30934 30935 30936 30937 30938 30939 30940 30941 30942 30943 30944 30945 30946 30947 30948 30949 30950 30951 30952 30953 30954 30955 30956 30957 30958 30959 30960 30961 30962 30963 30964 30965 30966 30967 30968 30969 30970 30971 30972 30973 30974 30975 30976 30977 30978 30979 30980 30981 30982 30983 30984 30985 30986 30987 30988 30989 30990 30991 30992 30993 30994 30995 30996 30997 30998 30999 31000 31001 31002 31003 31004 31005 31006 31007 31008 31009 31010 31011 31012 31013 31014 31015 31016 31017 31018 31019 31020 31021 31022 31023 31024 31025 31026 31027 31028 31029 31030 31031 31032 31033 31034 31035 31036 31037 31038 31039 31040 31041 31042 31043 31044 31045 31046 31047 31048 31049 31050 31051 31052 31053 31054 31055 31056 31057 31058 31059 31060 31061 31062 31063 31064 31065 31066 31067 31068 31069 31070 31071 31072 31073 31074 
</DataArray>
<DataArray type="UInt32" Name="offsets" format="ascii">
3 6 9 11 13 16 19 22 25 28 31 34 37 40 43 46 49 52 55 58 61 64 67 70 73 76 79 82 85 88 91 94 97 100 103 106 109 112 114 117 120 123 126 129 132 135 137 140 143 146 149 152 155 157 160 163 166 169 172 175 178 180 183 186 188 191 194 197 200 203 206 209 211 214 216 219 222 224 227 230 233 236 239 242 245 248 250 253 256 259 262 265 268 271 273 276 279 282 285 288 291 294 296 299 302 304 307 310 313 315 318 321 324 327 330 333 335 338 341 344 347 350 353 356 359 362 365 368 371 374 377 380 383 385 388 391 394 397 400 403 406 409 412 415 418 421 424 427 430 433 436 439 441 444 447 449 452 455 458 461 464 466 469 472 475 478 480 483 486 489 492 495 498 501 504 507 510 513 516 519 521 524 526 529 532 535 538 541 544 546 549 552 555 558 561 563 566 569 572 575 578 581 584 587 590 593 596 599 602 605 608 611 614 617 620 623 626 629 632 635 638 641 643 646 649 652 655 658 661 664 667 670 673 675 678 681 684 687 690 693 695 698 701 704 706 709 712 715 718 721 724 727 730 732 734 737 740 743 746 749 752 754 757 760 763 766 769 772 775 778 781 784 787 790 793 796 799 802 805 808 811 814 817 820 823 826 829 832 835 837 840 842 845 848 851 854 856 859 862 865 868 871 874 877 879 882 885 888 891 893 896 899 902 905 907 910 913 916 918 921 924 927 930 933 936 939 942 945 948 951 954 957 960 963 966 968 971 974 977 980 983 986 989 992 995 997 1000 1003 1006 1009 1012 1015 1017 1020 1023 1026 1029 1032 1035 1038 1041 1044 1047 1049 1052 1055 1058 1061 1064 1067 1070 1073 1076 1079 1082 1085 1088 1091 1094 1097 1100 1103 1106 1109 1112 1115 1117 1120 1122 1125 1128 1131 1134 1137 1139 1142 1145 1148 1151 1154 1157 1159 1162 1165 1168 1171 1174 1177 1180 1183 1185 1188 1191 1194 1197 1200 1202 1205 1207 1209 1212 1215 1218 1221 1224 1227 1230 1232 1235 1238 1241 1244 1247 1250 1253 1256 1259 1262 1265 1268 1271 1274 1277 1280 1283 1286 1289 1292 1294 1297 1300 1303 1306 1309 1312 1315 1318 1321 1324 1327 1330 1333 1336 1339 1342 1345 1348 1351 1354 1357 1360 1363 1366 1369 1371 1374 1377 1380 1383 1386 1388 1391 1394 1397 1400 1403 1406 1409 1411 1414 1417 1420 1423 1426 1429 1432 1435 1438 1441 1444 1447 1449 1452 1455 1458 1461 1464 1467 1470 1473 1476 1479 1482 1485 1488 1491 1494 1497 1500 1503 1506 1509 1512 1515 1518 1521 1524 1527 1530 1533 1536 1538 1541 1544 1547 1549 1552 1555 1558 1560 1562 1565 1568 1571 1574 1577 1580 1582 1585 1588 1591 1594 1596 1599 1602 1605 1608 1611 1614 1616 1619 1622 1625 1628 1631 1634 1637 1639 1642 1645 1648 1651 1654 1657 1660 1663 1666 1669 1672 1675 1677 1680 1682 1685 1688 1691 1693 1695 1698 1700 1703 1706 1709 1712 1714 1717 1720 1723 1726 1729 1732 1735 1738 1740 1742 1745 1748 1751 1754 1756 1759 1762 1765 1768 1771 1774 1777 1780 1783 1786 1789 1791 1794 1797 1800 1802 1805 1808 1811 1814 1817 1820 1823 1826 1829 1832 1835 1838 1841 1844 1847 1850 1853 1856 1859 1862 1865 1868 1870 1873 1876 1879 1882 1885 1887 1890 1892 1895 1898 1901 1903 1906 1908 1911 1913 1916 1919 1921 1923 1926 1929 1932 1935 1938 1941 1944 1947 1949 1952 1955 1958 1961 1964 1966 1968 1971 1974 1977 1980 1983 1986 1989 1992 1995 1998 2001 2004 2007 2010 2013 2016 2019 2021 2024 2026 2029 2032 2034 2037 2039 2042 2045 2048 2050 2052 2054 2057 2060 2063 2066 2069 2072 2074 2077 2079 2082 2085 2088 2091 2094 2097 2100 2103 2106 2109 2111 2114 2117 2120 2123 2126 2129 2131 2134 2137 2140 2142 2145 2148 2151 2154 2157 2160 2163 2166 2169 2172 2175 2178 2180 2183 2186 2189 2192 2195 2198 2201 2204 2207 2210 2213 2216 2219 2222 2225 2228 2231 2234 2236 2239 2242 2245 2247 2250 2253 2256 2259 2262 2265 2268 2271 2274 2277 2280 2283 2286 2289 2292 2295 2298 2301 2304 2307 2309 2312 2315 2318 2321 2324 2327 2329 2332 2334 2337 2340 2343 2346 2349 2352 2355 2357 2359 2362 2365 2368 2371 2374 2377 2380 2383 2386 2389 2392 2395 2398 2401 2404 2407 2410 2413 2416 2419 2422 2425 2428 2431 2434 2437 2440 2443 2446 2449 2452 2455 2457 2460 2463 2465 2468 2471 2474 2477 2480 2483 2486 2489 2492 2495 2498 2501 2504 2507 2510 2512 2515 2518 2521 2523 2526 2529 2532 2535 2538 2541 2544 2547 2550 2553 2555 2558 2561 2564 2567 2570 2573 2576 2579 2582 2585 2588 2591 2594 2597 2600 2603 2606 2609 2612 2615 2618 2621 2623 2626 2629 2632 2635 2638 2641 2644 2647 2650 2653 2656 2659 2662 2665 2668 2671 2674 2677 2680 2683 2686 2689 2692 2695 2698 2701 2704 2707 2710 2713 2716 2719 2722 2725 2728 2731 2734 2737 2740 2743 2746 2749 2752 2755 2758 2761 2764 2767 2770 2773 2776 2779 2782 2785 2788 2791 2794 2797 2800 2803 2805 2808 2811 2814 2817 2819 2822 2825 2828 2831 2834 2837 2840 2843 2846 2849 2852 2855 2858 2861 2864 2867 2870 2872 2875 2878 2880 2883 2886 2889 2892 2895 2898 2901 2904 2907 2910 2913 2916 2919 2922 2924 2927 2930 2933 2936 2939 2942 2944 2947 2950 2953 2956 2958 2961 2963 2966 2969 2972 2975 2978 2981 2984 2987 2990 2993 2996 2999 3001 3004 3006 3008 3011 3014 3017 3020 3022 3025 3028 3031 3034 3037 3039 3042 3044 3047 3050 3053 3056 3058 3060 3063 3066 3069 3072 3074 3077 3080 3083 3086 3089 3092 3095 3098 3101 3104 3107 3109 3112 3114 3117 3120 3123 3126 3129 3132 3135 3137 3139 3142 3145 3148 3151 3154 3157 3160 3163 3166 3169 3171 3174 3177 3180 3183 3186 3189 3192 3195 3198 3200 3203 3205 3208 3211 3214 3217 3220 3223 3226 3229 3231 3234 3237 3239 3242 3245 3248 3251 3254 3257 3260 3263 3266 3268 3271 3274 3277 3280 3283 3286 3289 3292 3295 3298 3301 3304 3307 3310 3313 3316 3319 3322 3325 3328 3331 3334 3337 3340 3343 3346 3349 3352 3355 3358 3361 3364 3367 3370 3373 3376 3379 3382 3384 3386 3389 3392 3395 3398 3401 3404 3407 3410 3413 3415 3418 3421 3424 3427 3430 3433 3436 3438 3441 3443 3446 3449 3452 3455 3458 3461 3464 3466 3469 3472 3475 3478 3481 3484 3486 3489 3492 3495 3497 3500 3503 3506 3509 3511 3514 3517 3520 3522 3525 3528 3530 3533 3535 3538 3541 3544 3547 3550 3553 3556 3558 3561 3564 3567 3570 3573 3576 3579 3582 3585 3588 3591 3593 3596 3599 3602 3605 3608 3611 3613 3616 3619 3622 3625 3627 3630 3633 3635 3638 3640 3643 3646 3649 3652 3654 3657 3659 3662 3664 3667 3670 3673 3675 3678 3681 3684 3687 3690 3692 3695 3698 3700 3703 3706 3709 3712 3715 3718 3720 3723 3726 3728 3731 3734 3736 3738 3740 3743 3746 3749 3751 3754 3757 3760 3763 3766 3768 3771 3774 3777 3780 3783 3785 3788 3791 3794 3797 3800 3803 3806 3809 3812 3815 3818 3821 3824 3827 3830 3833 3836 3839 3842 3845 3848 3851 3854 3857 3860 3863 3866 3869 3872 3875 3878 3881 3884 3887 3890 3893 3896 3899 3902 3904 3907 3910 3913 3916 3919 3922 3925 3927 3930 3933 3935 3937 3940 3943 3946 3949 3952 3955 3958 3961 3964 3967 3970 3973 3976 3979 3982 3985 3988 3991 3993 3996 3999 4002 4005 4008 4011 4013 4016 4019 4022 4025 4028 4031 4034 4036 4039 4042 4045 4048 4051 4054 4057 4060 4062 4065 4068 4070 4073 4075 4078 4080 4082 4085 4088 4091 4094 4096 4098 4101 4103 4106 4108 4111 4114 4117 4120 4122 4125 4127 4130 4133 4136 4139 4141 4144 4147 4150 4153 4156 4159 4162 4165 4168 4170 4173 4176 4178 4180 4183 4186 4188 4191 4194 4197 4199 4202 4204 4207 4210 4213 4215 4218 4220 4223 4226 4229 4232 4235 4238 4241 4244 4247 4250 4253 4256 4259 4262 4265 4268 4271 4274 4277 4280 4283 4286 4289 4292 4295 4298 4301 4304 4307 4310 4313 4316 4319 4322 4325 4328 4331 4334 4337 4340 4343 4346 4349 4352 4355 4358 4361 4364 4367 4370 4373 4376 4379 4382 4385 4388 4391 4394 4397 4400 4403 4406 4409 4412 4415 4418 4420 4423 4426 4429 4432 4435 4438 4441 4444 4447 4450 4453 4456 4459 4462 4465 4468 4471 4474 4477 4480 4483 4486 4489 4492 4495 4498 4501 4504 4507 4510 4513 4516 4519 4522 4525 4528 4531 4534 4537 4540 4543 4546 4549 4552 4555 4558 4561 4564 4567 4570 4573 4576 4579 4582 4585 4588 4591 4594 4597 4600 4603 4606 4609 4612 4615 4618 4621 4624 4627 4630 4633 4636 4639 4642 4645 4648 4651 4654 4657 4660 4663 4666 4669 4672 4675 4678 4680 4683 4686 4689 4692 4694 4697 4700 4703 4706 4709 4712 4714 4717 4720 4723 4726 4729 4732 4734 4737 4740 4743 4746 4748 4751 4754 4757 4759 4762 4765 4768 4771 4774 4776 4779 4781 4784 4786 4789 4792 4795 4798 4801 4804 4807 4810 4813 4816 4819 4822 4825 4828 4831 4833 4836 4839 4842 4845 4847 4850 4853 4856 4859 4862 4865 4868 4871 4874 4877 4880 4883 4886 4889 4892 4895 4898 4901 4904 4907 4910 4913 4916 4918 4921 4924 4927 4930 4933 4936 4939 4942 4945 4948 4950 4953 4955 4958 4961 4963 4966 4968 4970 4973 4975 4978 4981 4984 4987 4990 4992 4994 4997 4999 5002 5005 5008 5011 5013 5016 5019 5022 5025 5028 5031 5033 5036 5039 5042 5045 5048 5051 5054 5057 5060 5063 5066 5069 5072 5075 5077 5080 5083 5085 5088 5091 5094 5096 5099 5101 5104 5107 5110 5113 5116 5118 5121 5124 5127 5130 5132 5135 5138 5141 5144 5147 5149 5152 5155 5158 5161 5164 5167 5170 5173 5175 5178 5181 5184 5187 5189 5192 5195 5198 5201 5203 5206 5209 5212 5215 5218 5221 5224 5227 5229 5232 5235 5237 5240 5243 5246 5249 5252 5254 5257 5260 5262 5265 5268 5271 5274 5277 5280 5283 5286 5289 5292 5295 5298 5301 5304 5307 5309 5312 5315 5318 5320 5322 5325 5328 5331 5334 5337 5340 5343 5345 5348 5351 5354 5357 5359 5362 5364 5367 5370 5372 5375 5378 5380 5382 5385 5387 5390 5393 5395 5398 5401 5403 5406 5409 5412 5415 5418 5421 5424 5427 5429 5431 5433 5436 5439 5442 5444 5447 5450 5452 5455 5458 5461 5464 5467 5469 5472 5475 5477 5480 5482 5484 5487 5490 5492 5495 5498 5501 5504 5507 5509 5512 5515 5518 5520 5523 5526 5528 5531 5533 5535 5537 5539 5542 5545 5548 5551 5554 5556 5559 5561 5564 5566 5568 5571 5574 5577 5579 5582 5585 5588 5591 5594 5597 5600 5602 5605 5608 5611 5614 5617 5619 5622 5624 5626 5629 5632 5635 5637 5639 5642 5645 5648 5651 5654 5657 5660 5663 5666 5669 5672 5675 5678 5681 5684 5687 5690 5693 5696 5698 5701 5703 5705 5707 5710 5713 5716 5719 5722 5724 5727 5730 5733 5736 5739 5742 5745 5748 5751 5754 5756 5759 5762 5765 5768 5771 5774 5777 5779 5782 5784 5787 5790 5793 5796 5799 5802 5805 5808 5810 5813 5815 5818 5821 5824 5827 5830 5833 5836 5839 5841 5844 5847 5850 5853 5856 5859 5862 5865 5868 5871 5874 5877 5880 5883 5885 5888 5891 5894 5897 5900 5903 5906 5908 5911 5914 5916 5919 5922 5925 5928 5931 5934 5937 5940 5943 5946 5949 5952 5955 5958 5961 5964 5967 5970 5973 5976 5979 5982 5985 5988 5991 5993 5996 5999 6002 6005 6008 6011 6014 6017 6020 6023 6025 6028 6030 6033 6036 6039 6042 6045 6048 6051 6054 6057 6060 6063 6066 6069 6072 6075 6078 6081 6084 6086 6089 6092 6095 6098 6101 6103 6106 6109 6112 6115 6118 6121 6124 6127 6130 6133 6136 6139 6142 6144 6147 6149 6152 6155 6157 6159 6162 6164 6167 6170 6172 6175 6177 6180 6183 6185 6188 6191 6194 6197 6200 6203 6205 6207 6210 6212 6215 6218 6220 6223 6226 6229 6231 6234 6237 6239 6242 6245 6248 6251 6254 6257 6260 6263 6265 6268 6271 6274 6276 6279 6282 6285 6288 6291 6294 6297 6300 6303 6306 6309 6312 6314 6317 6319 6322 6325 6328 6331 6334 6336 6339 6342 6345 6348 6351 6354 6357 6360 6363 6366 6369 6372 6375 6378 6381 6384 6387 6390 6393 6396 6398 6401 6404 6407 6410 6413 6416 6419 6422 6424 6427 6430 6433 6436 6439 6442 6445 6448 6451 6453 6456 6459 6462 6465 6468 6471 6474 6477 6480 6482 6485 6487 6490 6493 6495 6498 6501 6503 6506 6508 6510 6513 6515 6518 6521 6524 6527 6530 6533 6535 6537 6540 6543 6546 6549 6552 6555 6558 6561 6564 6567 6570 6573 6576 6579 6581 6584 6587 6590 6593 6596 6599 6602 6605 6608 6611 6614 6616 6619 6622 6624 6627 6630 6633 6636 6639 6641 6644 6647 6649 6652 6655 6658 6661 6664 6667 6670 6673 6676 6679 6682 6684 6687 6690 6693 6696 6699 6701 6704 6707 6709 6712 6715 6718 6721 6723 6726 6729 6732 6735 6738 6741 6744 6747 6750 6753 6756 6759 6761 6764 6767 6770 6773 6776 6779 6782 6785 6788 6791 6793 6796 6799 6802 6805 6808 6811 6814 6817 6820 6823 6825 6828 6831 6833 6836 6839 6842 6845 6848 6851 6854 6857 6860 6863 6866 6869 6872 6875 6878 6881 6884 6886 6889 6891 6894 6897 6900 6902 6905 6907 6910 6913 6916 6919 6922 6925 6928 6931 6934 6937 6940 6942 6945 6948 6950 6953 6956 6958 6961 6964 6967 6970 6973 6976 6979 6981 6984 6986 6989 6992 6995 6998 7001 7004 7007 7010 7013 7016 7019 7022 7025 7028 7031 7034 7037 7040 7043 7045 7047 7050 7053 7056 7059 7062 7065 7067 7069 7072 7075 7078 7081 7084 7087 7090 7093 7096 7099 7101 7104 7107 7109 7111 7114 7117 7119 7122 7125 7127 7130 7133 7135 7138 7140 7143 7145 7148 7151 7154 7157 7160 7162 7165 7168 7171 7174 7177 7180 7183 7186 7188 7191 7194 7197 7200 7203 7206 7209 7212 7215 7218 7221 7224 7227 7230 7232 7235 7238 7241 7244 7246 7249 7252 7255 7258 7261 7264 7267 7270 7273 7276 7278 7281 7284 7287 7290 7293 7295 7298 7300 7303 7305 7307 7310 7313 7316 7318 7321 7324 7327 7329 7332 7335 7338 7341 7343 7346 7349 7352 7355 7358 7361 7363 7366 7369 7371 7374 7377 7380 7383 7386 7389 7392 7395 7398 7401 7404 7407 7409 7412 7415 7418 7420 7423 7426 7429 7432 7435 7438 7441 7444 7447 7449 7452 7455 7457 7460 7462 7465 7467 7470 7473 7476 7479 7482 7485 7488 7490 7493 7495 7498 7501 7504 7507 7510 7513 7515 7518 7521 7524 7526 7529 7532 7535 7538 7541 7544 7547 7550 7553 7556 7559 7562 7565 7568 7571 7574 7577 7580 7583 7586 7589 7592 7594 7597 7600 7603 7606 7609 7612 7614 7617 7620 7623 7626 7629 7631 7634 7636 7639 7642 7645 7648 7651 7654 7657 7660 7663 7665 7668 7671 7674 7677 7680 7682 7685 7688 7691 7694 7697 7700 7703 7706 7709 7712 7715 7718 7721 7724 7727 7730 7732 7735 7738 7741 7744 7746 7749 7752 7755 7758 7761 7764 7767 7770 7773 7775 7778 7781 7784 7787 7790 7793 7796 7799 7802 7805 7807 7810 7813 7816 7819 7822 7825 7828 7831 7834 7837 7840 7843 7846 7849 7852 7855 7858 7861 7864 7866 7869 7872 7874 7877 7880 7882 7885 7887 7890 7893 7896 7899 7902 7904 7907 7910 7913 7916 7919 7922 7925 7928 7931 7934 7937 7940 7943 7946 7949 7952 7954 7957 7960 7963 7966 7969 7972 7974 7977 7980 7983 7986 7989 7992 7994 7997 8000 8003 8006 8008 8011 8014 8017 8020 8023 8026 8028 8031 8034 8037 8040 8042 8045 8048 8051 8054 8057 8060 8063 8066 8069 8072 8075 8078 8081 8084 8087 8090 8093 8096 8098 8101 8104 8107 8110 8113 8116 8119 8122 8125 8128 8131 8134 8136 8138 8140 8143 8146 8149 8152 8155 8157 8160 8163 8166 8169 8172 8175 8177 8180 8183 8186 8188 8190 8193 8196 8199 8202 8205 8207 8210 8213 8216 8219 8221 8224 8227 8230 8233 8236 8239 8242 8244 8247 8250 8252 8255 8257 8260 8263 8266 8269 8272 8275 8278 8280 8283 8286 8289 8292 8295 8297 8300 8303 8306 8309 8312 8314 8316 8319 8322 8325 8328 8331 8334 8337 8340 8342 8345 8348 8351 8354 8357 8360 8363 8366 8369 8372 8375 8378 8381 8384 8387 8390 8393 8396 8399 8402 8405 8407 8410 8413 8416 8419 8422 8425 8428 8431 8434 8436 8439 8442 8445 8448 8451 8454 8457 8460 8463 8466 8469 8472 8475 8478 8481 8483 8486 8489 8492 8495 8498 8501 8504 8507 8510 8513 8516 8519 8522 8525 8528 8531 8534 8537 8540 8543 8546 8549 8552 8555 8558 8561 8564 8567 8570 8573 8576 8579 8582 8585 8587 8589 8592 8595 8598 8601 8604 8607 8610 8613 8616 8619 8621 8623 8626 8629 8632 8635 8637 8640 8643 8646 8649 8651 8654 8657 8660 8663 8666 8669 8671 8674 8677 8680 8683 8686 8689 8692 8694 8696 8699 8702 8705 8708 8710 8712 8715 8718 8721 8724 8727 8730 8733 8736 8738 8741 8744 8747 8750 8753 8756 8759 8762 8764 8767 8770 8773 8775 8778 8781 8784 8787 8789 8792 8795 8798 8801 8804 8806 8809 8812 8815 8818 8821 8824 8827 8830 8833 8836 8839 8842 8844 8847 8849 8852 8855 8858 8860 8863 8866 8868 8871 8874 8877 8879 8882 8884 8887 8890 8893 8896 8899 8902 8905 8908 8911 8914 8917 8920 8923 8926 8929 8932 8935 8938 8941 8944 8947 8949 8952 8955 8958 8961 8964 8966 8969 8972 8975 8978 8981 8984 8987 8990 8993 8995 8998 9001 9004 9007 9010 9013 9016 9019 9022 9025 9027 9030 9033 9036 9039 9041 9044 9047 9050 9053 9056 9059 9062 9065 9068 9071 9074 9077 9080 9083 9086 9089 9092 9095 9098 9100 9103 9106 9108 9111 9114 9116 9119 9121 9124 9127 9129 9132 9135 9137 9140 9143 9146 9149 9152 9155 9157 9160 9163 9166 9169 9172 9175 9178 9181 9184 9187 9189 9192 9195 9198 9201 9203 9206 9209 9212 9215 9218 9221 9224 9226 9229 9232 9235 9238 9241 9244 9246 9249 9252 9255 9258 9261 9264 9267 9270 9272 9275 9278 9281 9283 9286 9289 9292 9295 9298 9301 9303 9306 9309 9312 9315 9318 9321 9324 9327 9330 9333 9336 9338 9341 9344 9347 9350 9353 9356 9358 9361 9364 9367 9369 9372 9375 9378 9381 9383 9386 9388 9391 9393 9396 9399 9402 9405 9408 9411 9414 9417 9420 9423 9426 9429 9432 9435 9437 9440 9443 9446 9448 9451 9454 9457 9460 9463 9466 9469 9472 9475 9478 9481 9484 9487 9490 9493 9496 9499 9502 9505 9508 9511 9513 9516 9519 9522 9525 9528 9531 9534 9537 9540 9543 9546 9549 9551 9554 9557 9560 9562 9565 9568 9571 9574 9577 9579 9582 9584 9587 9590 9593 9595 9598 9601 9604 9607 9610 9613 9615 9618 9620 9623 9626 9629 9631 9633 9636 9639 9642 9645 9648 9651 9654 9657 9660 9663 9665 9667 9669 9672 9675 9678 9681 9683 9685 9687 9690 9693 9695 9697 9700 9703 9705 9708 9711 9714 9717 9720 9723 9725 9728 9731 9734 9737 9740 9743 9745 9748 9751 9754 9757 9760 9763 9765 9768 9771 9773 9776 9779 9782 9785 9788 9791 9794 9797 9800 9803 9805 9808 9811 9814 9817 9820 9823 9826 9829 9832 9835 9838 9841 9844 9846 9849 9852 9855 9858 9861 9864 9867 9869 9872 9875 9878 9880 9883 9886 9889 9892 9894 9897 9900 9903 9906 9909 9912 9915 9918 9920 9923 9925 9928 9931 9934 9936 9939 9941 9944 9947 9950 9953 9956 9959 9962 9965 9967 9970 9973 9976 9978 9980 9983 9986 9989 9992 9995 9997 9999 10002 10005 10008 10011 10014 10017 10020 10023 10025 10027 10030 10033 10036 10039 10042 10045 10048 10050 10053 10056 10059 10062 10065 10068 10071 10074 10076 10079 10082 10084 10087 10090 10093 10095 10098 10101 10104 10107 10109 10112 10115 10118 10121 10124 10127 10130 10133 10136 10139 10142 10144 10147 10150 10153 10156 10159 10162 10164 10167 10169 10172 10175 10177 10180 10183 10186 10189 10192 10195 10198 10200 10203 10206 10209 10212 10215 10218 10221 10223 10226 10228 10231 10233 10236 10239 10242 10244 10247 10250 10253 10256 10258 10260 10263 10266 10269 10271 10274 10277 10280 10282 10285 10288 10291 10293 10296 10299 10302 10305 10308 10311 10314 10317 10320 10323 10326 10329 10332 10335 10338 10341 10344 10347 10350 10353 10356 10359 10362 10365 10368 10371 10374 10377 10380 10383 10386 10388 10391 10394 10397 10400 10403 10406 10409 10412 10415 10418 10421 10424 10427 10430 10433 10436 10439 10442 10445 10448 10451 10454 10457 10460 10463 10466 10469 10472 10475 10477 10480 10483 10486 10489 10491 10493 10496 10499 10502 10505 10508 10511 10513 10516 10519 10522 10525 10528 10531 10534 10537 10540 10542 10545 10548 10551 10554 10557 10560 10563 10566 10569 10572 10575 10578 10581 10583 10586 10589 10592 10595 10598 10601 10604 10607 10610 10613 10616 10619 10622 10625 10628 10631 10634 10637 10639 10642 10645 10648 10650 10652 10655 10658 10660 10663 10666 10669 10671 10674 10677 10680 10682 10684 10687 10690 10693 10696 10698 10701 10704 10706 10708 10711 10714 10716 10719 10722 10725 10728 10731 10734 10737 10740 10743 10746 10749 10752 10755 10757 10760 10762 10765 10768 10771 10774 10777 10779 10782 10784 10787 10790 10793 10796 10799 10802 10805 10808 10811 10814 10817 10820 10823 10826 10829 10832 10835 10838 10841 10844 10846 10849 10852 10855 10858 10861 10864 10867 10870 10873 10876 10879 10882 10885 10888 10891 10894 10897 10900 10903 10906 10909 10912 10915 10918 10921 10924 10927 10929 10932 10935 10938 10941 10943 10946 10949 10952 10955 10958 10960 10963 10966 10969 10972 10975 10978 10981 10984 10986 10989 10992 10995 10998 11001 11004 11007 11010 11012 11015 11018 11021 11024 11026 11029 11032 11035 11038 11040 11043 11046 11049 11052 11055 11058 11060 11063 11066 11069 11071 11074 11077 11080 11083 11086 11088 11090 11093 11095 11098 11101 11103 11106 11109 11112 11115 11118 11121 11123 11126 11129 11132 11135 11138 11140 11143 11146 11149 11152 11155 11158 11161 11164 11167 11170 11173 11176 11179 11182 11185 11188 11191 11194 11197 11200 11203 11206 11208 11210 11213 11216 11219 11221 11224 11227 11230 11233 11236 11239 11241 11243 11246 11249 11252 11255 11258 11261 11264 11267 11270 11273 11276 11279 11282 11285 11288 11291 11294 11297 11300 11303 11306 11309 11312 11315 11318 11320 11323 11326 11329 11332 11335 11338 11341 11344 11347 11350 11353 11356 11359 11362 11365 11367 11370 11373 11376 11378 11381 11384 11387 11390 11393 11396 11399 11402 11405 11408 11410 11413 11416 11419 11422 11424 11427 11429 11432 11435 11437 11440 11443 11446 11449 11452 11455 11458 11461 11464 11467 11470 11473 11476 11479 11482 11484 11487 11490 11493 11496 11499 11502 11505 11508 11511 11514 11517 11520 11523 11526 11529 11532 11535 11538 11540 11543 11546 11549 11552 11555 11558 11560 11563 11566 11569 11572 11575 11578 11581 11584 11587 11590 11593 11596 11599 11602 11605 11608 11611 11614 11617 11620 11623 11626 11629 11631 11634 11637 11640 11643 11646 11649 11652 11655 11658 11660 11663 11666 11669 11672 11675 11677 11680 11683 11686 11688 11691 11694 11697 11700 11703 11706 11709 11712 11714 11717 11719 11722 11725 11728 11731 11734 11737 11740 11743 11745 11748 11750 11752 11754 11757 11760 11762 11765 11768 11770 11773 11776 11779 11782 11784 11786 11789 11792 11795 11798 11800 11802 11805 11807 11810 11813 11815 11818 11820 11823 11826 11829 11832 11835 11838 11841 11843 11845 11848 11850 11853 11856 11858 11861 11864 11866 11869 11872 11875 11878 11881 11884 11887 11890 11893 11895 11898 11901 11904 11906 11909 11912 11915 11918 11921 11924 11926 11929 11932 11935 11938 11940 11943 11946 11949 11952 11955 11958 11961 11964 11966 11969 11972 11975 11978 11981 11984 11987 11990 11993 11996 11999 12002 12005 12008 12011 12014 12017 12020 12023 12026 12029 12032 12035 12038 12041 12044 12047 12050 12053 12056 12058 12061 12064 12067 12070 12073 12076 12079 12082 12085 12088 12091 12094 12097 12100 12103 12106 12109 12112 12115 12118 12120 12123 12126 12128 12131 12134 12136 12139 12141 12144 12146 12149 12151 12153 12155 12158 12161 12164 12167 12170 12173 12175 12178 12180 12183 12186 12189 12192 12195 12197 12200 12202 12205 12207 12210 12213 12215 12218 12220 12222 12225 12227 12230 12233 12236 12238 12240 12242 12245 12248 12251 12253 12255 12258 12261 12263 12266 12268 12271 12274 12277 12280 12282 12285 12287 12290 12293 12296 12299 12302 12305 12308 12311 12314 12317 12320 12323 12326 12329 12332 12335 12338 12341 12344 12347 12350 12353 12355 12358 12361 12364 12367 12370 12373 12376 12379 12382 12385 12387 12390 12393 12396 12399 12402 12404 12407 12410 12413 12415 12418 12420 12423 12426 12428 12431 12434 12436 12438 12440 12443 12446 12449 12452 12455 12458 12461 12464 12467 12470 12473 12476 12479 12482 12485 12488 12491 12494 12497 12499 12501 12504 12507 12510 12513 12515 12518 12521 12523 12526 12529 12532 12535 12538 12540 12543 12546 12549 12552 12555 12558 12561 12563 12566 12569 12571 12574 12577 12580 12583 12586 12589 12592 12595 12598 12601 12604 12607 12610 12613 12616 12618 12621 12624 12627 12630 12633 12636 12639 12642 12644 12647 12650 12653 12656 12659 12662 12665 12668 12671 12673 12676 12679 12682 12685 12688 12691 12694 12697 12700 12703 12706 12709 12712 12715 12718 12721 12723 12726 12729 12732 12735 12738 12741 12743 12746 12749 12752 12754 12756 12759 12762 12765 12768 12770 12773 12776 12778 12781 12784 12787 12789 12792 12795 12798 12801 12804 12807 12810 12813 12816 12819 12822 12825 12828 12831 12834 12836 12839 12842 12845 12848 12851 12854 12857 12860 12863 12866 12869 12872 12875 12878 12881 12884 12887 12890 12893 12896 12899 12902 12905 12908 12911 12914 12916 12919 12922 12925 12927 12930 12932 12935 12938 12941 12944 12946 12949 12952 12955 12958 12961 12964 12967 12970 12973 12976 12979 12982 12985 12988 12991 12994 12997 13000 13003 13005 13008 13011 13014 13017 13019 13022 13025 13028 13031 13034 13037 13040 13042 13045 13048 13051 13054 13057 13060 13063 13066 13068 13071 13074 13077 13080 13083 13086 13089 13092 13095 13098 13101 13104 13107 13110 13112 13115 13118 13121 13124 13127 13129 13131 13134 13137 13139 13142 13145 13148 13150 13153 13155 13158 13161 13163 13166 13168 13171 13174 13177 13179 13181 13184 13186 13188 13190 13193 13196 13199 13202 13205 13208 13210 13213 13216 13219 13222 13225 13228 13231 13234 13237 13240 13243 13246 13249 13252 13254 13257 13260 13263 13265 13268 13271 13274 13277 13280 13283 13286 13289 13291 13294 13297 13299 13302 13304 13307 13310 13313 13316 13319 13322 13325 13327 13330 13332 13335 13338 13341 13344 13347 13350 13353 13356 13359 13362 13365 13368 13371 13374 13377 13380 13383 13386 13389 13392 13395 13398 13401 13404 13407 13410 13413 13416 13419 13422 13425 13428 13431 13434 13437 13440 13443 13446 13449 13452 13455 13458 13461 13463 13465 13468 13471 13474 13477 13480 13482 13485 13488 13491 13494 13497 13500 13502 13505 13507 13510 13513 13515 13518 13521 13524 13526 13529 13531 13534 13537 13540 13543 13546 13549 13552 13555 13558 13561 13564 13567 13570 13573 13576 13579 13582 13585 13588 13591 13594 13597 13600 13603 13606 13609 13612 13615 13618 13621 13624 13626 13628 13631 13633 13636 13639 13642 13645 13648 13650 13653 13656 13658 13660 13662 13665 13668 13671 13673 13676 13678 13680 13683 13686 13689 13692 13695 13697 13700 13702 13705 13707 13710 13713 13715 13718 13720 13722 13725 13727 13730 13733 13735 13738 13741 13743 13745 13748 13751 13753 13756 13759 13762 13764 13767 13770 13773 13776 13779 13782 13785 13788 13791 13794 13797 13800 13803 13806 13808 13811 13814 13817 13820 13822 13825 13828 13831 13833 13836 13839 13841 13844 13847 13850 13853 13856 13859 13862 13865 13868 13871 13873 13876 13879 13882 13884 13887 13890 13893 13895 13898 13901 13904 13907 13909 13912 13914 13917 13920 13922 13925 13928 13931 13934 13937 13939 13942 13945 13948 13951 13954 13957 13960 13963 13966 13969 13972 13975 13977 13980 13983 13986 13989 13992 13995 13998 14001 14004 14007 14010 14013 14016 14018 14020 14023 14026 14028 14031 14034 14036 14038 14041 14043 14045 14048 14051 14054 14057 14060 14063 14066 14069 14072 14074 14077 14080 14083 14085 14088 14090 14092 14095 14098 14100 14103 14106 14109 14111 14114 14117 14120 14122 14125 14128 14131 14134 14137 14140 14143 14146 14149 14151 14154 14157 14160 14163 14166 14169 14172 14174 14177 14180 14183 14186 14188 14190 14192 14195 14197 14200 14203 14206 14208 14211 14214 14217 14220 14223 14225 14228 14231 14234 14236 14239 14241 14244 14247 14250 14253 14256 14259 14261 14264 14266 14269 14272 14275 14278 14281 14284 14287 14289 14292 14294 14297 14299 14302 14305 14308 14311 14314 14317 14320 14322 14325 14328 14330 14333 14336 14339 14342 14345 14348 14351 14354 14356 14359 14362 14364 14367 14370 14373 14376 14379 14381 14384 14387 14390 14392 14395 14398 14401 14404 14407 14410 14413 14416 14419 14422 14425 14428 14431 14434 14436 14439 14442 14444 14447 14450 14453 14456 14458 14461 14464 14467 14469 14472 14474 14477 14480 14483 14486 14489 14492 14495 14498 14501 14504 14507 14510 14513 14516 14519 14522 14525 14528 14530 14533 14536 14539 14542 14545 14548 14551 14554 14557 14560 14563 14566 14569 14571 14574 14577 14580 14583 14586 14589 14592 14595 14598 14601 14604 14607 14610 14613 14616 14619 14622 14625 14628 14630 14633 14635 14638 14641 14643 14646 14648 14651 14654 14657 14659 14661 14664 14667 14669 14672 14675 14678 14681 14683 14686 14689 14692 14694 14697 14700 14702 14705 14708 14711 14714 14716 14719 14722 14725 14728 14731 14734 14737 14740 14743 14746 14749 14752 14755 14758 14761 14764 14767 14770 14773 14776 14779 14782 14785 14788 14791 14794 14796 14799 14802 14805 14808 14811 14813 14816 14819 14821 14824 14827 14830 14833 14836 14839 14842 14844 14846 14849 14852 14855 14857 14860 14863 14866 14868 14871 14874 14876 14879 14882 14885 14888 14890 14892 14894 14897 14900 14903 14906 14908 14910 14913 14915 14918 14920 14922 14924 14926 14929 14931 14934 14937 14940 14943 14946 14948 14951 14954 14957 14959 14962 14965 14968 14971 14974 14977 14980 14983 14986 14989 14992 14994 14997 15000 15003 15006 15008 15011 15013 15016 15019 15022 15025 15027 15030 15033 15036 15039 15042 15044 15047 15050 15053 15055 15058 15061 15063 15066 15069 15072 15075 15077 15080 15083 15085 15088 15091 15093 15096 15099 15102 15105 15108 15111 15114 15117 15120 15123 15126 15129 15132 15135 15138 15141 15143 15146 15149 15152 15155 15158 15161 15164 15167 15170 15173 15176 15179 15181 15183 15185 15188 15191 15194 15197 15200 15202 15204 15207 15210 15213 15216 15219 15222 15224 15226 15228 15231 15234 15237 15240 15242 15245 15248 15251 15254 15256 15259 15261 15264 15267 15270 15273 15275 15278 15281 15284 15287 15290 15293 15296 15299 15302 15305 15308 15311 15314 15317 15320 15323 15326 15329 15332 15335 15338 15341 15344 15347 15350 15352 15355 15358 15361 15363 15366 15369 15371 15374 15376 15379 15382 15385 15388 15390 15392 15395 15397 15400 15402 15405 15408 15411 15414 15416 15419 15421 15424 15427 15430 15432 15435 15438 15441 15444 15447 15450 15453 15456 15459 15462 15465 15468 15470 15473 15476 15478 15481 15484 15487 15489 15492 15494 15497 15500 15503 15506 15509 15511 15514 15517 15520 15523 15526 15529 15532 15535 15538 15541 15544 15547 15550 15553 15556 15559 15561 15564 15567 15570 15573 15575 15578 15581 15584 15587 15590 15593 15596 15599 15602 15605 15608 15611 15614 15617 15620 15623 15626 15629 15631 15634 15637 15640 15643 15646 15648 15651 15654 15656 15659 15662 15664 15667 15670 15673 15676 15678 15681 15683 15686 15689 15692 15695 15698 15701 15704 15707 15710 15713 15716 15719 15722 15724 15727 15730 15733 15736 15739 15741 15744 15747 15750 15753 15756 15759 15762 15765 15768 15771 15774 15777 15780 15782 15785 15788 15791 15793 15796 15798 15801 15804 15807 15809 15812 15815 15818 15821 15824 15827 15830 15833 15836 15839 15842 15845 15848 15850 15853 15856 15859 15862 15865 15868 15871 15874 15877 15880 15883 15886 15889 15892 15895 15898 15901 15903 15905 15908 15911 15913 15916 15919 15922 15925 15927 15930 15933 15936 15938 15940 15943 15946 15948 15951 15954 15957 15960 15963 15966 15969 15972 15975 15978 15981 15984 15986 15989 15991 15994 15997 15999 16001 16003 16006 16009 16011 16014 16017 16020 16023 16026 16028 16031 16033 16036 16038 16041 16043 16046 16049 16052 16055 16058 16060 16063 16065 16068 16071 16074 16077 16079 16082 16085 16087 16089 16091 16094 16097 16099 16102 16105 16108 16111 16114 16116 16119 16122 16125 16128 16131 16134 16137 16140 16143 16146 16149 16151 16153 16156 16158 16161 16164 16167 16169 16172 16175 16178 16180 16182 16185 16188 16190 16193 16195 16198 16201 16204 16206 16209 16212 16215 16218 16221 16223 16225 16228 16230 16233 16236 16239 16242 16245 16248 16251 16254 16257 16260 16263 16266 16268 16271 16274 16277 16279 16282 16285 16288 16291 16294 16297 16300 16303 16306 16309 16311 16314 16317 16320 16323 16326 16329 16332 16335 16338 16341 16343 16346 16349 16352 16355 16358 16361 16364 16367 16369 16372 16374 16377 16380 16383 16386 16388 16390 16393 16396 16398 16401 16404 16406 16409 16411 16414 16417 16420 16423 16426 16428 16431 16434 16437 16440 16443 16446 16449 16452 16454 16457 16460 16463 16466 16468 16471 16473 16475 16478 16481 16484 16487 16490 16493 16495 16498 16500 16503 16506 16509 16512 16514 16517 16519 16522 16524 16527 16530 16533 16535 16538 16541 16544 16547 16550 16552 16554 16556 16559 16561 16564 16567 16570 16573 16576 16578 16581 16584 16587 16590 16593 16596 16599 16602 16605 16608 16611 16614 16617 16620 16623 16626 16629 16632 16635 16638 16641 16643 16646 16649 16652 16655 16658 16661 16664 16666 16669 16672 16674 16677 16680 16683 16686 16689 16692 16695 16698 16701 16703 16706 16709 16712 16715 16718 16721 16723 16726 16729 16732 16734 16737 16740 16743 16746 16749 16752 16755 16758 16760 16763 16766 16769 16771 16774 16777 16780 16783 16786 16789 16791 16794 16796 16799 16802 16804 16807 16810 16813 16815 16818 16821 16824 16827 16830 16832 16835 16837 16840 16842 16844 16847 16850 16853 16855 16858 16861 16863 16865 16868 16870 16873 16875 16878 16881 16884 16886 16889 16892 16895 16898 16901 16904 16906 16909 16912 16915 16918 16921 16923 16925 16928 16931 16934 16937 16940 16943 16946 16948 16951 16953 16956 16958 16961 16964 16967 16969 16972 16975 16978 16981 16984 16987 16989 16992 16994 16997 17000 17003 17005 17008 17011 17014 17017 17020 17023 17026 17029 17032 17035 17038 17040 17043 17046 17049 17052 17055 17058 17061 17064 17067 17070 17073 17076 17079 17081 17084 17087 17089 17092 17095 17098 17101 17104 17107 17110 17113 17116 17119 17122 17125 17128 17131 17133 17136 17139 17142 17145 17147 17150 17153 17156 17159 17162 17165 17168 17171 17174 17177 17180 17182 17185 17188 17191 17194 17197 17200 17203 17206 17208 17210 17213 17216 17219 17222 17225 17228 17230 17233 17236 17238 17241 17244 17247 17250 17253 17256 17259 17262 17265 17268 17271 17274 17277 17280 17283 17286 17289 17292 17295 17298 17301 17304 17306 17309 17311 17314 17317 17320 17323 17326 17329 17332 17335 17338 17341 17344 17347 17349 17352 17355 17358 17361 17364 17367 17370 17373 17376 17379 17382 17385 17388 17391 17394 17397 17400 17403 17406 17409 17411 17414 17417 17420 17422 17425 17428 17431 17434 17437 17439 17442 17445 17448 17451 17453 17456 17459 17462 17464 17467 17470 17473 17475 17478 17480 17483 17485 17487 17490 17493 17496 17499 17502 17505 17508 17510 17512 17515 17517 17519 17521 17524 17526 17528 17530 17533 17536 17539 17542 17545 17548 17551 17554 17557 17560 17563 17566 17569 17572 17574 17577 17580 17583 17585 17588 17591 17594 17597 17599 17602 17605 17607 17609 17612 17614 17617 17620 17623 17626 17628 17630 17632 17635 17638 17641 17644 17647 17650 17653 17656 17658 17661 17664 17667 17670 17673 17676 17678 17681 17684 17687 17690 17693 17695 17698 17700 17703 17705 17708 17711 17714 17717 17720 17722 17725 17728 17730 17733 17736 17739 17742 17744 17747 17750 17752 17755 17758 17761 17764 17767 17770 17773 17775 17778 17780 17783 17785 17788 17790 17793 17796 17798 17801 17804 17807 17810 17813 17815 17817 17820 17823 17826 17829 17832 17834 17837 17840 17842 17845 17848 17851 17854 17857 17859 17862 17865 17868 17871 17874 17877 17880 17883 17885 17888 17891 17894 17897 17900 17902 17905 17908 17911 17914 17917 17920 17922 17925 17928 17931 17934 17937 17939 17942 17945 17948 17951 17954 17957 17960 17963 17966 17969 17972 17975 17978 17981 17984 17987 17989 17992 17995 17997 18000 18003 18005 18008 18010 18013 18016 18019 18022 18025 18028 18031 18034 18036 18039 18042 18045 18047 18049 18052 18054 18057 18059 18062 18064 18067 18070 18073 18075 18078 18081 18084 18087 18089 18091 18094 18097 18100 18103 18105 18108 18111 18114 18117 18120 18123 18125 18128 18130 18132 18135 18138 18141 18143 18146 18149 18152 18155 18158 18160 18162 18165 18167 18169 18172 18174 18177 18180 18182 18185 18187 18190 18193 18196 18198 18201 18204 18207 18210 18213 18216 18219 18222 18225 18228 18231 18234 18237 18239 18242 18244 18246 18249 18252 18254 18257 18260 18263 18265 18268 18271 18274 18277 18280 18282 18284 18287 18289 18292 18295 18298 18300 18303 18306 18309 18311 18314 18317 18320 18322 18325 18328 18330 18333 18336 18338 18341 18344 18347 18350 18353 18356 18359 18362 18365 18367 18370 18373 18376 18379 18382 18385 18388 18391 18394 18396 18399 18402 18405 18407 18409 18412 18415 18418 18421 18424 18427 18430 18433 18436 18439 18441 18444 18447 18449 18451 18453 18456 18459 18462 18465 18468 18471 18474 18477 18480 18483 18486 18489 18492 18495 18497 18500 18503 18506 18509 18511 18514 18516 18519 18521 18524 18527 18530 18533 18536 18539 18542 18545 18548 18551 18554 18557 18560 18563 18566 18569 18572 18575 18578 18581 18584 18587 18590 18593 18596 18599 18602 18605 18608 18611 18614 18617 18619 18622 18625 18628 18631 18634 18637 18640 18643 18646 18649 18652 18654 18657 18660 18663 18666 18669 18672 18675 18678 18681 18684 18687 18689 18692 18695 18698 18701 18703 18706 18709 18712 18714 18717 18720 18723 18725 18728 18730 18733 18735 18737 18740 18743 18746 18749 18752 18755 18758 18761 18764 18767 18770 18773 18776 18779 18781 18784 18787 18790 18793 18796 18799 18802 18805 18807 18809 18812 18815 18818 18821 18824 18827 18829 18832 18835 18838 18841 18844 18847 18849 18851 18854 18857 18859 18861 18864 18867 18870 18873 18876 18878 18881 18884 18887 18890 18893 18895 18898 18900 18903 18906 18909 18912 18915 18917 18920 18922 18925 18927 18930 18933 18936 18939 18942 18945 18947 18949 18951 18954 18956 18959 18961 18964 18967 18970 18973 18975 18978 18981 18984 18987 18990 18993 18995 18998 19001 19004 19007 19010 19013 19016 19019 19022 19025 19028 19031 19034 19036 19039 19042 19045 19048 19051 19053 19056 19059 19062 19065 19068 19071 19073 19076 19079 19081 19083 19086 19089 19092 19095 19098 19101 19104 19107 19110 19113 19115 19118 19121 19124 19127 19130 19133 19136 19139 19142 19145 19148 19151 19154 19156 19159 19162 19165 19168 19171 19174 19177 19179 19182 19185 19188 19191 19193 19195 19197 19200 19202 19205 19208 19211 19213 19216 19219 19221 19224 19227 19230 19233 19236 19239 19242 19245 19247 19250 19253 19255 19258 19261 19264 19267 19269 19272 19275 19278 19281 19284 19287 19290 19292 19295 19297 19300 19302 19305 19308 19311 19313 19315 19318 19321 19324 19326 19329 19331 19334 19337 19340 19342 19345 19348 19351 19353 19356 19359 19362 19365 19368 19370 19373 19376 19379 19382 19385 19388 19390 19392 19395 19398 19400 19403 19406 19409 19412 19414 19416 19419 19422 19424 19427 19429 19432 19435 19437 19439 19442 19445 19448 19451 19454 19456 19459 19462 19465 19468 19471 19474 19476 19479 19481 19484 19487 19490 19493 19496 19499 19502 19505 19508 19511 19514 19517 19520 19523 19526 19528 19531 19533 19536 19539 19542 19545 19548 19551 19553 19556 19558 19561 19563 19566 19569 19572 19574 19576 19579 19582 19585 19588 19591 19594 19597 19600 19603 19606 19608 19611 19614 19617 19620 19623 19626 19629 19632 19635 19638 19641 19644 19647 19650 19653 19656 19659 19662 19665 19668 19671 19674 19677 19680 19683 19686 19689 19692 19695 19698 19701 19704 19707 19710 19713 19716 19719 19722 19725 19728 19731 19734 19737 19740 19743 19746 19749 19752 19755 19758 19761 19764 19767 19770 19773 19776 19779 19782 19785 19788 19791 19794 19797 19800 19803 19806 19809 19811 19813 19816 19819 19822 19825 19828 19831 19834 19837 19839 19842 19845 19847 19850 19853 19855 19858 19861 19864 19867 19870 19873 19875 19878 19881 19883 19886 19889 19892 19895 19898 19901 19904 19907 19910 19913 19915 19918 19921 19924 19927 19930 19933 19936 19939 19941 19944 19947 19950 19953 19956 19959 19962 19965 19968 19971 19974 19977 19979 19982 19985 19988 19991 19994 19997 20000 20003 20006 20008 20011 20014 20017 20019 20022 20025 20028 20031 20034 20037 20040 20043 20045 20048 20051 20054 20057 20060 20063 20066 20069 20072 20075 20078 20081 20084 20087 20090 20093 20096 20099 20102 20105 20108 20111 20113 20116 20119 20122 20125 20128 20131 20134 20137 20140 20143 20146 20149 20151 20153 20156 20158 20161 20164 20167 20170 20173 20176 20179 20182 20184 20187 20190 20193 20196 20199 20202 20205 20208 20211 20214 20217 20220 20223 20226 20229 20232 20235 20238 20241 20243 20246 20249 20252 20255 20258 20261 20263 20266 20269 20272 20275 20278 20281 20284 20287 20289 20292 20295 20298 20301 20304 20307 20310 20313 20316 20319 20322 20325 20327 20330 20332 20335 20338 20341 20343 20346 20349 20352 20355 20358 20361 20364 20366 20369 20372 20375 20378 20381 20384 20387 20390 20393 20396 20399 20401 20404 20407 20410 20413 20416 20418 20421 20424 20426 20429 20432 20435 20438 20441 20444 20447 20450 20452 20455 20458 20461 20464 20467 20470 20473 20476 20479 20481 20484 20486 20489 20492 20495 20498 20501 20504 20507 20510 20513 20516 20519 20522 20525 20528 20531 20534 20536 20538 20541 20544 20547 20550 20553 20556 20558 20561 20563 20566 20569 20572 20575 20578 20581 20584 20587 20590 20592 20595 20598 20601 20604 20607 20610 20613 20616 20618 20621 20624 20627 20630 20632 20634 20637 20640 20643 20646 20649 20652 20655 20658 20661 20664 20667 20670 20673 20676 20679 20682 20685 20688 20691 20694 20697 20700 20702 20705 20708 20711 20713 20716 20719 20722 20725 20728 20731 20734 20737 20739 20742 20745 20748 20751 20753 20756 20759 20762 20764 20767 20770 20773 20776 20779 20782 20784 20787 20790 20793 20796 20799 20802 20805 20808 20811 20814 20817 20820 20823 20826 20828 20831 20834 20837 20840 20843 20846 20849 20852 20854 20857 20860 20863 20865 20868 20871 20874 20877 20879 20882 20885 20888 20891 20894 20897 20900 20903 20906 20909 20912 20914 20916 20919 20921 20924 20927 20929 20932 20935 20938 20941 20944 20947 20950 20953 20956 20959 20962 20965 20968 20971 20974 20977 20980 20983 20986 20989 20992 20995 20998 21000 21003 21006 21009 21012 21015 21018 21021 21024 21027 21030 21033 21036 21039 21042 21045 21048 21051 21054 21057 21060 21063 21066 21069 21072 21075 21078 21081 21084 21087 21090 21093 21096 21099 21102 21105 21108 21111 21114 21117 21120 21123 21126 21129 21132 21135 21138 21141 21144 21147 21150 21153 21155 21158 21161 21164 21167 21170 21173 21176 21179 21182 21184 21187 21190 21193 21196 21199 21202 21205 21208 21211 21213 21216 21219 21222 21225 21228 21231 21234 21237 21240 21243 21246 21248 21250 21253 21256 21259 21262 21265 21267 21270 21272 21275 21278 21280 21283 21286 21288 21291 21294 21297 21300 21303 21306 21309 21312 21315 21318 21320 21323 21326 21329 21332 21335 21338 21341 21344 21347 21350 21353 21356 21359 21362 21365 21368 21371 21374 21377 21380 21383 21386 21389 21392 21395 21398 21401 21403 21405 21408 21410 21412 21415 21418 21421 21424 21427 21430 21433 21436 21439 21442 21445 21448 21451 21454 21457 21460 21463 21465 21468 21470 21473 21475 21478 21481 21484 21487 21490 21493 21496 21498 21500 21503 21505 21508 21511 21514 21517 21520 21523 21526 21529 21531 21534 21537 21540 21543 21546 21549 21552 21555 21558 21561 21563 21566 21569 21572 21575 21578 21581 21584 21587 21590 21593 21596 21599 21602 21604 21607 21610 21613 21616 21619 21622 21625 21627 21630 21633 21635 21638 21641 21644 21647 21650 21653 21656 21658 21661 21663 21666 21669 21671 21674 21677 21680 21683 21685 21688 21691 21694 21697 21700 21703 21706 21709 21712 21715 21718 21721 21724 21727 21729 21732 21734 21736 21739 21742 21744 21747 21750 21753 21756 21758 21761 21764 21767 21770 21773 21776 21779 21782 21784 21787 21789 21792 21795 21798 21801 21804 21807 21810 21813 21816 21818 21821 21824 21826 21829 21832 21834 21837 21840 21843 21846 21849 21852 21854 21856 21859 21862 21864 21867 21869 21872 21875 21878 21881 21884 21887 21890 21893 21896 21899 21902 21905 21907 21910 21913 21916 21919 21921 21924 21927 21930 21933 21936 21939 21942 21945 21948 21951 21954 21957 21960 21963 21966 21969 21972 21975 21978 21981 21983 21986 21989 21992 21994 21997 22000 22003 22006 22008 22011 22014 22016 22019 22022 22024 22026 22029 22032 22035 22038 22041 22044 22047 22050 22053 22056 22059 22062 22065 22068 22071 22074 22077 22079 22082 22085 22088 22091 22094 22097 22100 22103 22106 22108 22111 22113 22116 22119 22121 22123 22126 22129 22132 22135 22138 22141 22144 22146 22149 22152 22155 22157 22160 22163 22166 22168 22171 22173 22175 22178 22181 22184 22187 22190 22193 22196 22199 22202 22205 22208 22211 22214 22217 22220 22222 22225 22228 22231 22234 22237 22240 22242 22245 22248 22250 22253 22256 22259 22261 22264 22267 22270 22273 22276 22279 22282 22285 22288 22291 22294 22297 22300 22303 22306 22309 22312 22315 22318 22321 22324 22327 22330 22333 22336 22339 22342 22345 22348 22351 22354 22356 22359 22362 22365 22368 22371 22374 22376 22379 22382 22385 22388 22391 22394 22397 22400 22403 22406 22409 22412 22414 22417 22419 22422 22425 22428 22431 22434 22437 22440 22443 22446 22449 22452 22455 22458 22461 22464 22466 22469 22472 22475 22478 22481 22484 22487 22490 22493 22496 22499 22502 22505 22508 22511 22514 22517 22520 22523 22526 22529 22532 22535 22537 22540 22543 22546 22549 22552 22555 22558 22561 22564 22567 22570 22573 22576 22579 22582 22585 22588 22591 22594 22597 22600 22603 22606 22609 22612 22615 22618 22621 22624 22627 22630 22633 22635 22638 22641 22644 22647 22650 22653 22656 22658 22661 22664 22667 22670 22672 22675 22678 22681 22684 22687 22689 22692 22695 22698 22701 22704 22707 22710 22713 22716 22718 22721 22723 22726 22729 22732 22735 22738 22741 22744 22747 22750 22753 22756 22759 22762 22764 22767 22770 22772 22775 22777 22780 22782 22785 22788 22791 22794 22797 22800 22803 22806 22809 22812 22815 22818 22821 22824 22827 22830 22833 22836 22839 22842 22845 22848 22851 22854 22857 22860 22863 22866 22869 22872 22875 22877 22880 22883 22886 22889 22892 22895 22898 22901 22904 22907 22910 22913 22916 22919 22922 22925 22928 22931 22934 22937 22940 22942 22945 22948 22951 22954 22957 22960 22962 22965 22968 22970 22973 22976 22979 22982 22984 22987 22990 22993 22996 22999 23001 23004 23007 23010 23013 23016 23019 23022 23025 23028 23031 23034 23037 23040 23043 23046 23049 23052 23055 23058 23060 23063 23066 23068 23071 23074 23077 23080 23083 23086 23089 23092 23094 23097 23100 23103 23105 23108 23111 23114 23117 23120 23123 23125 23127 23129 23132 23135 23138 23141 23144 23147 23150 23153 23156 23159 23162 23165 23167 23170 23173 23176 23179 23182 23185 23188 23191 23194 23197 23200 23203 23206 23209 23212 23215 23218 23221 23224 23227 23230 23233 23236 23239 23242 23245 23248 23251 23254 23257 23259 23262 23265 23268 23271 23274 23277 23280 23283 23286 23289 23292 23294 23297 23300 23303 23305 23307 23310 23313 23316 23319 23322 23324 23326 23328 23331 23334 23336 23339 23342 23344 23347 23350 23353 23356 23359 23362 23365 23368 23371 23374 23377 23380 23382 23385 23388 23391 23394 23397 23400 23403 23406 23409 23412 23415 23418 23421 23424 23427 23430 23432 23435 23438 23441 23444 23447 23450 23452 23455 23458 23461 23464 23467 23470 23472 23474 23477 23479 23481 23484 23487 23490 23493 23496 23499 23502 23505 23508 23511 23513 23516 23518 23520 23522 23525 23528 23531 23534 23537 23540 23543 23546 23549 23551 23554 23557 23560 23563 23566 23569 23572 23575 23577 23580 23583 23586 23589 23592 23594 23597 23600 23603 23606 23609 23612 23615 23618 23621 23624 23627 23630 23633 23636 23639 23642 23645 23648 23651 23654 23657 23660 23663 23666 23669 23671 23674 23677 23680 23683 23686 23689 23692 23695 23698 23701 23704 23707 23710 23713 23715 23718 23721 23724 23726 23729 23731 23733 23736 23739 23741 23744 23747 23750 23753 23756 23759 23762 23765 23768 23771 23774 23777 23780 23783 23786 23789 23792 23794 23797 23800 23803 23806 23809 23811 23814 23817 23820 23822 23825 23827 23830 23833 23836 23839 23842 23845 23847 23849 23852 23855 23858 23860 23862 23865 23868 23871 23873 23875 23878 23881 23884 23887 23890 23892 23894 23897 23899 23902 23905 23908 23911 23914 23917 23920 23923 23926 23928 23931 23934 23937 23940 23943 23946 23949 23952 23955 23958 23961 23964 23966 23968 23971 23974 23977 23980 23983 23986 23988 23991 23994 23997 24000 24002 24005 24008 24011 24014 24017 24019 24022 24025 24028 24031 24034 24037 24040 24043 24046 24049 24051 24054 24057 24059 24062 24065 24067 24070 24073 24076 24079 24082 24085 24088 24090 24093 24096 24099 24101 24104 24107 24110 24113 24116 24119 24122 24125 24128 24131 24134 24137 24140 24143 24145 24147 24150 24153 24156 24159 24161 24164 24167 24170 24173 24176 24179 24182 24185 24188 24191 24193 24196 24199 24201 24204 24207 24209 24211 24214 24217 24220 24223 24226 24228 24230 24233 24235 24238 24241 24244 24247 24250 24253 24255 24258 24261 24264 24266 24268 24271 24274 24276 24279 24282 24285 24287 24290 24293 24296 24298 24301 24303 24306 24309 24311 24313 24316 24319 24321 24323 24326 24329 24332 24335 24338 24341 24344 24347 24349 24352 24354 24357 24359 24362 24364 24367 24370 24373 24376 24379 24382 24385 24388 24391 24394 24397 24400 24403 24406 24408 24411 24414 24417 24420 24422 24425 24428 24431 24433 24436 24439 24442 24444 24447 24450 24453 24456 24459 24461 24464 24467 24470 24473 24475 24478 24481 24484 24487 24490 24492 24495 24498 24501 24504 24506 24509 24512 24515 24518 24521 24523 24526 24529 24532 24535 24538 24541 24544 24547 24550 24553 24556 24558 24561 24564 24567 24569 24572 24575 24578 24581 24584 24587 24590 24593 24596 24598 24601 24604 24607 24610 24612 24615 24618 24620 24623 24626 24629 24632 24635 24638 24641 24644 24647 24650 24653 24656 24659 24662 24665 24668 24671 24674 24677 24680 24682 24685 24688 24691 24694 24697 24699 24702 24705 24708 24711 24714 24717 24720 24723 24726 24729 24732 24735 24738 24741 24743 24746 24749 24752 24755 24758 24761 24763 24766 24769 24772 24775 24778 24781 24784 24786 24788 24791 24794 24797 24800 24802 24805 24807 24810 24813 24816 24819 24822 24825 24828 24830 24833 24836 24839 24842 24844 24847 24850 24853 24856 24859 24862 24865 24868 24871 24874 24877 24880 24882 24885 24888 24891 24894 24897 24900 24903 24906 24909 24912 24915 24918 24921 24924 24927 24930 24933 24936 24939 24942 24945 24948 24951 24954 24957 24960 24963 24966 24969 24972 24975 24978 24981 24984 24987 24990 24993 24996 24999 25002 25005 25008 25011 25014 25017 25020 25023 25026 25029 25032 25035 25038 25041 25044 25047 25050 25053 25056 25059 25062 25065 25068 25071 25074 25077 25080 25083 25086 25089 25092 25095 25098 25100 25103 25105 25108 25111 25114 25117 25119 25122 25125 25127 25130 25133 25135 25138 25141 25144 25147 25149 25152 25155 25158 25161 25164 25167 25170 25173 25176 25179 25182 25185 25188 25191 25194 25197 25200 25203 25206 25209 25212 25215 25217 25220 25223 25226 25228 25231 25234 25237 25240 25242 25245 25248 25251 25254 25257 25260 25262 25265 25268 25271 25274 25277 25280 25283 25286 25289 25292 25295 25298 25301 25304 25307 25310 25313 25316 25319 25322 25325 25328 25331 25334 25337 25340 25343 25346 25349 25352 25355 25358 25361 25364 25367 25369 25372 25375 25377 25380 25383 25386 25388 25391 25394 25397 25400 25403 25406 25408 25411 25414 25417 25420 25423 25426 25429 25431 25434 25437 25440 25443 25446 25449 25452 25455 25458 25461 25463 25466 25469 25472 25475 25477 25479 25482 25485 25488 25491 25494 25497 25499 25502 25504 25507 25509 25512 25515 25518 25521 25524 25527 25530 25533 25535 25537 25540 25543 25546 25549 25552 25555 25558 25561 25564 25567 25570 25573 25576 25579 25582 25585 25588 25591 25594 25597 25600 25603 25606 25609 25612 25615 25618 25621 25624 25627 25630 25633 25636 25639 25642 25645 25648 25651 25654 25657 25660 25663 25666 25669 25672 25675 25678 25681 25684 25687 25690 25693 25696 25699 25702 25705 25708 25710 25713 25716 25719 25722 25725 25728 25731 25734 25736 25739 25742 25744 25747 25749 25752 25754 25757 25760 25763 25766 25769 25772 25775 25777 25780 25783 25786 25789 25792 25794 25797 25800 25803 25806 25808 25811 25814 25817 25820 25823 25826 25829 25832 25835 25838 25840 25843 25846 25849 25852 25855 25858 25861 25864 25867 25870 25873 25876 25878 25881 25884 25886 25889 25891 25894 25897 25900 25903 25905 25908 25911 25914 25917 25919 25922 25925 25927 25930 25933 25936 25938 25940 25943 25946 25949 25952 25955 25958 25961 25964 25966 25969 25972 25975 25978 25981 25984 25986 25989 25991 25993 25996 25999 26001 26003 26006 26008 26011 26014 26016 26019 26022 26025 26028 26030 26033 26036 26039 26042 26045 26047 26050 26053 26056 26059 26062 26065 26068 26071 26074 26077 26080 26083 26086 26089 26092 26094 26096 26099 26101 26104 26107 26109 26112 26115 26118 26121 26123 26126 26129 26132 26135 26138 26141 26144 26146 26149 26152 26155 26158 26161 26164 26166 26169 26172 26175 26178 26180 26183 26185 26188 26191 26194 26197 26200 26203 26206 26208 26210 26213 26216 26219 26222 26225 26228 26231 26234 26237 26240 26243 26245 26248 26251 26254 26257 26260 26263 26265 26268 26270 26273 26276 26279 26282 26284 26286 26289 26292 26295 26298 26300 26303 26305 26308 26311 26314 26317 26320 26323 26325 26327 26330 26332 26334 26337 26340 26343 26346 26349 26352 26355 26357 26360 26363 26366 26369 26372 26375 26378 26381 26384 26387 26389 26392 26395 26398 26401 26404 26407 26410 26413 26416 26418 26421 26424 26427 26430 26433 26436 26439 26442 26445 26448 26451 26454 26457 26460 26463 26465 26468 26471 26474 26477 26480 26483 26486 26489 26491 26494 26497 26499 26501 26504 26507 26510 26513 26516 26519 26522 26524 26527 26530 26533 26536 26538 26541 26544 26547 26550 26553 26556 26558 26560 26563 26566 26569 26572 26575 26578 26581 26584 26586 26589 26592 26595 26598 26600 26603 26606 26609 26611 26614 26617 26620 26622 26625 26627 26629 26632 26635 26638 26640 26643 26646 26649 26651 26654 26656 26658 26660 26663 26666 26669 26671 26673 26675 26678 26681 26683 26685 26688 26690 26693 26696 26699 26702 26704 26707 26710 26712 26715 26718 26721 26723 26726 26729 26731 26733 26736 26739 26742 26745 26748 26751 26754 26757 26760 26763 26766 26769 26772 26775 26777 26780 26782 26785 26788 26791 26794 26797 26800 26802 26805 26807 26809 26812 26815 26817 26820 26823 26825 26828 26830 26833 26835 26838 26841 26844 26846 26849 26851 26854 26856 26859 26861 26864 26867 26870 26872 26875 26878 26881 26884 26887 26890 26892 26895 26897 26900 26903 26905 26908 26911 26914 26917 26920 26923 26926 26928 26931 26933 26936 26939 26942 26945 26948 26951 26954 26957 26960 26963 26966 26968 26971 26974 26977 26980 26983 26986 26989 26992 26995 26998 27001 27004 27007 27010 27012 27015 27018 27021 27024 27027 27030 27033 27036 27039 27042 27045 27048 27051 27054 27057 27060 27063 27066 27069 27072 27075 27078 27081 27084 27087 27090 27093 27096 27099 27102 27105 27108 27111 27114 27117 27120 27123 27126 27129 27132 27135 27138 27141 27144 27147 27150 27153 27156 27159 27162 27165 27168 27171 27174 27177 27180 27183 27186 27188 27191 27194 27196 27198 27201 27204 27207 27210 27213 27216 27219 27222 27225 27228 27231 27234 27236 27239 27242 27245 27248 27251 27253 27255 27258 27261 27264 27266 27268 27271 27274 27277 27280 27283 27286 27288 27291 27294 27297 27300 27303 27306 27309 27312 27314 27317 27320 27323 27326 27329 27332 27335 27338 27341 27344 27347 27350 27352 27355 27358 27360 27363 27366 27369 27371 27374 27377 27380 27383 27386 27389 27392 27395 27398 27401 27403 27406 27409 27412 27414 27417 27419 27422 27425 27428 27431 27434 27437 27440 27443 27446 27449 27452 27455 27458 27461 27464 27467 27470 27472 27475 27478 27481 27484 27487 27490 27493 27496 27499 27502 27505 27508 27511 27514 27517 27520 27522 27525 27528 27531 27534 27537 27539 27542 27545 27548 27551 27554 27557 27559 27562 27565 27567 27570 27573 27576 27579 27582 27585 27588 27591 27594 27597 27600 27603 27606 27609 27612 27615 27618 27621 27624 27627 27630 27633 27636 27639 27642 27645 27648 27651 27654 27657 27660 27663 27666 27669 27672 27675 27678 27680 27683 27686 27688 27691 27694 27697 27700 27702 27705 27708 27711 27714 27717 27720 27723 27726 27729 27732 27735 27737 27740 27743 27746 27749 27752 27755 27758 27761 27764 27767 27770 27773 27776 27779 27782 27785 27788 27791 27794 27797 27800 27803 27806 27809 27811 27814 27817 27820 27823 27826 27828 27831 27834 27837 27840 27843 27846 27849 27852 27855 27858 27861 27864 27866 27869 27872 27875 27878 27881 27884 27886 27889 27892 27895 27898 27901 27904 27907 27910 27912 27915 27917 27920 27923 27926 27929 27932 27935 27938 27941 27944 27947 27950 27953 27956 27959 27962 27965 27968 27971 27974 27976 27979 27982 27985 27988 27991 27994 27996 27998 28001 28004 28007 28010 28013 28016 28019 28022 28025 28028 28031 28034 28037 28040 28043 28046 28049 28052 28055 28058 28060 28063 28065 28068 28071 28074 28077 28079 28082 28085 28088 28091 28094 28097 28100 28103 28106 28109 28112 28114 28117 28120 28123 28125 28128 28131 28134 28137 28140 28143 28146 28149 28152 28155 28158 28161 28163 28166 28169 28172 28175 28178 28181 28184 28186 28189 28192 28195 28198 28200 28203 28206 28209 28212 28215 28217 28220 28223 28226 28228 28231 28234 28237 28240 28243 28246 28249 28252 28255 28258 28261 28264 28267 28270 28273 28276 28279 28282 28285 28288 28291 28294 28297 28299 28302 28305 28308 28310 28313 28316 28319 28322 28324 28327 28330 28333 28335 28338 28341 28344 28347 28350 28353 28356 28359 28362 28364 28367 28370 28373 28376 28379 28381 28384 28386 28389 28392 28395 28398 28401 28404 28407 28410 28413 28416 28419 28422 28425 28428 28431 28433 28436 28439 28442 28444 28447 28450 28453 28455 28458 28461 28464 28467 28470 28473 28476 28479 28482 28485 28488 28490 28493 28496 28499 28502 28505 28508 28511 28514 28517 28520 28523 28526 28529 28532 28535 28538 28541 28544 28547 28550 28553 28556 28559 28562 28565 28568 28571 28574 28577 28580 28583 28585 28588 28591 28594 28597 28600 28603 28606 28609 28612 28615 28618 28621 28624 28627 28630 28633 28636 28639 28642 28645 28648 28651 28654 28657 28660 28663 28666 28669 28672 28675 28678 28681 28684 28687 28690 28693 28696 28699 28702 28705 28708 28711 28714 28717 28720 28723 28726 28729 28732 28735 28738 28741 28744 28746 28749 28751 28754 28757 28759 28762 28765 28768 28770 28773 28776 28779 28781 28784 28786 28789 28792 28795 28798 28801 28804 28807 28809 28812 28815 28817 28820 28823 28826 28828 28831 28833 28836 28839 28842 28844 28847 28850 28853 28855 28858 28861 28864 28866 28869 28871 28874 28877 28879 28882 28884 28887 28890 28893 28896 28898 28901 28903 28906 28909 28912 28915 28917 28920 28923 28926 28929 28932 28935 28938 28941 28944 28947 28950 28952 28955 28958 28961 28964 28967 28970 28973 28976 28979 28982 28985 28988 28991 28994 28997 29000 29003 29006 29009 29012 29015 29018 29021 29023 29026 29029 29031 29034 29036 29039 29041 29044 29047 29050 29053 29055 29058 29060 29063 29066 29069 29072 29075 29077 29080 29083 29086 29089 29092 29095 29098 29101 29104 29107 29110 29112 29115 29118 29121 29123 29126 29128 29130 29133 29136 29138 29140 29143 29146 29148 29151 29154 29157 29159 29162 29165 29167 29169 29172 29175 29178 29181 29184 29187 29190 29193 29196 29199 29202 29205 29208 29211 29214 29217 29220 29223 29226 29229 29232 29235 29238 29241 29243 29246 29249 29252 29255 29258 29261 29264 29266 29269 29272 29275 29278 29281 29284 29287 29290 29293 29296 29299 29302 29305 29308 29311 29314 29316 29319 29322 29325 29327 29330 29333 29336 29339 29342 29345 29348 29350 29353 29356 29359 29362 29365 29368 29371 29374 29377 29380 29382 29385 29388 29391 29394 29397 29400 29403 29406 29409 29412 29414 29417 29420 29423 29426 29429 29432 29435 29438 29441 29444 29447 29450 29453 29456 29459 29462 29465 29467 29470 29473 29476 29479 29482 29484 29487 29490 29492 29495 29497 29500 29503 29506 29509 29512 29515 29518 29521 29524 29527 29530 29533 29536 29539 29542 29545 29548 29551 29554 29557 29560 29563 29566 29569 29572 29575 29578 29581 29584 29587 29590 29593 29596 29599 29602 29605 29608 29611 29614 29617 29620 29623 29626 29629 29632 29635 29638 29641 29644 29647 29650 29653 29656 29659 29662 29665 29668 29670 29673 29676 29679 29682 29685 29688 29691 29694 29697 29700 29703 29706 29709 29712 29715 29717 29720 29723 29726 29729 29732 29735 29738 29741 29744 29747 29750 29753 29756 29759 29762 29765 29768 29771 29774 29777 29780 29783 29786 29789 29792 29794 29797 29799 29802 29805 29808 29811 29814 29817 29820 29823 29825 29828 29831 29834 29837 29840 29843 29846 29849 29852 29855 29858 29861 29864 29867 29870 29873 29876 29878 29881 29884 29887 29889 29892 29895 29898 29901 29904 29907 29910 29913 29915 29917 29920 29923 29925 29928 29931 29934 29937 29940 29943 29946 29949 29952 29955 29958 29961 29964 29967 29970 29973 29976 29979 29982 29985 29988 29991 29994 29997 30000 30003 30006 30009 30012 30015 30018 30021 30024 30027 30030 30033 30036 30039 30042 30045 30048 30051 30054 30057 30060 30063 30066 30069 30071 30074 30077 30079 30082 30085 30088 30091 30094 30096 30099 30102 30105 30107 30110 30113 30116 30118 30121 30124 30127 30129 30132 30135 30138 30141 30144 30147 30150 30153 30156 30158 30161 30164 30167 30170 30173 30175 30178 30181 30184 30187 30190 30193 30196 30199 30202 30205 30208 30211 30214 30217 30220 30223 30226 30229 30232 30235 30238 30241 30244 30246 30249 30252 30255 30258 30260 30263 30266 30269 30272 30275 30278 30281 30284 30287 30290 30293 30296 30299 30302 30304 30307 30310 30313 30316 30319 30322 30324 30327 30329 30332 30335 30338 30340 30343 30346 30349 30352 30355 30358 30361 30364 30367 30369 30372 30375 30378 30381 30384 30387 30390 30392 30395 30398 30401 30404 30407 30410 30413 30416 30419 30422 30425 30428 30431 30434 30436 30439 30441 30443 30445 30448 30451 30454 30457 30460 30463 30465 30468 30471 30474 30477 30479 30482 30485 30488 30491 30494 30497 30500 30503 30505 30508 30511 30513 30515 30518 30521 30523 30526 30529 30532 30535 30537 30540 30543 30546 30549 30552 30555 30558 30561 30563 30566 30569 30571 30573 30576 30578 30581 30584 30587 30590 30593 30596 30599 30602 30605 30608 30611 30614 30617 30620 30623 30626 30629 30632 30635 30638 30641 30644 30647 30650 30652 30654 30657 30660 30662 30665 30668 30671 30674 30677 30680 30682 30685 30688 30691 30694 30697 30700 30703 30706 30709 30712 30715 30718 30721 30723 30726 30729 30732 30735 30738 30741 30743 30746 30749 30752 30754 30757 30760 30763 30766 30769 30772 30775 30778 30780 30783 30786 30789 30792 30795 30798 30801 30804 30807 30809 30812 30815 30817 30820 30823 30825 30828 30830 30833 30836 30838 30841 30844 30846 30849 30852 30854 30857 30860 30863 30865 30867 30870 30873 30876 30878 30881 30883 30886 30889 30891 30894 30897 30900 30903 30905 30907 30910 30912 30915 30918 30921 30924 30927 30930 30933 30936 30939 30942 30945 30948 30951 30954 30957 30960 30963 30966 30969 30971 30974 30977 30980 30983 30985 30988 30991 30994 30997 31000 31003 31006 31009 31012 31015 31018 31021 31024 31027 31030 31033 31036 31039 31042 31045 31048 31051 31054 31057 31060 31063 31066 31069 31072 31075 
</DataArray>
<DataArray type="UInt32" Name="types" format="ascii">
5 5 5 3 3 5 5 5 5 5 5 5 5 5 5 5 5 5 5 5 5 5 5 5 5 5 5 5 5 5 5 5 5 5 5 5 5 5 3 5 5 5 5 5 5 5 3 5 5 5 5 5 5 3 5 5 5 5 5 5 5 3 5 5 3 5 5 5 5 5 5 5 3 5 3 5 5 3 5 5 5 5 5 5 5 5 3 5 5 5 5 5 5 5 3 5 5 5 5 5 5 5 3 5 5 3 5 5 5 3 5 5 5 5 5 5 3 5 5 5 5 5 5 5 5 5 5 5 5 5 5 5 5 3 5 5 5 5 5 5 5 5 5 5 5 5 5 5 5 5 5 5 3 5 5 3 5 5 5 5 5 3 5 5 5 5 3 5 5 5 5 5 5 5 5 5 5 5 5 5 3 5 3 5 5 5 5 5 5 3 5 5 5 5 5 3 5 5 5 5 5 5 5 5 5 5 5 5 5 5 5 5 5 5 5 5 5 5 5 5 5 5 3 5 5 5 5 5 5 5 5 5 5 3 5 5 5 5 5 5 3 5 5 5 3 5 5 5 5 5 5 5 5 3 3 5 5 5 5 5 5 3 5 5 5 5 5 5 5 5 5 5 5 5 5 5 5 5 5 5 5 5 5 5 5 5 5 5 5 3 5 3 5 5 5 5 3 5 5 5 5 5 5 5 3 5 5 5 5 3 5 5 5 5 3 5 5 5 3 5 5 5 5 5 5 5 5 5 5 5 5 5 5 5 5 3 5 5 5 5 5 5 5 5 5 3 5 5 5 5 5 5 3 5 5 5 5 5 5 5 5 5 5 3 5 5 5 5 5 5 5 5 5 5 5 5 5 5 5 5 5 5 5 5 5 5 3 5 3 5 5 5 5 5 3 5 5 5 5 5 5 3 5 5 5 5 5 5 5 5 3 5 5 5 5 5 3 5 3 3 5 5 5 5 5 5 5 3 5 5 5 5 5 5 5 5 5 5 5 5 5 5 5 5 5 5 5 5 3 5 5 5 5 5 5 5 5 5 5 5 5 5 5 5 5 5 5 5 5 5 5 5 5 5 3 5 5 5 5 5 3 5 5 5 5 5 5 5 3 5 5 5 5 5 5 5 5 5 5 5 5 3 5 5 5 5 5 5 5 5 5 5 5 5 5 5 5 5 5 5 5 5 5 5 5 5 5 5 5 5 5 3 5 5 5 3 5 5 5 3 3 5 5 5 5 5 5 3 5 5 5 5 3 5 5 5 5 5 5 3 5 5 5 5 5 5 5 3 5 5 5 5 5 5 5 5 5 5 5 5 3 5 3 5 5 5 3 3 5 3 5 5 5 5 3 5 5 5 5 5 5 5 5 3 3 5 5 5 5 3 5 5 5 5 5 5 5 5 5 5 5 3 5 5 5 3 5 5 5 5 5 5 5 5 5 5 5 5 5 5 5 5 5 5 5 5 5 5 3 5 5 5 5 5 3 5 3 5 5 5 3 5 3 5 3 5 5 3 3 5 5 5 5 5 5 5 5 3 5 5 5 5 5 3 3 5 5 5 5 5 5 5 5 5 5 5 5 5 5 5 5 5 3 5 3 5 5 3 5 3 5 5 5 3 3 3 5 5 5 5 5 5 3 5 3 5 5 5 5 5 5 5 5 5 5 3 5 5 5 5 5 5 3 5 5 5 3 5 5 5 5 5 5 5 5 5 5 5 5 3 5 5 5 5 5 5 5 5 5 5 5 5 5 5 5 5 5 5 3 5 5 5 3 5 5 5 5 5 5 5 5 5 5 5 5 5 5 5 5 5 5 5 5 3 5 5 5 5 5 5 3 5 3 5 5 5 5 5 5 5 3 3 5 5 5 5 5 5 5 5 5 5 5 5 5 5 5 5 5 5 5 5 5 5 5 5 5 5 5 5 5 5 5 5 3 5 5 3 5 5 5 5 5 5 5 5 5 5 5 5 5 5 5 3 5 5 5 3 5 5 5 5 5 5 5 5 5 5 3 5 5 5 5 5 5 5 5 5 5 5 5 5 5 5 5 5 5 5 5 5 5 3 5 5 5 5 5 5 5 5 5 5 5 5 5 5 5 5 5 5 5 5 5 5 5 5 5 5 5 5 5 5 5 5 5 5 5 5 5 5 5 5 5 5 5 5 5 5 5 5 5 5 5 5 5 5 5 5 5 5 5 5 3 5 5 5 5 3 5 5 5 5 5 5 5 5 5 5 5 5 5 5 5 5 5 3 5 5 3 5 5 5 5 5 5 5 5 5 5 5 5 5 5 3 5 5 5 5 5 5 3 5 5 5 5 3 5 3 5 5 5 5 5 5 5 5 5 5 5 5 3 5 3 3 5 5 5 5 3 5 5 5 5 5 3 5 3 5 5 5 5 3 3 5 5 5 5 3 5 5 5 5 5 5 5 5 5 5 5 3 5 3 5 5 5 5 5 5 5 3 3 5 5 5 5 5 5 5 5 5 5 3 5 5 5 5 5 5 5 5 5 3 5 3 5 5 5 5 5 5 5 5 3 5 5 3 5 5 5 5 5 5 5 5 5 3 5 5 5 5 5 5 5 5 5 5 5 5 5 5 5 5 5 5 5 5 5 5 5 5 5 5 5 5 5 5 5 5 5 5 5 5 5 5 3 3 5 5 5 5 5 5 5 5 5 3 5 5 5 5 5 5 5 3 5 3 5 5 5 5 5 5 5 3 5 5 5 5 5 5 3 5 5 5 3 5 5 5 5 3 5 5 5 3 5 5 3 5 3 5 5 5 5 5 5 5 3 5 5 5 5 5 5 5 5 5 5 5 3 5 5 5 5 5 5 3 5 5 5 5 3 5 5 3 5 3 5 5 5 5 3 5 3 5 3 5 5 5 3 5 5 5 5 5 3 5 5 3 5 5 5 5 5 5 3 5 5 3 5 5 3 3 3 5 5 5 3 5 5 5 5 5 3 5 5 5 5 5 3 5 5 5 5 5 5 5 5 5 5 5 5 5 5 5 5 5 5 5 5 5 5 5 5 5 5 5 5 5 5 5 5 5 5 5 5 5 5 5 3 5 5 5 5 5 5 5 3 5 5 3 3 5 5 5 5 5 5 5 5 5 5 5 5 5 5 5 5 5 5 3 5 5 5 5 5 5 3 5 5 5 5 5 5 5 3 5 5 5 5 5 5 5 5 3 5 5 3 5 3 5 3 3 5 5 5 5 3 3 5 3 5 3 5 5 5 5 3 5 3 5 5 5 5 3 5 5 5 5 5 5 5 5 5 3 5 5 3 3 5 5 3 5 5 5 3 5 3 5 5 5 3 5 3 5 5 5 5 5 5 5 5 5 5 5 5 5 5 5 5 5 5 5 5 5 5 5 5 5 5 5 5 5 5 5 5 5 5 5 5 5 5 5 5 5 5 5 5 5 5 5 5 5 5 5 5 5 5 5 5 5 5 5 5 5 5 5 5 5 5 3 5 5 5 5 5 5 5 5 5 5 5 5 5 5 5 5 5 5 5 5 5 5 5 5 5 5 5 5 5 5 5 5 5 5 5 5 5 5 5 5 5 5 5 5 5 5 5 5 5 5 5 5 5 5 5 5 5 5 5 5 5 5 5 5 5 5 5 5 5 5 5 5 5 5 5 5 5 5 5 5 5 5 5 5 5 5 3 5 5 5 5 3 5 5 5 5 5 5 3 5 5 5 5 5 5 3 5 5 5 5 3 5 5 5 3 5 5 5 5 5 3 5 3 5 3 5 5 5 5 5 5 5 5 5 5 5 5 5 5 5 3 5 5 5 5 3 5 5 5 5 5 5 5 5 5 5 5 5 5 5 5 5 5 5 5 5 5 5 5 3 5 5 5 5 5 5 5 5 5 5 3 5 3 5 5 3 5 3 3 5 3 5 5 5 5 5 3 3 5 3 5 5 5 5 3 5 5 5 5 5 5 3 5 5 5 5 5 5 5 5 5 5 5 5 5 5 3 5 5 3 5 5 5 3 5 3 5 5 5 5 5 3 5 5 5 5 3 5 5 5 5 5 3 5 5 5 5 5 5 5 5 3 5 5 5 5 3 5 5 5 5 3 5 5 5 5 5 5 5 5 3 5 5 3 5 5 5 5 5 3 5 5 3 5 5 5 5 5 5 5 5 5 5 5 5 5 5 5 3 5 5 5 3 3 5 5 5 5 5 5 5 3 5 5 5 5 3 5 3 5 5 3 5 5 3 3 5 3 5 5 3 5 5 3 5 5 5 5 5 5 5 5 3 3 3 5 5 5 3 5 5 3 5 5 5 5 5 3 5 5 3 5 3 3 5 5 3 5 5 5 5 5 3 5 5 5 3 5 5 3 5 3 3 3 3 5 5 5 5 5 3 5 3 5 3 3 5 5 5 3 5 5 5 5 5 5 5 3 5 5 5 5 5 3 5 3 3 5 5 5 3 3 5 5 5 5 5 5 5 5 5 5 5 5 5 5 5 5 5 5 5 3 5 3 3 3 5 5 5 5 5 3 5 5 5 5 5 5 5 5 5 5 3 5 5 5 5 5 5 5 3 5 3 5 5 5 5 5 5 5 5 3 5 3 5 5 5 5 5 5 5 5 3 5 5 5 5 5 5 5 5 5 5 5 5 5 5 3 5 5 5 5 5 5 5 3 5 5 3 5 5 5 5 5 5 5 5 5 5 5 5 5 5 5 5 5 5 5 5 5 5 5 5 5 3 5 5 5 5 5 5 5 5 5 5 3 5 3 5 5 5 5 5 5 5 5 5 5 5 5 5 5 5 5 5 5 3 5 5 5 5 5 3 5 5 5 5 5 5 5 5 5 5 5 5 5 3 5 3 5 5 3 3 5 3 5 5 3 5 3 5 5 3 5 5 5 5 5 5 3 3 5 3 5 5 3 5 5 5 3 5 5 3 5 5 5 5 5 5 5 5 3 5 5 5 3 5 5 5 5 5 5 5 5 5 5 5 5 3 5 3 5 5 5 5 5 3 5 5 5 5 5 5 5 5 5 5 5 5 5 5 5 5 5 5 5 5 3 5 5 5 5 5 5 5 5 3 5 5 5 5 5 5 5 5 5 3 5 5 5 5 5 5 5 5 5 3 5 3 5 5 3 5 5 3 5 3 3 5 3 5 5 5 5 5 5 3 3 5 5 5 5 5 5 5 5 5 5 5 5 5 5 3 5 5 5 5 5 5 5 5 5 5 5 3 5 5 3 5 5 5 5 5 3 5 5 3 5 5 5 5 5 5 5 5 5 5 5 3 5 5 5 5 5 3 5 5 3 5 5 5 5 3 5 5 5 5 5 5 5 5 5 5 5 5 3 5 5 5 5 5 5 5 5 5 5 3 5 5 5 5 5 5 5 5 5 5 3 5 5 3 5 5 5 5 5 5 5 5 5 5 5 5 5 5 5 5 5 3 5 3 5 5 5 3 5 3 5 5 5 5 5 5 5 5 5 5 5 3 5 5 3 5 5 3 5 5 5 5 5 5 5 3 5 3 5 5 5 5 5 5 5 5 5 5 5 5 5 5 5 5 5 5 5 3 3 5 5 5 5 5 5 3 3 5 5 5 5 5 5 5 5 5 5 3 5 5 3 3 5 5 3 5 5 3 5 5 3 5 3 5 3 5 5 5 5 5 3 5 5 5 5 5 5 5 5 3 5 5 5 5 5 5 5 5 5 5 5 5 5 5 3 5 5 5 5 3 5 5 5 5 5 5 5 5 5 5 3 5 5 5 5 5 3 5 3 5 3 3 5 5 5 3 5 5 5 3 5 5 5 5 3 5 5 5 5 5 5 3 5 5 3 5 5 5 5 5 5 5 5 5 5 5 5 3 5 5 5 3 5 5 5 5 5 5 5 5 5 3 5 5 3 5 3 5 3 5 5 5 5 5 5 5 3 5 3 5 5 5 5 5 5 3 5 5 5 3 5 5 5 5 5 5 5 5 5 5 5 5 5 5 5 5 5 5 5 5 5 5 3 5 5 5 5 5 5 3 5 5 5 5 5 3 5 3 5 5 5 5 5 5 5 5 5 3 5 5 5 5 5 3 5 5 5 5 5 5 5 5 5 5 5 5 5 5 5 5 3 5 5 5 5 3 5 5 5 5 5 5 5 5 5 3 5 5 5 5 5 5 5 5 5 5 3 5 5 5 5 5 5 5 5 5 5 5 5 5 5 5 5 5 5 5 3 5 5 3 5 5 3 5 3 5 5 5 5 5 3 5 5 5 5 5 5 5 5 5 5 5 5 5 5 5 5 3 5 5 5 5 5 5 3 5 5 5 5 5 5 3 5 5 5 5 3 5 5 5 5 5 5 3 5 5 5 5 3 5 5 5 5 5 5 5 5 5 5 5 5 5 5 5 5 5 5 3 5 5 5 5 5 5 5 5 5 5 5 5 3 3 3 5 5 5 5 5 3 5 5 5 5 5 5 3 5 5 5 3 3 5 5 5 5 5 3 5 5 5 5 3 5 5 5 5 5 5 5 3 5 5 3 5 3 5 5 5 5 5 5 5 3 5 5 5 5 5 3 5 5 5 5 5 3 3 5 5 5 5 5 5 5 5 3 5 5 5 5 5 5 5 5 5 5 5 5 5 5 5 5 5 5 5 5 5 3 5 5 5 5 5 5 5 5 5 3 5 5 5 5 5 5 5 5 5 5 5 5 5 5 5 3 5 5 5 5 5 5 5 5 5 5 5 5 5 5 5 5 5 5 5 5 5 5 5 5 5 5 5 5 5 5 5 5 5 5 3 3 5 5 5 5 5 5 5 5 5 5 3 3 5 5 5 5 3 5 5 5 5 3 5 5 5 5 5 5 3 5 5 5 5 5 5 5 3 3 5 5 5 5 3 3 5 5 5 5 5 5 5 5 3 5 5 5 5 5 5 5 5 3 5 5 5 3 5 5 5 5 3 5 5 5 5 5 3 5 5 5 5 5 5 5 5 5 5 5 5 3 5 3 5 5 5 3 5 5 3 5 5 5 3 5 3 5 5 5 5 5 5 5 5 5 5 5 5 5 5 5 5 5 5 5 5 5 3 5 5 5 5 5 3 5 5 5 5 5 5 5 5 5 3 5 5 5 5 5 5 5 5 5 5 3 5 5 5 5 3 5 5 5 5 5 5 5 5 5 5 5 5 5 5 5 5 5 5 5 3 5 5 3 5 5 3 5 3 5 5 3 5 5 3 5 5 5 5 5 5 3 5 5 5 5 5 5 5 5 5 5 3 5 5 5 5 3 5 5 5 5 5 5 5 3 5 5 5 5 5 5 3 5 5 5 5 5 5 5 5 3 5 5 5 3 5 5 5 5 5 5 3 5 5 5 5 5 5 5 5 5 5 5 3 5 5 5 5 5 5 3 5 5 5 3 5 5 5 5 3 5 3 5 3 5 5 5 5 5 5 5 5 5 5 5 5 5 5 3 5 5 5 3 5 5 5 5 5 5 5 5 5 5 5 5 5 5 5 5 5 5 5 5 5 3 5 5 5 5 5 5 5 5 5 5 5 5 3 5 5 5 3 5 5 5 5 5 3 5 3 5 5 5 3 5 5 5 5 5 5 3 5 3 5 5 5 3 3 5 5 5 5 5 5 5 5 5 5 3 3 3 5 5 5 5 3 3 3 5 5 3 3 5 5 3 5 5 5 5 5 5 3 5 5 5 5 5 5 3 5 5 5 5 5 5 3 5 5 3 5 5 5 5 5 5 5 5 5 5 3 5 5 5 5 5 5 5 5 5 5 5 5 5 3 5 5 5 5 5 5 5 3 5 5 5 3 5 5 5 5 3 5 5 5 5 5 5 5 5 3 5 3 5 5 5 3 5 3 5 5 5 5 5 5 5 5 3 5 5 5 3 3 5 5 5 5 5 3 3 5 5 5 5 5 5 5 5 3 3 5 5 5 5 5 5 5 3 5 5 5 5 5 5 5 5 3 5 5 3 5 5 5 3 5 5 5 5 3 5 5 5 5 5 5 5 5 5 5 5 3 5 5 5 5 5 5 3 5 3 5 5 3 5 5 5 5 5 5 5 3 5 5 5 5 5 5 5 3 5 3 5 3 5 5 5 3 5 5 5 5 3 3 5 5 5 3 5 5 5 3 5 5 5 3 5 5 5 5 5 5 5 5 5 5 5 5 5 5 5 5 5 5 5 5 5 5 5 5 5 5 5 5 5 5 5 3 5 5 5 5 5 5 5 5 5 5 5 5 5 5 5 5 5 5 5 5 5 5 5 5 5 5 5 5 5 3 5 5 5 5 3 3 5 5 5 5 5 5 3 5 5 5 5 5 5 5 5 5 3 5 5 5 5 5 5 5 5 5 5 5 5 5 3 5 5 5 5 5 5 5 5 5 5 5 5 5 5 5 5 5 5 3 5 5 5 3 3 5 5 3 5 5 5 3 5 5 5 3 3 5 5 5 5 3 5 5 3 3 5 5 3 5 5 5 5 5 5 5 5 5 5 5 5 5 3 5 3 5 5 5 5 5 3 5 3 5 5 5 5 5 5 5 5 5 5 5 5 5 5 5 5 5 5 5 5 3 5 5 5 5 5 5 5 5 5 5 5 5 5 5 5 5 5 5 5 5 5 5 5 5 5 5 5 3 5 5 5 5 3 5 5 5 5 5 3 5 5 5 5 5 5 5 5 3 5 5 5 5 5 5 5 5 3 5 5 5 5 3 5 5 5 5 3 5 5 5 5 5 5 3 5 5 5 3 5 5 5 5 5 3 3 5 3 5 5 3 5 5 5 5 5 5 3 5 5 5 5 5 3 5 5 5 5 5 5 5 5 5 5 5 5 5 5 5 5 5 5 5 5 5 5 3 3 5 5 5 3 5 5 5 5 5 5 3 3 5 5 5 5 5 5 5 5 5 5 5 5 5 5 5 5 5 5 5 5 5 5 5 5 5 3 5 5 5 5 5 5 5 5 5 5 5 5 5 5 5 3 5 5 5 3 5 5 5 5 5 5 5 5 5 5 3 5 5 5 5 3 5 3 5 5 3 5 5 5 5 5 5 5 5 5 5 5 5 5 5 5 3 5 5 5 5 5 5 5 5 5 5 5 5 5 5 5 5 5 5 3 5 5 5 5 5 5 3 5 5 5 5 5 5 5 5 5 5 5 5 5 5 5 5 5 5 5 5 5 5 5 3 5 5 5 5 5 5 5 5 5 3 5 5 5 5 5 3 5 5 5 3 5 5 5 5 5 5 5 5 3 5 3 5 5 5 5 5 5 5 5 3 5 3 3 3 5 5 3 5 5 3 5 5 5 5 3 3 5 5 5 5 3 3 5 3 5 5 3 5 3 5 5 5 5 5 5 5 3 3 5 3 5 5 3 5 5 3 5 5 5 5 5 5 5 5 5 3 5 5 5 3 5 5 5 5 5 5 3 5 5 5 5 3 5 5 5 5 5 5 5 5 3 5 5 5 5 5 5 5 5 5 5 5 5 5 5 5 5 5 5 5 5 5 5 5 5 5 5 5 5 5 5 3 5 5 5 5 5 5 5 5 5 5 5 5 5 5 5 5 5 5 5 5 3 5 5 3 5 5 3 5 3 5 3 5 3 3 3 5 5 5 5 5 5 3 5 3 5 5 5 5 5 3 5 3 5 3 5 5 3 5 3 3 5 3 5 5 5 3 3 3 5 5 5 3 3 5 5 3 5 3 5 5 5 5 3 5 3 5 5 5 5 5 5 5 5 5 5 5 5 5 5 5 5 5 5 5 5 5 5 3 5 5 5 5 5 5 5 5 5 5 3 5 5 5 5 5 3 5 5 5 3 5 3 5 5 3 5 5 3 3 3 5 5 5 5 5 5 5 5 5 5 5 5 5 5 5 5 5 5 5 3 3 5 5 5 5 3 5 5 3 5 5 5 5 5 3 5 5 5 5 5 5 5 3 5 5 3 5 5 5 5 5 5 5 5 5 5 5 5 5 5 5 3 5 5 5 5 5 5 5 5 3 5 5 5 5 5 5 5 5 5 3 5 5 5 5 5 5 5 5 5 5 5 5 5 5 5 5 3 5 5 5 5 5 5 3 5 5 5 3 3 5 5 5 5 3 5 5 3 5 5 5 3 5 5 5 5 5 5 5 5 5 5 5 5 5 5 5 3 5 5 5 5 5 5 5 5 5 5 5 5 5 5 5 5 5 5 5 5 5 5 5 5 5 5 3 5 5 5 3 5 3 5 5 5 5 3 5 5 5 5 5 5 5 5 5 5 5 5 5 5 5 5 5 5 5 3 5 5 5 5 3 5 5 5 5 5 5 5 3 5 5 5 5 5 5 5 5 3 5 5 5 5 5 5 5 5 5 5 5 5 5 5 3 5 5 5 5 5 3 3 5 5 3 5 5 5 3 5 3 5 5 3 5 3 5 5 5 3 3 5 3 3 3 5 5 5 5 5 5 3 5 5 5 5 5 5 5 5 5 5 5 5 5 5 3 5 5 5 3 5 5 5 5 5 5 5 5 3 5 5 3 5 3 5 5 5 5 5 5 5 3 5 3 5 5 5 5 5 5 5 5 5 5 5 5 5 5 5 5 5 5 5 5 5 5 5 5 5 5 5 5 5 5 5 5 5 5 5 5 5 5 5 5 5 5 5 3 3 5 5 5 5 5 3 5 5 5 5 5 5 3 5 3 5 5 3 5 5 5 3 5 3 5 5 5 5 5 5 5 5 5 5 5 5 5 5 5 5 5 5 5 5 5 5 5 5 5 5 5 5 5 5 5 3 3 5 3 5 5 5 5 5 3 5 5 3 3 3 5 5 5 3 5 3 3 5 5 5 5 5 3 5 3 5 3 5 5 3 5 3 3 5 3 5 5 3 5 5 3 3 5 5 3 5 5 5 3 5 5 5 5 5 5 5 5 5 5 5 5 5 5 3 5 5 5 5 3 5 5 5 3 5 5 3 5 5 5 5 5 5 5 5 5 5 3 5 5 5 3 5 5 5 3 5 5 5 5 3 5 3 5 5 3 5 5 5 5 5 3 5 5 5 5 5 5 5 5 5 5 5 5 3 5 5 5 5 5 5 5 5 5 5 5 5 5 3 3 5 5 3 5 5 3 3 5 3 3 5 5 5 5 5 5 5 5 5 3 5 5 5 3 5 3 3 5 5 3 5 5 5 3 5 5 5 3 5 5 5 5 5 5 5 5 5 3 5 5 5 5 5 5 5 3 5 5 5 5 3 3 3 5 3 5 5 5 3 5 5 5 5 5 3 5 5 5 3 5 3 5 5 5 5 5 5 3 5 3 5 5 5 5 5 5 5 3 5 3 5 3 5 5 5 5 5 5 5 3 5 5 3 5 5 5 5 5 5 5 5 3 5 5 3 5 5 5 5 5 3 5 5 5 3 5 5 5 5 5 5 5 5 5 5 5 5 5 5 3 5 5 3 5 5 5 5 3 5 5 5 3 5 3 5 5 5 5 5 5 5 5 5 5 5 5 5 5 5 5 5 5 3 5 5 5 5 5 5 5 5 5 5 5 5 5 3 5 5 5 5 5 5 5 5 5 5 5 5 5 5 5 5 5 5 5 3 5 3 5 5 3 5 3 5 5 5 3 3 5 5 3 5 5 5 5 3 5 5 5 3 5 5 3 5 5 5 5 3 5 5 5 5 5 5 5 5 5 5 5 5 5 5 5 5 5 5 5 5 5 5 5 5 5 5 3 5 5 5 5 5 3 5 5 3 5 5 5 5 5 5 5 3 3 5 5 5 3 5 5 5 3 5 5 3 5 5 5 5 3 3 3 5 5 5 5 3 3 5 3 5 3 3 3 3 5 3 5 5 5 5 5 3 5 5 5 3 5 5 5 5 5 5 5 5 5 5 5 3 5 5 5 5 3 5 3 5 5 5 5 3 5 5 5 5 5 3 5 5 5 3 5 5 3 5 5 5 5 3 5 5 3 5 5 3 5 5 5 5 5 5 5 5 5 5 5 5 5 5 5 5 3 5 5 5 5 5 5 5 5 5 5 5 5 3 3 3 5 5 5 5 5 3 3 5 5 5 5 5 5 3 3 3 5 5 5 5 3 5 5 5 5 3 5 3 5 5 5 5 3 5 5 5 5 5 5 5 5 5 5 5 5 5 5 5 5 5 5 5 5 5 5 5 5 5 3 5 5 5 3 5 5 3 5 3 5 5 5 5 3 3 5 3 5 3 5 5 5 5 3 5 3 5 5 5 3 5 5 5 5 5 5 5 5 5 5 5 5 3 5 5 3 5 5 5 3 5 3 5 5 5 5 5 3 5 5 5 5 5 5 5 5 5 5 5 5 5 5 5 5 3 5 5 5 5 3 5 5 5 5 5 5 5 5 5 5 5 5 5 5 5 5 5 5 3 5 5 5 5 5 3 5 5 3 5 5 3 5 5 5 5 3 5 3 5 5 5 5 5 5 5 5 5 5 5 5 5 3 5 5 5 5 5 3 5 5 5 5 5 5 5 5 5 5 5 5 5 3 5 5 5 3 5 3 5 5 5 3 5 5 5 5 5 5 5 5 5 5 5 5 5 3 5 5 5 5 5 5 5 5 5 5 5 5 5 5 5 5 5 3 3 5 5 3 5 5 5 5 3 5 5 5 3 3 5 5 3 5 5 5 5 5 5 5 5 5 5 5 5 3 5 3 5 5 3 3 3 5 5 3 5 5 5 5 5 3 5 3 5 3 5 3 5 5 5 5 5 3 5 3 5 5 5 5 3 5 5 3 3 3 5 5 3 5 5 5 5 5 3 5 5 5 5 5 5 5 5 5 5 5 3 3 5 3 5 5 5 3 5 5 5 3 3 5 5 3 5 3 5 5 5 3 5 5 5 5 5 3 3 5 3 5 5 5 5 5 5 5 5 5 5 5 5 3 5 5 5 3 5 5 5 5 5 5 5 5 5 5 3 5 5 5 5 5 5 5 5 5 5 3 5 5 5 5 5 5 5 5 3 5 3 5 5 5 5 3 3 5 5 3 5 5 3 5 3 5 5 5 5 5 3 5 5 5 5 5 5 5 5 3 5 5 5 5 3 5 3 3 5 5 5 5 5 5 3 5 3 5 5 5 5 3 5 3 5 3 5 5 5 3 5 5 5 5 5 3 3 3 5 3 5 5 5 5 5 3 5 5 5 5 5 5 5 5 5 5 5 5 5 5 5 5 5 5 5 5 5 3 5 5 5 5 5 5 5 3 5 5 3 5 5 5 5 5 5 5 5 5 3 5 5 5 5 5 5 3 5 5 5 3 5 5 5 5 5 5 5 5 3 5 5 5 3 5 5 5 5 5 5 3 5 3 5 5 3 5 5 5 3 5 5 5 5 5 3 5 3 5 3 3 5 5 5 3 5 5 3 3 5 3 5 3 5 5 5 3 5 5 5 5 5 5 3 5 5 5 5 5 3 3 5 5 5 5 5 5 5 3 5 3 5 3 5 5 5 3 5 5 5 5 5 5 3 5 3 5 5 5 3 5 5 5 5 5 5 5 5 5 5 5 3 5 5 5 5 5 5 5 5 5 5 5 5 5 3 5 5 3 5 5 5 5 5 5 5 5 5 5 5 5 5 5 3 5 5 5 5 3 5 5 5 5 5 5 5 5 5 5 5 3 5 5 5 5 5 5 5 5 3 3 5 5 5 5 5 5 3 5 5 3 5 5 5 5 5 5 5 5 5 5 5 5 5 5 5 5 5 5 5 5 5 5 3 5 3 5 5 5 5 5 5 5 5 5 5 5 5 3 5 5 5 5 5 5 5 5 5 5 5 5 5 5 5 5 5 5 5 5 3 5 5 5 3 5 5 5 5 5 3 5 5 5 5 3 5 5 5 3 5 5 5 3 5 3 5 3 3 5 5 5 5 5 5 5 3 3 5 3 3 3 5 3 3 3 5 5 5 5 5 5 5 5 5 5 5 5 5 5 3 5 5 5 3 5 5 5 5 3 5 5 3 3 5 3 5 5 5 5 3 3 3 5 5 5 5 5 5 5 5 3 5 5 5 5 5 5 3 5 5 5 5 5 3 5 3 5 3 5 5 5 5 5 3 5 5 3 5 5 5 5 3 5 5 3 5 5 5 5 5 5 5 3 5 3 5 3 5 3 5 5 3 5 5 5 5 5 3 3 5 5 5 5 5 3 5 5 3 5 5 5 5 5 3 5 5 5 5 5 5 5 5 3 5 5 5 5 5 3 5 5 5 5 5 5 3 5 5 5 5 5 3 5 5 5 5 5 5 5 5 5 5 5 5 5 5 5 5 3 5 5 3 5 5 3 5 3 5 5 5 5 5 5 5 5 3 5 5 5 3 3 5 3 5 3 5 3 5 5 5 3 5 5 5 5 3 3 5 5 5 5 3 5 5 5 5 5 5 3 5 3 3 5 5 5 3 5 5 5 5 5 3 3 5 3 3 5 3 5 5 3 5 3 5 5 5 3 5 5 5 5 5 5 5 5 5 5 5 5 5 3 5 3 3 5 5 3 5 5 5 3 5 5 5 5 5 3 3 5 3 5 5 5 3 5 5 5 3 5 5 5 3 5 5 3 5 5 3 5 5 5 5 5 5 5 5 5 3 5 5 5 5 5 5 5 5 5 3 5 5 5 3 3 5 5 5 5 5 5 5 5 5 5 3 5 5 3 3 3 5 5 5 5 5 5 5 5 5 5 5 5 5 5 3 5 5 5 5 3 5 3 5 3 5 5 5 5 5 5 5 5 5 5 5 5 5 5 5 5 5 5 5 5 5 5 5 5 5 5 5 5 5 5 5 5 3 5 5 5 5 5 5 5 5 5 5 5 3 5 5 5 5 5 5 5 5 5 5 5 3 5 5 5 5 3 5 5 5 3 5 5 5 3 5 3 5 3 3 5 5 5 5 5 5 5 5 5 5 5 5 5 5 3 5 5 5 5 5 5 5 5 3 3 5 5 5 5 5 5 3 5 5 5 5 5 5 3 3 5 5 3 3 5 5 5 5 5 3 5 5 5 5 5 3 5 3 5 5 5 5 5 3 5 3 5 3 5 5 5 5 5 5 3 3 3 5 3 5 3 5 5 5 5 3 5 5 5 5 5 5 3 5 5 5 5 5 5 5 5 5 5 5 5 5 3 5 5 5 5 5 3 5 5 5 5 5 5 3 5 5 3 3 5 5 5 5 5 5 5 5 5 5 3 5 5 5 5 5 5 5 5 5 5 5 5 5 3 5 5 5 5 5 5 5 3 5 5 5 5 3 3 3 5 3 5 5 5 3 5 5 3 5 5 5 5 5 5 5 5 3 5 5 3 5 5 5 5 3 5 5 5 5 5 5 5 3 5 3 5 3 5 5 5 3 3 5 5 5 3 5 3 5 5 5 3 5 5 5 3 5 5 5 5 5 3 5 5 5 5 5 5 3 3 5 5 3 5 5 5 5 3 3 5 5 3 5 3 5 5 3 3 5 5 5 5 5 3 5 5 5 5 5 5 3 5 3 5 5 5 5 5 5 5 5 5 5 5 5 5 5 5 3 5 3 5 5 5 5 5 5 3 5 3 5 3 5 5 5 3 3 5 5 5 5 5 5 5 5 5 5 3 5 5 5 5 5 5 5 5 5 5 5 5 5 5 5 5 5 5 5 5 5 5 5 5 5 5 5 5 5 5 5 5 5 5 5 5 5 5 5 5 5 5 5 5 5 5 5 5 5 5 5 5 5 5 5 5 5 5 5 5 5 5 5 5 5 5 5 3 3 5 5 5 5 5 5 5 5 3 5 5 3 5 5 3 5 5 5 5 5 5 3 5 5 3 5 5 5 5 5 5 5 5 5 5 3 5 5 5 5 5 5 5 5 3 5 5 5 5 5 5 5 5 5 5 5 5 3 5 5 5 5 5 5 5 5 5 3 5 5 5 3 5 5 5 5 5 5 5 5 3 5 5 5 5 5 5 5 5 5 5 5 5 5 5 5 5 5 5 5 5 5 5 3 5 5 5 5 5 5 5 5 5 5 5 5 3 3 5 3 5 5 5 5 5 5 5 5 3 5 5 5 5 5 5 5 5 5 5 5 5 5 5 5 5 5 5 5 3 5 5 5 5 5 5 3 5 5 5 5 5 5 5 5 3 5 5 5 5 5 5 5 5 5 5 5 5 3 5 3 5 5 5 3 5 5 5 5 5 5 5 3 5 5 5 5 5 5 5 5 5 5 5 3 5 5 5 5 5 3 5 5 3 5 5 5 5 5 5 5 5 3 5 5 5 5 5 5 5 5 5 3 5 3 5 5 5 5 5 5 5 5 5 5 5 5 5 5 5 5 3 3 5 5 5 5 5 5 3 5 3 5 5 5 5 5 5 5 5 5 3 5 5 5 5 5 5 5 5 3 5 5 5 5 3 3 5 5 5 5 5 5 5 5 5 5 5 5 5 5 5 5 5 5 5 5 5 5 3 5 5 5 3 5 5 5 5 5 5 5 5 3 5 5 5 5 3 5 5 5 3 5 5 5 5 5 5 3 5 5 5 5 5 5 5 5 5 5 5 5 5 5 3 5 5 5 5 5 5 5 5 3 5 5 5 3 5 5 5 5 3 5 5 5 5 5 5 5 5 5 5 5 3 3 5 3 5 5 3 5 5 5 5 5 5 5 5 5 5 5 5 5 5 5 5 5 5 5 5 5 5 5 3 5 5 5 5 5 5 5 5 5 5 5 5 5 5 5 5 5 5 5 5 5 5 5 5 5 5 5 5 5 5 5 5 5 5 5 5 5 5 5 5 5 5 5 5 5 5 5 5 5 5 5 3 5 5 5 5 5 5 5 5 5 3 5 5 5 5 5 5 5 5 5 3 5 5 5 5 5 5 5 5 5 5 5 3 3 5 5 5 5 5 3 5 3 5 5 3 5 5 3 5 5 5 5 5 5 5 5 5 5 3 5 5 5 5 5 5 5 5 5 5 5 5 5 5 5 5 5 5 5 5 5 5 5 5 5 5 5 3 3 5 3 3 5 5 5 5 5 5 5 5 5 5 5 5 5 5 5 5 5 3 5 3 5 3 5 5 5 5 5 5 5 3 3 5 3 5 5 5 5 5 5 5 5 3 5 5 5 5 5 5 5 5 5 5 3 5 5 5 5 5 5 5 5 5 5 5 5 5 3 5 5 5 5 5 5 5 3 5 5 3 5 5 5 5 5 5 5 3 5 3 5 5 3 5 5 5 5 3 5 5 5 5 5 5 5 5 5 5 5 5 5 5 3 5 3 3 5 5 3 5 5 5 5 3 5 5 5 5 5 5 5 5 3 5 3 5 5 5 5 5 5 5 5 5 3 5 5 3 5 5 3 5 5 5 5 5 5 3 3 5 5 3 5 3 5 5 5 5 5 5 5 5 5 5 5 5 3 5 5 5 5 3 5 5 5 5 5 5 5 5 5 5 5 5 5 5 5 5 5 5 5 5 3 5 5 5 3 5 5 5 5 3 5 5 3 5 5 3 3 5 5 5 5 5 5 5 5 5 5 5 5 5 5 5 5 5 3 5 5 5 5 5 5 5 5 5 3 5 3 5 5 3 3 5 5 5 5 5 5 5 3 5 5 5 3 5 5 5 3 5 3 3 5 5 5 5 5 5 5 5 5 5 5 5 5 5 5 3 5 5 5 5 5 5 3 5 5 3 5 5 5 3 5 5 5 5 5 5 5 5 5 5 5 5 5 5 5 5 5 5 5 5 5 5 5 5 5 5 5 5 5 5 5 3 5 5 5 5 5 5 3 5 5 5 5 5 5 5 5 5 5 5 5 3 5 3 5 5 5 5 5 5 5 5 5 5 5 5 5 5 5 3 5 5 5 5 5 5 5 5 5 5 5 5 5 5 5 5 5 5 5 5 5 5 5 3 5 5 5 5 5 5 5 5 5 5 5 5 5 5 5 5 5 5 5 5 5 5 5 5 5 5 5 5 5 5 5 5 3 5 5 5 5 5 5 5 3 5 5 5 5 3 5 5 5 5 5 3 5 5 5 5 5 5 5 5 5 3 5 3 5 5 5 5 5 5 5 5 5 5 5 5 5 3 5 5 3 5 3 5 3 5 5 5 5 5 5 5 5 5 5 5 5 5 5 5 5 5 5 5 5 5 5 5 5 5 5 5 5 5 5 5 3 5 5 5 5 5 5 5 5 5 5 5 5 5 5 5 5 5 5 5 5 5 3 5 5 5 5 5 5 3 5 5 3 5 5 5 5 3 5 5 5 5 5 3 5 5 5 5 5 5 5 5 5 5 5 5 5 5 5 5 5 5 5 3 5 5 3 5 5 5 5 5 5 5 5 3 5 5 5 3 5 5 5 5 5 5 3 3 3 5 5 5 5 5 5 5 5 5 5 5 5 3 5 5 5 5 5 5 5 5 5 5 5 5 5 5 5 5 5 5 5 5 5 5 5 5 5 5 5 5 5 5 3 5 5 5 5 5 5 5 5 5 5 5 3 5 5 5 3 3 5 5 5 5 5 3 3 3 5 5 3 5 5 3 5 5 5 5 5 5 5 5 5 5 5 5 3 5 5 5 5 5 5 5 5 5 5 5 5 5 5 5 5 3 5 5 5 5 5 5 3 5 5 5 5 5 5 3 3 5 3 3 5 5 5 5 5 5 5 5 5 5 3 5 3 3 3 5 5 5 5 5 5 5 5 5 3 5 5 5 5 5 5 5 5 3 5 5 5 5 5 3 5 5 5 5 5 5 5 5 5 5 5 5 5 5 5 5 5 5 5 5 5 5 5 5 5 3 5 5 5 5 5 5 5 5 5 5 5 5 5 5 3 5 5 5 3 5 3 3 5 5 3 5 5 5 5 5 5 5 5 5 5 5 5 5 5 5 5 5 3 5 5 5 5 5 3 5 5 5 3 5 3 5 5 5 5 5 5 3 3 5 5 5 3 3 5 5 5 3 3 5 5 5 5 5 3 3 5 3 5 5 5 5 5 5 5 5 5 3 5 5 5 5 5 5 5 5 5 5 5 5 3 3 5 5 5 5 5 5 3 5 5 5 5 3 5 5 5 5 5 3 5 5 5 5 5 5 5 5 5 5 3 5 5 3 5 5 3 5 5 5 5 5 5 5 3 5 5 5 3 5 5 5 5 5 5 5 5 5 5 5 5 5 5 3 3 5 5 5 5 3 5 5 5 5 5 5 5 5 5 5 3 5 5 3 5 5 3 3 5 5 5 5 5 3 3 5 3 5 5 5 5 5 5 3 5 5 5 3 3 5 5 3 5 5 5 3 5 5 5 3 5 3 5 5 3 3 5 5 3 3 5 5 5 5 5 5 5 5 3 5 3 5 3 5 3 5 5 5 5 5 5 5 5 5 5 5 5 5 5 3 5 5 5 5 3 5 5 5 3 5 5 5 3 5 5 5 5 5 3 5 5 5 5 3 5 5 5 5 5 3 5 5 5 5 3 5 5 5 5 5 3 5 5 5 5 5 5 5 5 5 5 5 3 5 5 5 3 5 5 5 5 5 5 5 5 5 3 5 5 5 5 3 5 5 3 5 5 5 5 5 5 5 5 5 5 5 5 5 5 5 5 5 5 5 5 3 5 5 5 5 5 3 5 5 5 5 5 5 5 5 5 5 5 5 5 5 3 5 5 5 5 5 5 3 5 5 5 5 5 5 5 3 3 5 5 5 5 3 5 3 5 5 5 5 5 5 5 3 5 5 5 5 3 5 5 5 5 5 5 5 5 5 5 5 5 3 5 5 5 5 5 5 5 5 5 5 5 5 5 5 5 5 5 5 5 5 5 5 5 5 5 5 5 5 5 5 5 5 5 5 5 5 5 5 5 5 5 5 5 5 5 5 5 5 5 5 5 5 5 5 5 5 5 5 5 5 5 5 5 5 5 5 5 5 5 5 5 5 3 5 3 5 5 5 5 3 5 5 3 5 5 3 5 5 5 5 3 5 5 5 5 5 5 5 5 5 5 5 5 5 5 5 5 5 5 5 5 5 5 3 5 5 5 3 5 5 5 5 3 5 5 5 5 5 5 3 5 5 5 5 5 5 5 5 5 5 5 5 5 5 5 5 5 5 5 5 5 5 5 5 5 5 5 5 5 5 5 5 5 5 5 3 5 5 3 5 5 5 3 5 5 5 5 5 5 3 5 5 5 5 5 5 5 3 5 5 5 5 5 5 5 5 5 5 3 5 5 5 5 3 3 5 5 5 5 5 5 3 5 3 5 3 5 5 5 5 5 5 5 5 3 3 5 5 5 5 5 5 5 5 5 5 5 5 5 5 5 5 5 5 5 5 5 5 5 5 5 5 5 5 5 5 5 5 5 5 5 5 5 5 5 5 5 5 5 5 5 5 5 5 5 5 5 5 5 5 5 5 5 3 5 5 5 5 5 5 5 5 3 5 5 3 5 3 5 3 5 5 5 5 5 5 5 3 5 5 5 5 5 3 5 5 5 5 3 5 5 5 5 5 5 5 5 5 5 3 5 5 5 5 5 5 5 5 5 5 5 5 3 5 5 3 5 3 5 5 5 5 3 5 5 5 5 3 5 5 3 5 5 5 3 3 5 5 5 5 5 5 5 5 3 5 5 5 5 5 5 3 5 3 3 5 5 3 3 5 3 5 5 3 5 5 5 5 3 5 5 5 5 5 3 5 5 5 5 5 5 5 5 5 5 5 5 5 5 5 3 3 5 3 5 5 3 5 5 5 5 3 5 5 5 5 5 5 5 3 5 5 5 5 5 5 3 5 5 5 5 3 5 3 5 5 5 5 5 5 5 3 3 5 5 5 5 5 5 5 5 5 5 5 3 5 5 5 5 5 5 3 5 3 5 5 5 5 3 3 5 5 5 5 3 5 3 5 5 5 5 5 5 3 3 5 3 3 5 5 5 5 5 5 5 3 5 5 5 5 5 5 5 5 5 5 3 5 5 5 5 5 5 5 5 5 3 5 5 5 5 5 5 5 5 5 5 5 5 5 5 5 3 5 5 5 5 5 5 5 5 3 5 5 3 3 5 5 5 5 5 5 5 3 5 5 5 5 3 5 5 5 5 5 5 3 3 5 5 5 5 5 5 5 5 3 5 5 5 5 3 5 5 5 3 5 5 5 3 5 3 3 5 5 5 3 5 5 5 3 5 3 3 3 5 5 5 3 3 3 5 5 3 3 5 3 5 5 5 5 3 5 5 3 5 5 5 3 5 5 3 3 5 5 5 5 5 5 5 5 5 5 5 5 5 5 3 5 3 5 5 5 5 5 5 3 5 3 3 5 5 3 5 5 3 5 3 5 3 5 5 5 3 5 3 5 3 5 3 5 5 5 3 5 5 5 5 5 5 3 5 3 5 5 3 5 5 5 5 5 5 5 3 5 3 5 5 5 5 5 5 5 5 5 5 5 3 5 5 5 5 5 5 5 5 5 5 5 5 5 5 3 5 5 5 5 5 5 5 5 5 5 5 5 5 5 5 5 5 5 5 5 5 5 5 5 5 5 5 5 5 5 5 5 5 5 5 5 5 5 5 5 5 5 5 5 5 5 5 5 5 5 5 5 5 5 5 5 5 5 3 5 5 3 3 5 5 5 5 5 5 5 5 5 5 5 5 3 5 5 5 5 5 3 3 5 5 5 3 3 5 5 5 5 5 5 3 5 5 5 5 5 5 5 5 3 5 5 5 5 5 5 5 5 5 5 5 5 3 5 5 3 5 5 5 3 5 5 5 5 5 5 5 5 5 5 3 5 5 5 3 5 3 5 5 5 5 5 5 5 5 5 5 5 5 5 5 5 5 5 3 5 5 5 5 5 5 5 5 5 5 5 5 5 5 5 5 3 5 5 5 5 5 3 5 5 5 5 5 5 3 5 5 3 5 5 5 5 5 5 5 5 5 5 5 5 5 5 5 5 5 5 5 5 5 5 5 5 5 5 5 5 5 5 5 5 5 5 5 5 5 3 5 5 3 5 5 5 5 3 5 5 5 5 5 5 5 5 5 5 5 3 5 5 5 5 5 5 5 5 5 5 5 5 5 5 5 5 5 5 5 5 5 5 5 5 3 5 5 5 5 5 3 5 5 5 5 5 5 5 5 5 5 5 5 3 5 5 5 5 5 5 3 5 5 5 5 5 5 5 5 3 5 3 5 5 5 5 5 5 5 5 5 5 5 5 5 5 5 5 5 5 5 3 5 5 5 5 5 5 3 3 5 5 5 5 5 5 5 5 5 5 5 5 5 5 5 5 5 5 5 5 3 5 3 5 5 5 5 3 5 5 5 5 5 5 5 5 5 5 5 3 5 5 5 3 5 5 5 5 5 5 5 5 5 5 5 5 3 5 5 5 5 5 5 5 3 5 5 5 5 3 5 5 5 5 5 3 5 5 5 3 5 5 5 5 5 5 5 5 5 5 5 5 5 5 5 5 5 5 5 5 5 5 5 3 5 5 5 3 5 5 5 5 3 5 5 5 3 5 5 5 5 5 5 5 5 5 3 5 5 5 5 5 3 5 3 5 5 5 5 5 5 5 5 5 5 5 5 5 5 5 3 5 5 5 3 5 5 5 3 5 5 5 5 5 5 5 5 5 5 5 3 5 5 5 5 5 5 5 5 5 5 5 5 5 5 5 5 5 5 5 5 5 5 5 5 5 5 5 5 5 5 5 3 5 5 5 5 5 5 5 5 5 5 5 5 5 5 5 5 5 5 5 5 5 5 5 5 5 5 5 5 5 5 5 5 5 5 5 5 5 5 5 5 5 5 5 5 5 5 5 5 5 5 5 5 5 3 5 3 5 5 3 5 5 5 3 5 5 5 3 5 3 5 5 5 5 5 5 5 3 5 5 3 5 5 5 3 5 3 5 5 5 3 5 5 5 3 5 5 5 3 5 3 5 5 3 5 3 5 5 5 5 3 5 3 5 5 5 5 3 5 5 5 5 5 5 5 5 5 5 5 3 5 5 5 5 5 5 5 5 5 5 5 5 5 5 5 5 5 5 5 5 5 5 5 3 5 5 3 5 3 5 3 5 5 5 5 3 5 3 5 5 5 5 5 3 5 5 5 5 5 5 5 5 5 5 5 3 5 5 5 3 5 3 3 5 5 3 3 5 5 3 5 5 5 3 5 5 3 3 5 5 5 5 5 5 5 5 5 5 5 5 5 5 5 5 5 5 5 5 5 5 5 5 3 5 5 5 5 5 5 5 3 5 5 5 5 5 5 5 5 5 5 5 5 5 5 5 5 3 5 5 5 3 5 5 5 5 5 5 5 3 5 5 5 5 5 5 5 5 5 5 3 5 5 5 5 5 5 5 5 5 5 3 5 5 5 5 5 5 5 5 5 5 5 5 5 5 5 5 5 3 5 5 5 5 5 3 5 5 3 5 3 5 5 5 5 5 5 5 5 5 5 5 5 5 5 5 5 5 5 5 5 5 5 5 5 5 5 5 5 5 5 5 5 5 5 5 5 5 5 5 5 5 5 5 5 5 5 5 5 5 5 5 5 5 5 5 5 5 3 5 5 5 5 5 5 5 5 5 5 5 5 5 5 5 3 5 5 5 5 5 5 5 5 5 5 5 5 5 5 5 5 5 5 5 5 5 5 5 5 5 3 5 3 5 5 5 5 5 5 5 5 3 5 5 5 5 5 5 5 5 5 5 5 5 5 5 5 5 5 3 5 5 5 3 5 5 5 5 5 5 5 5 3 3 5 5 3 5 5 5 5 5 5 5 5 5 5 5 5 5 5 5 5 5 5 5 5 5 5 5 5 5 5 5 5 5 5 5 5 5 5 5 5 5 5 5 5 5 5 5 5 5 5 5 5 3 5 5 3 5 5 5 5 5 3 5 5 5 3 5 5 5 3 5 5 5 3 5 5 5 5 5 5 5 5 5 3 5 5 5 5 5 3 5 5 5 5 5 5 5 5 5 5 5 5 5 5 5 5 5 5 5 5 5 5 5 3 5 5 5 5 3 5 5 5 5 5 5 5 5 5 5 5 5 5 5 3 5 5 5 5 5 5 3 5 3 5 5 5 3 5 5 5 5 5 5 5 5 5 3 5 5 5 5 5 5 5 3 5 5 5 5 5 5 5 5 5 5 5 5 5 5 3 5 3 3 3 5 5 5 5 5 5 3 5 5 5 5 3 5 5 5 5 5 5 5 5 3 5 5 3 3 5 5 3 5 5 5 5 3 5 5 5 5 5 5 5 5 3 5 5 3 3 5 3 5 5 5 5 5 5 5 5 5 5 5 5 5 5 5 5 5 5 5 5 5 5 5 5 3 3 5 5 3 5 5 5 5 5 5 3 5 5 5 5 5 5 5 5 5 5 5 5 5 3 5 5 5 5 5 5 3 5 5 5 3 5 5 5 5 5 5 5 5 3 5 5 5 5 5 5 5 5 5 3 5 5 3 5 5 3 5 3 5 5 3 5 5 3 5 5 3 5 5 5 3 3 5 5 5 3 5 3 5 5 3 5 5 5 5 3 3 5 3 5 5 5 5 5 5 5 5 5 5 5 5 5 5 5 5 5 5 5 3 5 5 5 5 3 5 5 5 5 5 5 5 5 5 5 5 5 5 5 5 5 5 5 5 5 5 5 5 5 5 5 5 5 5 5 
</DataArray>
</Cells>
<PointData Scalars="" Vectors="displacement," Tensors="">
<DataArray type="Float64" Name="displacement" NumberOfComponents="3" format="ascii">
-0.024997881536542241 -7.4565661977564627e-07 0 -0.024091313624436009 -2.5893891031034025e-05 0 -0.024629401996937396 -0.00016811870935667746 0 -0.024997881536542241 -7.4565661977564627e-07 0 -0.024629401996937396 -0.00016811870935667746 0 -0.02499930693609299 -1.2011581762836545e-07 0 -0.024997881536542241 -7.4565661977564627e-07 0 -0.024091313624436009 -2.5893891031034025e-05 0 -0.022420150625152308 9.376171711405133e-07 0 -0.023793205088083292 -0.00024038199042119177 0 -0.02449553167225613 -0.00020070580728010938 0 -0.023793205088083292 -0.00024038199042119177 0 -0.022416972915163196 -6.1350887970260205e-08 0 -0.023490610317279018 -0.0004586473940270681 0 -0.023290888660534796 -6.7647749260081995e-05 0 -0.024115418397164707 -0.000220210800620696 0 -0.023290888660534796 -6.7647749260081995e-05 0 -0.024176412312438604 3.0934743632440319e-05 0 -0.023514654750697628 0.00067633661439135402 0 -0.023490610317279018 -0.0004586473940270681 0 -0.023290888660534796 -6.7647749260081995e-05 0 -0.022413842518655597 -2.3017455271648817e-06 0 -0.023290888660534796 -6.7647749260081995e-05 0 -0.022413842518655597 -2.3017455271648817e-06 0 -0.021522911925296782 2.6543386364951307e-06 0 -0.024176412312438604 3.0934743632440319e-05 0 -0.024527660817832461 2.935936339468534e-05 0 -0.024294931713981685 0.00022520987319098271 0 -0.024176412312438604 3.0934743632440319e-05 0 -0.024569663973772238 -0.00013509185840675334 0 -0.024527660817832461 2.935936339468534e-05 0 -0.023290888660534796 -6.7647749260081995e-05 0 -0.024176412312438604 3.0934743632440319e-05 0 -0.024115418397164707 -0.000220210800620696 0 -0.024176412312438604 3.0934743632440319e-05 0 -0.024115418397164707 -0.000220210800620696 0 -0.024569663973772238 -0.00013509185840675334 0 -0.024569663973772238 -0.00013509185840675334 0 -0.024629401996937396 -0.00016811870935667746 0 -0.02499930693609299 -1.2011581762836545e-07 0 -0.024115418397164707 -0.000220210800620696 0 -0.024569663973772238 -0.00013509185840675334 0 -0.024629401996937396 -0.00016811870935667746 0 -0.023490610317279018 -0.0004586473940270681 0 -0.024115418397164707 -0.000220210800620696 0 -0.024629401996937396 -0.00016811870935667746 0 -0.024569663973772238 -0.00013509185840675334 0 -0.02499930693609299 -1.2011581762836545e-07 0 -0.024714824447140422 -5.5492405909556269e-05 0 -0.02499930693609299 -1.2011581762836545e-07 0 -0.02480297487390384 -2.5938768626348195e-05 0 -0.024714824447140422 -5.5492405909556269e-05 0 -0.02499930693609299 -1.2011581762836545e-07 0 -0.02480297487390384 -2.5938768626348195e-05 0 -0.024999646269681527 -2.2321419290410563e-08 0 -0.02480297487390384 -2.5938768626348195e-05 0 -0.024635652187799631 -2.2556838788353752e-05 0 -0.024999646269681527 -2.2321419290410563e-08 0 -0.02480297487390384 -2.5938768626348195e-05 0 -0.024624979918927873 -8.1533947523751725e-07 0 -0.024635652187799631 -2.2556838788353752e-05 0 -0.024624979918927873 -8.1533947523751725e-07 0 -0.024635652187799631 -2.2556838788353752e-05 0 -0.024437420044775147 1.961045871225135e-05 0 -0.024569663973772238 -0.00013509185840675334 0 -0.024714824447140422 -5.5492405909556269e-05 0 -0.024527660817832461 2.935936339468534e-05 0 -0.02480297487390384 -2.5938768626348195e-05 0 -0.024624979918927873 -8.1533947523751725e-07 0 -0.024714824447140422 -5.5492405909556269e-05 0 -0.024624979918927873 -8.1533947523751725e-07 0 -0.024714824447140422 -5.5492405909556269e-05 0 -0.024527660817832461 2.935936339468534e-05 0 -0.024624979918927873 -8.1533947523751725e-07 0 -0.024485158412585823 5.895271195146315e-05 0 -0.024437420044775147 1.961045871225135e-05 0 -0.024624979918927873 -8.1533947523751725e-07 0 -0.024527660817832461 2.935936339468534e-05 0 -0.024485158412585823 5.895271195146315e-05 0 -0.024527660817832461 2.935936339468534e-05 0 -0.024396167828586245 0.00016849411664047225 0 -0.024485158412585823 5.895271195146315e-05 0 -0.024527660817832461 2.935936339468534e-05 0 -0.024396167828586245 0.00016849411664047225 0 -0.024294931713981685 0.00022520987319098271 0 -0.024485158412585823 5.895271195146315e-05 0 -0.024363633269509008 7.8265720495563314e-05 0 -0.024437420044775147 1.961045871225135e-05 0 -0.024396167828586245 0.00016849411664047225 0 -0.024485158412585823 5.895271195146315e-05 0 -0.024363633269509008 7.8265720495563314e-05 0 -0.024363633269509008 7.8265720495563314e-05 0 -0.024320618227450061 2.181740013403577e-05 0 -0.024437420044775147 1.961045871225135e-05 0 -0.024363633269509008 7.8265720495563314e-05 0 -0.024320618227450061 2.181740013403577e-05 0 -0.024247749069036952 2.3118833363072233e-05 0 -0.024320618227450061 2.181740013403577e-05 0 -0.024312286230003602 4.2492755668827018e-07 0 -0.024258201089677002 -2.8051305708183963e-05 0 -0.024320618227450061 2.181740013403577e-05 0 -0.024247749069036952 2.3118833363072233e-05 0 -0.024258201089677002 -2.8051305708183963e-05 0 -0.024247749069036952 2.3118833363072233e-05 0 -0.023475611755097194 4.8659369551600715e-05 0 -0.023970798352326836 0.00020322345047475872 0 -0.024396167828586245 0.00016849411664047225 0 -0.024247749069036952 2.3118833363072233e-05 0 -0.024292617229084674 0.00040966922214585546 0 -0.024396167828586245 0.00016849411664047225 0 -0.024363633269509008 7.8265720495563314e-05 0 -0.024247749069036952 2.3118833363072233e-05 0 -0.024200712374209388 4.3930128751223917e-05 0 -0.023596601360249686 8.3796482776147234e-05 0 -0.024247749069036952 2.3118833363072233e-05 0 -0.023475611755097194 4.8659369551600715e-05 0 -0.022940217225779304 -0.0002609340837653512 0 -0.024635652187799631 -2.2556838788353752e-05 0 -0.024407155977423031 -2.1136918257254287e-05 0 -0.024437420044775147 1.961045871225135e-05 0 -0.024320618227450061 2.181740013403577e-05 0 -0.024437420044775147 1.961045871225135e-05 0 -0.024312286230003602 4.2492755668827018e-07 0 -0.024437420044775147 1.961045871225135e-05 0 -0.024265607170321075 -5.7997955402208616e-06 0 -0.024312286230003602 4.2492755668827018e-07 0 -0.024407155977423031 -2.1136918257254287e-05 0 -0.024437420044775147 1.961045871225135e-05 0 -0.024265607170321075 -5.7997955402208616e-06 0 -0.024265607170321075 -5.7997955402208616e-06 0 -0.024312286230003602 4.2492755668827018e-07 0 -0.024285766694789577 7.3441872759567335e-06 0 -0.024312286230003602 4.2492755668827018e-07 0 -0.024285766694789577 7.3441872759567335e-06 0 -0.024258201089677002 -2.8051305708183963e-05 0 -0.022762132442678985 -0.00018162561674546355 0 -0.022213419879217169 0.00024676333302180804 0 -0.024285766694789577 7.3441872759567335e-06 0 -0.024281904136121139 -0.00011618845648928445 0 -0.024125664845257515 0.00038207563365173699 0 -0.024265607170321075 -5.7997955402208616e-06 0 -0.024285766694789577 7.3441872759567335e-06 0 -0.024281904136121139 -0.00011618845648928445 0 -0.024265607170321075 -5.7997955402208616e-06 0 -0.024281904136121139 -0.00011618845648928445 0 -0.024018609057637114 -6.5131776233744257e-05 0 -0.023475611755097194 4.8659369551600715e-05 0 -0.023681745195597792 0.00064760655017866099 0 -0.023970798352326836 0.00020322345047475872 0 -0.023273338162826174 -0.00025263006182972992 0 -0.024258201089677002 -2.8051305708183963e-05 0 -0.023955358377106706 1.8201453623431746e-05 0 -0.023681745195597792 0.00064760655017866099 0 -0.023970798352326836 0.00020322345047475872 0 -0.024258201089677002 -2.8051305708183963e-05 0 -0.023410763315207903 0.00021749488648706137 0 -0.024150562106950418 -8.8444266906293188e-06 0 -0.024285766694789577 7.3441872759567335e-06 0 -0.024258201089677002 -2.8051305708183963e-05 0 -0.023955358377106706 1.8201453623431746e-05 0 -0.024247749069036952 2.3118833363072233e-05 0 -0.023970798352326836 0.00020322345047475872 0 -0.024258201089677002 -2.8051305708183963e-05 0 -0.024285766694789577 7.3441872759567335e-06 0 -0.023955358377106706 1.8201453623431746e-05 0 -0.024125664845257515 0.00038207563365173699 0 -0.023955358377106706 1.8201453623431746e-05 0 -0.024125664845257515 0.00038207563365173699 0 -0.022692206453324894 0.00070562098481256495 0 -0.023273338162826174 -0.00025263006182972992 0 -0.023955358377106706 1.8201453623431746e-05 0 -0.022692206453324894 0.00070562098481256495 0 -0.023273338162826174 -0.00025263006182972992 0 -0.021698402328940297 4.7038749946570196e-05 0 -0.022692206453324894 0.00070562098481256495 0 -0.023681745195597792 0.00064760655017866099 0 -0.022710832534890847 0.00069942345098110447 0 -0.022796368674308634 0.0010823471584324811 0 -0.023410763315207903 0.00021749488648706137 0 -0.022362918714342636 0.00058728623675851049 0 -0.023475611755097194 4.8659369551600715e-05 0 -0.022613790212941624 0.00031566074887484652 0 -0.022490731534415796 0.0009076128557900428 0 -0.023475611755097194 4.8659369551600715e-05 0 -0.023681745195597792 0.00064760655017866099 0 -0.022710832534890847 0.00069942345098110447 0 -0.023352498561464867 9.608230206840762e-05 0 -0.022837186942647008 0.00085367226306572543 0 -0.022118638156113021 0.00064643998570178079 0 -0.021618019405341363 0.00042439894236948343 0 -0.022115555208840575 0.00020822010969776732 0 -0.022613790212941624 0.00031566074887484652 0 -0.022118638156113021 0.00064643998570178079 0 -0.022115555208840575 0.00020822010969776732 0 -0.022613790212941624 0.00031566074887484652 0 -0.022490731534415796 0.0009076128557900428 0 -0.022118638156113021 0.00064643998570178079 0 -0.022490731534415796 0.0009076128557900428 0 -0.022118638156113021 0.00064643998570178079 0 -0.02201398868945378 0.0009910151106170995 0 -0.022118638156113021 0.00064643998570178079 0 -0.02201398868945378 0.0009910151106170995 0 -0.021757908459388412 0.00086822085917446774 0 -0.021698402328940297 4.7038749946570196e-05 0 -0.020262419703878144 0.00059702908739338615 0 -0.022692206453324894 0.00070562098481256495 0 -0.022710832534890847 0.00069942345098110447 0 -0.022796368674308634 0.0010823471584324811 0 -0.021770945544616904 0.0014702409572005899 0 -0.022837186942647008 0.00085367226306572543 0 -0.020127290231210172 0.00054377838477584213 0 -0.022490731534415796 0.0009076128557900428 0 -0.02201398868945378 0.0009910151106170995 0 -0.021690468674490329 0.0015326797015486854 0 -0.022362918714342636 0.00058728623675851049 0 -0.020127290231210172 0.00054377838477584213 0 -0.021698402328940297 4.7038749946570196e-05 0 -0.020262419703878144 0.00059702908739338615 0 -0.020033572699943426 0.00062565017126336704 0 -0.02201398868945378 0.0009910151106170995 0 -0.021757908459388412 0.00086822085917446774 0 -0.021690468674490329 0.0015326797015486854 0 -0.020251951582705222 0.00035326539128615329 0 -0.020127290231210172 0.00054377838477584213 0 -0.021225576822760349 0.00073298081632340074 0 -0.021757908459388412 0.00086822085917446774 0 -0.021690468674490329 0.0015326797015486854 0 -0.018922635011057874 -4.0073994851824714e-05 0 -0.019243298931398849 4.5943521383195424e-05 0 -0.01864266616405991 -7.5827375195491555e-05 0 -0.018775076757416825 -7.5004648348775236e-05 0 -0.018922635011057874 -4.0073994851824714e-05 0 -0.018712022455838112 -8.4675913357212438e-05 0 -0.018775076757416825 -7.5004648348775236e-05 0 -0.018922635011057874 -4.0073994851824714e-05 0 -0.01864266616405991 -7.5827375195491555e-05 0 -0.018922635011057874 -4.0073994851824714e-05 0 -0.018686233806712766 -6.8053009701386186e-05 0 -0.018712022455838112 -8.4675913357212438e-05 0 -0.018922635011057874 -4.0073994851824714e-05 0 -0.019310793781586282 -3.6000401313619686e-07 0 -0.018686233806712766 -6.8053009701386186e-05 0 -0.018922635011057874 -4.0073994851824714e-05 0 -0.019310793781586282 -3.6000401313619686e-07 0 -0.019243298931398849 4.5943521383195424e-05 0 -0.019310793781586282 -3.6000401313619686e-07 0 -0.019243298931398849 4.5943521383195424e-05 0 -0.020723164151458077 5.818210801217288e-07 0 -0.020251951582705222 0.00035326539128615329 0 -0.020724024291946707 -9.0971082601021619e-08 0 -0.021225576822760349 0.00073298081632340074 0 -0.021618019405341363 0.00042439894236948343 0 -0.021303289677853342 -2.4783803907442509e-07 0 -0.022118638156113021 0.00064643998570178079 0 -0.021757908459388412 0.00086822085917446774 0 -0.021618019405341363 0.00042439894236948343 0 -0.021225576822760349 0.00073298081632340074 0 -0.021757908459388412 0.00086822085917446774 0 -0.021618019405341363 0.00042439894236948343 0 -0.021618019405341363 0.00042439894236948343 0 -0.021617520476070587 -0.0002820067376527213 0 -0.022115555208840575 0.00020822010969776732 0 -0.021618019405341363 0.00042439894236948343 0 -0.021303289677853342 -2.4783803907442509e-07 0 -0.021617520476070587 -0.0002820067376527213 0 -0.021303289677853342 -2.4783803907442509e-07 0 -0.020727564954256004 9.3168250707001085e-07 0 -0.021516020835929489 -1.1122438539245785e-06 0 -0.021225576822760349 0.00073298081632340074 0 -0.021303289677853342 -2.4783803907442509e-07 0 -0.020727564954256004 9.3168250707001085e-07 0 -0.021519317368799511 5.9481453870436134e-08 0 -0.022583942230427544 0.00017368273043502964 0 -0.021303289677853342 -2.4783803907442509e-07 0 -0.021516020835929489 -1.1122438539245785e-06 0 -0.021617520476070587 -0.0002820067376527213 0 -0.023290888660534796 -6.7647749260081995e-05 0 -0.021522911925296782 2.6543386364951307e-06 0 -0.023514654750697628 0.00067633661439135402 0 -0.024176412312438604 3.0934743632440319e-05 0 -0.023514654750697628 0.00067633661439135402 0 -0.024294931713981685 0.00022520987319098271 0 -0.023514654750697628 0.00067633661439135402 0 -0.024294931713981685 0.00022520987319098271 0 -0.024292617229084674 0.00040966922214585546 0 -0.024396167828586245 0.00016849411664047225 0 -0.024294931713981685 0.00022520987319098271 0 -0.024292617229084674 0.00040966922214585546 0 -0.023475611755097194 4.8659369551600715e-05 0 -0.022613790212941624 0.00031566074887484652 0 -0.022940217225779304 -0.0002609340837653512 0 -0.022613790212941624 0.00031566074887484652 0 -0.022940217225779304 -0.0002609340837653512 0 -0.022115555208840575 0.00020822010969776732 0 -0.022583942230427544 0.00017368273043502964 0 -0.023596601360249686 8.3796482776147234e-05 0 -0.021617520476070587 -0.0002820067376527213 0 -0.022940217225779304 -0.0002609340837653512 0 -0.022115555208840575 0.00020822010969776732 0 -0.024970541557646109 -9.9221729262536329e-06 0 -0.024966917307567438 -2.5616399500272592e-05 0 -0.024955336689450165 -1.9128765176706689e-05 0 -0.02472257894891999 -4.8387066132641941e-05 0 -0.02462273911104243 -9.9593212497654747e-05 0 -0.024970541557646109 -9.9221729262536329e-06 0 -0.024981841334342621 -1.0486076657268321e-05 0 -0.024966917307567438 -2.5616399500272592e-05 0 -0.024970541557646109 -9.9221729262536329e-06 0 -0.024981841334342621 -1.0486076657268321e-05 0 -0.024986944747135972 -5.9568876659534492e-07 0 -0.024981841334342621 -1.0486076657268321e-05 0 -0.024986944747135972 -5.9568876659534492e-07 0 -0.024992584181433321 -1.3533521374784776e-06 0 -0.02472257894891999 -4.8387066132641941e-05 0 -0.024845671393141835 -2.4666524489325344e-05 0 -0.024970541557646109 -9.9221729262536329e-06 0 -0.024986944747135972 -5.9568876659534492e-07 0 -0.024974372921630114 -1.7346295472622406e-06 0 -0.024986944747135972 -5.9568876659534492e-07 0 -0.024999983676645982 7.3642282034825521e-10 0 -0.024999970547377254 6.360951551465157e-09 0 -0.024986944747135972 -5.9568876659534492e-07 0 -0.024999983676645982 7.3642282034825521e-10 0 -0.024992584181433321 -1.3533521374784776e-06 0 -0.024999983676645982 7.3642282034825521e-10 0 -0.024992584181433321 -1.3533521374784776e-06 0 -0.024999998895902639 -1.4316080976898398e-09 0 -0.024701156025797141 -1.6990887016714133e-05 0 -0.024998999019413399 3.7413383899875553e-08 0 -0.024814585535885732 -1.6183212720822494e-05 0 -0.024701156025797141 -1.6990887016714133e-05 0 -0.024619061640517668 -6.379436381207303e-05 0 -0.024814585535885732 -1.6183212720822494e-05 0 -0.024845671393141835 -2.4666524489325344e-05 0 -0.024999926616911864 -3.8015975888281185e-08 0 -0.024467147599520431 -6.7950580268362831e-05 0 -0.024619061640517668 -6.379436381207303e-05 0 -0.024465912081918742 -0.00011374572933640114 0 -0.024467147599520431 -6.7950580268362831e-05 0 -0.024701156025797141 -1.6990887016714133e-05 0 -0.024619061640517668 -6.379436381207303e-05 0 -0.024619061640517668 -6.379436381207303e-05 0 -0.024465912081918742 -0.00011374572933640114 0 -0.024409710354444471 -0.00013154803696145172 0 -0.024467147599520431 -6.7950580268362831e-05 0 -0.024465912081918742 -0.00011374572933640114 0 -0.024265077796000158 -0.00016220112303743178 0 -0.024998999019413399 3.7413383899875553e-08 0 -0.024814585535885732 -1.6183212720822494e-05 0 -0.024999646269681527 -2.2321419290410563e-08 0 -0.024619061640517668 -6.379436381207303e-05 0 -0.024664157639388756 -4.1506755479059267e-05 0 -0.024409710354444471 -0.00013154803696145172 0 -0.024664157639388756 -4.1506755479059267e-05 0 -0.024464993033764558 -5.907411618939915e-05 0 -0.024409710354444471 -0.00013154803696145172 0 -0.024619061640517668 -6.379436381207303e-05 0 -0.024664157639388756 -4.1506755479059267e-05 0 -0.024814585535885732 -1.6183212720822494e-05 0 -0.024664157639388756 -4.1506755479059267e-05 0 -0.024814585535885732 -1.6183212720822494e-05 0 -0.024999646269681527 -2.2321419290410563e-08 0 -0.024635652187799631 -2.2556838788353752e-05 0 -0.024664157639388756 -4.1506755479059267e-05 0 -0.024999646269681527 -2.2321419290410563e-08 0 -0.024635652187799631 -2.2556838788353752e-05 0 -0.024664157639388756 -4.1506755479059267e-05 0 -0.024464993033764558 -5.907411618939915e-05 0 -0.024407155977423031 -2.1136918257254287e-05 0 -0.024464993033764558 -5.907411618939915e-05 0 -0.024218766808250893 -8.7649056236162144e-05 0 -0.024635652187799631 -2.2556838788353752e-05 0 -0.024407155977423031 -2.1136918257254287e-05 0 -0.024464993033764558 -5.907411618939915e-05 0 -0.024464993033764558 -5.907411618939915e-05 0 -0.024218766808250893 -8.7649056236162144e-05 0 -0.024409710354444471 -0.00013154803696145172 0 -0.024407155977423031 -2.1136918257254287e-05 0 -0.024265607170321075 -5.7997955402208616e-06 0 -0.024218766808250893 -8.7649056236162144e-05 0 -0.024265607170321075 -5.7997955402208616e-06 0 -0.024218766808250893 -8.7649056236162144e-05 0 -0.024018609057637114 -6.5131776233744257e-05 0 -0.022762132442678985 -0.00018162561674546355 0 -0.023451815567161281 -0.0002912499804225861 0 -0.024281904136121139 -0.00011618845648928445 0 -0.024018609057637114 -6.5131776233744257e-05 0 -0.023503549893096807 -0.00029420884354225949 0 -0.024018609057637114 -6.5131776233744257e-05 0 -0.023503549893096807 -0.00029420884354225949 0 -0.024060374786981652 -0.00018269764715067729 0 -0.023503549893096807 -0.00029420884354225949 0 -0.024060374786981652 -0.00018269764715067729 0 -0.024039712486816741 -9.1816400262016189e-05 0 -0.024218766808250893 -8.7649056236162144e-05 0 -0.024018609057637114 -6.5131776233744257e-05 0 -0.024060374786981652 -0.00018269764715067729 0 -0.024060374786981652 -0.00018269764715067729 0 -0.024274559086291704 -0.00018557568361758677 0 -0.024409710354444471 -0.00013154803696145172 0 -0.024060374786981652 -0.00018269764715067729 0 -0.024039712486816741 -9.1816400262016189e-05 0 -0.024274559086291704 -0.00018557568361758677 0 -0.024235150516052423 -8.9206370697756629e-05 0 -0.024274559086291704 -0.00018557568361758677 0 -0.024303967846111711 -0.00015699465988540468 0 -0.024235150516052423 -8.9206370697756629e-05 0 -0.024303967846111711 -0.00015699465988540468 0 -0.024343410007441495 2.5995894608194013e-05 0 -0.024039712486816741 -9.1816400262016189e-05 0 -0.024235150516052423 -8.9206370697756629e-05 0 -0.024274559086291704 -0.00018557568361758677 0 -0.024274559086291704 -0.00018557568361758677 0 -0.024409710354444471 -0.00013154803696145172 0 -0.024353341125880029 -0.00017053587368502708 0 -0.024218766808250893 -8.7649056236162144e-05 0 -0.024060374786981652 -0.00018269764715067729 0 -0.024409710354444471 -0.00013154803696145172 0 -0.024465912081918742 -0.00011374572933640114 0 -0.024409710354444471 -0.00013154803696145172 0 -0.024353341125880029 -0.00017053587368502708 0 -0.024465912081918742 -0.00011374572933640114 0 -0.024353341125880029 -0.00017053587368502708 0 -0.024265077796000158 -0.00016220112303743178 0 -0.024353341125880029 -0.00017053587368502708 0 -0.024298305120939535 -0.00020093765263390343 0 -0.024192125474489415 -0.00022228180461186003 0 -0.024353341125880029 -0.00017053587368502708 0 -0.024192125474489415 -0.00022228180461186003 0 -0.024265077796000158 -0.00016220112303743178 0 -0.024274559086291704 -0.00018557568361758677 0 -0.024353341125880029 -0.00017053587368502708 0 -0.024298305120939535 -0.00020093765263390343 0 -0.024274559086291704 -0.00018557568361758677 0 -0.024303967846111711 -0.00015699465988540468 0 -0.024298305120939535 -0.00020093765263390343 0 -0.024303967846111711 -0.00015699465988540468 0 -0.024309638768778022 -0.00021652081331128759 0 -0.024343410007441495 2.5995894608194013e-05 0 -0.023446761206942859 3.4759530826167456e-05 0 -0.023069308871146783 0.0004279019887385259 0 -0.024303967846111711 -0.00015699465988540468 0 -0.024309638768778022 -0.00021652081331128759 0 -0.024298305120939535 -0.00020093765263390343 0 -0.022653167729464484 0.00018777441326204989 0 -0.024011994033008622 -0.00026422604369502693 0 -0.023710460158347137 0.00047815985383125567 0 -0.023446761206942859 3.4759530826167456e-05 0 -0.023942889489061106 -0.00024882206705209114 0 -0.022653167729464484 0.00018777441326204989 0 -0.023710460158347137 0.00047815985383125567 0 -0.02299965296585324 0.00083009249518967902 0 -0.024298305120939535 -0.00020093765263390343 0 -0.024011994033008622 -0.00026422604369502693 0 -0.024192125474489415 -0.00022228180461186003 0 -0.024309638768778022 -0.00021652081331128759 0 -0.024298305120939535 -0.00020093765263390343 0 -0.024011994033008622 -0.00026422604369502693 0 -0.024011994033008622 -0.00026422604369502693 0 -0.024216339883292484 -0.0003128499472084057 0 -0.024192125474489415 -0.00022228180461186003 0 -0.024011994033008622 -0.00026422604369502693 0 -0.023710460158347137 0.00047815985383125567 0 -0.024569357240929474 0.00038231831390388518 0 -0.024877336192802368 0.00023022992615003249 0 -0.024578234192197561 -0.00017243943372449006 0 -0.024934128367131519 -3.6664710777469766e-05 0 -0.024948869605807777 -3.6547107323476164e-05 0 -0.024940078978616352 -3.6533321859851553e-05 0 -0.024011994033008622 -0.00026422604369502693 0 -0.024569357240929474 0.00038231831390388518 0 -0.024216339883292484 -0.0003128499472084057 0 -0.024948869605807777 -3.6547107323476164e-05 0 -0.024950727144925262 -3.017823120972528e-05 0 -0.024966917307567438 -2.5616399500272592e-05 0 -0.024948869605807777 -3.6547107323476164e-05 0 -0.024950727144925262 -3.017823120972528e-05 0 -0.024940078978616352 -3.6533321859851553e-05 0 -0.024578234192197561 -0.00017243943372449006 0 -0.02462273911104243 -9.9593212497654747e-05 0 -0.024216339883292484 -0.0003128499472084057 0 -0.024192125474489415 -0.00022228180461186003 0 -0.024265077796000158 -0.00016220112303743178 0 -0.024950727144925262 -3.017823120972528e-05 0 -0.024966917307567438 -2.5616399500272592e-05 0 -0.024955336689450165 -1.9128765176706689e-05 0 -0.021831387878196724 0.0018354759389143807 0 -0.021741414757014819 0.0018182564902508873 0 -0.021802398319542633 0.0017571044178790788 0 -0.021831387878196724 0.0018354759389143807 0 -0.021748865427966533 0.0018844485798319701 0 -0.021741414757014819 0.0018182564902508873 0 -0.021831387878196724 0.0018354759389143807 0 -0.021748865427966533 0.0018844485798319701 0 -0.021793618549837537 0.0019222181157610321 0 -0.021748865427966533 0.0018844485798319701 0 -0.021690109360254083 0.001880595207219009 0 -0.021741414757014819 0.0018182564902508873 0 -0.021690109360254083 0.001880595207219009 0 -0.021741414757014819 0.0018182564902508873 0 -0.021675232601792559 0.0018174900303476887 0 -0.021741414757014819 0.0018182564902508873 0 -0.021713328999329946 0.0017066702536463272 0 -0.021675232601792559 0.0018174900303476887 0 -0.021741414757014819 0.0018182564902508873 0 -0.021713328999329946 0.0017066702536463272 0 -0.021802398319542633 0.0017571044178790788 0 -0.021713328999329946 0.0017066702536463272 0 -0.021802398319542633 0.0017571044178790788 0 -0.021801800726240061 0.001667818028283082 0 -0.021831387878196724 0.0018354759389143807 0 -0.021802398319542633 0.0017571044178790788 0 -0.021919846626955505 0.001743287637614162 0 -0.021802398319542633 0.0017571044178790788 0 -0.021801800726240061 0.001667818028283082 0 -0.021919846626955505 0.001743287637614162 0 -0.021801800726240061 0.001667818028283082 0 -0.021901711088232585 0.0016069398171921177 0 -0.021919846626955505 0.001743287637614162 0 -0.02255361152234692 0.0016883870628090429 0 -0.023816861869050927 0.00071154706306483491 0 -0.021801800726240061 0.001667818028283082 0 -0.021737742994400108 0.0015926004886248298 0 -0.021901711088232585 0.0016069398171921177 0 -0.024877336192802368 0.00023022992615003249 0 -0.023816861869050927 0.00071154706306483491 0 -0.024569357240929474 0.00038231831390388518 0 -0.023595770893930189 0.0015783161169216945 0 -0.024926255785361291 0.0015842448608417519 0 -0.023710460158347137 0.00047815985383125567 0 -0.023595770893930189 0.0015783161169216945 0 -0.02299965296585324 0.00083009249518967902 0 -0.023710460158347137 0.00047815985383125567 0 -0.024569357240929474 0.00038231831390388518 0 -0.023595770893930189 0.0015783161169216945 0 -0.021713328999329946 0.0017066702536463272 0 -0.021801800726240061 0.001667818028283082 0 -0.021737742994400108 0.0015926004886248298 0 -0.021737742994400108 0.0015926004886248298 0 -0.021608060190983304 0.0015802598948503274 0 -0.021637389640224759 0.0016919524470638886 0 -0.021713328999329946 0.0017066702536463272 0 -0.021737742994400108 0.0015926004886248298 0 -0.021637389640224759 0.0016919524470638886 0 -0.02255361152234692 0.0016883870628090429 0 -0.021742688967362582 0.0014315335599275143 0 -0.023595770893930189 0.0015783161169216945 0 -0.022162946665274942 0.0011995711332253593 0 -0.021654377772178081 0.0014386000561670523 0 -0.021737742994400108 0.0015926004886248298 0 -0.021654377772178081 0.0014386000561670523 0 -0.021608060190983304 0.0015802598948503274 0 -0.023595770893930189 0.0015783161169216945 0 -0.02299965296585324 0.00083009249518967902 0 -0.022162946665274942 0.0011995711332253593 0 -0.022653167729464484 0.00018777441326204989 0 -0.02299965296585324 0.00083009249518967902 0 -0.022162946665274942 0.0011995711332253593 0 -0.022653167729464484 0.00018777441326204989 0 -0.022162946665274942 0.0011995711332253593 0 -0.021525052772711897 0.0009258742572456906 0 -0.022077290342064557 0.0011827867437317235 0 -0.02111172928756231 0.0014005299332251317 0 -0.022162946665274942 0.0011995711332253593 0 -0.021654377772178081 0.0014386000561670523 0 -0.021034823346544839 0.0013236306458713225 0 -0.022162946665274942 0.0011995711332253593 0 -0.021525052772711897 0.0009258742572456906 0 -0.021430416765569432 0.0013548358780483434 0 -0.021654377772178081 0.0014386000561670523 0 -0.021319424934777353 0.0015367090264634044 0 -0.021034823346544839 0.0013236306458713225 0 -0.021654377772178081 0.0014386000561670523 0 -0.021319424934777353 0.0015367090264634044 0 -0.021608060190983304 0.0015802598948503274 0 -0.021608060190983304 0.0015802598948503274 0 -0.021439018851009843 0.001704355605345776 0 -0.021637389640224759 0.0016919524470638886 0 -0.021319424934777353 0.0015367090264634044 0 -0.021608060190983304 0.0015802598948503274 0 -0.021439018851009843 0.001704355605345776 0 -0.021439018851009843 0.001704355605345776 0 -0.021385264706301445 0.0019181282782380412 0 -0.021506953450944194 0.00179242267127155 0 -0.021385264706301445 0.0019181282782380412 0 -0.021506953450944194 0.00179242267127155 0 -0.021562211017117798 0.0018457996687798509 0 -0.021439018851009843 0.001704355605345776 0 -0.021506953450944194 0.00179242267127155 0 -0.021637389640224759 0.0016919524470638886 0 -0.021713328999329946 0.0017066702536463272 0 -0.021637389640224759 0.0016919524470638886 0 -0.02165171936355275 0.0017694783461736493 0 -0.021713328999329946 0.0017066702536463272 0 -0.02165171936355275 0.0017694783461736493 0 -0.021675232601792559 0.0018174900303476887 0 -0.02165171936355275 0.0017694783461736493 0 -0.021675232601792559 0.0018174900303476887 0 -0.02162576265784864 0.0018410291406527554 0 -0.02165171936355275 0.0017694783461736493 0 -0.021562211017117798 0.0018457996687798509 0 -0.02162576265784864 0.0018410291406527554 0 -0.021506953450944194 0.00179242267127155 0 -0.021637389640224759 0.0016919524470638886 0 -0.021562211017117798 0.0018457996687798509 0 -0.021637389640224759 0.0016919524470638886 0 -0.02165171936355275 0.0017694783461736493 0 -0.021562211017117798 0.0018457996687798509 0 -0.021562211017117798 0.0018457996687798509 0 -0.021590897331648217 0.0018803194250395984 0 -0.02162576265784864 0.0018410291406527554 0 -0.021562211017117798 0.0018457996687798509 0 -0.021590897331648217 0.0018803194250395984 0 -0.021548674071405795 0.0019185858560876951 0 -0.021675232601792559 0.0018174900303476887 0 -0.02162576265784864 0.0018410291406527554 0 -0.02162964311245269 0.001887435806286294 0 -0.021590897331648217 0.0018803194250395984 0 -0.02162576265784864 0.0018410291406527554 0 -0.02162964311245269 0.001887435806286294 0 -0.02162964311245269 0.001887435806286294 0 -0.021595121110670194 0.0019071445010074759 0 -0.021610919144545587 0.0019426465210200851 0 -0.021690109360254083 0.001880595207219009 0 -0.02162964311245269 0.001887435806286294 0 -0.021647274766314822 0.0019317859420107007 0 -0.021690109360254083 0.001880595207219009 0 -0.021675232601792559 0.0018174900303476887 0 -0.02162964311245269 0.001887435806286294 0 -0.021590897331648217 0.0018803194250395984 0 -0.021595121110670194 0.0019071445010074759 0 -0.021548674071405795 0.0019185858560876951 0 -0.021590897331648217 0.0018803194250395984 0 -0.02162964311245269 0.001887435806286294 0 -0.021595121110670194 0.0019071445010074759 0 -0.021385264706301445 0.0019181282782380412 0 -0.021548674071405795 0.0019185858560876951 0 -0.021547772209266552 0.0019165278524571009 0 -0.020191556892283372 0.0013921292650212434 0 -0.020109832941506423 0.0010985893506042354 0 -0.019654818383745297 0.001035761373127605 0 -0.020780281512678335 0.0016387325610403678 0 -0.020494755145415454 0.0013590968138544809 0 -0.021385264706301445 0.0019181282782380412 0 -0.021562211017117798 0.0018457996687798509 0 -0.021548674071405795 0.0019185858560876951 0 -0.020191556892283372 0.0013921292650212434 0 -0.020516474419692718 0.0012353316896529945 0 -0.020109832941506423 0.0010985893506042354 0 -0.020516474419692718 0.0012353316896529945 0 -0.020109832941506423 0.0010985893506042354 0 -0.020293177097686334 0.00092728783138668405 0 -0.020516474419692718 0.0012353316896529945 0 -0.020793799319440316 0.0010596020982891036 0 -0.020293177097686334 0.00092728783138668405 0 -0.020516474419692718 0.0012353316896529945 0 -0.020760081094081714 0.0012057077131367199 0 -0.020793799319440316 0.0010596020982891036 0 -0.020516474419692718 0.0012353316896529945 0 -0.020760081094081714 0.0012057077131367199 0 -0.020681479601672638 0.001343634771769499 0 -0.020681479601672638 0.001343634771769499 0 -0.02067724767307038 0.0014369142743084562 0 -0.020837933590148627 0.0012664564187464969 0 -0.020760081094081714 0.0012057077131367199 0 -0.020681479601672638 0.001343634771769499 0 -0.020837933590148627 0.0012664564187464969 0 -0.020516474419692718 0.0012353316896529945 0 -0.020681479601672638 0.001343634771769499 0 -0.020590107243757583 0.0014155451985226831 0 -0.020681479601672638 0.001343634771769499 0 -0.02067724767307038 0.0014369142743084562 0 -0.020590107243757583 0.0014155451985226831 0 -0.020780281512678335 0.0016387325610403678 0 -0.020760287012976355 0.0015264789870351263 0 -0.020191556892283372 0.0013921292650212434 0 -0.020516474419692718 0.0012353316896529945 0 -0.020590107243757583 0.0014155451985226831 0 -0.02067724767307038 0.0014369142743084562 0 -0.020590107243757583 0.0014155451985226831 0 -0.020794549726761785 0.0015616501447375708 0 -0.020191556892283372 0.0013921292650212434 0 -0.020590107243757583 0.0014155451985226831 0 -0.020794549726761785 0.0015616501447375708 0 -0.021439018851009843 0.001704355605345776 0 -0.021385264706301445 0.0019181282782380412 0 -0.020794549726761785 0.0015616501447375708 0 -0.020794549726761785 0.0015616501447375708 0 -0.021034823346544839 0.0013236306458713225 0 -0.020664769688227676 0.0015089242160939691 0 -0.021319424934777353 0.0015367090264634044 0 -0.021439018851009843 0.001704355605345776 0 -0.020794549726761785 0.0015616501447375708 0 -0.02111172928756231 0.0014005299332251317 0 -0.021676976541306583 0.0011772262938971679 0 -0.021319424934777353 0.0015367090264634044 0 -0.020794549726761785 0.0015616501447375708 0 -0.021034823346544839 0.0013236306458713225 0 -0.021525052772711897 0.0009258742572456906 0 -0.021430416765569432 0.0013548358780483434 0 -0.020784383748469252 0.0015462958250703248 0 -0.024343410007441495 2.5995894608194013e-05 0 -0.024167327758133343 0.00010843392932359134 0 -0.024161814710972351 0.00053121988797068622 0 -0.023069308871146783 0.0004279019887385259 0 -0.021676976541306583 0.0011772262938971679 0 -0.024039712486816741 -9.1816400262016189e-05 0 -0.024235150516052423 -8.9206370697756629e-05 0 -0.024167327758133343 0.00010843392932359134 0 -0.024235150516052423 -8.9206370697756629e-05 0 -0.024343410007441495 2.5995894608194013e-05 0 -0.024167327758133343 0.00010843392932359134 0 -0.024039712486816741 -9.1816400262016189e-05 0 -0.02400695285690177 0.00021494877408251319 0 -0.023685526348505459 0.00024960247368144571 0 -0.024039712486816741 -9.1816400262016189e-05 0 -0.024167327758133343 0.00010843392932359134 0 -0.02400695285690177 0.00021494877408251319 0 -0.024167327758133343 0.00010843392932359134 0 -0.02400695285690177 0.00021494877408251319 0 -0.024161814710972351 0.00053121988797068622 0 -0.02400695285690177 0.00021494877408251319 0 -0.024161814710972351 0.00053121988797068622 0 -0.023685526348505459 0.00024960247368144571 0 -0.02067724767307038 0.0014369142743084562 0 -0.020664769688227676 0.0015089242160939691 0 -0.020837933590148627 0.0012664564187464969 0 -0.024161814710972351 0.00053121988797068622 0 -0.023149631867326985 0.0010472007032689724 0 -0.023685526348505459 0.00024960247368144571 0 -0.021676976541306583 0.0011772262938971679 0 -0.020455471916503497 0.0014555552728092989 0 -0.021676976541306583 0.0011772262938971679 0 -0.022136451431286387 0.0011156973893501805 0 -0.02067724767307038 0.0014369142743084562 0 -0.020794549726761785 0.0015616501447375708 0 -0.020664769688227676 0.0015089242160939691 0 -0.020720288249707348 0.0013908700447740683 0 -0.020848101563854273 0.0013539810992142893 0 -0.020837933590148627 0.0012664564187464969 0 -0.023149631867326985 0.0010472007032689724 0 -0.023685526348505459 0.00024960247368144571 0 -0.022196696226339799 0.00039515090433085774 0 -0.023503549893096807 -0.00029420884354225949 0 -0.024039712486816741 -9.1816400262016189e-05 0 -0.023685526348505459 0.00024960247368144571 0 -0.023503549893096807 -0.00029420884354225949 0 -0.023685526348505459 0.00024960247368144571 0 -0.022196696226339799 0.00039515090433085774 0 -0.021226306200590756 -0.00031078071932405841 0 -0.023503549893096807 -0.00029420884354225949 0 -0.022196696226339799 0.00039515090433085774 0 -0.022136451431286387 0.0011156973893501805 0 -0.021276991915399786 0.0012067306965564291 0 -0.023149631867326985 0.0010472007032689724 0 -0.022196696226339799 0.00039515090433085774 0 -0.021253543024528677 0.0011490016576283248 0 -0.020848101563854273 0.0013539810992142893 0 -0.0209563986492191 0.0011134515716161163 0 -0.021253543024528677 0.0011490016576283248 0 -0.0209563986492191 0.0011134515716161163 0 -0.021253543024528677 0.0011490016576283248 0 -0.020797164897635743 0.0010561425242557499 0 -0.020848101563854273 0.0013539810992142893 0 -0.0209563986492191 0.0011134515716161163 0 -0.020837933590148627 0.0012664564187464969 0 -0.0209563986492191 0.0011134515716161163 0 -0.020837933590148627 0.0012664564187464969 0 -0.020831006125946985 0.0011072453033167124 0 -0.020831006125946985 0.0011072453033167124 0 -0.02075774585088953 0.0011162921978659743 0 -0.020793799319440316 0.0010596020982891036 0 -0.020760081094081714 0.0012057077131367199 0 -0.020837933590148627 0.0012664564187464969 0 -0.020831006125946985 0.0011072453033167124 0 -0.020760081094081714 0.0012057077131367199 0 -0.020831006125946985 0.0011072453033167124 0 -0.020793799319440316 0.0010596020982891036 0 -0.0209563986492191 0.0011134515716161163 0 -0.020793730863675017 0.0010827068875011712 0 -0.020797164897635743 0.0010561425242557499 0 -0.020831006125946985 0.0011072453033167124 0 -0.020793730863675017 0.0010827068875011712 0 -0.02075774585088953 0.0011162921978659743 0 -0.0209563986492191 0.0011134515716161163 0 -0.020831006125946985 0.0011072453033167124 0 -0.020793730863675017 0.0010827068875011712 0 -0.020793730863675017 0.0010827068875011712 0 -0.02075774585088953 0.0011162921978659743 0 -0.020573322044323904 0.0010870351014053673 0 -0.02075774585088953 0.0011162921978659743 0 -0.020572411326056979 0.0012621629298059838 0 -0.020573322044323904 0.0010870351014053673 0 -0.02075774585088953 0.0011162921978659743 0 -0.020790204624287732 0.0012513570179551203 0 -0.020793799319440316 0.0010596020982891036 0 -0.02075774585088953 0.0011162921978659743 0 -0.020790204624287732 0.0012513570179551203 0 -0.020572411326056979 0.0012621629298059838 0 -0.020790204624287732 0.0012513570179551203 0 -0.020572411326056979 0.0012621629298059838 0 -0.020652562087154311 0.0014906897814098729 0 -0.020572411326056979 0.0012621629298059838 0 -0.020652562087154311 0.0014906897814098729 0 -0.02031312728122342 0.0014303636863386173 0 -0.020652562087154311 0.0014906897814098729 0 -0.02031312728122342 0.0014303636863386173 0 -0.020432523812624885 0.0017844416660038624 0 -0.020652562087154311 0.0014906897814098729 0 -0.020714557464152572 0.0017086644651164427 0 -0.020432523812624885 0.0017844416660038624 0 -0.020714557464152572 0.0017086644651164427 0 -0.020432523812624885 0.0017844416660038624 0 -0.02064903149016032 0.0020009164212086879 0 -0.020714557464152572 0.0017086644651164427 0 -0.020833809333324148 0.0017362361929705353 0 -0.02064903149016032 0.0020009164212086879 0 -0.020714557464152572 0.0017086644651164427 0 -0.020880849161151911 0.0015242400184172257 0 -0.020833809333324148 0.0017362361929705353 0 -0.020790204624287732 0.0012513570179551203 0 -0.020652562087154311 0.0014906897814098729 0 -0.020880849161151911 0.0015242400184172257 0 -0.020652562087154311 0.0014906897814098729 0 -0.020714557464152572 0.0017086644651164427 0 -0.020880849161151911 0.0015242400184172257 0 -0.020880849161151911 0.0015242400184172257 0 -0.021152797870859764 0.001498643718629542 0 -0.020986838745470648 0.0012458429055143931 0 -0.020880849161151911 0.0015242400184172257 0 -0.020833809333324148 0.0017362361929705353 0 -0.021101682334107558 0.001731800730644767 0 -0.020880849161151911 0.0015242400184172257 0 -0.021101682334107558 0.001731800730644767 0 -0.021152797870859764 0.001498643718629542 0 -0.02065752640486786 0.00081322620817192209 0 -0.019798916551565585 0.00031679217802511812 0 -0.021101682334107558 0.001731800730644767 0 -0.021152797870859764 0.001498643718629542 0 -0.021351501563340668 0.0017952546133985618 0 -0.02065752640486786 0.00081322620817192209 0 -0.020700377864646076 0.00086984718083887749 0 -0.01998535330133944 -6.031878410100943e-05 0 -0.020446657101461034 0.0005064806842113278 0 -0.019830865785615506 0.00045997297103909576 0 -0.020446657101461034 0.0005064806842113278 0 -0.020117810503786134 0.00068324119043232476 0 -0.019830865785615506 0.00045997297103909576 0 -0.020117810503786134 0.00068324119043232476 0 -0.019904749599411492 0.00082936362722895373 0 -0.019830865785615506 0.00045997297103909576 0 -0.020790204624287732 0.0012513570179551203 0 -0.020880849161151911 0.0015242400184172257 0 -0.020986838745470648 0.0012458429055143931 0 -0.020700377864646076 0.00086984718083887749 0 -0.020799917818866965 0.0010605662293721133 0 -0.020790204624287732 0.0012513570179551203 0 -0.020986838745470648 0.0012458429055143931 0 -0.020793799319440316 0.0010596020982891036 0 -0.020446657101461034 0.0005064806842113278 0 -0.020793799319440316 0.0010596020982891036 0 -0.020293177097686334 0.00092728783138668405 0 -0.020446657101461034 0.0005064806842113278 0 -0.020293177097686334 0.00092728783138668405 0 -0.020117810503786134 0.00068324119043232476 0 -0.020109832941506423 0.0010985893506042354 0 -0.020293177097686334 0.00092728783138668405 0 -0.019904749599411492 0.00082936362722895373 0 -0.020293177097686334 0.00092728783138668405 0 -0.020117810503786134 0.00068324119043232476 0 -0.019904749599411492 0.00082936362722895373 0 -0.019904749599411492 0.00082936362722895373 0 -0.019654818383745297 0.001035761373127605 0 -0.019593038312505404 0.00065411809671120391 0 -0.020109832941506423 0.0010985893506042354 0 -0.019904749599411492 0.00082936362722895373 0 -0.019654818383745297 0.001035761373127605 0 -0.020494755145415454 0.0013590968138544809 0 -0.020975090749958659 0.0015753887092815537 0 -0.021610919144545587 0.0019426465210200851 0 -0.02164324264306592 0.0019668575790695608 0 -0.021630811703142971 0.0020124752614514565 0 -0.019654818383745297 0.001035761373127605 0 -0.019138026593341278 0.00052788900728920572 0 -0.019593038312505404 0.00065411809671120391 0 -0.021548674071405795 0.0019185858560876951 0 -0.021610919144545587 0.0019426465210200851 0 -0.021630811703142971 0.0020124752614514565 0 -0.021548674071405795 0.0019185858560876951 0 -0.021547772209266552 0.0019165278524571009 0 -0.021489239597565501 0.001865777746126988 0 -0.021711360462014658 0.0020959417980211249 0 -0.020975090749958659 0.0015753887092815537 0 -0.021595121110670194 0.0019071445010074759 0 -0.021548674071405795 0.0019185858560876951 0 -0.021610919144545587 0.0019426465210200851 0 -0.02162964311245269 0.001887435806286294 0 -0.021610919144545587 0.0019426465210200851 0 -0.021647274766314822 0.0019317859420107007 0 -0.021610919144545587 0.0019426465210200851 0 -0.021647274766314822 0.0019317859420107007 0 -0.02164324264306592 0.0019668575790695608 0 -0.021860006462004145 0.0023431930830119106 0 -0.02170565214720108 0.0019728642482119514 0 -0.021646192241518342 0.0014571152453040563 0 -0.020975090749958659 0.0015753887092815537 0 -0.020173589749342156 0.00062531027745018112 0 -0.019138026593341278 0.00052788900728920572 0 -0.019450782867990232 0.00040044024792483611 0 -0.019593038312505404 0.00065411809671120391 0 -0.02164324264306592 0.0019668575790695608 0 -0.021630811703142971 0.0020124752614514565 0 -0.021646550148139775 0.0019970002514247483 0 -0.021630811703142971 0.0020124752614514565 0 -0.021636629472877502 0.0020159918779594659 0 -0.021646550148139775 0.0019970002514247483 0 -0.020975090749958659 0.0015753887092815537 0 -0.021571135253918936 0.0021599143605753701 0 -0.021630811703142971 0.0020124752614514565 0 -0.021636629472877502 0.0020159918779594659 0 -0.02170565214720108 0.0019728642482119514 0 -0.021636629472877502 0.0020159918779594659 0 -0.02170565214720108 0.0019728642482119514 0 -0.021571934926386305 0.0020169899219401144 0 -0.019138026593341278 0.00052788900728920572 0 -0.019450782867990232 0.00040044024792483611 0 -0.019145736646027509 0.00014170464764592388 0 -0.019450782867990232 0.00040044024792483611 0 -0.019830865785615506 0.00045997297103909576 0 -0.019381275252847659 8.9716966039903243e-05 0 -0.019450782867990232 0.00040044024792483611 0 -0.019593038312505404 0.00065411809671120391 0 -0.019830865785615506 0.00045997297103909576 0 -0.019904749599411492 0.00082936362722895373 0 -0.019593038312505404 0.00065411809671120391 0 -0.019830865785615506 0.00045997297103909576 0 -0.01998535330133944 -6.031878410100943e-05 0 -0.019381275252847659 8.9716966039903243e-05 0 -0.019491096099476111 -0.00024873879024125647 0 -0.01998535330133944 -6.031878410100943e-05 0 -0.019830865785615506 0.00045997297103909576 0 -0.019381275252847659 8.9716966039903243e-05 0 -0.019381275252847659 8.9716966039903243e-05 0 -0.019491096099476111 -0.00024873879024125647 0 -0.019193746390534817 -0.00023754191767787582 0 -0.01998535330133944 -6.031878410100943e-05 0 -0.019491096099476111 -0.00024873879024125647 0 -0.019482156263867213 -0.00062342254947073247 0 -0.019491096099476111 -0.00024873879024125647 0 -0.019157931212755639 -0.00040347703672360767 0 -0.019193746390534817 -0.00023754191767787582 0 -0.019491096099476111 -0.00024873879024125647 0 -0.019157931212755639 -0.00040347703672360767 0 -0.019272384527585305 -0.00049364292568960513 0 -0.019157931212755639 -0.00040347703672360767 0 -0.019272384527585305 -0.00049364292568960513 0 -0.01900402172586 -0.00054985758832684238 0 -0.019272384527585305 -0.00049364292568960513 0 -0.01900402172586 -0.00054985758832684238 0 -0.019103562731106239 -0.00059182942220691059 0 -0.019272384527585305 -0.00049364292568960513 0 -0.019103562731106239 -0.00059182942220691059 0 -0.019395556167740774 -0.000510002740062713 0 -0.019491096099476111 -0.00024873879024125647 0 -0.019272384527585305 -0.00049364292568960513 0 -0.019482156263867213 -0.00062342254947073247 0 -0.01968680139381308 1.4348314378603527e-05 0 -0.019798916551565585 0.00031679217802511812 0 -0.018929252950342736 -0.00047560681489745995 0 -0.01893856415250008 -0.00024320499048977634 0 -0.018657000913284403 -0.00048780825590998418 0 -0.019157931212755639 -0.00040347703672360767 0 -0.018929252950342736 -0.00047560681489745995 0 -0.01900402172586 -0.00054985758832684238 0 -0.019157931212755639 -0.00040347703672360767 0 -0.018929252950342736 -0.00047560681489745995 0 -0.019193746390534817 -0.00023754191767787582 0 -0.018929252950342736 -0.00047560681489745995 0 -0.019193746390534817 -0.00023754191767787582 0 -0.01893856415250008 -0.00024320499048977634 0 -0.019138026593341278 0.00052788900728920572 0 -0.019145736646027509 0.00014170464764592388 0 -0.018822422900025993 -3.459719086899593e-05 0 -0.01893856415250008 -0.00024320499048977634 0 -0.019145736646027509 0.00014170464764592388 0 -0.018822422900025993 -3.459719086899593e-05 0 -0.019381275252847659 8.9716966039903243e-05 0 -0.01893856415250008 -0.00024320499048977634 0 -0.019145736646027509 0.00014170464764592388 0 -0.019381275252847659 8.9716966039903243e-05 0 -0.019193746390534817 -0.00023754191767787582 0 -0.01893856415250008 -0.00024320499048977634 0 -0.019450782867990232 0.00040044024792483611 0 -0.019381275252847659 8.9716966039903243e-05 0 -0.019145736646027509 0.00014170464764592388 0 -0.021222375233639963 0.0019003637685115647 0 -0.021503755437863963 0.0020037105250810946 0 -0.021236647205805238 0.0015868540162428007 0 -0.0206176220273806 0.0016582403576924608 0 -0.021571934926386305 0.0020169899219401144 0 -0.021236647205805238 0.0015868540162428007 0 -0.021646192241518342 0.0014571152453040563 0 -0.021571934926386305 0.0020169899219401144 0 -0.02170565214720108 0.0019728642482119514 0 -0.021646192241518342 0.0014571152453040563 0 -0.021571934926386305 0.0020169899219401144 0 -0.021236647205805238 0.0015868540162428007 0 -0.021077567017623356 0.0012154937965639778 0 -0.0206176220273806 0.0016582403576924608 0 -0.021236647205805238 0.0015868540162428007 0 -0.021077567017623356 0.0012154937965639778 0 -0.021646192241518342 0.0014571152453040563 0 -0.01893856415250008 -0.00024320499048977634 0 -0.018822422900025993 -3.459719086899593e-05 0 -0.018657000913284403 -0.00048780825590998418 0 -0.020173589749342156 0.00062531027745018112 0 -0.020087281409848716 8.2835788710491478e-05 0 -0.021077567017623356 0.0012154937965639778 0 -0.021646192241518342 0.0014571152453040563 0 -0.021238319354352112 0.00037169480714654518 0 -0.021077567017623356 0.0012154937965639778 0 -0.021238319354352112 0.00037169480714654518 0 -0.020554698854893964 0.00089772300476560502 0 -0.021238319354352112 0.00037169480714654518 0 -0.020621686470320044 0.00028656670105875985 0 -0.020554698854893964 0.00089772300476560502 0 -0.019984372429558726 0.00061354175502232081 0 -0.020288238339938265 0.00042023492463564248 0 -0.020554698854893964 0.00089772300476560502 0 -0.020288238339938265 0.00042023492463564248 0 -0.020319859945486421 5.431222328555866e-05 0 -0.019848397395155881 0.00018705837787279329 0 -0.019984372429558726 0.00061354175502232081 0 -0.020288238339938265 0.00042023492463564248 0 -0.019848397395155881 0.00018705837787279329 0 -0.020288238339938265 0.00042023492463564248 0 -0.020621686470320044 0.00028656670105875985 0 -0.020554698854893964 0.00089772300476560502 0 -0.020288238339938265 0.00042023492463564248 0 -0.020621686470320044 0.00028656670105875985 0 -0.020319859945486421 5.431222328555866e-05 0 -0.019984372429558726 0.00061354175502232081 0 -0.020554698854893964 0.00089772300476560502 0 -0.019846447273224883 0.00098522516570187361 0 -0.0206176220273806 0.0016582403576924608 0 -0.019683202113353285 0.0012083239076878648 0 -0.019846447273224883 0.00098522516570187361 0 -0.021222375233639963 0.0019003637685115647 0 -0.020647648177007611 0.0013864782159591833 0 -0.020554698854893964 0.00089772300476560502 0 -0.0206176220273806 0.0016582403576924608 0 -0.019846447273224883 0.00098522516570187361 0 -0.021741242082512616 0.0021133566666652272 0 -0.021822424415759208 0.0020549962256784927 0 -0.021854565296844312 0.002158644763113734 0 -0.021077567017623356 0.0012154937965639778 0 -0.020554698854893964 0.00089772300476560502 0 -0.0206176220273806 0.0016582403576924608 0 -0.021822424415759208 0.0020549962256784927 0 -0.021773933463517161 0.001988047182810673 0 -0.021859398677389841 0.0019740539420529525 0 -0.021773933463517161 0.001988047182810673 0 -0.021699122577142696 0.002024027968001232 0 -0.02169967788948755 0.0019738354359491875 0 -0.021822424415759208 0.0020549962256784927 0 -0.021773933463517161 0.001988047182810673 0 -0.021699122577142696 0.002024027968001232 0 -0.021741242082512616 0.0021133566666652272 0 -0.021822424415759208 0.0020549962256784927 0 -0.021699122577142696 0.002024027968001232 0 -0.021699122577142696 0.002024027968001232 0 -0.021571934926386305 0.0020169899219401144 0 -0.021644684291784157 0.0020040418802981215 0 -0.021741242082512616 0.0021133566666652272 0 -0.021699122577142696 0.002024027968001232 0 -0.021571934926386305 0.0020169899219401144 0 -0.021636629472877502 0.0020159918779594659 0 -0.021571934926386305 0.0020169899219401144 0 -0.021644684291784157 0.0020040418802981215 0 -0.021646550148139775 0.0019970002514247483 0 -0.021644684291784157 0.0020040418802981215 0 -0.02169967788948755 0.0019738354359491875 0 -0.021636629472877502 0.0020159918779594659 0 -0.021646550148139775 0.0019970002514247483 0 -0.021644684291784157 0.0020040418802981215 0 -0.021699122577142696 0.002024027968001232 0 -0.021644684291784157 0.0020040418802981215 0 -0.02169967788948755 0.0019738354359491875 0 -0.02169967788948755 0.0019738354359491875 0 -0.021694695091539064 0.0019344783125915573 0 -0.021793618549837537 0.0019222181157610321 0 -0.021646550148139775 0.0019970002514247483 0 -0.02169967788948755 0.0019738354359491875 0 -0.021694695091539064 0.0019344783125915573 0 -0.02164324264306592 0.0019668575790695608 0 -0.021646550148139775 0.0019970002514247483 0 -0.021694695091539064 0.0019344783125915573 0 -0.021647274766314822 0.0019317859420107007 0 -0.02164324264306592 0.0019668575790695608 0 -0.021694695091539064 0.0019344783125915573 0 -0.021690109360254083 0.001880595207219009 0 -0.021647274766314822 0.0019317859420107007 0 -0.021694695091539064 0.0019344783125915573 0 -0.021748865427966533 0.0018844485798319701 0 -0.021694695091539064 0.0019344783125915573 0 -0.021793618549837537 0.0019222181157610321 0 -0.021748865427966533 0.0018844485798319701 0 -0.021690109360254083 0.001880595207219009 0 -0.021694695091539064 0.0019344783125915573 0 -0.021773933463517161 0.001988047182810673 0 -0.021793618549837537 0.0019222181157610321 0 -0.021859398677389841 0.0019740539420529525 0 -0.021773933463517161 0.001988047182810673 0 -0.02169967788948755 0.0019738354359491875 0 -0.021793618549837537 0.0019222181157610321 0 -0.018891279325258508 0.00034362774150244386 0 -0.018523987433672989 0.00013387727808980495 0 -0.017666001905537299 -0.00016567249604545532 0 -0.017292105481461463 -9.4161197449969686e-05 0 -0.01738817799742445 -0.00016923409879460408 0 -0.018891279325258508 0.00034362774150244386 0 -0.019109434654454572 0.00052205326553516306 0 -0.017666001905537299 -0.00016567249604545532 0 -0.018226595228562986 2.0114327568334671e-05 0 -0.017408240691078384 0.00018423775026200071 0 -0.017666001905537299 -0.00016567249604545532 0 -0.017292105481461463 -9.4161197449969686e-05 0 -0.017408240691078384 0.00018423775026200071 0 -0.017292105481461463 -9.4161197449969686e-05 0 -0.017408240691078384 0.00018423775026200071 0 -0.016946903973141674 0.00031291845675478051 0 -0.016485625066218743 -1.8870514948752017e-07 0 -0.017292105481461463 -9.4161197449969686e-05 0 -0.016946903973141674 0.00031291845675478051 0 -0.016481993761077514 6.9576379730270738e-07 0 -0.015159586597244742 -6.3431755150802425e-07 0 -0.014892062279024822 -2.783895567490629e-05 0 -0.016482816556079451 -1.3523653303770478e-07 0 -0.015931698117344063 6.0533191706387409e-05 0 -0.016485625066218743 -1.8870514948752017e-07 0 -0.017292105481461463 -9.4161197449969686e-05 0 -0.017334246524332977 -0.00012692926068994944 0 -0.017292105481461463 -9.4161197449969686e-05 0 -0.017384477077987619 -0.00010716884551058047 0 -0.01738817799742445 -0.00016923409879460408 0 -0.017292105481461463 -9.4161197449969686e-05 0 -0.017384477077987619 -0.00010716884551058047 0 -0.017334246524332977 -0.00012692926068994944 0 -0.016485625066218743 -1.8870514948752017e-07 0 -0.017334246524332977 -0.00012692926068994944 0 -0.017896250617642061 -4.060897911706434e-08 0 -0.017384477077987619 -0.00010716884551058047 0 -0.017334246524332977 -0.00012692926068994944 0 -0.017807360615893969 -1.0501573614082954e-06 0 -0.017334246524332977 -0.00012692926068994944 0 -0.017896250617642061 -4.060897911706434e-08 0 -0.017807360615893969 -1.0501573614082954e-06 0 -0.017833772946573827 -3.4224399370466622e-06 0 -0.018852441303126154 0.00032667637249352797 0 -0.017807360615893969 -1.0501573614082954e-06 0 -0.01845590289993802 -5.1614180634812545e-05 0 -0.019180520518023363 1.5452001282998712e-05 0 -0.019310793781586282 -3.6000401313619686e-07 0 -0.017896250617642061 -4.060897911706434e-08 0 -0.018686233806712766 -6.8053009701386186e-05 0 -0.017896250617642061 -4.060897911706434e-08 0 -0.017807360615893969 -1.0501573614082954e-06 0 -0.01845590289993802 -5.1614180634812545e-05 0 -0.017896250617642061 -4.060897911706434e-08 0 -0.01845590289993802 -5.1614180634812545e-05 0 -0.018686233806712766 -6.8053009701386186e-05 0 -0.01845590289993802 -5.1614180634812545e-05 0 -0.018686233806712766 -6.8053009701386186e-05 0 -0.018712022455838112 -8.4675913357212438e-05 0 -0.017384477077987619 -0.00010716884551058047 0 -0.017388590875589426 0.0001377950685846485 0 -0.01738817799742445 -0.00016923409879460408 0 -0.017384477077987619 -0.00010716884551058047 0 -0.017807360615893969 -1.0501573614082954e-06 0 -0.017426776302531224 0.0001169456968529815 0 -0.017384477077987619 -0.00010716884551058047 0 -0.017426776302531224 0.0001169456968529815 0 -0.017388590875589426 0.0001377950685846485 0 -0.018646978402475169 9.2828743492536119e-05 0 -0.018852441303126154 0.00032667637249352797 0 -0.01845590289993802 -5.1614180634812545e-05 0 -0.018712022455838112 -8.4675913357212438e-05 0 -0.018755901082942512 -8.1748677770949869e-05 0 -0.018712022455838112 -8.4675913357212438e-05 0 -0.018750547741914911 -8.5534040409207608e-05 0 -0.018755901082942512 -8.1748677770949869e-05 0 -0.018775076757416825 -7.5004648348775236e-05 0 -0.018712022455838112 -8.4675913357212438e-05 0 -0.018750547741914911 -8.5534040409207608e-05 0 -0.018750547741914911 -8.5534040409207608e-05 0 -0.018755901082942512 -8.1748677770949869e-05 0 -0.01864266616405991 -7.5827375195491555e-05 0 -0.018775076757416825 -7.5004648348775236e-05 0 -0.018750547741914911 -8.5534040409207608e-05 0 -0.01864266616405991 -7.5827375195491555e-05 0 -0.018852441303126154 0.00032667637249352797 0 -0.020127290231210172 0.00054377838477584213 0 -0.020262419703878144 0.00059702908739338615 0 -0.020123260014943183 0.00055026232309879808 0 -0.020073706881442877 0.00048564551614004492 0 -0.020127290231210172 0.00054377838477584213 0 -0.018523987433672989 0.00013387727808980495 0 -0.020332937633365723 0.00060554954412493666 0 -0.021372355456681032 0.00056954107741928324 0 -0.020262419703878144 0.00059702908739338615 0 -0.020033572699943426 0.00062565017126336704 0 -0.020108092992881636 0.00059094768033180845 0 -0.020262419703878144 0.00059702908739338615 0 -0.020123260014943183 0.00055026232309879808 0 -0.020108092992881636 0.00059094768033180845 0 -0.020123260014943183 0.00055026232309879808 0 -0.020108092992881636 0.00059094768033180845 0 -0.020081840624609958 0.00056181217342474892 0 -0.0199974921068178 0.00076988745756712094 0 -0.020081840624609958 0.00056181217342474892 0 -0.020147713088556611 0.0006269908538050976 0 -0.0199974921068178 0.00076988745756712094 0 -0.020108092992881636 0.00059094768033180845 0 -0.020081840624609958 0.00056181217342474892 0 -0.020081840624609958 0.00056181217342474892 0 -0.020073706881442877 0.00048564551614004492 0 -0.020130628844764447 0.00045828145892175704 0 -0.020123260014943183 0.00055026232309879808 0 -0.020081840624609958 0.00056181217342474892 0 -0.020073706881442877 0.00048564551614004492 0 -0.022213419879217169 0.00024676333302180804 0 -0.021372355456681032 0.00056954107741928324 0 -0.020314810643969214 0.0001344639484514763 0 -0.020073706881442877 0.00048564551614004492 0 -0.020130628844764447 0.00045828145892175704 0 -0.020314810643969214 0.0001344639484514763 0 -0.020130628844764447 0.00045828145892175704 0 -0.020147713088556611 0.0006269908538050976 0 -0.020314810643969214 0.0001344639484514763 0 -0.020147713088556611 0.0006269908538050976 0 -0.020537994083911913 0.00082495513480408428 0 -0.020081840624609958 0.00056181217342474892 0 -0.020130628844764447 0.00045828145892175704 0 -0.020147713088556611 0.0006269908538050976 0 -0.020314810643969214 0.0001344639484514763 0 -0.020998510327255977 0.00047253832118556951 0 -0.020537994083911913 0.00082495513480408428 0 -0.021226306200590756 -0.00031078071932405841 0 -0.022196696226339799 0.00039515090433085774 0 -0.020998510327255977 0.00047253832118556951 0 -0.021226306200590756 -0.00031078071932405841 0 -0.020314810643969214 0.0001344639484514763 0 -0.020998510327255977 0.00047253832118556951 0 -0.022196696226339799 0.00039515090433085774 0 -0.020998510327255977 0.00047253832118556951 0 -0.021253543024528677 0.0011490016576283248 0 -0.020998510327255977 0.00047253832118556951 0 -0.021253543024528677 0.0011490016576283248 0 -0.020537994083911913 0.00082495513480408428 0 -0.021253543024528677 0.0011490016576283248 0 -0.020537994083911913 0.00082495513480408428 0 -0.020797164897635743 0.0010561425242557499 0 -0.020537994083911913 0.00082495513480408428 0 -0.020341990730460977 0.00097661319613817155 0 -0.020797164897635743 0.0010561425242557499 0 -0.020793730863675017 0.0010827068875011712 0 -0.020797164897635743 0.0010561425242557499 0 -0.020573322044323904 0.0010870351014053673 0 -0.020341990730460977 0.00097661319613817155 0 -0.020797164897635743 0.0010561425242557499 0 -0.020573322044323904 0.0010870351014053673 0 -0.0199974921068178 0.00076988745756712094 0 -0.020147713088556611 0.0006269908538050976 0 -0.020125984127434628 0.00088267617218261353 0 -0.020147713088556611 0.0006269908538050976 0 -0.020537994083911913 0.00082495513480408428 0 -0.020125984127434628 0.00088267617218261353 0 -0.020537994083911913 0.00082495513480408428 0 -0.020341990730460977 0.00097661319613817155 0 -0.020125984127434628 0.00088267617218261353 0 -0.020341990730460977 0.00097661319613817155 0 -0.020125984127434628 0.00088267617218261353 0 -0.019924302151961382 0.00095878753554313578 0 -0.020125984127434628 0.00088267617218261353 0 -0.019975799470109131 0.00094398531296990362 0 -0.019924302151961382 0.00095878753554313578 0 -0.0199974921068178 0.00076988745756712094 0 -0.020125984127434628 0.00088267617218261353 0 -0.019975799470109131 0.00094398531296990362 0 -0.019975799470109131 0.00094398531296990362 0 -0.019924302151961382 0.00095878753554313578 0 -0.019391229682785064 0.00091922148344719787 0 -0.019109434654454572 0.00052205326553516306 0 -0.019404824943037791 0.00093887288573215222 0 -0.019924302151961382 0.00095878753554313578 0 -0.019391229682785064 0.00091922148344719787 0 -0.020171770402973903 0.0010775689851743383 0 -0.018226595228562986 2.0114327568334671e-05 0 -0.019391229682785064 0.00091922148344719787 0 -0.017683319565576939 0.00062067988338990957 0 -0.019391229682785064 0.00091922148344719787 0 -0.018233435154774814 0.0012888691571534693 0 -0.017683319565576939 0.00062067988338990957 0 -0.020341990730460977 0.00097661319613817155 0 -0.019924302151961382 0.00095878753554313578 0 -0.020171770402973903 0.0010775689851743383 0 -0.020341990730460977 0.00097661319613817155 0 -0.020573322044323904 0.0010870351014053673 0 -0.020171770402973903 0.0010775689851743383 0 -0.019391229682785064 0.00091922148344719787 0 -0.020171770402973903 0.0010775689851743383 0 -0.019887795779794191 0.0013388995665186696 0 -0.020171770402973903 0.0010775689851743383 0 -0.02031312728122342 0.0014303636863386173 0 -0.019887795779794191 0.0013388995665186696 0 -0.020572411326056979 0.0012621629298059838 0 -0.020573322044323904 0.0010870351014053673 0 -0.020171770402973903 0.0010775689851743383 0 -0.020572411326056979 0.0012621629298059838 0 -0.020171770402973903 0.0010775689851743383 0 -0.02031312728122342 0.0014303636863386173 0 -0.02031312728122342 0.0014303636863386173 0 -0.019887795779794191 0.0013388995665186696 0 -0.019992428416818066 0.0017245327082430785 0 -0.019887795779794191 0.0013388995665186696 0 -0.019992428416818066 0.0017245327082430785 0 -0.019285254169131981 0.0016792260029399079 0 -0.019672958804479036 0.00200141780494985 0 -0.019992428416818066 0.0017245327082430785 0 -0.019929935335644251 0.0021164132994503124 0 -0.02031312728122342 0.0014303636863386173 0 -0.019992428416818066 0.0017245327082430785 0 -0.020432523812624885 0.0017844416660038624 0 -0.019992428416818066 0.0017245327082430785 0 -0.020432523812624885 0.0017844416660038624 0 -0.019929935335644251 0.0021164132994503124 0 -0.019391229682785064 0.00091922148344719787 0 -0.018233435154774814 0.0012888691571534693 0 -0.019285254169131981 0.0016792260029399079 0 -0.019391229682785064 0.00091922148344719787 0 -0.019887795779794191 0.0013388995665186696 0 -0.019285254169131981 0.0016792260029399079 0 -0.019672958804479036 0.00200141780494985 0 -0.019285254169131981 0.0016792260029399079 0 -0.019431397318898209 0.0025019792225010199 0 -0.019672958804479036 0.00200141780494985 0 -0.019992428416818066 0.0017245327082430785 0 -0.019285254169131981 0.0016792260029399079 0 -0.019285254169131981 0.0016792260029399079 0 -0.018188725846562972 0.002533893549087579 0 -0.019431397318898209 0.0025019792225010199 0 -0.018233435154774814 0.0012888691571534693 0 -0.019285254169131981 0.0016792260029399079 0 -0.018188725846562972 0.002533893549087579 0 -0.018233435154774814 0.0012888691571534693 0 -0.016870944245836617 0.0010910356370482971 0 -0.018188725846562972 0.002533893549087579 0 -0.016870944245836617 0.0010910356370482971 0 -0.016006331383044147 0.0022780204626746117 0 -0.014804762566597724 0.00061408203258483268 0 -0.016870944245836617 0.0010910356370482971 0 -0.016006331383044147 0.0022780204626746117 0 -0.018188725846562972 0.002533893549087579 0 -0.016870944245836617 0.0010910356370482971 0 -0.017683319565576939 0.00062067988338990957 0 -0.01707035454671036 0.00064031056971289519 0 -0.016870944245836617 0.0010910356370482971 0 -0.014823032719546603 -0.00051092644393200041 0 -0.014804762566597724 0.00061408203258483268 0 -0.016819155619694989 0.0010833679080566483 0 -0.016016809245494555 0.00015099761856899072 0 -0.018233435154774814 0.0012888691571534693 0 -0.016870944245836617 0.0010910356370482971 0 -0.017683319565576939 0.00062067988338990957 0 -0.017683319565576939 0.00062067988338990957 0 -0.017408240691078384 0.00018423775026200071 0 -0.01707035454671036 0.00064031056971289519 0 -0.018226595228562986 2.0114327568334671e-05 0 -0.017683319565576939 0.00062067988338990957 0 -0.017408240691078384 0.00018423775026200071 0 -0.015159586597244742 -6.3431755150802425e-07 0 -0.014892062279024822 -2.783895567490629e-05 0 -0.014543345839617477 -0.00021702109883330709 0 -0.017408240691078384 0.00018423775026200071 0 -0.016946903973141674 0.00031291845675478051 0 -0.01707035454671036 0.00064031056971289519 0 -0.015931698117344063 6.0533191706387409e-05 0 -0.016016809245494555 0.00015099761856899072 0 -0.014892062279024822 -2.783895567490629e-05 0 -0.014823032719546603 -0.00051092644393200041 0 -0.014543345839617477 -0.00021702109883330709 0 -0.014823032719546603 -0.00051092644393200041 0 -0.014543345839617477 -0.00021702109883330709 0 -0.014135655452232009 2.731954155375727e-06 0 -0.015159586597244742 -6.3431755150802425e-07 0 -0.014543345839617477 -0.00021702109883330709 0 -0.013835949330929461 -1.3383865033852324e-07 0 -0.013835949330929461 -1.3383865033852324e-07 0 -0.014135655452232009 2.731954155375727e-06 0 -0.012787082320321847 0.00049920473220727208 0 -0.014543345839617477 -0.00021702109883330709 0 -0.013835949330929461 -1.3383865033852324e-07 0 -0.014135655452232009 2.731954155375727e-06 0 -0.014135655452232009 2.731954155375727e-06 0 -0.014804762566597724 0.00061408203258483268 0 -0.012787082320321847 0.00049920473220727208 0 -0.014823032719546603 -0.00051092644393200041 0 -0.014135655452232009 2.731954155375727e-06 0 -0.014804762566597724 0.00061408203258483268 0 -0.013500435093888669 0.0011517346695539652 0 -0.012856125486708017 0.00064052781866848446 0 -0.016006331383044147 0.0022780204626746117 0 -0.014804762566597724 0.00061408203258483268 0 -0.012787082320321847 0.00049920473220727208 0 -0.010893491101331297 0.00019570487208286189 0 -0.012787082320321847 0.00049920473220727208 0 -0.012078283078880914 2.3871077094344125e-05 0 -0.013835949330929461 -1.3383865033852324e-07 0 -0.012787082320321847 0.00049920473220727208 0 -0.012512511737380541 1.4017810143237597e-06 0 -0.012787082320321847 0.00049920473220727208 0 -0.012512511737380541 1.4017810143237597e-06 0 -0.012078283078880914 2.3871077094344125e-05 0 -0.012512511737380541 1.4017810143237597e-06 0 -0.012078283078880914 2.3871077094344125e-05 0 -0.011188649671850908 -7.1214389041092649e-07 0 -0.012078283078880914 2.3871077094344125e-05 0 -0.01144661798806499 -0.00012563533962099883 0 -0.011188649671850908 -7.1214389041092649e-07 0 -0.010893491101331297 0.00019570487208286189 0 -0.012078283078880914 2.3871077094344125e-05 0 -0.01144661798806499 -0.00012563533962099883 0 -0.010893491101331297 0.00019570487208286189 0 -0.01144661798806499 -0.00012563533962099883 0 -0.010890322877567502 -0.00010761022636167403 0 -0.01144661798806499 -0.00012563533962099883 0 -0.010753910635377159 -0.00018740641124740707 0 -0.010448715119907886 -0.0001062482743158957 0 -0.01144661798806499 -0.00012563533962099883 0 -0.010753910635377159 -0.00018740641124740707 0 -0.010890322877567502 -0.00010761022636167403 0 -0.01144661798806499 -0.00012563533962099883 0 -0.011188649671850908 -7.1214389041092649e-07 0 -0.010448715119907886 -0.0001062482743158957 0 -0.010868670860042003 -0.00023280379616491729 0 -0.010772598865494417 -0.00015491716965704841 0 -0.011034795034607102 -0.00021100646861944261 0 -0.013500435093888669 0.0011517346695539652 0 -0.014507329148074448 0.0011586842526986377 0 -0.010868670860042003 -0.00023280379616491729 0 -0.010832461542785886 -8.6799507414772099e-05 0 -0.010772598865494417 -0.00015491716965704841 0 -0.010893491101331297 0.00019570487208286189 0 -0.010868670860042003 -0.00023280379616491729 0 -0.010832461542785886 -8.6799507414772099e-05 0 -0.010893491101331297 0.00019570487208286189 0 -0.010832461542785886 -8.6799507414772099e-05 0 -0.010890322877567502 -0.00010761022636167403 0 -0.010753910635377159 -0.00018740641124740707 0 -0.010772598865494417 -0.00015491716965704841 0 -0.010653293799788036 -0.00014184102640649608 0 -0.010753910635377159 -0.00018740641124740707 0 -0.010890322877567502 -0.00010761022636167403 0 -0.010772598865494417 -0.00015491716965704841 0 -0.010832461542785886 -8.6799507414772099e-05 0 -0.010890322877567502 -0.00010761022636167403 0 -0.010772598865494417 -0.00015491716965704841 0 -0.010772598865494417 -0.00015491716965704841 0 -0.010787222493614565 -8.2624506559231112e-06 0 -0.011002919582910017 -7.040698087699336e-05 0 -0.010772598865494417 -0.00015491716965704841 0 -0.010787222493614565 -8.2624506559231112e-06 0 -0.010653293799788036 -0.00014184102640649608 0 -0.010787222493614565 -8.2624506559231112e-06 0 -0.010942396803128062 0.00017987766958290499 0 -0.011008090292433437 7.6061524189578722e-05 0 -0.010787222493614565 -8.2624506559231112e-06 0 -0.010347889636867809 -8.4836570361213932e-05 0 -0.010653293799788036 -0.00014184102640649608 0 -0.010753910635377159 -0.00018740641124740707 0 -0.010347889636867809 -8.4836570361213932e-05 0 -0.010653293799788036 -0.00014184102640649608 0 -0.010347889636867809 -8.4836570361213932e-05 0 -0.010522024351775948 0.00014423316093904027 0 -0.0094698514386449047 0.00012906860746994582 0 -0.010522024351775948 0.00014423316093904027 0 -0.0094698514386449047 0.00012906860746994582 0 -0.010424439260878306 0.00052347885755841888 0 -0.010787222493614565 -8.2624506559231112e-06 0 -0.010347889636867809 -8.4836570361213932e-05 0 -0.010522024351775948 0.00014423316093904027 0 -0.010522024351775948 0.00014423316093904027 0 -0.010424439260878306 0.00052347885755841888 0 -0.010709330302210725 0.00034161628954028827 0 -0.010787222493614565 -8.2624506559231112e-06 0 -0.010522024351775948 0.00014423316093904027 0 -0.010788822662047119 0.00020093496379573593 0 -0.010522024351775948 0.00014423316093904027 0 -0.010788822662047119 0.00020093496379573593 0 -0.010709330302210725 0.00034161628954028827 0 -0.010788822662047119 0.00020093496379573593 0 -0.010877070180957514 0.00036513677127764143 0 -0.010709330302210725 0.00034161628954028827 0 -0.010788822662047119 0.00020093496379573593 0 -0.010877070180957514 0.00036513677127764143 0 -0.010942396803128062 0.00017987766958290499 0 -0.010787222493614565 -8.2624506559231112e-06 0 -0.010788822662047119 0.00020093496379573593 0 -0.010942396803128062 0.00017987766958290499 0 -0.011188649671850908 -7.1214389041092649e-07 0 -0.010448715119907886 -0.0001062482743158957 0 -0.0098650669480787479 1.2662773847179483e-07 0 -0.010753910635377159 -0.00018740641124740707 0 -0.010347889636867809 -8.4836570361213932e-05 0 -0.010448715119907886 -0.0001062482743158957 0 -0.010347889636867809 -8.4836570361213932e-05 0 -0.010448715119907886 -0.0001062482743158957 0 -0.0094698514386449047 0.00012906860746994582 0 -0.010448715119907886 -0.0001062482743158957 0 -0.0098650669480787479 1.2662773847179483e-07 0 -0.0094698514386449047 0.00012906860746994582 0 -0.0098650669480787479 1.2662773847179483e-07 0 -0.0085420782602423379 -9.1322210017949564e-08 0 -0.0094698514386449047 0.00012906860746994582 0 -0.0085420782602423379 -9.1322210017949564e-08 0 -0.0083727325211155144 -0.00014031117210629396 0 -0.0077439911047504657 -6.7745371054822118e-05 0 -0.0085420782602423379 -9.1322210017949564e-08 0 -0.0083727325211155144 -0.00014031117210629396 0 -0.0088364106883646841 -6.7221701064758193e-05 0 -0.0085420782602423379 -9.1322210017949564e-08 0 -0.0094698514386449047 0.00012906860746994582 0 -0.0088364106883646841 -6.7221701064758193e-05 0 -0.0094698514386449047 0.00012906860746994582 0 -0.0088364106883646841 -6.7221701064758193e-05 0 -0.0085633515302301049 0.00010896456573803163 0 -0.0094783549474312476 0.00018636289681265753 0 -0.0094473687762192792 0.00026486375176637539 0 -0.0088364106883646841 -6.7221701064758193e-05 0 -0.0085633515302301049 0.00010896456573803163 0 -0.0084691395285850495 -0.00010224352714361102 0 -0.010424439260878306 0.00052347885755841888 0 -0.010825339472920834 0.00049551222091697355 0 -0.010893539994694869 0.0005465981353168579 0 -0.010424439260878306 0.00052347885755841888 0 -0.010825339472920834 0.00049551222091697355 0 -0.010709330302210725 0.00034161628954028827 0 -0.0094473687762192792 0.00026486375176637539 0 -0.0099272532630310384 0.00032992676438119411 0 -0.0085633515302301049 0.00010896456573803163 0 -0.0083858611521177504 -4.6602650061623512e-06 0 -0.0084691395285850495 -0.00010224352714361102 0 -0.010877070180957514 0.00036513677127764143 0 -0.010825339472920834 0.00049551222091697355 0 -0.010709330302210725 0.00034161628954028827 0 -0.010877070180957514 0.00036513677127764143 0 -0.010825339472920834 0.00049551222091697355 0 -0.010868031426957097 0.00053236527729931765 0 -0.010210925312237121 0.00051289271166618251 0 -0.0099272532630310384 0.00032992676438119411 0 -0.0077159125329548366 0.0001217120625531646 0 -0.0075963489423635172 -0.00034300323189031769 0 -0.0084146446533879815 -8.0598325916440432e-05 0 -0.0084478521859252514 -9.5318845776713528e-05 0 -0.0083499489986960211 -8.5592220689369289e-05 0 -0.0084146446533879815 -8.0598325916440432e-05 0 -0.0084691395285850495 -0.00010224352714361102 0 -0.0084478521859252514 -9.5318845776713528e-05 0 -0.0083858611521177504 -4.6602650061623512e-06 0 -0.0084146446533879815 -8.0598325916440432e-05 0 -0.0084691395285850495 -0.00010224352714361102 0 -0.0083727325211155144 -0.00014031117210629396 0 -0.0088364106883646841 -6.7221701064758193e-05 0 -0.0084691395285850495 -0.00010224352714361102 0 -0.0083727325211155144 -0.00014031117210629396 0 -0.0084691395285850495 -0.00010224352714361102 0 -0.0084478521859252514 -9.5318845776713528e-05 0 -0.0083727325211155144 -0.00014031117210629396 0 -0.0084478521859252514 -9.5318845776713528e-05 0 -0.0082126503257387469 6.7481081239967824e-05 0 -0.0077159125329548366 0.0001217120625531646 0 -0.0075449494052435761 0.00014143627309587788 0 -0.0069920227893397842 0.00025026633307798524 0 -0.0069758216088059407 0.00035307093053361249 0 -0.0069335899258331059 0.00030560824353210276 0 -0.0069920227893397842 0.00025026633307798524 0 -0.0069758216088059407 0.00035307093053361249 0 -0.0070770401192586452 0.00028452175747586825 0 -0.0069758216088059407 0.00035307093053361249 0 -0.0070770401192586452 0.00028452175747586825 0 -0.0070514962258570466 0.00042574887184137865 0 -0.0069758216088059407 0.00035307093053361249 0 -0.0069335899258331059 0.00030560824353210276 0 -0.0069372293432324482 0.00038433207811075455 0 -0.0075449494052435761 0.00014143627309587788 0 -0.0070780517478829987 0.00018440420512003819 0 -0.0082126503257387469 6.7481081239967824e-05 0 -0.0069661892275492869 0.00014979225812218462 0 -0.0077439911047504657 -6.7745371054822118e-05 0 -0.0069335899258331059 0.00030560824353210276 0 -0.0069661892275492869 0.00014979225812218462 0 -0.0069372293432324482 0.00038433207811075455 0 -0.0069661892275492869 0.00014979225812218462 0 -0.0072177876250096116 -5.5617576078808614e-07 0 -0.0058971670082148975 1.659541659841733e-06 0 -0.0069661892275492869 0.00014979225812218462 0 -0.0072177876250096116 -5.5617576078808614e-07 0 -0.0077439911047504657 -6.7745371054822118e-05 0 -0.0085420782602423379 -9.1322210017949564e-08 0 -0.0072177876250096116 -5.5617576078808614e-07 0 -0.0077439911047504657 -6.7745371054822118e-05 0 -0.0083727325211155144 -0.00014031117210629396 0 -0.0082126503257387469 6.7481081239967824e-05 0 -0.0077439911047504657 -6.7745371054822118e-05 0 -0.007299340165239609 0.00022029558904666585 0 -0.0068331040933177455 -0.00018116473129136022 0 -0.0071778312178841239 -0.00057197682122971604 0 -0.0074764874697293808 -0.00020032291535836025 0 -0.0071824937254805505 3.6450731224070455e-05 0 -0.0071778312178841239 -0.00057197682122971604 0 -0.0071824937254805505 3.6450731224070455e-05 0 -0.0067170191673499146 -0.00047996359876683394 0 -0.0071778312178841239 -0.00057197682122971604 0 -0.0075708787098424041 -0.00052871381494767997 0 -0.0076248187433425553 -0.00093344784442733839 0 -0.0071778312178841239 -0.00057197682122971604 0 -0.0075708787098424041 -0.00052871381494767997 0 -0.0074764874697293808 -0.00020032291535836025 0 -0.0075708787098424041 -0.00052871381494767997 0 -0.0078501274037833715 -0.00062915923374541323 0 -0.0077937027172695376 -0.00022172346241087321 0 -0.0075708787098424041 -0.00052871381494767997 0 -0.0077937027172695376 -0.00022172346241087321 0 -0.0074764874697293808 -0.00020032291535836025 0 -0.0074764874697293808 -0.00020032291535836025 0 -0.0077281863705071022 0.00011798395878291458 0 -0.0071824937254805505 3.6450731224070455e-05 0 -0.007299340165239609 0.00022029558904666585 0 -0.00757022945611665 0.00049097606435742072 0 -0.0077281863705071022 0.00011798395878291458 0 -0.0071824937254805505 3.6450731224070455e-05 0 -0.007601164240821111 0.00051928947618740237 0 -0.0077937027172695376 -0.00022172346241087321 0 -0.0077281863705071022 0.00011798395878291458 0 -0.0080326886208469984 -2.7311229139848622e-05 0 -0.0077937027172695376 -0.00022172346241087321 0 -0.0074764874697293808 -0.00020032291535836025 0 -0.0077281863705071022 0.00011798395878291458 0 -0.0073486251529475861 0.00035024443572306591 0 -0.0071609991156770967 0.00035964654964259791 0 -0.0072042562281722866 0.00024618742735615598 0 -0.0073486251529475861 0.00035024443572306591 0 -0.0071609991156770967 0.00035964654964259791 0 -0.0071729632172147896 0.00049434215063101541 0 -0.0071609991156770967 0.00035964654964259791 0 -0.0070514962258570466 0.00042574887184137865 0 -0.0071729632172147896 0.00049434215063101541 0 -0.0071609991156770967 0.00035964654964259791 0 -0.0070770401192586452 0.00028452175747586825 0 -0.0070514962258570466 0.00042574887184137865 0 -0.0069920227893397842 0.00025026633307798524 0 -0.0070770401192586452 0.00028452175747586825 0 -0.0071012555788105402 0.00015397152023596464 0 -0.0070770401192586452 0.00028452175747586825 0 -0.0072042562281722866 0.00024618742735615598 0 -0.0071012555788105402 0.00015397152023596464 0 -0.0071609991156770967 0.00035964654964259791 0 -0.0070770401192586452 0.00028452175747586825 0 -0.0072042562281722866 0.00024618742735615598 0 -0.0071778312178841239 -0.00057197682122971604 0 -0.0067170191673499146 -0.00047996359876683394 0 -0.0067352082021276969 -0.00084458484818503415 0 -0.0074136712617237791 -0.001140650969657566 0 -0.0072250958440047463 -0.0010463320493527307 0 -0.0074714490495772718 -0.001053054826397876 0 -0.0068331040933177455 -0.00018116473129136022 0 -0.0075963489423635172 -0.00034300323189031769 0 -0.0067352082021276969 -0.00084458484818503415 0 -0.0062859812405773579 -0.00094249420180820534 0 -0.0065498410142323634 -0.0011306634419629539 0 -0.0085886421494183445 -0.00047787337224348758 0 -0.006950130005047548 -0.0011111749889171727 0 -0.0067352082021276969 -0.00084458484818503415 0 -0.0065498410142323634 -0.0011306634419629539 0 -0.0070510669376876193 -0.0010265637186796634 0 -0.0067170191673499146 -0.00047996359876683394 0 -0.0067352082021276969 -0.00084458484818503415 0 -0.0062859812405773579 -0.00094249420180820534 0 -0.009440019457381146 0.00018384319839312652 0 -0.0086888635085076958 -0.00055654460427248986 0 -0.008118980930650976 -0.00015519870290090569 0 -0.0075963489423635172 -0.00034300323189031769 0 -0.0085886421494183445 -0.00047787337224348758 0 -0.0099272532630310384 0.00032992676438119411 0 -0.0075963489423635172 -0.00034300323189031769 0 -0.0083858611521177504 -4.6602650061623512e-06 0 -0.0084146446533879815 -8.0598325916440432e-05 0 -0.0083499489986960211 -8.5592220689369289e-05 0 -0.0099272532630310384 0.00032992676438119411 0 -0.0085886421494183445 -0.00047787337224348758 0 -0.010868031426957097 0.00053236527729931765 0 -0.011091789717733346 0.00044521501800321724 0 -0.011192310517912814 0.0006031985968053638 0 -0.011091789717733346 0.00044521501800321724 0 -0.01100959141300705 0.00034210715220191418 0 -0.011144766490515977 0.00033528296769679472 0 -0.010868031426957097 0.00053236527729931765 0 -0.011091789717733346 0.00044521501800321724 0 -0.01100959141300705 0.00034210715220191418 0 -0.010877070180957514 0.00036513677127764143 0 -0.010868031426957097 0.00053236527729931765 0 -0.01100959141300705 0.00034210715220191418 0 -0.0085886421494183445 -0.00047787337224348758 0 -0.0095679392911521607 -0.00042523066430377591 0 -0.0074136712617237791 -0.001140650969657566 0 -0.0072250958440047463 -0.0010463320493527307 0 -0.0075980874653875305 -0.0013446728772283621 0 -0.011192310517912814 0.0006031985968053638 0 -0.011257120692534881 0.00040705099131679395 0 -0.011469908952675394 0.00041324560355445508 0 -0.011091789717733346 0.00044521501800321724 0 -0.011192310517912814 0.0006031985968053638 0 -0.011257120692534881 0.00040705099131679395 0 -0.011091789717733346 0.00044521501800321724 0 -0.011257120692534881 0.00040705099131679395 0 -0.011144766490515977 0.00033528296769679472 0 -0.011257120692534881 0.00040705099131679395 0 -0.011469908952675394 0.00041324560355445508 0 -0.011385271672921712 0.00031541779932575453 0 -0.0074136712617237791 -0.001140650969657566 0 -0.0075980874653875305 -0.0013446728772283621 0 -0.0077548014643410261 -0.0011972483523166942 0 -0.0075980874653875305 -0.0013446728772283621 0 -0.0077548014643410261 -0.0011972483523166942 0 -0.0080598833686837262 -0.0013464073030418451 0 -0.0074136712617237791 -0.001140650969657566 0 -0.0077548014643410261 -0.0011972483523166942 0 -0.0079773861816905094 -0.00097931720824127335 0 -0.0074316270894088342 -0.0011271386804996455 0 -0.007798008044038152 -0.0010420489980488142 0 -0.006950130005047548 -0.0011111749889171727 0 -0.0077057012143704508 -0.00091763048745424668 0 -0.0071778312178841239 -0.00057197682122971604 0 -0.0070510669376876193 -0.0010265637186796634 0 -0.0076248187433425553 -0.00093344784442733839 0 -0.0074714490495772718 -0.001053054826397876 0 -0.0076248187433425553 -0.00093344784442733839 0 -0.00756940489487093 -0.0010843087659803056 0 -0.0074136712617237791 -0.001140650969657566 0 -0.0074714490495772718 -0.001053054826397876 0 -0.00756940489487093 -0.0010843087659803056 0 -0.0071778312178841239 -0.00057197682122971604 0 -0.0067352082021276969 -0.00084458484818503415 0 -0.0070510669376876193 -0.0010265637186796634 0 -0.007798008044038152 -0.0010420489980488142 0 -0.0083336330910335973 -0.0010049356653603959 0 -0.0079773861816905094 -0.00097931720824127335 0 -0.0083258596045261927 -0.0010993959792280736 0 -0.0086008271389281712 -0.00084463630493357639 0 -0.0078453279272618723 -0.00093882516161150099 0 -0.00756940489487093 -0.0010843087659803056 0 -0.0081618188272209354 -0.0011420634112477249 0 -0.0075708787098424041 -0.00052871381494767997 0 -0.0078501274037833715 -0.00062915923374541323 0 -0.0076248187433425553 -0.00093344784442733839 0 -0.0078501274037833715 -0.00062915923374541323 0 -0.0078453279272618723 -0.00093882516161150099 0 -0.0076248187433425553 -0.00093344784442733839 0 -0.0078453279272618723 -0.00093882516161150099 0 -0.0076248187433425553 -0.00093344784442733839 0 -0.00756940489487093 -0.0010843087659803056 0 -0.0083258596045261927 -0.0010993959792280736 0 -0.0080598833686837262 -0.0013464073030418451 0 -0.0086665604252776467 -0.0012223883883665208 0 -0.0080598833686837262 -0.0013464073030418451 0 -0.0081286819952782752 -0.0017214060939506426 0 -0.0086665604252776467 -0.0012223883883665208 0 -0.0077548014643410261 -0.0011972483523166942 0 -0.0079773861816905094 -0.00097931720824127335 0 -0.0080598833686837262 -0.0013464073030418451 0 -0.0079773861816905094 -0.00097931720824127335 0 -0.0083258596045261927 -0.0010993959792280736 0 -0.0080598833686837262 -0.0013464073030418451 0 -0.0075980874653875305 -0.0013446728772283621 0 -0.0080598833686837262 -0.0013464073030418451 0 -0.0081286819952782752 -0.0017214060939506426 0 -0.011469908952675394 0.00041324560355445508 0 -0.011665794547287551 0.00025156407808371871 0 -0.011507988447009272 0.00026178348416995171 0 -0.0095679392911521607 -0.00042523066430377591 0 -0.010083157952002295 -0.0010753085001766148 0 -0.011665794547287551 0.00025156407808371871 0 -0.011507988447009272 0.00026178348416995171 0 -0.011557433419729351 0.00010714713099123321 0 -0.011469908952675394 0.00041324560355445508 0 -0.011507988447009272 0.00026178348416995171 0 -0.011385271672921712 0.00031541779932575453 0 -0.011507988447009272 0.00026178348416995171 0 -0.011385271672921712 0.00031541779932575453 0 -0.011394124335217956 0.00021414298474940757 0 -0.010083157952002295 -0.0010753085001766148 0 -0.012273186735455252 0.00076083535003076172 0 -0.011507988447009272 0.00026178348416995171 0 -0.011557433419729351 0.00010714713099123321 0 -0.011394124335217956 0.00021414298474940757 0 -0.012118480368336498 0.00067516333860862855 0 -0.01223158889697094 5.1165603590144912e-06 0 -0.012898955541763686 0.00018036830781502773 0 -0.012118480368336498 0.00067516333860862855 0 -0.011557433419729351 0.00010714713099123321 0 -0.01223158889697094 5.1165603590144912e-06 0 -0.010942396803128062 0.00017987766958290499 0 -0.011101010626582508 0.00020310315910194638 0 -0.011008090292433437 7.6061524189578722e-05 0 -0.010942396803128062 0.00017987766958290499 0 -0.01100959141300705 0.00034210715220191418 0 -0.011101010626582508 0.00020310315910194638 0 -0.010877070180957514 0.00036513677127764143 0 -0.010942396803128062 0.00017987766958290499 0 -0.01100959141300705 0.00034210715220191418 0 -0.01100959141300705 0.00034210715220191418 0 -0.011144766490515977 0.00033528296769679472 0 -0.011101010626582508 0.00020310315910194638 0 -0.011101010626582508 0.00020310315910194638 0 -0.011257344050390021 0.00027360434419144405 0 -0.011222616107795928 8.2663992732225368e-05 0 -0.011257120692534881 0.00040705099131679395 0 -0.011144766490515977 0.00033528296769679472 0 -0.011257344050390021 0.00027360434419144405 0 -0.011144766490515977 0.00033528296769679472 0 -0.011101010626582508 0.00020310315910194638 0 -0.011257344050390021 0.00027360434419144405 0 -0.011257120692534881 0.00040705099131679395 0 -0.011257344050390021 0.00027360434419144405 0 -0.011385271672921712 0.00031541779932575453 0 -0.011257344050390021 0.00027360434419144405 0 -0.011394124335217956 0.00021414298474940757 0 -0.011222616107795928 8.2663992732225368e-05 0 -0.011257344050390021 0.00027360434419144405 0 -0.011385271672921712 0.00031541779932575453 0 -0.011394124335217956 0.00021414298474940757 0 -0.011557433419729351 0.00010714713099123321 0 -0.011222616107795928 8.2663992732225368e-05 0 -0.011286452180481573 -0.00016739039868890064 0 -0.011222616107795928 8.2663992732225368e-05 0 -0.011002919582910017 -7.040698087699336e-05 0 -0.011286452180481573 -0.00016739039868890064 0 -0.011557433419729351 0.00010714713099123321 0 -0.011394124335217956 0.00021414298474940757 0 -0.011222616107795928 8.2663992732225368e-05 0 -0.010787222493614565 -8.2624506559231112e-06 0 -0.011002919582910017 -7.040698087699336e-05 0 -0.011008090292433437 7.6061524189578722e-05 0 -0.011101010626582508 0.00020310315910194638 0 -0.011222616107795928 8.2663992732225368e-05 0 -0.011008090292433437 7.6061524189578722e-05 0 -0.011222616107795928 8.2663992732225368e-05 0 -0.011002919582910017 -7.040698087699336e-05 0 -0.011008090292433437 7.6061524189578722e-05 0 -0.011002919582910017 -7.040698087699336e-05 0 -0.011034795034607102 -0.00021100646861944261 0 -0.011286452180481573 -0.00016739039868890064 0 -0.010772598865494417 -0.00015491716965704841 0 -0.011002919582910017 -7.040698087699336e-05 0 -0.011034795034607102 -0.00021100646861944261 0 -0.011034795034607102 -0.00021100646861944261 0 -0.011286452180481573 -0.00016739039868890064 0 -0.011300024123560152 -0.00039973076939842718 0 -0.014507329148074448 0.0011586842526986377 0 -0.015425392442881675 0.0010802881617794941 0 -0.010868670860042003 -0.00023280379616491729 0 -0.011034795034607102 -0.00021100646861944261 0 -0.011300024123560152 -0.00039973076939842718 0 -0.01223158889697094 5.1165603590144912e-06 0 -0.012039598857931764 -0.00059932677435566787 0 -0.012862159630683399 -0.00051589265767203023 0 -0.011557433419729351 0.00010714713099123321 0 -0.01223158889697094 5.1165603590144912e-06 0 -0.012039598857931764 -0.00059932677435566787 0 -0.011286452180481573 -0.00016739039868890064 0 -0.011300024123560152 -0.00039973076939842718 0 -0.011922027925470677 -0.00030616654359682692 0 -0.011557433419729351 0.00010714713099123321 0 -0.011286452180481573 -0.00016739039868890064 0 -0.012039598857931764 -0.00059932677435566787 0 -0.0098672275985168222 -0.0003488467161021203 0 -0.01573654318076504 0.00088723405061333523 0 -0.019431397318898209 0.0025019792225010199 0 -0.019929935335644251 0.0021164132994503124 0 -0.02018896873398272 0.0023659400535682392 0 -0.015425392442881675 0.0010802881617794941 0 -0.01573654318076504 0.00088723405061333523 0 -0.019672958804479036 0.00200141780494985 0 -0.019431397318898209 0.0025019792225010199 0 -0.019929935335644251 0.0021164132994503124 0 -0.020432523812624885 0.0017844416660038624 0 -0.019929935335644251 0.0021164132994503124 0 -0.02018896873398272 0.0023659400535682392 0 -0.018709322903527184 0.0021874632665051293 0 -0.019883868418089538 0.0018309517084327573 0 -0.019825734637689253 0.0023983356343521005 0 -0.01573654318076504 0.00088723405061333523 0 -0.020980986351554817 0.0019516950347225766 0 -0.020432523812624885 0.0017844416660038624 0 -0.02018896873398272 0.0023659400535682392 0 -0.02064903149016032 0.0020009164212086879 0 -0.01573654318076504 0.00088723405061333523 0 -0.016476279051013131 0.0011138890547012273 0 -0.01223158889697094 5.1165603590144912e-06 0 -0.012862159630683399 -0.00051589265767203023 0 -0.012898955541763686 0.00018036830781502773 0 -0.016476279051013131 0.0011138890547012273 0 -0.01638224338001194 -0.00097929062200372246 0 -0.012862159630683399 -0.00051589265767203023 0 -0.013747465509754061 -0.00036978360340187441 0 -0.012898955541763686 0.00018036830781502773 0 -0.019825734637689253 0.0023983356343521005 0 -0.020427456762208664 0.0020778668110622849 0 -0.020689464895770397 0.0024564535240776124 0 -0.01638224338001194 -0.00097929062200372246 0 -0.010506020660663681 -0.0016117399788808402 0 -0.020496068175912031 0.0017934469256336413 0 -0.020980986351554817 0.0019516950347225766 0 -0.020833809333324148 0.0017362361929705353 0 -0.019883868418089538 0.0018309517084327573 0 -0.020427456762208664 0.0020778668110622849 0 -0.019883868418089538 0.0018309517084327573 0 -0.019825734637689253 0.0023983356343521005 0 -0.020427456762208664 0.0020778668110622849 0 -0.020833809333324148 0.0017362361929705353 0 -0.020427456762208664 0.0020778668110622849 0 -0.020793747609822943 0.0020546106379572449 0 -0.020793747609822943 0.0020546106379572449 0 -0.021094495342090715 0.0020582444772704704 0 -0.020689464895770397 0.0024564535240776124 0 -0.021101682334107558 0.001731800730644767 0 -0.020793747609822943 0.0020546106379572449 0 -0.021094495342090715 0.0020582444772704704 0 -0.020833809333324148 0.0017362361929705353 0 -0.021101682334107558 0.001731800730644767 0 -0.020793747609822943 0.0020546106379572449 0 -0.020427456762208664 0.0020778668110622849 0 -0.020793747609822943 0.0020546106379572449 0 -0.020689464895770397 0.0024564535240776124 0 -0.020863610426258478 -0.0011780515941644072 0 -0.01973887216787383 -0.00097926622391566044 0 -0.019423381412695385 -0.0016937122872943459 0 -0.02163404063559567 0.00022410050464984131 0 -0.019798916551565585 0.00031679217802511812 0 -0.020863610426258478 -0.0011780515941644072 0 -0.019550296006256868 -0.0002026398764152357 0 -0.01973887216787383 -0.00097926622391566044 0 -0.021101682334107558 0.001731800730644767 0 -0.021094495342090715 0.0020582444772704704 0 -0.021351501563340668 0.0017952546133985618 0 -0.020863610426258478 -0.0011780515941644072 0 -0.020239314435803877 -0.0025445600181550078 0 -0.022063533632918131 -0.0020794883086664596 0 -0.020863610426258478 -0.0011780515941644072 0 -0.020239314435803877 -0.0025445600181550078 0 -0.019423381412695385 -0.0016937122872943459 0 -0.011756520220330247 -0.004026438529315517 0 -0.010505915248606982 -0.004209867412726177 0 -0.011074909336229734 -0.003262030630796589 0 -0.015922377890244824 -0.003535456218040208 0 -0.01638224338001194 -0.00097929062200372246 0 -0.02163404063559567 0.00022410050464984131 0 -0.01638224338001194 -0.00097929062200372246 0 -0.010505915248606982 -0.004209867412726177 0 -0.011074909336229734 -0.003262030630796589 0 -0.010286144005795248 -0.003245460633915604 0 -0.011074909336229734 -0.003262030630796589 0 -0.010475397844812604 -0.0026560492644672903 0 -0.010286144005795248 -0.003245460633915604 0 -0.011756520220330247 -0.004026438529315517 0 -0.011074909336229734 -0.003262030630796589 0 -0.011913488103827426 -0.0033485640059174658 0 -0.011074909336229734 -0.003262030630796589 0 -0.011913488103827426 -0.0033485640059174658 0 -0.011572319992519293 -0.0028041372287109802 0 -0.011913488103827426 -0.0033485640059174658 0 -0.011572319992519293 -0.0028041372287109802 0 -0.012303570455246554 -0.0027585200040047154 0 -0.011074909336229734 -0.003262030630796589 0 -0.011572319992519293 -0.0028041372287109802 0 -0.01102507049142082 -0.002469134903334808 0 -0.011572319992519293 -0.0028041372287109802 0 -0.01102507049142082 -0.002469134903334808 0 -0.011661327748029277 -0.0021587132255697231 0 -0.011572319992519293 -0.0028041372287109802 0 -0.012303570455246554 -0.0027585200040047154 0 -0.011661327748029277 -0.0021587132255697231 0 -0.011074909336229734 -0.003262030630796589 0 -0.010475397844812604 -0.0026560492644672903 0 -0.01102507049142082 -0.002469134903334808 0 -0.010475397844812604 -0.0026560492644672903 0 -0.010029064322134086 -0.0022353139615952661 0 -0.010537326624788021 -0.0020605267359431424 0 -0.010475397844812604 -0.0026560492644672903 0 -0.01102507049142082 -0.002469134903334808 0 -0.010537326624788021 -0.0020605267359431424 0 -0.010475397844812604 -0.0026560492644672903 0 -0.010029064322134086 -0.0022353139615952661 0 -0.0099291836421115682 -0.0027860481837816108 0 -0.0099291836421115682 -0.0027860481837816108 0 -0.0094358105171251667 -0.0025733277986772036 0 -0.0094219166607350264 -0.0034253261986172175 0 -0.010475397844812604 -0.0026560492644672903 0 -0.0099291836421115682 -0.0027860481837816108 0 -0.010286144005795248 -0.003245460633915604 0 -0.010029064322134086 -0.0022353139615952661 0 -0.0094358105171251667 -0.0025733277986772036 0 -0.0097190188130141363 -0.0020511859366045791 0 -0.010029064322134086 -0.0022353139615952661 0 -0.0099291836421115682 -0.0027860481837816108 0 -0.0094358105171251667 -0.0025733277986772036 0 -0.0084084351343879302 -0.0026760446008814707 0 -0.0094358105171251667 -0.0025733277986772036 0 -0.0094219166607350264 -0.0034253261986172175 0 -0.010083157952002295 -0.0010753085001766148 0 -0.0086530704726251809 -0.0017829500702928097 0 -0.0084084351343879302 -0.0026760446008814707 0 -0.0094358105171251667 -0.0025733277986772036 0 -0.0093212185858019443 -0.0018269290954703282 0 -0.010083157952002295 -0.0010753085001766148 0 -0.010506020660663681 -0.0016117399788808402 0 -0.010505915248606982 -0.004209867412726177 0 -0.0094219166607350264 -0.0034253261986172175 0 -0.010286144005795248 -0.003245460633915604 0 -0.0099291836421115682 -0.0027860481837816108 0 -0.0094219166607350264 -0.0034253261986172175 0 -0.010286144005795248 -0.003245460633915604 0 -0.015930031033329295 -0.0025398644671204436 0 -0.015901525054171306 -0.0016824520836491951 0 -0.017333180796061848 -0.001682775218756796 0 -0.016939540717571415 -0.0013168443349879041 0 -0.016482157564620264 -0.0019759367186335747 0 -0.015930031033329295 -0.0025398644671204436 0 -0.015413925753692709 -0.00317978633347475 0 -0.014612580578436174 -0.0027862031950088456 0 -0.01519464870435637 -0.002613030849259942 0 -0.014813980447706966 -0.0031297966319825134 0 -0.014612580578436174 -0.0027862031950088456 0 -0.014813980447706966 -0.0031297966319825134 0 -0.014803346798118327 -0.003332442431524064 0 -0.017333180796061848 -0.001682775218756796 0 -0.016939540717571415 -0.0013168443349879041 0 -0.01754551935848158 -0.001136564369388625 0 -0.015930031033329295 -0.0025398644671204436 0 -0.017957013491335602 -0.0010242704349426974 0 -0.018815776440132236 -0.00095041988075377187 0 -0.017957013491335602 -0.0010242704349426974 0 -0.018815776440132236 -0.00095041988075377187 0 -0.020463656844538058 -0.00013163038845982389 0 -0.020068503270323886 -0.00091131627733224887 0 -0.020036332431372535 -0.00014929086254865517 0 -0.020533703024098841 -0.00025800543828533457 0 -0.020068503270323886 -0.00091131627733224887 0 -0.020036332431372535 -0.00014929086254865517 0 -0.019687501530587511 -0.00036209052459184205 0 -0.020036332431372535 -0.00014929086254865517 0 -0.020319859945486421 5.431222328555866e-05 0 -0.020533703024098841 -0.00025800543828533457 0 -0.020036332431372535 -0.00014929086254865517 0 -0.020319859945486421 5.431222328555866e-05 0 -0.019848397395155881 0.00018705837787279329 0 -0.020621686470320044 0.00028656670105875985 0 -0.020319859945486421 5.431222328555866e-05 0 -0.020533703024098841 -0.00025800543828533457 0 -0.020015948991992681 -0.00097778062353972347 0 -0.020533703024098841 -0.00025800543828533457 0 -0.020797833947828553 -0.00074205282367768735 0 -0.017957013491335602 -0.0010242704349426974 0 -0.01762045250602861 -0.00091228573871209376 0 -0.021238319354352112 0.00037169480714654518 0 -0.020533703024098841 -0.00025800543828533457 0 -0.020797833947828553 -0.00074205282367768735 0 -0.020087281409848716 8.2835788710491478e-05 0 -0.017957013491335602 -0.0010242704349426974 0 -0.018657000913284403 -0.00048780825590998418 0 -0.018533708199885902 -0.00080532899729109098 0 -0.018809915723399465 -0.00072108411287345698 0 -0.021238319354352112 0.00037169480714654518 0 -0.020621686470320044 0.00028656670105875985 0 -0.020533703024098841 -0.00025800543828533457 0 -0.014958638524648247 -0.0015057081541656138 0 -0.016274779883682935 -0.0022439619897891088 0 -0.016794147960868984 -0.00093560710852393547 0 -0.014958638524648247 -0.0015057081541656138 0 -0.01519464870435637 -0.002613030849259942 0 -0.016274779883682935 -0.0022439619897891088 0 -0.01519464870435637 -0.002613030849259942 0 -0.016274779883682935 -0.0022439619897891088 0 -0.014858776438805621 -0.0035163649506300318 0 -0.014612580578436174 -0.0027862031950088456 0 -0.014958638524648247 -0.0015057081541656138 0 -0.01519464870435637 -0.002613030849259942 0 -0.016274779883682935 -0.0022439619897891088 0 -0.018261830068583455 -0.001602457671527269 0 -0.016794147960868984 -0.00093560710852393547 0 -0.016274779883682935 -0.0022439619897891088 0 -0.018261830068583455 -0.001602457671527269 0 -0.017932581480328814 -0.0032400662749008098 0 -0.018929252950342736 -0.00047560681489745995 0 -0.01900402172586 -0.00054985758832684238 0 -0.018809915723399465 -0.00072108411287345698 0 -0.01900402172586 -0.00054985758832684238 0 -0.018809915723399465 -0.00072108411287345698 0 -0.018896515448797908 -0.00066058506716184845 0 -0.01762045250602861 -0.00091228573871209376 0 -0.018789487830220754 -0.0006392932054804279 0 -0.018261830068583455 -0.001602457671527269 0 -0.016794147960868984 -0.00093560710852393547 0 -0.018896515448797908 -0.00066058506716184845 0 -0.018929252950342736 -0.00047560681489745995 0 -0.018657000913284403 -0.00048780825590998418 0 -0.018809915723399465 -0.00072108411287345698 0 -0.018261830068583455 -0.001602457671527269 0 -0.01911337572861908 -0.0010499999340803088 0 -0.018896515448797908 -0.00066058506716184845 0 -0.018261830068583455 -0.001602457671527269 0 -0.01911337572861908 -0.0010499999340803088 0 -0.019423381412695385 -0.0016937122872943459 0 -0.01911337572861908 -0.0010499999340803088 0 -0.018896515448797908 -0.00066058506716184845 0 -0.019103562731106239 -0.00059182942220691059 0 -0.01900402172586 -0.00054985758832684238 0 -0.018896515448797908 -0.00066058506716184845 0 -0.019103562731106239 -0.00059182942220691059 0 -0.019116550361420223 -0.0010471940603965179 0 -0.019798916551565585 0.00031679217802511812 0 -0.01911337572861908 -0.0010499999340803088 0 -0.019550296006256868 -0.0002026398764152357 0 -0.01973887216787383 -0.00097926622391566044 0 -0.01911337572861908 -0.0010499999340803088 0 -0.019103562731106239 -0.00059182942220691059 0 -0.019395556167740774 -0.000510002740062713 0 -0.01911337572861908 -0.0010499999340803088 0 -0.01973887216787383 -0.00097926622391566044 0 -0.019423381412695385 -0.0016937122872943459 0 -0.015922377890244824 -0.003535456218040208 0 -0.015525070213397938 -0.0034887401091098038 0 -0.018261830068583455 -0.001602457671527269 0 -0.019423381412695385 -0.0016937122872943459 0 -0.017932581480328814 -0.0032400662749008098 0 -0.020239314435803877 -0.0025445600181550078 0 -0.019423381412695385 -0.0016937122872943459 0 -0.017932581480328814 -0.0032400662749008098 0 -0.011913488103827426 -0.0033485640059174658 0 -0.012303570455246554 -0.0027585200040047154 0 -0.01310618314651577 -0.0038635745472769011 0 -0.011756520220330247 -0.004026438529315517 0 -0.011913488103827426 -0.0033485640059174658 0 -0.01310618314651577 -0.0038635745472769011 0 -0.012303570455246554 -0.0027585200040047154 0 -0.013237184023884357 -0.0028228604365893094 0 -0.012979531577488096 -0.0021764257014378779 0 -0.012303570455246554 -0.0027585200040047154 0 -0.01231399893620715 -0.0021167196662919357 0 -0.011661327748029277 -0.0021587132255697231 0 -0.012303570455246554 -0.0027585200040047154 0 -0.012979531577488096 -0.0021764257014378779 0 -0.01231399893620715 -0.0021167196662919357 0 -0.013237184023884357 -0.0028228604365893094 0 -0.012979531577488096 -0.0021764257014378779 0 -0.013767815630302075 -0.0023654740861796413 0 -0.013237184023884357 -0.0028228604365893094 0 -0.013767815630302075 -0.0023654740861796413 0 -0.014048152449153327 -0.003033891337144158 0 -0.013237184023884357 -0.0028228604365893094 0 -0.01310618314651577 -0.0038635745472769011 0 -0.014048152449153327 -0.003033891337144158 0 -0.012303570455246554 -0.0027585200040047154 0 -0.013237184023884357 -0.0028228604365893094 0 -0.01310618314651577 -0.0038635745472769011 0 -0.016274779883682935 -0.0022439619897891088 0 -0.017932581480328814 -0.0032400662749008098 0 -0.014858776438805621 -0.0035163649506300318 0 -0.015525070213397938 -0.0034887401091098038 0 -0.014919166449314748 -0.0035497827023514388 0 -0.01310618314651577 -0.0038635745472769011 0 -0.014858776438805621 -0.0035163649506300318 0 -0.014048152449153327 -0.003033891337144158 0 -0.01519464870435637 -0.002613030849259942 0 -0.014858776438805621 -0.0035163649506300318 0 -0.014813980447706966 -0.0031297966319825134 0 -0.014858776438805621 -0.0035163649506300318 0 -0.014684181453644248 -0.0031167123879266181 0 -0.014048152449153327 -0.003033891337144158 0 -0.014858776438805621 -0.0035163649506300318 0 -0.014684181453644248 -0.0031167123879266181 0 -0.014828739376685541 -0.0033567712751968867 0 -0.013767815630302075 -0.0023654740861796413 0 -0.014048152449153327 -0.003033891337144158 0 -0.014620660935015852 -0.0026967847239802623 0 -0.013767815630302075 -0.0023654740861796413 0 -0.014620660935015852 -0.0026967847239802623 0 -0.014248291296172716 -0.0020175713618383801 0 -0.014684181453644248 -0.0031167123879266181 0 -0.014048152449153327 -0.003033891337144158 0 -0.014620660935015852 -0.0026967847239802623 0 -0.014620660935015852 -0.0026967847239802623 0 -0.015272998496971096 -0.0026344052934686845 0 -0.014887851866000619 -0.0031708782451922569 0 -0.014620660935015852 -0.0026967847239802623 0 -0.015272998496971096 -0.0026344052934686845 0 -0.014859210698993994 -0.0016423170896097418 0 -0.015272998496971096 -0.0026344052934686845 0 -0.015168796299210344 -0.0031732734834474681 0 -0.014887851866000619 -0.0031708782451922569 0 -0.014716227667256165 -0.0035509997373327218 0 -0.014803346798118327 -0.003332442431524064 0 -0.015451856568774144 -0.0033800093936375663 0 -0.015168796299210344 -0.0031732734834474681 0 -0.014803346798118327 -0.003332442431524064 0 -0.015451856568774144 -0.0033800093936375663 0 -0.014684181453644248 -0.0031167123879266181 0 -0.014620660935015852 -0.0026967847239802623 0 -0.014887851866000619 -0.0031708782451922569 0 -0.014684181453644248 -0.0031167123879266181 0 -0.014887851866000619 -0.0031708782451922569 0 -0.014828739376685541 -0.0033567712751968867 0 -0.014887851866000619 -0.0031708782451922569 0 -0.014828739376685541 -0.0033567712751968867 0 -0.014803346798118327 -0.003332442431524064 0 -0.014858776438805621 -0.0035163649506300318 0 -0.014828739376685541 -0.0033567712751968867 0 -0.014813980447706966 -0.0031297966319825134 0 -0.014828739376685541 -0.0033567712751968867 0 -0.014813980447706966 -0.0031297966319825134 0 -0.014803346798118327 -0.003332442431524064 0 -0.015168796299210344 -0.0031732734834474681 0 -0.014887851866000619 -0.0031708782451922569 0 -0.014803346798118327 -0.003332442431524064 0 -0.014591134692003382 -0.0012155431234081335 0 -0.014239735082389838 -0.00060719921058201883 0 -0.014379505657847536 -0.00084697026282500173 0 -0.014585022226891004 -0.00035135192496293108 0 -0.014707134632589278 -0.00081975858654904541 0 -0.014379505657847536 -0.00084697026282500173 0 -0.014181241951816654 -0.0005365037829363461 0 -0.014585022226891004 -0.00035135192496293108 0 -0.014581817790289546 -0.0011930737581677139 0 -0.014379505657847536 -0.00084697026282500173 0 -0.014707134632589278 -0.00081975858654904541 0 -0.014930517093202372 -0.002011526822318328 0 -0.014591134692003382 -0.0012155431234081335 0 -0.013767815630302075 -0.0023654740861796413 0 -0.014248291296172716 -0.0020175713618383801 0 -0.013585733297462132 -0.0013273299429337354 0 -0.014859210698993994 -0.0016423170896097418 0 -0.014248291296172716 -0.0020175713618383801 0 -0.013585733297462132 -0.0013273299429337354 0 -0.014620660935015852 -0.0026967847239802623 0 -0.014859210698993994 -0.0016423170896097418 0 -0.014248291296172716 -0.0020175713618383801 0 -0.014859210698993994 -0.0016423170896097418 0 -0.014181241951816654 -0.0005365037829363461 0 -0.013585733297462132 -0.0013273299429337354 0 -0.014181241951816654 -0.0005365037829363461 0 -0.013585733297462132 -0.0013273299429337354 0 -0.013763201134233965 -0.00023236148731275446 0 -0.013585733297462132 -0.0013273299429337354 0 -0.012583171956762665 -0.001554223330267325 0 -0.012585057649076092 -0.00086154976423658903 0 -0.013585733297462132 -0.0013273299429337354 0 -0.012585057649076092 -0.00086154976423658903 0 -0.013136690324637988 -0.0004085842153836794 0 -0.013585733297462132 -0.0013273299429337354 0 -0.013136690324637988 -0.0004085842153836794 0 -0.013763201134233965 -0.00023236148731275446 0 -0.012979531577488096 -0.0021764257014378779 0 -0.013767815630302075 -0.0023654740861796413 0 -0.013585733297462132 -0.0013273299429337354 0 -0.012979531577488096 -0.0021764257014378779 0 -0.013585733297462132 -0.0013273299429337354 0 -0.012583171956762665 -0.001554223330267325 0 -0.012979531577488096 -0.0021764257014378779 0 -0.012583171956762665 -0.001554223330267325 0 -0.01231399893620715 -0.0021167196662919357 0 -0.012583171956762665 -0.001554223330267325 0 -0.01231399893620715 -0.0021167196662919357 0 -0.01167474578107356 -0.0013580289447145118 0 -0.012583171956762665 -0.001554223330267325 0 -0.012585057649076092 -0.00086154976423658903 0 -0.01167474578107356 -0.0013580289447145118 0 -0.012585057649076092 -0.00086154976423658903 0 -0.011989877253648843 -0.00050591012250698908 0 -0.01167474578107356 -0.0013580289447145118 0 -0.012585057649076092 -0.00086154976423658903 0 -0.012496110160565651 1.6218343200499642e-05 0 -0.013136690324637988 -0.0004085842153836794 0 -0.012585057649076092 -0.00086154976423658903 0 -0.011989877253648843 -0.00050591012250698908 0 -0.012496110160565651 1.6218343200499642e-05 0 -0.011989877253648843 -0.00050591012250698908 0 -0.012496110160565651 1.6218343200499642e-05 0 -0.011609282927386593 0.00021752909532743176 0 -0.012496110160565651 1.6218343200499642e-05 0 -0.012385733544884151 0.0009368128005296484 0 -0.011609282927386593 0.00021752909532743176 0 -0.012496110160565651 1.6218343200499642e-05 0 -0.012385733544884151 0.0009368128005296484 0 -0.01324994558404931 0.00021168458472955396 0 -0.007012154401465691 0.00098283575699008915 0 -0.0078601861648688858 0.00092128428866902756 0 -0.0076282009653311023 0.0014501241300302167 0 -0.0097450364771445811 0.00098688022013302692 0 -0.010590047427991354 0.00059087860799708267 0 -0.012385733544884151 0.0009368128005296484 0 -0.01324994558404931 0.00021168458472955396 0 -0.01373298198935138 0.00072259230222540614 0 -0.012496110160565651 1.6218343200499642e-05 0 -0.01324994558404931 0.00021168458472955396 0 -0.013136690324637988 -0.0004085842153836794 0 -0.01324994558404931 0.00021168458472955396 0 -0.013136690324637988 -0.0004085842153836794 0 -0.013763201134233965 -0.00023236148731275446 0 -0.014181241951816654 -0.0005365037829363461 0 -0.013763201134233965 -0.00023236148731275446 0 -0.01430368837803102 -9.7561822393865582e-05 0 -0.013763201134233965 -0.00023236148731275446 0 -0.013895092177045515 0.00020737680714303175 0 -0.01430368837803102 -9.7561822393865582e-05 0 -0.01324994558404931 0.00021168458472955396 0 -0.013763201134233965 -0.00023236148731275446 0 -0.013895092177045515 0.00020737680714303175 0 -0.010590047427991354 0.00059087860799708267 0 -0.011280503231019888 0.00019715289444228074 0 -0.01324994558404931 0.00021168458472955396 0 -0.013895092177045515 0.00020737680714303175 0 -0.01373298198935138 0.00072259230222540614 0 -0.012592002185115253 -0.00020504218029228512 0 -0.010590047427991354 0.00059087860799708267 0 -0.013895092177045515 0.00020737680714303175 0 -0.013792274364398924 0.00043542434671536942 0 -0.014484845556556157 0.00027648012044707501 0 -0.013895092177045515 0.00020737680714303175 0 -0.014484845556556157 0.00027648012044707501 0 -0.01430368837803102 -9.7561822393865582e-05 0 -0.0075759162020416588 0.0001176459811601748 0 -0.0077937977188028149 8.9753334884448886e-05 0 -0.0077012145249369815 0.00024367513604156075 0 -0.014484845556556157 0.00027648012044707501 0 -0.01430368837803102 -9.7561822393865582e-05 0 -0.014585022226891004 -0.00035135192496293108 0 -0.014181241951816654 -0.0005365037829363461 0 -0.01430368837803102 -9.7561822393865582e-05 0 -0.014585022226891004 -0.00035135192496293108 0 -0.0092251788621164083 -0.00071434899334425956 0 -0.0086008271389281712 -0.00084463630493357639 0 -0.0086665604252776467 -0.0012223883883665208 0 -0.0093286356110834755 -0.001142090732242924 0 -0.0087151461126066983 -0.00086821781030949172 0 -0.0081618188272209354 -0.0011420634112477249 0 -0.009645885759681996 -0.00087687941109351253 0 -0.0086530704726251809 -0.0017829500702928097 0 -0.009645885759681996 -0.00087687941109351253 0 -0.0083336330910335973 -0.0010049356653603959 0 -0.010207677114935226 -0.00099524457246526177 0 -0.010086052850492867 -0.0015741128245905197 0 -0.010353238437455533 -0.0013221304909209208 0 -0.0093286356110834755 -0.001142090732242924 0 -0.0090598338044484018 -0.0008560879442291435 0 -0.0087151461126066983 -0.00086821781030949172 0 -0.0093286356110834755 -0.001142090732242924 0 -0.0090598338044484018 -0.0008560879442291435 0 -0.0093140928366684927 -0.00068698306849099841 0 -0.0093286356110834755 -0.001142090732242924 0 -0.009757741148523371 -0.00064086806188481493 0 -0.0093140928366684927 -0.00068698306849099841 0 -0.0090598338044484018 -0.0008560879442291435 0 -0.0087151461126066983 -0.00086821781030949172 0 -0.0089535425061564901 -0.00066486446192380415 0 -0.0080548478916461497 -0.00075816457312368639 0 -0.0081618188272209354 -0.0011420634112477249 0 -0.0083675799019824262 -0.00067746167208681976 0 -0.0087151461126066983 -0.00086821781030949172 0 -0.0081618188272209354 -0.0011420634112477249 0 -0.0083675799019824262 -0.00067746167208681976 0 -0.0078453279272618723 -0.00093882516161150099 0 -0.0080548478916461497 -0.00075816457312368639 0 -0.0081618188272209354 -0.0011420634112477249 0 -0.0078501274037833715 -0.00062915923374541323 0 -0.0078453279272618723 -0.00093882516161150099 0 -0.0080548478916461497 -0.00075816457312368639 0 -0.0083258596045261927 -0.0010993959792280736 0 -0.0086008271389281712 -0.00084463630493357639 0 -0.0086665604252776467 -0.0012223883883665208 0 -0.0094358105171251667 -0.0025733277986772036 0 -0.0093212185858019443 -0.0018269290954703282 0 -0.0097190188130141363 -0.0020511859366045791 0 -0.0093212185858019443 -0.0018269290954703282 0 -0.0097190188130141363 -0.0020511859366045791 0 -0.010086052850492867 -0.0015741128245905197 0 -0.010207677114935226 -0.00099524457246526177 0 -0.0093212185858019443 -0.0018269290954703282 0 -0.010086052850492867 -0.0015741128245905197 0 -0.010029064322134086 -0.0022353139615952661 0 -0.010086052850492867 -0.0015741128245905197 0 -0.010537326624788021 -0.0020605267359431424 0 -0.010029064322134086 -0.0022353139615952661 0 -0.0097190188130141363 -0.0020511859366045791 0 -0.010086052850492867 -0.0015741128245905197 0 -0.01102507049142082 -0.002469134903334808 0 -0.010537326624788021 -0.0020605267359431424 0 -0.011065498402724897 -0.0018065138068497802 0 -0.010537326624788021 -0.0020605267359431424 0 -0.010586145893392462 -0.0015539434278348801 0 -0.011065498402724897 -0.0018065138068497802 0 -0.010586145893392462 -0.0015539434278348801 0 -0.011065498402724897 -0.0018065138068497802 0 -0.010978601104901177 -0.0012404580455870921 0 -0.010086052850492867 -0.0015741128245905197 0 -0.010537326624788021 -0.0020605267359431424 0 -0.010586145893392462 -0.0015539434278348801 0 -0.010086052850492867 -0.0015741128245905197 0 -0.010586145893392462 -0.0015539434278348801 0 -0.010353238437455533 -0.0013221304909209208 0 -0.01231399893620715 -0.0021167196662919357 0 -0.011661327748029277 -0.0021587132255697231 0 -0.01167474578107356 -0.0013580289447145118 0 -0.01102507049142082 -0.002469134903334808 0 -0.011661327748029277 -0.0021587132255697231 0 -0.011065498402724897 -0.0018065138068497802 0 -0.011661327748029277 -0.0021587132255697231 0 -0.011065498402724897 -0.0018065138068497802 0 -0.01167474578107356 -0.0013580289447145118 0 -0.011065498402724897 -0.0018065138068497802 0 -0.01167474578107356 -0.0013580289447145118 0 -0.010978601104901177 -0.0012404580455870921 0 -0.01167474578107356 -0.0013580289447145118 0 -0.010978601104901177 -0.0012404580455870921 0 -0.011197312510900713 -0.00057301753464514445 0 -0.010978601104901177 -0.0012404580455870921 0 -0.010695950348724515 -0.00084761997034081776 0 -0.011197312510900713 -0.00057301753464514445 0 -0.011989877253648843 -0.00050591012250698908 0 -0.01167474578107356 -0.0013580289447145118 0 -0.011197312510900713 -0.00057301753464514445 0 -0.010207677114935226 -0.00099524457246526177 0 -0.010539623018847952 -0.0011867879537222881 0 -0.010353238437455533 -0.0013221304909209208 0 -0.010586145893392462 -0.0015539434278348801 0 -0.010539623018847952 -0.0011867879537222881 0 -0.010353238437455533 -0.0013221304909209208 0 -0.010539623018847952 -0.0011867879537222881 0 -0.010978601104901177 -0.0012404580455870921 0 -0.010695950348724515 -0.00084761997034081776 0 -0.010586145893392462 -0.0015539434278348801 0 -0.010539623018847952 -0.0011867879537222881 0 -0.010978601104901177 -0.0012404580455870921 0 -0.010207677114935226 -0.00099524457246526177 0 -0.010539623018847952 -0.0011867879537222881 0 -0.010695950348724515 -0.00084761997034081776 0 -0.009645885759681996 -0.00087687941109351253 0 -0.010558422473861849 -0.0008690833865761708 0 -0.0093925090023063845 -0.001257911644286088 0 -0.010695950348724515 -0.00084761997034081776 0 -0.010022943342795574 -0.00065064316422547904 0 -0.0093286356110834755 -0.001142090732242924 0 -0.009757741148523371 -0.00064086806188481493 0 -0.010022943342795574 -0.00065064316422547904 0 -0.009645885759681996 -0.00087687941109351253 0 -0.0097951585010283716 -0.00079269415776268999 0 -0.009757741148523371 -0.00064086806188481493 0 -0.010083053174774616 -0.00041942574635517934 0 -0.0099818724954062223 -3.8111012057497553e-05 0 -0.009757741148523371 -0.00064086806188481493 0 -0.0099818724954062223 -3.8111012057497553e-05 0 -0.0098282629853575585 0.0005315817901252346 0 -0.009757741148523371 -0.00064086806188481493 0 -0.0095091795866165899 -0.00052475004712467909 0 -0.0093140928366684927 -0.00068698306849099841 0 -0.010083053174774616 -0.00041942574635517934 0 -0.010501477269742383 -0.00036363980822292838 0 -0.0099818724954062223 -3.8111012057497553e-05 0 -0.010083053174774616 -0.00041942574635517934 0 -0.010022943342795574 -0.00065064316422547904 0 -0.010501477269742383 -0.00036363980822292838 0 -0.009757741148523371 -0.00064086806188481493 0 -0.010083053174774616 -0.00041942574635517934 0 -0.010022943342795574 -0.00065064316422547904 0 -0.010695950348724515 -0.00084761997034081776 0 -0.010022943342795574 -0.00065064316422547904 0 -0.010501477269742383 -0.00036363980822292838 0 -0.010695950348724515 -0.00084761997034081776 0 -0.010501477269742383 -0.00036363980822292838 0 -0.011197312510900713 -0.00057301753464514445 0 -0.010501477269742383 -0.00036363980822292838 0 -0.010708189425255463 0.00020491828970320566 0 -0.011197312510900713 -0.00057301753464514445 0 -0.010501477269742383 -0.00036363980822292838 0 -0.010708189425255463 0.00020491828970320566 0 -0.0099818724954062223 -3.8111012057497553e-05 0 -0.010708189425255463 0.00020491828970320566 0 -0.0099818724954062223 -3.8111012057497553e-05 0 -0.0098282629853575585 0.0005315817901252346 0 -0.011989877253648843 -0.00050591012250698908 0 -0.011197312510900713 -0.00057301753464514445 0 -0.011609282927386593 0.00021752909532743176 0 -0.010708189425255463 0.00020491828970320566 0 -0.011197312510900713 -0.00057301753464514445 0 -0.011609282927386593 0.00021752909532743176 0 -0.007012154401465691 0.00098283575699008915 0 -0.0062868829417537537 0.001129793615020348 0 -0.0067148514220521293 0.001356536306676117 0 -0.012385733544884151 0.0009368128005296484 0 -0.011609282927386593 0.00021752909532743176 0 -0.010765135751000196 0.0011625849205147531 0 -0.0097450364771445811 0.00098688022013302692 0 -0.0084670851822389107 0.001156843679548559 0 -0.010708189425255463 0.00020491828970320566 0 -0.011609282927386593 0.00021752909532743176 0 -0.010765135751000196 0.0011625849205147531 0 -0.0098282629853575585 0.0005315817901252346 0 -0.010765135751000196 0.0011625849205147531 0 -0.0089562239144379083 0.0012881614324393978 0 -0.0062868829417537537 0.001129793615020348 0 -0.0058642342330503475 0.0012546260735569795 0 -0.0060375442563890712 0.0013394662061344948 0 -0.0084670851822389107 0.001156843679548559 0 -0.0076535431710262076 0.0011011525253187958 0 -0.010708189425255463 0.00020491828970320566 0 -0.0098282629853575585 0.0005315817901252346 0 -0.010765135751000196 0.0011625849205147531 0 -0.0085439665698232373 0.00029693375115175314 0 -0.0084892756490825942 0.00027201299934567373 0 -0.0083093494399285543 0.00035106552722594136 0 -0.0085325124007313621 0.00023666229923704769 0 -0.0085439665698232373 0.00029693375115175314 0 -0.008587339790311092 0.0001797474117732425 0 -0.0085325124007313621 0.00023666229923704769 0 -0.0085439665698232373 0.00029693375115175314 0 -0.0084892756490825942 0.00027201299934567373 0 -0.0084532036057709484 0.00022211741900070075 0 -0.0083333234102353493 0.00019103194958105347 0 -0.0083093494399285543 0.00035106552722594136 0 -0.0084892756490825942 0.00027201299934567373 0 -0.0084532036057709484 0.00022211741900070075 0 -0.0083093494399285543 0.00035106552722594136 0 -0.0085325124007313621 0.00023666229923704769 0 -0.0084892756490825942 0.00027201299934567373 0 -0.0084532036057709484 0.00022211741900070075 0 -0.0085325124007313621 0.00023666229923704769 0 -0.0084532036057709484 0.00022211741900070075 0 -0.008587339790311092 0.0001797474117732425 0 -0.0084532036057709484 0.00022211741900070075 0 -0.008440391503843717 0.0001353278329616624 0 -0.0083333234102353493 0.00019103194958105347 0 -0.0085439665698232373 0.00029693375115175314 0 -0.008587339790311092 0.0001797474117732425 0 -0.0088229181045419505 9.085278524075163e-05 0 -0.0076535431710262076 0.0011011525253187958 0 -0.0089252872814676761 0.00022722825336896321 0 -0.008440391503843717 0.0001353278329616624 0 -0.0085120105508696871 3.1473525628452285e-05 0 -0.0083053753121360343 4.3624665611369544e-05 0 -0.0084532036057709484 0.00022211741900070075 0 -0.0085643450262042464 0.00011954272585452731 0 -0.008587339790311092 0.0001797474117732425 0 -0.0084532036057709484 0.00022211741900070075 0 -0.008440391503843717 0.0001353278329616624 0 -0.0085643450262042464 0.00011954272585452731 0 -0.008440391503843717 0.0001353278329616624 0 -0.0085643450262042464 0.00011954272585452731 0 -0.0085120105508696871 3.1473525628452285e-05 0 -0.008587339790311092 0.0001797474117732425 0 -0.0086650854574777478 0.00013231748038164764 0 -0.0088229181045419505 9.085278524075163e-05 0 -0.0085643450262042464 0.00011954272585452731 0 -0.0086650854574777478 0.00013231748038164764 0 -0.0086217670828353278 5.8457668339198308e-05 0 -0.0085643450262042464 0.00011954272585452731 0 -0.008587339790311092 0.0001797474117732425 0 -0.0086650854574777478 0.00013231748038164764 0 -0.0086650854574777478 0.00013231748038164764 0 -0.0087426737959061928 7.3391645358059286e-05 0 -0.0086217670828353278 5.8457668339198308e-05 0 -0.0087426737959061928 7.3391645358059286e-05 0 -0.0087396536829103203 -1.9932951944023573e-05 0 -0.0086288926901584469 -1.70108652489549e-05 0 -0.0087426737959061928 7.3391645358059286e-05 0 -0.0087396536829103203 -1.9932951944023573e-05 0 -0.0088345152395459259 3.3215669752342955e-06 0 -0.0087396536829103203 -1.9932951944023573e-05 0 -0.0086288926901584469 -1.70108652489549e-05 0 -0.008713235754465613 -0.00010776037265724805 0 -0.0087426737959061928 7.3391645358059286e-05 0 -0.0086288926901584469 -1.70108652489549e-05 0 -0.0086217670828353278 5.8457668339198308e-05 0 -0.0085643450262042464 0.00011954272585452731 0 -0.0086217670828353278 5.8457668339198308e-05 0 -0.0085120105508696871 3.1473525628452285e-05 0 -0.0086288926901584469 -1.70108652489549e-05 0 -0.0086217670828353278 5.8457668339198308e-05 0 -0.0085120105508696871 3.1473525628452285e-05 0 -0.0086288926901584469 -1.70108652489549e-05 0 -0.0085120105508696871 3.1473525628452285e-05 0 -0.0084885867760755834 -0.00011224296150783636 0 -0.0098282629853575585 0.0005315817901252346 0 -0.0089562239144379083 0.0012881614324393978 0 -0.0092561255780046897 0.0006735246721602811 0 -0.0087426737959061928 7.3391645358059286e-05 0 -0.0088229181045419505 9.085278524075163e-05 0 -0.0088345152395459259 3.3215669752342955e-06 0 -0.0086650854574777478 0.00013231748038164764 0 -0.0087426737959061928 7.3391645358059286e-05 0 -0.0088229181045419505 9.085278524075163e-05 0 -0.0087396536829103203 -1.9932951944023573e-05 0 -0.0088345152395459259 3.3215669752342955e-06 0 -0.008899633373134307 -5.9395126709502079e-05 0 -0.0088229181045419505 9.085278524075163e-05 0 -0.0088345152395459259 3.3215669752342955e-06 0 -0.008899633373134307 -5.9395126709502079e-05 0 -0.009757741148523371 -0.00064086806188481493 0 -0.0098282629853575585 0.0005315817901252346 0 -0.0092561255780046897 0.0006735246721602811 0 -0.009757741148523371 -0.00064086806188481493 0 -0.0088229181045419505 9.085278524075163e-05 0 -0.0091086587483081276 -0.00020305448970623976 0 -0.0096854061176643875 -0.00058264897250229339 0 -0.0089252872814676761 0.00022722825336896321 0 -0.0091086587483081276 -0.00020305448970623976 0 -0.009040915008719945 -0.00034938879413351894 0 -0.0092219402514966149 -0.00037872986771057615 0 -0.009040915008719945 -0.00034938879413351894 0 -0.0088885273796045165 -0.00029691212114008812 0 -0.0088730792228010492 -0.00043783637942748985 0 -0.009040915008719945 -0.00034938879413351894 0 -0.0089911622229083017 -0.00025072004042141666 0 -0.0088885273796045165 -0.00029691212114008812 0 -0.0091086587483081276 -0.00020305448970623976 0 -0.009040915008719945 -0.00034938879413351894 0 -0.0089911622229083017 -0.00025072004042141666 0 -0.0091086587483081276 -0.00020305448970623976 0 -0.0089911622229083017 -0.00025072004042141666 0 -0.0089721912353851532 -0.00018739422308291777 0 -0.0089911622229083017 -0.00025072004042141666 0 -0.0088589864343231149 -0.00017771623623423467 0 -0.0089721912353851532 -0.00018739422308291777 0 -0.0089911622229083017 -0.00025072004042141666 0 -0.0088589864343231149 -0.00017771623623423467 0 -0.0088885273796045165 -0.00029691212114008812 0 -0.0088229181045419505 9.085278524075163e-05 0 -0.0091086587483081276 -0.00020305448970623976 0 -0.008899633373134307 -5.9395126709502079e-05 0 -0.0087396536829103203 -1.9932951944023573e-05 0 -0.0088589864343231149 -0.00017771623623423467 0 -0.0089393450407758545 -0.00011883540719698865 0 -0.0088589864343231149 -0.00017771623623423467 0 -0.0089393450407758545 -0.00011883540719698865 0 -0.0089721912353851532 -0.00018739422308291777 0 -0.0091086587483081276 -0.00020305448970623976 0 -0.0089393450407758545 -0.00011883540719698865 0 -0.008899633373134307 -5.9395126709502079e-05 0 -0.0091086587483081276 -0.00020305448970623976 0 -0.0089393450407758545 -0.00011883540719698865 0 -0.0089721912353851532 -0.00018739422308291777 0 -0.0087396536829103203 -1.9932951944023573e-05 0 -0.0089393450407758545 -0.00011883540719698865 0 -0.008899633373134307 -5.9395126709502079e-05 0 -0.0087396536829103203 -1.9932951944023573e-05 0 -0.0088589864343231149 -0.00017771623623423467 0 -0.008713235754465613 -0.00010776037265724805 0 -0.0088589864343231149 -0.00017771623623423467 0 -0.008713235754465613 -0.00010776037265724805 0 -0.0086911055236304074 -0.00027818234834755748 0 -0.0086288926901584469 -1.70108652489549e-05 0 -0.008713235754465613 -0.00010776037265724805 0 -0.0084885867760755834 -0.00011224296150783636 0 -0.008713235754465613 -0.00010776037265724805 0 -0.0084885867760755834 -0.00011224296150783636 0 -0.0086911055236304074 -0.00027818234834755748 0 -0.0084885867760755834 -0.00011224296150783636 0 -0.0086911055236304074 -0.00027818234834755748 0 -0.0084083071152535604 -0.00035102133064371773 0 -0.0088589864343231149 -0.00017771623623423467 0 -0.0086911055236304074 -0.00027818234834755748 0 -0.0088885273796045165 -0.00029691212114008812 0 -0.0086911055236304074 -0.00027818234834755748 0 -0.0088885273796045165 -0.00029691212114008812 0 -0.0088730792228010492 -0.00043783637942748985 0 -0.0086911055236304074 -0.00027818234834755748 0 -0.0088730792228010492 -0.00043783637942748985 0 -0.008655280252971416 -0.00054327721901187883 0 -0.0088730792228010492 -0.00043783637942748985 0 -0.008655280252971416 -0.00054327721901187883 0 -0.0089535425061564901 -0.00066486446192380415 0 -0.0086911055236304074 -0.00027818234834755748 0 -0.008655280252971416 -0.00054327721901187883 0 -0.0084083071152535604 -0.00035102133064371773 0 -0.0087151461126066983 -0.00086821781030949172 0 -0.008655280252971416 -0.00054327721901187883 0 -0.0083675799019824262 -0.00067746167208681976 0 -0.0087151461126066983 -0.00086821781030949172 0 -0.008655280252971416 -0.00054327721901187883 0 -0.0089535425061564901 -0.00066486446192380415 0 -0.0090598338044484018 -0.0008560879442291435 0 -0.0089535425061564901 -0.00066486446192380415 0 -0.0093140928366684927 -0.00068698306849099841 0 -0.0095091795866165899 -0.00052475004712467909 0 -0.0091086587483081276 -0.00020305448970623976 0 -0.0092219402514966149 -0.00037872986771057615 0 -0.009757741148523371 -0.00064086806188481493 0 -0.0095091795866165899 -0.00052475004712467909 0 -0.0091086587483081276 -0.00020305448970623976 0 -0.0089535425061564901 -0.00066486446192380415 0 -0.0093140928366684927 -0.00068698306849099841 0 -0.0091534018342465991 -0.00050971789997906764 0 -0.0093140928366684927 -0.00068698306849099841 0 -0.0093335592964036082 -0.00048368017648552894 0 -0.0091534018342465991 -0.00050971789997906764 0 -0.0095091795866165899 -0.00052475004712467909 0 -0.0093140928366684927 -0.00068698306849099841 0 -0.0093335592964036082 -0.00048368017648552894 0 -0.0093335592964036082 -0.00048368017648552894 0 -0.0092219402514966149 -0.00037872986771057615 0 -0.0091534018342465991 -0.00050971789997906764 0 -0.0095091795866165899 -0.00052475004712467909 0 -0.0093335592964036082 -0.00048368017648552894 0 -0.0092219402514966149 -0.00037872986771057615 0 -0.009040915008719945 -0.00034938879413351894 0 -0.0092219402514966149 -0.00037872986771057615 0 -0.0091534018342465991 -0.00050971789997906764 0 -0.009040915008719945 -0.00034938879413351894 0 -0.0088730792228010492 -0.00043783637942748985 0 -0.0091534018342465991 -0.00050971789997906764 0 -0.0088730792228010492 -0.00043783637942748985 0 -0.0089535425061564901 -0.00066486446192380415 0 -0.0091534018342465991 -0.00050971789997906764 0 -0.0078501274037833715 -0.00062915923374541323 0 -0.0080548478916461497 -0.00075816457312368639 0 -0.0080805379993456657 -0.00038341098422938077 0 -0.0080548478916461497 -0.00075816457312368639 0 -0.0083675799019824262 -0.00067746167208681976 0 -0.0080805379993456657 -0.00038341098422938077 0 -0.0083675799019824262 -0.00067746167208681976 0 -0.0084083071152535604 -0.00035102133064371773 0 -0.0080805379993456657 -0.00038341098422938077 0 -0.008655280252971416 -0.00054327721901187883 0 -0.0083675799019824262 -0.00067746167208681976 0 -0.0084083071152535604 -0.00035102133064371773 0 -0.0084083071152535604 -0.00035102133064371773 0 -0.0082439659057336502 -0.00015622960726273879 0 -0.0080805379993456657 -0.00038341098422938077 0 -0.0084885867760755834 -0.00011224296150783636 0 -0.0084083071152535604 -0.00035102133064371773 0 -0.0082439659057336502 -0.00015622960726273879 0 -0.0077937027172695376 -0.00022172346241087321 0 -0.0080805379993456657 -0.00038341098422938077 0 -0.0080326886208469984 -2.7311229139848622e-05 0 -0.0082439659057336502 -0.00015622960726273879 0 -0.0080805379993456657 -0.00038341098422938077 0 -0.0080326886208469984 -2.7311229139848622e-05 0 -0.0078501274037833715 -0.00062915923374541323 0 -0.0077937027172695376 -0.00022172346241087321 0 -0.0080805379993456657 -0.00038341098422938077 0 -0.0077281863705071022 0.00011798395878291458 0 -0.0080326886208469984 -2.7311229139848622e-05 0 -0.0081183160783875989 0.00022078615201282753 0 -0.0084885867760755834 -0.00011224296150783636 0 -0.0082439659057336502 -0.00015622960726273879 0 -0.0083053753121360343 4.3624665611369544e-05 0 -0.0085120105508696871 3.1473525628452285e-05 0 -0.0084885867760755834 -0.00011224296150783636 0 -0.0083053753121360343 4.3624665611369544e-05 0 -0.0082439659057336502 -0.00015622960726273879 0 -0.0080326886208469984 -2.7311229139848622e-05 0 -0.0083053753121360343 4.3624665611369544e-05 0 -0.0080326886208469984 -2.7311229139848622e-05 0 -0.0083053753121360343 4.3624665611369544e-05 0 -0.0081183160783875989 0.00022078615201282753 0 -0.008440391503843717 0.0001353278329616624 0 -0.0083053753121360343 4.3624665611369544e-05 0 -0.0083333234102353493 0.00019103194958105347 0 -0.0083053753121360343 4.3624665611369544e-05 0 -0.0083333234102353493 0.00019103194958105347 0 -0.0081183160783875989 0.00022078615201282753 0 -0.0081183160783875989 0.00022078615201282753 0 -0.0083093494399285543 0.00035106552722594136 0 -0.007948963925968635 0.00042421367035330894 0 -0.0083333234102353493 0.00019103194958105347 0 -0.0081183160783875989 0.00022078615201282753 0 -0.0083093494399285543 0.00035106552722594136 0 -0.0077281863705071022 0.00011798395878291458 0 -0.0081183160783875989 0.00022078615201282753 0 -0.007948963925968635 0.00042421367035330894 0 -0.0079813795079869201 0.00074742613401790499 0 -0.007601164240821111 0.00051928947618740237 0 -0.0075819815661075582 0.00081275013333186573 0 -0.007948963925968635 0.00042421367035330894 0 -0.0079813795079869201 0.00074742613401790499 0 -0.007601164240821111 0.00051928947618740237 0 -0.0083093494399285543 0.00035106552722594136 0 -0.007948963925968635 0.00042421367035330894 0 -0.0079813795079869201 0.00074742613401790499 0 -0.0079813795079869201 0.00074742613401790499 0 -0.0075172409533930925 0.0010024862732674041 0 -0.0075819815661075582 0.00081275013333186573 0 -0.0057847360138806548 0.0016251116256085544 0 -0.0058454313386227304 0.001752134033664193 0 -0.0059626271732029952 0.0018997205546821183 0 -0.0068727733355125782 0.0011254660266076715 0 -0.006765334519755575 0.0013864460627089556 0 -0.0059730239663392604 0.0016904086348153589 0 -0.0058454313386227304 0.001752134033664193 0 -0.0059713082767168428 0.0017756746478922276 0 -0.0059730239663392604 0.0016904086348153589 0 -0.0058454313386227304 0.001752134033664193 0 -0.0059038753133502818 0.00161448894854551 0 -0.0057847360138806548 0.0016251116256085544 0 -0.0058454313386227304 0.001752134033664193 0 -0.0059038753133502818 0.00161448894854551 0 -0.0059730239663392604 0.0016904086348153589 0 -0.0059038753133502818 0.00161448894854551 0 -0.0060090743431725213 0.0015317370851726949 0 -0.0076535431710262076 0.0011011525253187958 0 -0.0068727733355125782 0.0011254660266076715 0 -0.0058642342330503475 0.0012546260735569795 0 -0.0057847360138806548 0.0016251116256085544 0 -0.0059185513098674852 0.001438467015810802 0 -0.0085439665698232373 0.00029693375115175314 0 -0.0083093494399285543 0.00035106552722594136 0 -0.0079813795079869201 0.00074742613401790499 0 -0.0059038753133502818 0.00161448894854551 0 -0.0060090743431725213 0.0015317370851726949 0 -0.0059185513098674852 0.001438467015810802 0 -0.0060090743431725213 0.0015317370851726949 0 -0.0059185513098674852 0.001438467015810802 0 -0.0060272274956727611 0.0014415791185468222 0 -0.0057847360138806548 0.0016251116256085544 0 -0.0059038753133502818 0.00161448894854551 0 -0.0059185513098674852 0.001438467015810802 0 -0.0059185513098674852 0.001438467015810802 0 -0.0060375442563890712 0.0013394662061344948 0 -0.0060272274956727611 0.0014415791185468222 0 -0.0058642342330503475 0.0012546260735569795 0 -0.0059185513098674852 0.001438467015810802 0 -0.0060375442563890712 0.0013394662061344948 0 -0.0060375442563890712 0.0013394662061344948 0 -0.0061482241139976593 0.0014581040088446596 0 -0.0060272274956727611 0.0014415791185468222 0 -0.0062868829417537537 0.001129793615020348 0 -0.0060375442563890712 0.0013394662061344948 0 -0.0061482241139976593 0.0014581040088446596 0 -0.0062868829417537537 0.001129793615020348 0 -0.0061482241139976593 0.0014581040088446596 0 -0.0064195921378588996 0.0014680525170503514 0 -0.0060090743431725213 0.0015317370851726949 0 -0.0061482241139976593 0.0014581040088446596 0 -0.0060272274956727611 0.0014415791185468222 0 -0.0060090743431725213 0.0015317370851726949 0 -0.0061482241139976593 0.0014581040088446596 0 -0.0061225725561590413 0.0016379867901170496 0 -0.0062868829417537537 0.001129793615020348 0 -0.0067148514220521293 0.001356536306676117 0 -0.0064195921378588996 0.0014680525170503514 0 -0.0067148514220521293 0.001356536306676117 0 -0.0064195921378588996 0.0014680525170503514 0 -0.0068416535111816114 0.0018380986611081511 0 -0.0061482241139976593 0.0014581040088446596 0 -0.0064195921378588996 0.0014680525170503514 0 -0.0062703823572413386 0.0016681240086761542 0 -0.0062703823572413386 0.0016681240086761542 0 -0.0062468500214965588 0.0016902522243983165 0 -0.006259681236356571 0.0016845551916592801 0 -0.0064195921378588996 0.0014680525170503514 0 -0.0062703823572413386 0.0016681240086761542 0 -0.0068416535111816114 0.0018380986611081511 0 -0.0062999910107682383 0.0016863309255884728 0 -0.0065556581269360925 0.001765668509644974 0 -0.0062703823572413386 0.0016681240086761542 0 -0.0062468500214965588 0.0016902522243983165 0 -0.0061914349427707686 0.0016963837977876947 0 -0.0062010710918512426 0.0017341571297001903 0 -0.0062468500214965588 0.0016902522243983165 0 -0.0061914349427707686 0.0016963837977876947 0 -0.0062216554779712767 0.0016900012379523278 0 -0.0062466673789776323 0.0017510988233265289 0 -0.0062010710918512426 0.0017341571297001903 0 -0.0062468500214965588 0.0016902522243983165 0 -0.0061852063372913706 0.0017791299688966018 0 -0.0062468500214965588 0.0016902522243983165 0 -0.006259681236356571 0.0016845551916592801 0 -0.0062589061801001612 0.0016951958665634005 0 -0.0059730239663392604 0.0016904086348153589 0 -0.0060090743431725213 0.0015317370851726949 0 -0.0061225725561590413 0.0016379867901170496 0 -0.0061482241139976593 0.0014581040088446596 0 -0.0062703823572413386 0.0016681240086761542 0 -0.0061225725561590413 0.0016379867901170496 0 -0.0062703823572413386 0.0016681240086761542 0 -0.0061225725561590413 0.0016379867901170496 0 -0.0061914349427707686 0.0016963837977876947 0 -0.0062010710918512426 0.0017341571297001903 0 -0.0061170366394731187 0.0017315486012358834 0 -0.0061914349427707686 0.0016963837977876947 0 -0.0061225725561590413 0.0016379867901170496 0 -0.0061170366394731187 0.0017315486012358834 0 -0.0061914349427707686 0.0016963837977876947 0 -0.0059730239663392604 0.0016904086348153589 0 -0.0061225725561590413 0.0016379867901170496 0 -0.0061170366394731187 0.0017315486012358834 0 -0.0061170366394731187 0.0017315486012358834 0 -0.0061107006844502718 0.0017833261099708035 0 -0.0059713082767168428 0.0017756746478922276 0 -0.0059730239663392604 0.0016904086348153589 0 -0.0061170366394731187 0.0017315486012358834 0 -0.0059713082767168428 0.0017756746478922276 0 -0.0061170366394731187 0.0017315486012358834 0 -0.0061107006844502718 0.0017833261099708035 0 -0.0061762832961502001 0.0017688283078560764 0 -0.0061107006844502718 0.0017833261099708035 0 -0.0061762832961502001 0.0017688283078560764 0 -0.0061551550541881902 0.0017924224683921416 0 -0.0061107006844502718 0.0017833261099708035 0 -0.0061551550541881902 0.0017924224683921416 0 -0.0060991804901710392 0.0018387921835242042 0 -0.0061107006844502718 0.0017833261099708035 0 -0.0060991804901710392 0.0018387921835242042 0 -0.0059713082767168428 0.0017756746478922276 0 -0.0051308512273577842 0.0015304488345927573 0 -0.0060969856227218993 0.0020130550196512812 0 -0.0062010710918512426 0.0017341571297001903 0 -0.0061762832961502001 0.0017688283078560764 0 -0.0061852063372913706 0.0017791299688966018 0 -0.0062010710918512426 0.0017341571297001903 0 -0.0061170366394731187 0.0017315486012358834 0 -0.0061762832961502001 0.0017688283078560764 0 -0.0061762832961502001 0.0017688283078560764 0 -0.0061551550541881902 0.0017924224683921416 0 -0.0061730904671695591 0.0017810206770263494 0 -0.0061730904671695591 0.0017810206770263494 0 -0.0061852063372913706 0.0017791299688966018 0 -0.0061473809600843332 0.0017747437641713682 0 -0.0061762832961502001 0.0017688283078560764 0 -0.0061730904671695591 0.0017810206770263494 0 -0.0061852063372913706 0.0017791299688966018 0 -0.0035411849509613636 0.00089992048278822521 0 -0.0042314208973398158 0.001113110303593124 0 -0.0038500494442787682 0.00051777301119988663 0 -0.0048833056028104796 0.0013381383755520749 0 -0.0051308512273577842 0.0015304488345927573 0 -0.0061551550541881902 0.0017924224683921416 0 -0.0061785498897804899 0.001770800735359691 0 -0.0060991804901710392 0.0018387921835242042 0 -0.0061730904671695591 0.0017810206770263494 0 -0.0061785498897804899 0.001770800735359691 0 -0.0061473809600843332 0.0017747437641713682 0 -0.0061551550541881902 0.0017924224683921416 0 -0.0061730904671695591 0.0017810206770263494 0 -0.0061785498897804899 0.001770800735359691 0 -0.0042157084826727545 0.0014590845957925987 0 -0.0046731858768852032 0.00096954654893312319 0 -0.003724326893090386 0.0005816134667956704 0 -0.0051308512273577842 0.0015304488345927573 0 -0.003696703748698345 0.0004640154987455354 0 -0.0046731858768852032 0.00096954654893312319 0 -0.0057165999469960703 0.0017808126245342885 0 -0.0053859630304394449 0.00072191618434406732 0 -0.0051308512273577842 0.0015304488345927573 0 -0.0056968695617369688 0.0018327671774018557 0 -0.0042157084826727545 0.0014590845957925987 0 -0.0046731858768852032 0.00096954654893312319 0 -0.0057165999469960703 0.0017808126245342885 0 -0.0059988611897602616 0.0011652415434422417 0 -0.0057165999469960703 0.0017808126245342885 0 -0.0053859630304394449 0.00072191618434406732 0 -0.0059988611897602616 0.0011652415434422417 0 -0.0060919907824063353 0.0014909282242926707 0 -0.0057165999469960703 0.0017808126245342885 0 -0.0058454313386227304 0.001752134033664193 0 -0.0057165999469960703 0.0017808126245342885 0 -0.0059626271732029952 0.0018997205546821183 0 -0.0060919907824063353 0.0014909282242926707 0 -0.0057165999469960703 0.0017808126245342885 0 -0.0059626271732029952 0.0018997205546821183 0 -0.0060811513414739159 0.001965982786424215 0 -0.0057165999469960703 0.0017808126245342885 0 -0.0059713082767168428 0.0017756746478922276 0 -0.0058454313386227304 0.001752134033664193 0 -0.0057165999469960703 0.0017808126245342885 0 -0.0059713082767168428 0.0017756746478922276 0 -0.0076822997466703437 0.00045602092224307977 0 -0.0077012145249369815 0.00024367513604156075 0 -0.0077990285558872836 0.00034496551845658834 0 -0.0077012145249369815 0.00024367513604156075 0 -0.0078652379100573027 0.0001667803492926032 0 -0.0077990285558872836 0.00034496551845658834 0 -0.0077937977188028149 8.9753334884448886e-05 0 -0.0077012145249369815 0.00024367513604156075 0 -0.0078652379100573027 0.0001667803492926032 0 -0.0076822997466703437 0.00045602092224307977 0 -0.0077012145249369815 0.00024367513604156075 0 -0.0075051145231058271 0.00026653872022055087 0 -0.0075759162020416588 0.0001176459811601748 0 -0.0077012145249369815 0.00024367513604156075 0 -0.0075051145231058271 0.00026653872022055087 0 -0.007477765345638575 0.00037033025285691833 0 -0.0069580011994414522 0.00099697250936928725 0 -0.0076822997466703437 0.00045602092224307977 0 -0.0074440636573435918 0.00041109720384757882 0 -0.0075051145231058271 0.00026653872022055087 0 -0.0069580011994414522 0.00099697250936928725 0 -0.0075116938443657039 0.0010095518096283134 0 -0.010590047427991354 0.00059087860799708267 0 -0.0075116938443657039 0.0010095518096283134 0 -0.007012154401465691 0.00098283575699008915 0 -0.0076282009653311023 0.0014501241300302167 0 -0.0071193648565163956 0.001516559889044645 0 -0.0074112787732313274 0.0019566919696698409 0 -0.0076282009653311023 0.0014501241300302167 0 -0.0071193648565163956 0.001516559889044645 0 -0.0067148514220521293 0.001356536306676117 0 -0.0071193648565163956 0.001516559889044645 0 -0.0068416535111816114 0.0018380986611081511 0 -0.007012154401465691 0.00098283575699008915 0 -0.0067148514220521293 0.001356536306676117 0 -0.0071193648565163956 0.001516559889044645 0 -0.0069580011994414522 0.00099697250936928725 0 -0.0065556581269360925 0.001765668509644974 0 -0.0062853170764886916 0.0016798369783716787 0 -0.006259681236356571 0.0016845551916592801 0 -0.0062683712925423653 0.0016911181345481291 0 -0.0074112787732313274 0.0019566919696698409 0 -0.0071193648565163956 0.001516559889044645 0 -0.0068416535111816114 0.0018380986611081511 0 -0.006259681236356571 0.0016845551916592801 0 -0.0062589061801001612 0.0016951958665634005 0 -0.0062683712925423653 0.0016911181345481291 0 -0.0062853170764886916 0.0016798369783716787 0 -0.0062683712925423653 0.0016911181345481291 0 -0.0062711857733115332 0.0017062630121010829 0 -0.0062589061801001612 0.0016951958665634005 0 -0.0062683712925423653 0.0016911181345481291 0 -0.0062711857733115332 0.0017062630121010829 0 -0.0062466673789776323 0.0017510988233265289 0 -0.0061698131084956722 0.0014563771385458445 0 -0.0061852063372913706 0.0017791299688966018 0 -0.0061473809600843332 0.0017747437641713682 0 -0.0061126964216790796 0.0017805586744965793 0 -0.0048833056028104796 0.0013381383755520749 0 -0.0043138190709249855 0.0011435577733501117 0 -0.0061785498897804899 0.001770800735359691 0 -0.0060854257005029024 0.0017210278331826676 0 -0.0060200915192731696 0.0016594692690857942 0 -0.0060854257005029024 0.0017210278331826676 0 -0.0060329722606556318 0.0018870319125494606 0 -0.0060200915192731696 0.0016594692690857942 0 -0.0061473809600843332 0.0017747437641713682 0 -0.0060854257005029024 0.0017210278331826676 0 -0.0061126964216790796 0.0017805586744965793 0 -0.0061785498897804899 0.001770800735359691 0 -0.0061473809600843332 0.0017747437641713682 0 -0.0060854257005029024 0.0017210278331826676 0 -0.0060509364566532445 0.0018217710713035295 0 -0.0061698131084956722 0.0014563771385458445 0 -0.0061698131084956722 0.0014563771385458445 0 -0.006402194131591093 0.0015445448157233039 0 -0.0060329722606556318 0.0018870319125494606 0 -0.0058712952406587008 0.0017391883557878361 0 -0.0060200915192731696 0.0016594692690857942 0 -0.006483550016046084 0.00079958045158136349 0 -0.0067055772721971024 0.001025312135699422 0 -0.0068696492059659581 0.00073015918267627013 0 -0.0067055772721971024 0.001025312135699422 0 -0.0069422684898879372 0.00098302813262463149 0 -0.0069226545692796645 0.0012462439678069767 0 -0.0067055772721971024 0.001025312135699422 0 -0.0068696492059659581 0.00073015918267627013 0 -0.0069422684898879372 0.00098302813262463149 0 -0.0069580011994414522 0.00099697250936928725 0 -0.0061698131084956722 0.0014563771385458445 0 -0.0066615477961721094 0.00034628116700262255 0 -0.006483550016046084 0.00079958045158136349 0 -0.0068696492059659581 0.00073015918267627013 0 -0.0072410918308797216 0.00044389422971822493 0 -0.0068696492059659581 0.00073015918267627013 0 -0.0072731049039074522 0.000927326947956352 0 -0.0072410918308797216 0.00044389422971822493 0 -0.0066615477961721094 0.00034628116700262255 0 -0.0068696492059659581 0.00073015918267627013 0 -0.0068696492059659581 0.00073015918267627013 0 -0.0069422684898879372 0.00098302813262463149 0 -0.0072731049039074522 0.000927326947956352 0 -0.0069422684898879372 0.00098302813262463149 0 -0.0072731049039074522 0.000927326947956352 0 -0.0069226545692796645 0.0012462439678069767 0 -0.0072410918308797216 0.00044389422971822493 0 -0.0072731049039074522 0.000927326947956352 0 -0.0078638689669609674 0.00056911479339658911 0 -0.0041928745460776433 0.0005388129009557789 0 -0.0041903791347361451 0.00084315290020589811 0 -0.0037669847228698557 0.00071432526879574979 0 -0.0041928745460776433 0.0005388129009557789 0 -0.0041903791347361451 0.00084315290020589811 0 -0.0046186350624371052 0.0009719714722314129 0 -0.0072731049039074522 0.000927326947956352 0 -0.0073375758545654677 0.0013582246840829978 0 -0.0077239209889972595 0.0011131720030874623 0 -0.0072731049039074522 0.000927326947956352 0 -0.0073375758545654677 0.0013582246840829978 0 -0.0069226545692796645 0.0012462439678069767 0 -0.0023292342930442997 0.00048358281891617042 0 -0.0022289358349427912 -7.2395119578201515e-06 0 -0.0026282380334143709 0.00033807669982144177 0 -0.0062712889432508696 0.0012327416308233793 0 -0.0047844790741966023 0.00098093480677847252 0 -0.0017527480774542092 -0.00011608782380435689 0 -0.0023292342930442997 0.00048358281891617042 0 -0.0022289358349427912 -7.2395119578201515e-06 0 -0.0019784040179139178 0.00019755594821331367 0 -0.0047844790741966023 0.00098093480677847252 0 -0.0017527480774542092 -0.00011608782380435689 0 -0.0022289358349427912 -7.2395119578201515e-06 0 -0.002491351847039849 -0.0004304608535676588 0 -0.0026759811121219329 3.1668906899540365e-05 0 -0.0030224749003961537 -0.00011671478036632388 0 -0.002491351847039849 -0.0004304608535676588 0 -0.0022289358349427912 -7.2395119578201515e-06 0 -0.0026759811121219329 3.1668906899540365e-05 0 -0.0026282380334143709 0.00033807669982144177 0 -0.0022289358349427912 -7.2395119578201515e-06 0 -0.0026759811121219329 3.1668906899540365e-05 0 -0.002491351847039849 -0.0004304608535676588 0 -0.0026759811121219329 3.1668906899540365e-05 0 -0.0026282380334143709 0.00033807669982144177 0 -0.0029201940750469522 0.00028265480824346838 0 -0.0058712952406587008 0.0017391883557878361 0 -0.0056676010517981044 0.0015277122429262645 0 -0.0060200915192731696 0.0016594692690857942 0 -0.0023292342930442997 0.00048358281891617042 0 -0.0026282380334143709 0.00033807669982144177 0 -0.0029040219207214064 0.00068117420434096103 0 -0.0047844790741966023 0.00098093480677847252 0 -0.0043138190709249855 0.0011435577733501117 0 -0.006402194131591093 0.0015445448157233039 0 -0.0047844790741966023 0.00098093480677847252 0 -0.0026282380334143709 0.00033807669982144177 0 -0.0029201940750469522 0.00028265480824346838 0 -0.0029040219207214064 0.00068117420434096103 0 -0.0035411849509613636 0.00089992048278822521 0 -0.0029040219207214064 0.00068117420434096103 0 -0.0032927959765104309 0.00037240073661620981 0 -0.0029201940750469522 0.00028265480824346838 0 -0.0029040219207214064 0.00068117420434096103 0 -0.0032927959765104309 0.00037240073661620981 0 -0.0032927959765104309 0.00037240073661620981 0 -0.0030224749003961537 -0.00011671478036632388 0 -0.0034708826017573195 -3.4069187398426497e-05 0 -0.0030224749003961537 -0.00011671478036632388 0 -0.0030690180096461035 -0.00055005027399655391 0 -0.0034708826017573195 -3.4069187398426497e-05 0 -0.0026759811121219329 3.1668906899540365e-05 0 -0.0029201940750469522 0.00028265480824346838 0 -0.0030224749003961537 -0.00011671478036632388 0 -0.0029201940750469522 0.00028265480824346838 0 -0.0032927959765104309 0.00037240073661620981 0 -0.0030224749003961537 -0.00011671478036632388 0 -0.0030690180096461035 -0.00055005027399655391 0 -0.003146395392459771 -0.00074794889975708255 0 -0.002491351847039849 -0.0004304608535676588 0 -0.0030690180096461035 -0.00055005027399655391 0 -0.0033641622439173971 -7.4845080595982016e-05 0 -0.0033255601198193046 -0.00056436035101621368 0 -0.0030224749003961537 -0.00011671478036632388 0 -0.0030690180096461035 -0.00055005027399655391 0 -0.002491351847039849 -0.0004304608535676588 0 -0.0031031693225452095 -0.00051451292416281535 0 -0.0034264273984112381 -3.1949041433930351e-05 0 -0.0030690180096461035 -0.00055005027399655391 0 -0.003146395392459771 -0.00074794889975708255 0 -0.0033255601198193046 -0.00056436035101621368 0 -0.003146395392459771 -0.00074794889975708255 0 -0.0031466537134953901 -0.001156847279456812 0 -0.002724489965560972 -0.00090501737104218519 0 -0.003146395392459771 -0.00074794889975708255 0 -0.002724489965560972 -0.00090501737104218519 0 -0.002219162014828917 -0.00026838384160527833 0 -0.0031466537134953901 -0.001156847279456812 0 -0.002724489965560972 -0.00090501737104218519 0 -0.0026641391832603737 -0.0012563481722549011 0 -0.002724489965560972 -0.00090501737104218519 0 -0.0023590204722135507 -0.00094377183769017812 0 -0.002219162014828917 -0.00026838384160527833 0 -0.0023590204722135507 -0.00094377183769017812 0 -0.002219162014828917 -0.00026838384160527833 0 -0.0020284415068788529 -0.00081040405061586342 0 -0.0023590204722135507 -0.00094377183769017812 0 -0.0026641391832603737 -0.0012563481722549011 0 -0.0020771458500562709 -0.001256596972641017 0 -0.002724489965560972 -0.00090501737104218519 0 -0.0023590204722135507 -0.00094377183769017812 0 -0.0026641391832603737 -0.0012563481722549011 0 -0.0023590204722135507 -0.00094377183769017812 0 -0.0020284415068788529 -0.00081040405061586342 0 -0.0020771458500562709 -0.001256596972641017 0 -0.0031450287015883883 -0.00072056024744702595 0 -0.0022656696116463782 -0.00036846219455710584 0 -0.002219162014828917 -0.00026838384160527833 0 -0.0016001036294343296 -0.00069998729760058426 0 -0.0013676126819064469 -0.00034503100210081039 0 -0.0019784040179139178 0.00019755594821331367 0 -0.0022656696116463782 -0.00036846219455710584 0 -0.0012918835671562612 0.00013720771543917061 0 -0.002219162014828917 -0.00026838384160527833 0 -0.0013676126819064469 -0.00034503100210081039 0 -0.002219162014828917 -0.00026838384160527833 0 -0.0020284415068788529 -0.00081040405061586342 0 -0.0016001036294343296 -0.00069998729760058426 0 -0.0016001036294343296 -0.00069998729760058426 0 -0.0020771458500562709 -0.001256596972641017 0 -0.0014303868400899417 -0.0013765999165008412 0 -0.0020284415068788529 -0.00081040405061586342 0 -0.0016001036294343296 -0.00069998729760058426 0 -0.0020771458500562709 -0.001256596972641017 0 -0.0016001036294343296 -0.00069998729760058426 0 -0.00081422815058023541 -0.00079464297787051506 0 -0.0014303868400899417 -0.0013765999165008412 0 -0.0016001036294343296 -0.00069998729760058426 0 -0.0013676126819064469 -0.00034503100210081039 0 -0.00081422815058023541 -0.00079464297787051506 0 -0.0013676126819064469 -0.00034503100210081039 0 -0.0009321301326039469 -0.00022645137410227237 0 -0.00081422815058023541 -0.00079464297787051506 0 -0.0012918835671562612 0.00013720771543917061 0 -0.0013676126819064469 -0.00034503100210081039 0 -0.0009321301326039469 -0.00022645137410227237 0 -0.0019784040179139178 0.00019755594821331367 0 -0.00093890699153446194 -0.00031421719373834724 0 -0.0048769327473311792 -0.00027773245059746807 0 -0.0045163682348603653 0.00037276527443023136 0 -0.0040123969652139995 -7.1359810202824013e-05 0 -0.0048769327473311792 -0.00027773245059746807 0 -0.0050364717637457167 -0.00038458441637835312 0 -0.0051076343238869006 -0.00012275018249087175 0 -0.0049645153081286581 -0.00026827264497677529 0 -0.0057013822185162204 4.6034372927708415e-05 0 -0.0059988611897602616 0.0011652415434422417 0 -0.0053859630304394449 0.00072191618434406732 0 -0.0064016285118178497 0.00073035626269937423 0 -0.0053859630304394449 0.00072191618434406732 0 -0.0064016285118178497 0.00073035626269937423 0 -0.0063252393321822304 0.00016893379478751484 0 -0.0048769327473311792 -0.00027773245059746807 0 -0.0053859630304394449 0.00072191618434406732 0 -0.0063252393321822304 0.00016893379478751484 0 -0.0048769327473311792 -0.00027773245059746807 0 -0.0053859630304394449 0.00072191618434406732 0 -0.0045163682348603653 0.00037276527443023136 0 -0.0046731858768852032 0.00096954654893312319 0 -0.0053859630304394449 0.00072191618434406732 0 -0.0045163682348603653 0.00037276527443023136 0 -0.0046731858768852032 0.00096954654893312319 0 -0.0045163682348603653 0.00037276527443023136 0 -0.003724326893090386 0.0005816134667956704 0 -0.0045163682348603653 0.00037276527443023136 0 -0.003724326893090386 0.0005816134667956704 0 -0.0040123969652139995 -7.1359810202824013e-05 0 -0.0032927959765104309 0.00037240073661620981 0 -0.0038500494442787682 0.00051777301119988663 0 -0.0034708826017573195 -3.4069187398426497e-05 0 -0.0035411849509613636 0.00089992048278822521 0 -0.0032927959765104309 0.00037240073661620981 0 -0.0038500494442787682 0.00051777301119988663 0 -0.003696703748698345 0.0004640154987455354 0 -0.0034264273984112381 -3.1949041433930351e-05 0 -0.003724326893090386 0.0005816134667956704 0 -0.0033641622439173971 -7.4845080595982016e-05 0 -0.0040123969652139995 -7.1359810202824013e-05 0 -0.0033641622439173971 -7.4845080595982016e-05 0 -0.0040123969652139995 -7.1359810202824013e-05 0 -0.0036636415057473707 -0.00048846510412159784 0 -0.0048769327473311792 -0.00027773245059746807 0 -0.0040123969652139995 -7.1359810202824013e-05 0 -0.0041073670533629553 -0.00050204881349889005 0 -0.0040123969652139995 -7.1359810202824013e-05 0 -0.0041073670533629553 -0.00050204881349889005 0 -0.0036636415057473707 -0.00048846510412159784 0 -0.0041073670533629553 -0.00050204881349889005 0 -0.0036636415057473707 -0.00048846510412159784 0 -0.0037884463238331352 -0.00080716998556370437 0 -0.0041073670533629553 -0.00050204881349889005 0 -0.0040914965508035157 -0.00081188360640509661 0 -0.0037884463238331352 -0.00080716998556370437 0 -0.0041073670533629553 -0.00050204881349889005 0 -0.0040914965508035157 -0.00081188360640509661 0 -0.0044791354900407185 -0.00065967168462450771 0 -0.0033641622439173971 -7.4845080595982016e-05 0 -0.0036636415057473707 -0.00048846510412159784 0 -0.0033255601198193046 -0.00056436035101621368 0 -0.0036636415057473707 -0.00048846510412159784 0 -0.0034309024316571263 -0.00081621246238596911 0 -0.0037884463238331352 -0.00080716998556370437 0 -0.003146395392459771 -0.00074794889975708255 0 -0.0033255601198193046 -0.00056436035101621368 0 -0.0034309024316571263 -0.00081621246238596911 0 -0.0036636415057473707 -0.00048846510412159784 0 -0.0033255601198193046 -0.00056436035101621368 0 -0.0034309024316571263 -0.00081621246238596911 0 -0.003146395392459771 -0.00074794889975708255 0 -0.0031466537134953901 -0.001156847279456812 0 -0.0034309024316571263 -0.00081621246238596911 0 -0.0034309024316571263 -0.00081621246238596911 0 -0.0035475166727713574 -0.0011341680254126668 0 -0.0037884463238331352 -0.00080716998556370437 0 -0.0031466537134953901 -0.001156847279456812 0 -0.0034309024316571263 -0.00081621246238596911 0 -0.0035475166727713574 -0.0011341680254126668 0 -0.0040914965508035157 -0.00081188360640509661 0 -0.003902990122915184 -0.0010922600692414588 0 -0.0043090744677160191 -0.0010132801994251761 0 -0.0040914965508035157 -0.00081188360640509661 0 -0.0037884463238331352 -0.00080716998556370437 0 -0.003902990122915184 -0.0010922600692414588 0 -0.0035475166727713574 -0.0011341680254126668 0 -0.0037884463238331352 -0.00080716998556370437 0 -0.003902990122915184 -0.0010922600692414588 0 -0.0035475166727713574 -0.0011341680254126668 0 -0.003902990122915184 -0.0010922600692414588 0 -0.0037274513511577345 -0.0014611402497992584 0 -0.003902990122915184 -0.0010922600692414588 0 -0.0043090744677160191 -0.0010132801994251761 0 -0.0041160896642966462 -0.0013111198488908495 0 -0.0043090744677160191 -0.0010132801994251761 0 -0.0044151422043567888 -0.0012908301873945157 0 -0.0041160896642966462 -0.0013111198488908495 0 -0.0043090744677160191 -0.0010132801994251761 0 -0.0045729748396897774 -0.0010896758321081656 0 -0.0044151422043567888 -0.0012908301873945157 0 -0.0045729748396897774 -0.0010896758321081656 0 -0.0047445994218632236 -0.0011172914875817504 0 -0.0045935503629481404 -0.0012451682250269884 0 -0.0045729748396897774 -0.0010896758321081656 0 -0.0044151422043567888 -0.0012908301873945157 0 -0.0045935503629481404 -0.0012451682250269884 0 -0.0045729748396897774 -0.0010896758321081656 0 -0.0046315984838804936 -0.00084805286533412669 0 -0.0047816112221215632 -0.00091607552969548021 0 -0.0043090744677160191 -0.0010132801994251761 0 -0.0045729748396897774 -0.0010896758321081656 0 -0.0046315984838804936 -0.00084805286533412669 0 -0.0040914965508035157 -0.00081188360640509661 0 -0.0043090744677160191 -0.0010132801994251761 0 -0.0044791354900407185 -0.00065967168462450771 0 -0.0043090744677160191 -0.0010132801994251761 0 -0.0046315984838804936 -0.00084805286533412669 0 -0.0044791354900407185 -0.00065967168462450771 0 -0.0048769327473311792 -0.00027773245059746807 0 -0.0041073670533629553 -0.00050204881349889005 0 -0.0044791354900407185 -0.00065967168462450771 0 -0.0048769327473311792 -0.00027773245059746807 0 -0.0044791354900407185 -0.00065967168462450771 0 -0.0048334775148732067 -0.00058228754072644118 0 -0.0046315984838804936 -0.00084805286533412669 0 -0.0044791354900407185 -0.00065967168462450771 0 -0.0048334775148732067 -0.00058228754072644118 0 -0.0050364717637457167 -0.00038458441637835312 0 -0.0048334775148732067 -0.00058228754072644118 0 -0.0050989099780222435 -0.00073863420009692108 0 -0.0048769327473311792 -0.00027773245059746807 0 -0.0050364717637457167 -0.00038458441637835312 0 -0.0048334775148732067 -0.00058228754072644118 0 -0.0048334775148732067 -0.00058228754072644118 0 -0.0050989099780222435 -0.00073863420009692108 0 -0.0048353701819609353 -0.00078431397058473479 0 -0.0046315984838804936 -0.00084805286533412669 0 -0.0048334775148732067 -0.00058228754072644118 0 -0.0048353701819609353 -0.00078431397058473479 0 -0.0046076780807472921 -0.0010727991853893282 0 -0.0043739497570872976 -0.0015848296642069389 0 -0.0049279948540853682 -0.001330437720841631 0 -0.0046076780807472921 -0.0010727991853893282 0 -0.0043739497570872976 -0.0015848296642069389 0 -0.0039233009653554998 -0.0019953529420659749 0 -0.0043739497570872976 -0.0015848296642069389 0 -0.0049279948540853682 -0.001330437720841631 0 -0.0040596263015717391 -0.0019404013076928851 0 -0.0041473811973966367 -0.0017808717954724967 0 -0.0040596263015717391 -0.0019404013076928851 0 -0.0041013708169450221 -0.0019129499105200989 0 -0.004848252531451251 -0.00091540982537196842 0 -0.0042888288808863272 -0.001714979270249927 0 -0.0045194744050135391 -0.0015618159160597411 0 -0.0041111056812924377 -0.0019049540597382997 0 -0.0050989099780222435 -0.00073863420009692108 0 -0.0047445994218632236 -0.0011172914875817504 0 -0.0046533170843378767 -0.0014651759585679683 0 -0.0050989099780222435 -0.00073863420009692108 0 -0.0047816112221215632 -0.00091607552969548021 0 -0.0047445994218632236 -0.0011172914875817504 0 -0.0050989099780222435 -0.00073863420009692108 0 -0.0048353701819609353 -0.00078431397058473479 0 -0.0047816112221215632 -0.00091607552969548021 0 -0.0046315984838804936 -0.00084805286533412669 0 -0.0048353701819609353 -0.00078431397058473479 0 -0.0047816112221215632 -0.00091607552969548021 0 -0.0045729748396897774 -0.0010896758321081656 0 -0.0047816112221215632 -0.00091607552969548021 0 -0.0047445994218632236 -0.0011172914875817504 0 -0.0041473811973966367 -0.0017808717954724967 0 -0.0041522263630104873 -0.0018939954736254072 0 -0.0041013708169450221 -0.0019129499105200989 0 -0.0042180225819554665 -0.0018357453167450655 0 -0.0041473811973966367 -0.0017808717954724967 0 -0.0041522263630104873 -0.0018939954736254072 0 -0.0042180225819554665 -0.0018357453167450655 0 -0.0044413640031036273 -0.0016775172042251369 0 -0.0042236123915520918 -0.0019874796432458801 0 -0.0042180225819554665 -0.0018357453167450655 0 -0.0042992644031835539 -0.0017069956923552768 0 -0.0041473811973966367 -0.0017808717954724967 0 -0.0037718201999668312 -0.0017181516200486812 0 -0.0039019604301019227 -0.0019093162609371374 0 -0.0033853170632338471 -0.0015831883566315053 0 -0.0034995255091224797 -0.0016448667546623708 0 -0.0034662434495233625 -0.0019145519484125523 0 -0.0042180225819554665 -0.0018357453167450655 0 -0.0042992644031835539 -0.0017069956923552768 0 -0.0044413640031036273 -0.0016775172042251369 0 -0.0044413640031036273 -0.0016775172042251369 0 -0.0043911536954195874 -0.001516856657306608 0 -0.0047205679904863806 -0.0012263398071930107 0 -0.0042992644031835539 -0.0017069956923552768 0 -0.0044413640031036273 -0.0016775172042251369 0 -0.0043911536954195874 -0.001516856657306608 0 -0.005400735391324526 -0.00054316379303571299 0 -0.0055872553132201245 -0.0007357330343667277 0 -0.0051371574108227316 -0.0008096772569472627 0 -0.005400735391324526 -0.00054316379303571299 0 -0.0055872553132201245 -0.0007357330343667277 0 -0.005652401509783858 -0.00032924736137476948 0 -0.0050364717637457167 -0.00038458441637835312 0 -0.0050989099780222435 -0.00073863420009692108 0 -0.0052746981675076436 -0.00029459870680301556 0 -0.0045194744050135391 -0.0015618159160597411 0 -0.0050491953823724595 -0.0010913886304702069 0 -0.0046076780807472921 -0.0010727991853893282 0 -0.0051371574108227316 -0.0008096772569472627 0 -0.0052746981675076436 -0.00029459870680301556 0 -0.004848252531451251 -0.00091540982537196842 0 -0.0052406662633542791 -0.00033360392822164513 0 -0.0049279948540853682 -0.001330437720841631 0 -0.0055872553132201245 -0.0007357330343667277 0 -0.0051371574108227316 -0.0008096772569472627 0 -0.0042992644031835539 -0.0017069956923552768 0 -0.0041473811973966367 -0.0017808717954724967 0 -0.0043911536954195874 -0.001516856657306608 0 -0.0046076780807472921 -0.0010727991853893282 0 -0.0049279948540853682 -0.001330437720841631 0 -0.0051371574108227316 -0.0008096772569472627 0 -0.005400735391324526 -0.00054316379303571299 0 -0.0051371574108227316 -0.0008096772569472627 0 -0.0052746981675076436 -0.00029459870680301556 0 -0.0052746981675076436 -0.00029459870680301556 0 -0.0054545495120815 -0.00011806875875976645 0 -0.0051076343238869006 -0.00012275018249087175 0 -0.0050364717637457167 -0.00038458441637835312 0 -0.0052746981675076436 -0.00029459870680301556 0 -0.0051076343238869006 -0.00012275018249087175 0 -0.0055872553132201245 -0.0007357330343667277 0 -0.005652401509783858 -0.00032924736137476948 0 -0.0060239262854571542 -0.00029817430064893767 0 -0.0050491953823724595 -0.0010913886304702069 0 -0.0050151080921891963 -0.00087398715214781432 0 -0.005400735391324526 -0.00054316379303571299 0 -0.0052746981675076436 -0.00029459870680301556 0 -0.005652401509783858 -0.00032924736137476948 0 -0.005652401509783858 -0.00032924736137476948 0 -0.0054545495120815 -0.00011806875875976645 0 -0.0057378194111790438 -7.4840656985276398e-05 0 -0.005652401509783858 -0.00032924736137476948 0 -0.0057378194111790438 -7.4840656985276398e-05 0 -0.0060239262854571542 -0.00029817430064893767 0 -0.0052746981675076436 -0.00029459870680301556 0 -0.005652401509783858 -0.00032924736137476948 0 -0.0054545495120815 -0.00011806875875976645 0 -0.0054545495120815 -0.00011806875875976645 0 -0.0057378194111790438 -7.4840656985276398e-05 0 -0.0055675165344268611 0.00019468351268069268 0 -0.0057378194111790438 -7.4840656985276398e-05 0 -0.0055675165344268611 0.00019468351268069268 0 -0.0059601272284015077 0.00011399752478561176 0 -0.006385642299392316 0.00048223593736003824 0 -0.0057013822185162204 4.6034372927708415e-05 0 -0.0072518588011781914 0.00080313509470912592 0 -0.0064016285118178497 0.00073035626269937423 0 -0.0063252393321822304 0.00016893379478751484 0 -0.0054545495120815 -0.00011806875875976645 0 -0.0055675165344268611 0.00019468351268069268 0 -0.0051076343238869006 -0.00012275018249087175 0 -0.0072518588011781914 0.00080313509470912592 0 -0.0064016285118178497 0.00073035626269937423 0 -0.006847485311428269 0.0010534684611512362 0 -0.0050994736124944 -0.00044375099521852399 0 -0.0050151080921891963 -0.00087398715214781432 0 -0.0038789869713561358 -0.00084680965356331232 0 -0.0039132614150244388 -0.00064252020735042746 0 -0.0035268480840795514 -0.0011086626978194522 0 -0.0065314002936529454 -0.00013269578369033743 0 -0.0062300665329227956 -7.8267554150481038e-05 0 -0.0058118142253022779 -0.00077220325752476904 0 -0.0055675165344268611 0.00019468351268069268 0 -0.0059601272284015077 0.00011399752478561176 0 -0.006119904796573648 0.00049832208435274705 0 -0.0063466020062492778 0.00024164220556986902 0 -0.0059601272284015077 0.00011399752478561176 0 -0.0060239262854571542 -0.00029817430064893767 0 -0.0064015066527987339 0.00017299727601117728 0 -0.0050151080921891963 -0.00087398715214781432 0 -0.0063466020062492778 0.00024164220556986902 0 -0.0059601272284015077 0.00011399752478561176 0 -0.006119904796573648 0.00049832208435274705 0 -0.0057378194111790438 -7.4840656985276398e-05 0 -0.0059601272284015077 0.00011399752478561176 0 -0.0060239262854571542 -0.00029817430064893767 0 -0.0038789869713561358 -0.00084680965356331232 0 -0.0037719287344357331 -0.0012357149031138309 0 -0.0041069416886676761 -0.00076798112216946112 0 0.00032016018386346059 0.00076793707316163864 0 -0.0014558234940742203 0.00079435141783519201 0 -0.0038789869713561358 -0.00084680965356331232 0 -0.0035268480840795514 -0.0011086626978194522 0 -0.0037719287344357331 -0.0012357149031138309 0 0.0041437052556129381 0.0025910453555279857 0 0.0050548067784439623 0.0015500450795035354 0 0.0035259680042741427 0.0018104579703100635 0 -0.0037718201999668312 -0.0017181516200486812 0 -0.0050151080921891963 -0.00087398715214781432 0 -0.0033853170632338471 -0.0015831883566315053 0 -0.0035268480840795514 -0.0011086626978194522 0 -0.0034995255091224797 -0.0016448667546623708 0 0.00032016018386346059 0.00076793707316163864 0 0.00075688990934732667 -5.9520573175519254e-05 0 -0.0035268480840795514 -0.0011086626978194522 0 -0.0037719287344357331 -0.0012357149031138309 0 -0.0034995255091224797 -0.0016448667546623708 0 0.0050548067784439623 0.0015500450795035354 0 0.0035259680042741427 0.0018104579703100635 0 0.0039342671402494422 0.00093526904229366224 0 0.0029623881741981874 0.0011409009342848997 0 0.0035259680042741427 0.0018104579703100635 0 0.0039342671402494422 0.00093526904229366224 0 0.0029623881741981874 0.0011409009342848997 0 0.002187797688411491 0.0018823165580217401 0 0.0035259680042741427 0.0018104579703100635 0 0.0029623881741981874 0.0011409009342848997 0 0.0020062935109601589 0.00072777913612674769 0 0.002187797688411491 0.0018823165580217401 0 0.002187797688411491 0.0018823165580217401 0 0.0035259680042741427 0.0018104579703100635 0 0.0026374078384116622 0.002897720113771643 0 0.0041437052556129381 0.0025910453555279857 0 0.0035259680042741427 0.0018104579703100635 0 0.0026374078384116622 0.002897720113771643 0 0.00024461807101004907 0.00026551350009858151 0 -0.00034723536117174387 0.00099193872157045024 0 0.00040906529829384092 0.00032403557785791649 0 0.0012458149395684279 0.001446867632089276 0 0.00028644081167711907 0.0021232695051965119 0 -0.00039172084256340866 1.1913871392283279e-06 0 0.00040906529829384092 0.00032403557785791649 0 -0.0010721241757143496 4.1724555282941992e-05 0 0.0020062935109601589 0.00072777913612674769 0 0.002187797688411491 0.0018823165580217401 0 0.0012458149395684279 0.001446867632089276 0 0.0020062935109601589 0.00072777913612674769 0 0.00040906529829384092 0.00032403557785791649 0 0.0012458149395684279 0.001446867632089276 0 0.002187797688411491 0.0018823165580217401 0 0.0010698347620717466 0.0022422238722797283 0 0.0015100338187688724 0.002945694161394557 0 0.002187797688411491 0.0018823165580217401 0 0.0012458149395684279 0.001446867632089276 0 0.0010698347620717466 0.0022422238722797283 0 0.0012458149395684279 0.001446867632089276 0 0.0010698347620717466 0.0022422238722797283 0 0.00028644081167711907 0.0021232695051965119 0 -0.00039172084256340866 1.1913871392283279e-06 0 -0.0010721241757143496 4.1724555282941992e-05 0 -0.0018644084802708033 -1.8886512993085531e-07 0 0.0010698347620717466 0.0022422238722797283 0 0.00028644081167711907 0.0021232695051965119 0 0.00079762003223354729 0.0028584592992289097 0 -0.0010721241757143496 4.1724555282941992e-05 0 -0.0018644084802708033 -1.8886512993085531e-07 0 -0.0022054411006992574 6.3188906922224193e-06 0 0.00028644081167711907 0.0021232695051965119 0 0.00017712846262160883 0.0033799127298144737 0 0.00079762003223354729 0.0028584592992289097 0 -0.00034723536117174387 0.00099193872157045024 0 -0.0010058240034061753 0.0015805702066291967 0 0.00017712846262160883 0.0033799127298144737 0 0.00079762003223354729 0.0028584592992289097 0 0.00094558566884279222 0.0035485103905225396 0 0.00079762003223354729 0.0028584592992289097 0 0.0015100338187688724 0.002945694161394557 0 0.00094558566884279222 0.0035485103905225396 0 0.0010698347620717466 0.0022422238722797283 0 0.00079762003223354729 0.0028584592992289097 0 0.0015100338187688724 0.002945694161394557 0 0.0015100338187688724 0.002945694161394557 0 0.0015769028031731795 0.0042330663483557129 0 0.00094558566884279222 0.0035485103905225396 0 0.0015769028031731795 0.0042330663483557129 0 0.00094558566884279222 0.0035485103905225396 0 -3.1112329662751751e-05 0.0046131424278492757 0 0.00017712846262160883 0.0033799127298144737 0 0.00094558566884279222 0.0035485103905225396 0 -3.1112329662751751e-05 0.0046131424278492757 0 -0.0010058240034061753 0.0015805702066291967 0 -0.00166421430767484 0.0025050208243744634 0 -0.0018644084802708033 -1.8886512993085531e-07 0 -0.0022054411006992574 6.3188906922224193e-06 0 -0.0033210406139132019 1.9395237855715118e-07 0 0.0041437052556129381 0.0025910453555279857 0 0.0026374078384116622 0.002897720113771643 0 0.0031476571457248912 0.003802764704460759 0 0.002187797688411491 0.0018823165580217401 0 0.0015100338187688724 0.002945694161394557 0 0.0026374078384116622 0.002897720113771643 0 0.0015100338187688724 0.002945694161394557 0 0.0015769028031731795 0.0042330663483557129 0 0.0026374078384116622 0.002897720113771643 0 0.00024535466384245793 0.0030225068844469218 0 -0.0014558234940742203 0.00079435141783519201 0 0.0015769028031731795 0.0042330663483557129 0 0.0026374078384116622 0.002897720113771643 0 0.0031476571457248912 0.003802764704460759 0 -0.0038789869713561358 -0.00084680965356331232 0 -0.0039132614150244388 -0.00064252020735042746 0 -0.0042210494566052355 -0.0007869309340200149 0 -0.0043151235493083875 -0.0002654291232300874 0 -0.0014558234940742203 0.00079435141783519201 0 -0.0039132614150244388 -0.00064252020735042746 0 -0.0042210494566052355 -0.0007869309340200149 0 -0.0045639145887816594 -2.9350999169008235e-05 0 -0.0050994736124944 -0.00044375099521852399 0 -0.0061579377570455396 0.00031787380329611499 0 -0.0065314002936529454 -0.00013269578369033743 0 -0.006705856089625587 0.00023914801155600066 0 -0.0071185943953753711 0.00043863335374836736 0 -0.006705856089625587 0.00023914801155600066 0 -0.0067426717924700215 0.00036865395591152364 0 -0.006640872820398473 0.00050800487612338819 0 -0.006705856089625587 0.00023914801155600066 0 -0.0067426717924700215 0.00036865395591152364 0 -0.0069016488774940191 0.00047216455173177075 0 -0.006705856089625587 0.00023914801155600066 0 -0.0071185943953753711 0.00043863335374836736 0 -0.0069016488774940191 0.00047216455173177075 0 -0.0061579377570455396 0.00031787380329611499 0 -0.0068528811896100541 0.00032489773725752358 0 -0.0042210494566052355 -0.0007869309340200149 0 -0.0048224846318298577 -6.8110633356844289e-05 0 -0.0045639145887816594 -2.9350999169008235e-05 0 -0.0014558234940742203 0.00079435141783519201 0 -0.0045992359797702416 0.00045531162902550016 0 -0.0020771233054758947 0.0013444262181059319 0 -0.0019224812447902284 0.0012959408098108757 0 -0.0020477802956101842 0.001429848705596903 0 -0.0045992359797702416 0.00045531162902550016 0 -0.0061579377570455396 0.00031787380329611499 0 -0.0069334190392947512 0.00050156039681071207 0 -0.0069295352130963493 0.00056476366359399272 0 -0.0069016488774940191 0.00047216455173177075 0 -0.0069334190392947512 0.00050156039681071207 0 -0.0069295352130963493 0.00056476366359399272 0 -0.0069243168510500688 0.00058737133365261633 0 -0.006723046550061668 0.00065617640689279643 0 -0.0066809612588639737 0.00066055218178356966 0 -0.006753324550138255 0.0007051108738201136 0 -0.0061579377570455396 0.00031787380329611499 0 -0.0069105984096328428 0.00071078986319921412 0 -0.0069295352130963493 0.00056476366359399272 0 -0.0069243168510500688 0.00058737133365261633 0 -0.0069321049365685299 0.00055075571645661018 0 -0.006704117729398564 0.00052462277376812355 0 -0.0067389667340734703 0.00052823915046033008 0 -0.006935355480792724 0.00061097376893148273 0 -0.0067389667340734703 0.00052823915046033008 0 -0.0068665432405888623 0.00054377386105654095 0 -0.006935355480792724 0.00061097376893148273 0 -0.0069984610805484239 0.00085777403380182826 0 -0.006935355480792724 0.00061097376893148273 0 -0.0070447369268015706 0.00069925627478386394 0 -0.0069295352130963493 0.00056476366359399272 0 -0.0068665432405888623 0.00054377386105654095 0 -0.006935355480792724 0.00061097376893148273 0 -0.0067564987934322302 0.00066492856937082389 0 -0.006927586119450364 0.00064079507137941431 0 -0.0067389667340734703 0.00052823915046033008 0 -0.0068115148675854421 0.00049387545593395309 0 -0.0068665432405888623 0.00054377386105654095 0 -0.0067426717924700215 0.00036865395591152364 0 -0.006640872820398473 0.00050800487612338819 0 -0.0067402857936848604 0.00047752587495006191 0 -0.0067564987934322302 0.00066492856937082389 0 -0.0067372507534057182 0.00064666239122521856 0 -0.006640872820398473 0.00050800487612338819 0 -0.0067389667340734703 0.00052823915046033008 0 -0.0067402857936848604 0.00047752587495006191 0 -0.0067426717924700215 0.00036865395591152364 0 -0.0068115148675854421 0.00049387545593395309 0 -0.0069016488774940191 0.00047216455173177075 0 -0.0067426717924700215 0.00036865395591152364 0 -0.0067402857936848604 0.00047752587495006191 0 -0.0068115148675854421 0.00049387545593395309 0 -0.0067389667340734703 0.00052823915046033008 0 -0.0067402857936848604 0.00047752587495006191 0 -0.0068115148675854421 0.00049387545593395309 0 -0.0068115148675854421 0.00049387545593395309 0 -0.0069016488774940191 0.00047216455173177075 0 -0.0068665432405888623 0.00054377386105654095 0 -0.0069295352130963493 0.00056476366359399272 0 -0.0069016488774940191 0.00047216455173177075 0 -0.0068665432405888623 0.00054377386105654095 0 -0.0028517724004242205 0.0012075463404730882 0 -0.0030972928845457142 0.00078409333448192157 0 -0.0036979150566610977 5.4395359692160585e-07 0 -0.0044613975791654749 9.5708017272522807e-05 0 -0.0043497474559970684 -6.9701694754021771e-05 0 -0.0036979150566610977 5.4395359692160585e-07 0 -0.0037205083396048004 0.00015521943632296436 0 -0.0044613975791654749 9.5708017272522807e-05 0 0.00024535466384245793 0.0030225068844469218 0 -0.00166421430767484 0.0025050208243744634 0 -0.0020771233054758947 0.0013444262181059319 0 -0.0022241807413066294 0.0013888611064216219 0 -0.0021376832138680028 0.0014177711174897635 0 -0.0022288965528202797 0.0014089416341879911 0 -0.0022241807413066294 0.0013888611064216219 0 -0.0021376832138680028 0.0014177711174897635 0 -0.0036939251155292084 1.5616800326050964e-06 0 -0.0028517724004242205 0.0012075463404730882 0 -0.0028517724004242205 0.0012075463404730882 0 -0.00166421430767484 0.0025050208243744634 0 -0.0045992359797702416 0.00045531162902550016 0 -0.0030972928845457142 0.00078409333448192157 0 -0.0020771233054758947 0.0013444262181059319 0 -0.0020477802956101842 0.001429848705596903 0 -0.0021376832138680028 0.0014177711174897635 0 -0.0045709221575304234 8.2186084688254445e-05 0 -0.0044613975791654749 9.5708017272522807e-05 0 -0.0044941132381935657 -4.713117349176595e-05 0 -0.006723046550061668 0.00065617640689279643 0 -0.006753324550138255 0.0007051108738201136 0 -0.0068118381590327624 0.00072348659532123639 0 -0.0045992359797702416 0.00045531162902550016 0 -0.0058146593977698932 0.00031556464237354661 0 -0.0036979150566610977 5.4395359692160585e-07 0 -0.0043497474559970684 -6.9701694754021771e-05 0 -0.0047954601639753772 -5.2131901985526817e-07 0 -0.0044613975791654749 9.5708017272522807e-05 0 -0.0043497474559970684 -6.9701694754021771e-05 0 -0.0044941132381935657 -4.713117349176595e-05 0 -0.0043497474559970684 -6.9701694754021771e-05 0 -0.0047954601639753772 -5.2131901985526817e-07 0 -0.0044941132381935657 -4.713117349176595e-05 0 -0.0047954601639753772 -5.2131901985526817e-07 0 -0.0044941132381935657 -4.713117349176595e-05 0 -0.0058931552110325939 5.2417600445021684e-07 0 -0.0068118381590327624 0.00072348659532123639 0 -0.0066535108916784148 0.00033529645473377495 0 -0.0058971670082148975 1.659541659841733e-06 0 -0.0058146593977698932 0.00031556464237354661 0 -0.0058940089636471005 -1.9252280337968671e-07 0 -0.0068182102321568136 0.00065403953989349192 0 -0.0068763016743797695 0.00038872936928778236 0 -0.0069321049365685299 0.00055075571645661018 0 -0.0069243168510500688 0.00058737133365261633 0 -0.0068182102321568136 0.00065403953989349192 0 -0.0069321049365685299 0.00055075571645661018 0 -0.0068118381590327624 0.00072348659532123639 0 -0.0068182102321568136 0.00065403953989349192 0 -0.0066535108916784148 0.00033529645473377495 0 -0.0068182102321568136 0.00065403953989349192 0 -0.0068763016743797695 0.00038872936928778236 0 -0.0066535108916784148 0.00033529645473377495 0 -0.006753324550138255 0.0007051108738201136 0 -0.0068118381590327624 0.00072348659532123639 0 -0.0068182102321568136 0.00065403953989349192 0 -0.0069105984096328428 0.00071078986319921412 0 -0.0067852600398606317 0.00061593747482115342 0 -0.0069661892275492869 0.00014979225812218462 0 -0.0068763016743797695 0.00038872936928778236 0 -0.0069372293432324482 0.00038433207811075455 0 -0.0069661892275492869 0.00014979225812218462 0 -0.0068763016743797695 0.00038872936928778236 0 -0.0066535108916784148 0.00033529645473377495 0 -0.0069661892275492869 0.00014979225812218462 0 -0.0066535108916784148 0.00033529645473377495 0 -0.0058971670082148975 1.659541659841733e-06 0 -0.0070140350273026489 0.00057097116672012044 0 -0.006935355480792724 0.00061097376893148273 0 -0.0069742973037557375 0.00045972200703858995 0 -0.0070140350273026489 0.00057097116672012044 0 -0.006935355480792724 0.00061097376893148273 0 -0.0070447369268015706 0.00069925627478386394 0 -0.006935355480792724 0.00061097376893148273 0 -0.0069321049365685299 0.00055075571645661018 0 -0.0069372293432324482 0.00038433207811075455 0 -0.0069295352130963493 0.00056476366359399272 0 -0.006935355480792724 0.00061097376893148273 0 -0.0069321049365685299 0.00055075571645661018 0 -0.0068763016743797695 0.00038872936928778236 0 -0.0069321049365685299 0.00055075571645661018 0 -0.0069372293432324482 0.00038433207811075455 0 -0.0069758216088059407 0.00035307093053361249 0 -0.0069372293432324482 0.00038433207811075455 0 -0.0069742973037557375 0.00045972200703858995 0 -0.006935355480792724 0.00061097376893148273 0 -0.0069372293432324482 0.00038433207811075455 0 -0.0069742973037557375 0.00045972200703858995 0 -0.0070140350273026489 0.00057097116672012044 0 -0.0069742973037557375 0.00045972200703858995 0 -0.0070514962258570466 0.00042574887184137865 0 -0.0069758216088059407 0.00035307093053361249 0 -0.0069742973037557375 0.00045972200703858995 0 -0.0070514962258570466 0.00042574887184137865 0 -0.0070514962258570466 0.00042574887184137865 0 -0.0070962311558863678 0.00058782195522477036 0 -0.0071729632172147896 0.00049434215063101541 0 -0.0070140350273026489 0.00057097116672012044 0 -0.0070514962258570466 0.00042574887184137865 0 -0.0070962311558863678 0.00058782195522477036 0 -0.0070140350273026489 0.00057097116672012044 0 -0.0070962311558863678 0.00058782195522477036 0 -0.0070447369268015706 0.00069925627478386394 0 -0.0070962311558863678 0.00058782195522477036 0 -0.0071281593730246565 0.00072960825091920097 0 -0.0070447369268015706 0.00069925627478386394 0 -0.0071902629879231029 0.00065334801049099359 0 -0.0072597538341766339 0.00076317437915295744 0 -0.0071977534910014837 0.0008089790356922491 0 -0.0071281593730246565 0.00072960825091920097 0 -0.0071902629879231029 0.00065334801049099359 0 -0.0071977534910014837 0.0008089790356922491 0 -0.0070962311558863678 0.00058782195522477036 0 -0.0071281593730246565 0.00072960825091920097 0 -0.0071902629879231029 0.00065334801049099359 0 -0.0071902629879231029 0.00065334801049099359 0 -0.0071729632172147896 0.00049434215063101541 0 -0.0073084099255249666 0.00059523950106174441 0 -0.0070962311558863678 0.00058782195522477036 0 -0.0071902629879231029 0.00065334801049099359 0 -0.0071729632172147896 0.00049434215063101541 0 -0.0073486251529475861 0.00035024443572306591 0 -0.0073084099255249666 0.00059523950106174441 0 -0.007601164240821111 0.00051928947618740237 0 -0.0073486251529475861 0.00035024443572306591 0 -0.0071729632172147896 0.00049434215063101541 0 -0.0073084099255249666 0.00059523950106174441 0 -0.0073084099255249666 0.00059523950106174441 0 -0.007601164240821111 0.00051928947618740237 0 -0.0073848275539269009 0.00078663622350911308 0 -0.0077281863705071022 0.00011798395878291458 0 -0.007948963925968635 0.00042421367035330894 0 -0.007601164240821111 0.00051928947618740237 0 -0.007601164240821111 0.00051928947618740237 0 -0.0073848275539269009 0.00078663622350911308 0 -0.0075819815661075582 0.00081275013333186573 0 -0.0073848275539269009 0.00078663622350911308 0 -0.0075819815661075582 0.00081275013333186573 0 -0.0073688223275654259 0.00092390821881908663 0 -0.0071902629879231029 0.00065334801049099359 0 -0.0073084099255249666 0.00059523950106174441 0 -0.0072597538341766339 0.00076317437915295744 0 -0.0073084099255249666 0.00059523950106174441 0 -0.0073848275539269009 0.00078663622350911308 0 -0.0072597538341766339 0.00076317437915295744 0 -0.0073848275539269009 0.00078663622350911308 0 -0.0072597538341766339 0.00076317437915295744 0 -0.0072324903021491211 0.00093866919574614807 0 -0.0072597538341766339 0.00076317437915295744 0 -0.0072324903021491211 0.00093866919574614807 0 -0.0071977534910014837 0.0008089790356922491 0 -0.0072324903021491211 0.00093866919574614807 0 -0.0072022293595718646 0.0010160117062713299 0 -0.0071463024652402129 0.0010135506545020624 0 -0.0072324903021491211 0.00093866919574614807 0 -0.0072160665466885401 0.00095659957011235948 0 -0.0071965642822760132 0.0009009423928409211 0 -0.0075172409533930925 0.0010024862732674041 0 -0.0075819815661075582 0.00081275013333186573 0 -0.0073688223275654259 0.00092390821881908663 0 -0.0075172409533930925 0.0010024862732674041 0 -0.0073688223275654259 0.00092390821881908663 0 -0.0072022293595718646 0.0010160117062713299 0 -0.0073848275539269009 0.00078663622350911308 0 -0.0072324903021491211 0.00093866919574614807 0 -0.0073688223275654259 0.00092390821881908663 0 -0.0072324903021491211 0.00093866919574614807 0 -0.0073688223275654259 0.00092390821881908663 0 -0.0072022293595718646 0.0010160117062713299 0 -0.0075172409533930925 0.0010024862732674041 0 -0.0072022293595718646 0.0010160117062713299 0 -0.006847485311428269 0.0010534684611512362 0 -0.0060919907824063353 0.0014909282242926707 0 -0.0059626271732029952 0.0018997205546821183 0 -0.006847485311428269 0.0010534684611512362 0 -0.006765334519755575 0.0013864460627089556 0 -0.0068727475959667241 0.0010405244093219977 0 -0.0072022293595718646 0.0010160117062713299 0 -0.006847485311428269 0.0010534684611512362 0 -0.0071463024652402129 0.0010135506545020624 0 -0.0059988611897602616 0.0011652415434422417 0 -0.0064016285118178497 0.00073035626269937423 0 -0.006847485311428269 0.0010534684611512362 0 -0.0059988611897602616 0.0011652415434422417 0 -0.0060919907824063353 0.0014909282242926707 0 -0.006847485311428269 0.0010534684611512362 0 -0.0072518588011781914 0.00080313509470912592 0 -0.0072160665466885401 0.00095659957011235948 0 -0.0071951398630831463 0.00095591058889349996 0 -0.0072324903021491211 0.00093866919574614807 0 -0.0072160665466885401 0.00095659957011235948 0 -0.0071463024652402129 0.0010135506545020624 0 -0.0072518588011781914 0.00080313509470912592 0 -0.006847485311428269 0.0010534684611512362 0 -0.0071463024652402129 0.0010135506545020624 0 -0.0072518588011781914 0.00080313509470912592 0 -0.0072160665466885401 0.00095659957011235948 0 -0.0071463024652402129 0.0010135506545020624 0 -0.006385642299392316 0.00048223593736003824 0 -0.0066795568980367558 0.00073946721279193105 0 -0.0072160665466885401 0.00095659957011235948 0 -0.0071951398630831463 0.00095591058889349996 0 -0.0071965642822760132 0.0009009423928409211 0 -0.0071951398630831463 0.00095591058889349996 0 -0.0071344364816154924 0.00086701432786433729 0 -0.0071965642822760132 0.0009009423928409211 0 -0.0067564987934322302 0.00066492856937082389 0 -0.0066795568980367558 0.00073946721279193105 0 -0.0064015066527987339 0.00017299727601117728 0 -0.0067564987934322302 0.00066492856937082389 0 -0.0063466020062492778 0.00024164220556986902 0 -0.0066740065881872365 0.00079267352613954559 0 -0.006119904796573648 0.00049832208435274705 0 -0.0069984610805484239 0.00085777403380182826 0 -0.0071951398630831463 0.00095591058889349996 0 -0.0071344364816154924 0.00086701432786433729 0 -0.0062300665329227956 -7.8267554150481038e-05 0 -0.006705856089625587 0.00023914801155600066 0 -0.006640872820398473 0.00050800487612338819 0 -0.0065314002936529454 -0.00013269578369033743 0 -0.0062300665329227956 -7.8267554150481038e-05 0 -0.006705856089625587 0.00023914801155600066 0 -0.0071344364816154924 0.00086701432786433729 0 -0.0070863505265945526 0.0007961899105154188 0 -0.0071484667708177881 0.00082551884248167049 0 -0.0069984610805484239 0.00085777403380182826 0 -0.0071344364816154924 0.00086701432786433729 0 -0.0070863505265945526 0.0007961899105154188 0 -0.0069984610805484239 0.00085777403380182826 0 -0.0070447369268015706 0.00069925627478386394 0 -0.0070863505265945526 0.0007961899105154188 0 -0.0071281593730246565 0.00072960825091920097 0 -0.0070863505265945526 0.0007961899105154188 0 -0.0071484667708177881 0.00082551884248167049 0 -0.0071281593730246565 0.00072960825091920097 0 -0.0070447369268015706 0.00069925627478386394 0 -0.0070863505265945526 0.0007961899105154188 0 -0.0071281593730246565 0.00072960825091920097 0 -0.0071484667708177881 0.00082551884248167049 0 -0.0071977534910014837 0.0008089790356922491 0 -0.0071484667708177881 0.00082551884248167049 0 -0.0071977534910014837 0.0008089790356922491 0 -0.0071965642822760132 0.0009009423928409211 0 -0.0072324903021491211 0.00093866919574614807 0 -0.0071977534910014837 0.0008089790356922491 0 -0.0071965642822760132 0.0009009423928409211 0 -0.0071344364816154924 0.00086701432786433729 0 -0.0071484667708177881 0.00082551884248167049 0 -0.0071965642822760132 0.0009009423928409211 0 -0.0012997246151434496 -0.00031278305599984323 0 -0.0011163656562525016 -0.00032243013024525145 0 -0.0013146023078893579 -0.0001333800538136685 0 0.0034549610112610258 -0.00048479744338006804 0 0.0034518335749224617 -0.00048031980177780435 0 0.0033383475032213142 -0.00052123991770763596 0 0.003608125480733063 -0.00029448897217699833 0 0.0036119779977821123 -0.00023637577791292259 0 0.003640928068416724 -0.00027487542437664971 0 0.003608125480733063 -0.00029448897217699833 0 0.003640928068416724 -0.00027487542437664971 0 0.0036622562570776942 -0.00031296925313029192 0 0.0034549610112610258 -0.00048479744338006804 0 0.0034518335749224617 -0.00048031980177780435 0 0.0035256566300664502 -0.00046268391448708987 0 0.0038977611541074235 -0.0004489386318483375 0 0.003564814937476438 -0.0004204005680587941 0 0.0034518335749224617 -0.00048031980177780435 0 0.0035256566300664502 -0.00046268391448708987 0 0.0035355645566962574 -0.00045926346755757828 0 0.003608125480733063 -0.00029448897217699833 0 0.0036596495782552458 -0.00034427330801280268 0 0.0036675179002057354 -0.00040226680115603504 0 0.003608125480733063 -0.00029448897217699833 0 0.0036596495782552458 -0.00034427330801280268 0 0.0036622562570776942 -0.00031296925313029192 0 0.0036596495782552458 -0.00034427330801280268 0 0.0036823921010547852 -0.00037188728327559493 0 0.0036675179002057354 -0.00040226680115603504 0 0.0036596495782552458 -0.00034427330801280268 0 0.0036823921010547852 -0.00037188728327559493 0 0.0036911946497082534 -0.00035061695788625512 0 -0.0012997246151434496 -0.00031278305599984323 0 -0.0013982511915361022 -0.00046224287061128719 0 -0.0011530399221688368 -0.00056614281721458523 0 0.0012915212377246771 -0.00041831391328035473 0 0.0011840641291098804 -0.00050347043058616612 0 -0.0012997246151434496 -0.00031278305599984323 0 -0.0011163656562525016 -0.00032243013024525145 0 -0.0011530399221688368 -0.00056614281721458523 0 -0.0013982511915361022 -0.00046224287061128719 0 -0.0011530399221688368 -0.00056614281721458523 0 -0.0013377961809784606 -0.00065397928576259898 0 -0.0013982511915361022 -0.00046224287061128719 0 -0.001624750354114281 -0.00058163440252003535 0 -0.0013377961809784606 -0.00065397928576259898 0 -0.0013982511915361022 -0.00046224287061128719 0 -0.0015594096949229849 -0.00022704423344012289 0 -0.001624750354114281 -0.00058163440252003535 0 -0.0012997246151434496 -0.00031278305599984323 0 -0.0015594096949229849 -0.00022704423344012289 0 -0.0013146023078893579 -0.0001333800538136685 0 -0.0012997246151434496 -0.00031278305599984323 0 -0.0013982511915361022 -0.00046224287061128719 0 -0.0015594096949229849 -0.00022704423344012289 0 -0.0088455473074234032 0.001170456739104249 0 -0.0089550663437270948 0.0010660025485913487 0 -0.0089660484397852628 0.0011207008713402748 0 -0.0054942594238513998 0.00046035409222581857 0 -0.0052532115539852785 0.00049798392490170429 0 -0.0088455473074234032 0.001170456739104249 0 -0.008902048908457711 0.0010466693857443567 0 -0.0088192105771045595 0.0010881429975959029 0 -0.0088455473074234032 0.001170456739104249 0 -0.008902048908457711 0.0010466693857443567 0 -0.0089550663437270948 0.0010660025485913487 0 -0.0089550663437270948 0.0010660025485913487 0 -0.009000977247563895 0.0010455376972032539 0 -0.0089660484397852628 0.0011207008713402748 0 -0.008902048908457711 0.0010466693857443567 0 -0.0089550663437270948 0.0010660025485913487 0 -0.0089841167440029672 0.0010070092413917357 0 -0.0089550663437270948 0.0010660025485913487 0 -0.009000977247563895 0.0010455376972032539 0 -0.0089841167440029672 0.0010070092413917357 0 -0.0090342485897848268 0.0010463571300466969 0 -0.0089660484397852628 0.0011207008713402748 0 -0.0090497761688405638 0.0010709958575015868 0 -0.009000977247563895 0.0010455376972032539 0 -0.0090342485897848268 0.0010463571300466969 0 -0.0089660484397852628 0.0011207008713402748 0 -0.009000977247563895 0.0010455376972032539 0 -0.0090342485897848268 0.0010463571300466969 0 -0.0090539101882155873 0.00099646212002897335 0 -0.0052532115539852785 0.00049798392490170429 0 -0.0041411508824469303 0.00029603220212630018 0 -0.0011163656562525016 -0.00032243013024525145 0 -0.0013146023078893579 -0.0001333800538136685 0 -0.0010809528118367435 -9.1740339341759024e-05 0 0.003608125480733063 -0.00029448897217699833 0 0.0036119779977821123 -0.00023637577791292259 0 0.0035466181672225597 -0.00017736164915323251 0 0.0038977611541074235 -0.0004489386318483375 0 -0.00030760134921632655 2.9466500329092188e-05 0 -0.0013146023078893579 -0.0001333800538136685 0 -0.0010809528118367435 -9.1740339341759024e-05 0 -0.0010853164937544779 -3.8372593044080401e-05 0 0.0012915212377246771 -0.00041831391328035473 0 -0.00030760134921632655 2.9466500329092188e-05 0 0.0036119779977821123 -0.00023637577791292259 0 0.0035466181672225597 -0.00017736164915323251 0 0.003618875781600799 -0.00018668364820098219 0 -0.00030760134921632655 2.9466500329092188e-05 0 -0.0030359706331254872 0.00043086941979390012 0 -0.00030760134921632655 2.9466500329092188e-05 0 -0.0041411508824469303 0.00029603220212630018 0 0.0035466181672225597 -0.00017736164915323251 0 0.0035437027536600464 -0.00014868383222464517 0 0.003618875781600799 -0.00018668364820098219 0 -0.0090342485897848268 0.0010463571300466969 0 -0.0090497761688405638 0.0010709958575015868 0 -0.0090729167367865522 0.0010150732404204952 0 -0.0089990277369892437 0.0010825255462603241 0 -0.0090108473698737139 0.0010798341105906781 0 -0.0090729167367865522 0.0010150732404204952 0 -0.0090108473698737139 0.0010798341105906781 0 -0.0090729167367865522 0.0010150732404204952 0 -0.0091169067367273815 0.00099591465447835138 0 -0.0041411508824469303 0.00029603220212630018 0 -0.0087107099518806842 0.0011712182661059221 0 -0.0030359706331254872 0.00043086941979390012 0 -0.0069336134042604644 0.0009158474212413451 0 -0.0017705994279384038 0.00052808013323721629 0 -0.0018265954011774711 -0.00047056335141789241 0 -0.0021278700653089085 -0.00059227642905400725 0 -0.0041411508824469303 0.00029603220212630018 0 -0.0030359706331254872 0.00043086941979390012 0 -0.0047034316219188238 0.00084524777794573499 0 -0.0051023572884505578 0.00068292345092435308 0 -0.0048952484759534369 0.00034893608799295612 0 -0.0030359706331254872 0.00043086941979390012 0 -7.7376830157709135e-05 0.00058130295270496051 0 0.0035437027536600464 -0.00014868383222464517 0 0.0036156135402068508 -0.00011487103417087218 0 0.003618875781600799 -0.00018668364820098219 0 0.0036156135402068508 -0.00011487103417087218 0 0.0036650505896538318 -0.00015122027106213173 0 0.003618875781600799 -0.00018668364820098219 0 0.0036156135402068508 -0.00011487103417087218 0 0.0036928025482237722 -0.00011714490087290326 0 0.0036650505896538318 -0.00015122027106213173 0 0.0036156135402068508 -0.00011487103417087218 0 0.0036657024566205312 -8.3997990408174475e-05 0 0.0036928025482237722 -0.00011714490087290326 0 -7.7376830157709135e-05 0.00058130295270496051 0 -0.0033396361645480982 0.00011377579752786893 0 -0.0051023572884505578 0.00068292345092435308 0 -0.0054779436153305034 0.00052154974831558176 0 -0.0051842973801224891 0.00037059169272862823 0 -0.0033396361645480982 0.00011377579752786893 0 0.0016650688583358933 0.00022988169039843713 0 -0.0024018092680986496 -0.0002457838732195002 0 -0.0024716445989452387 -7.6675474770671772e-05 0 -0.0026618339384769183 -0.00034736696905883588 0 0.0036657024566205312 -8.3997990408174475e-05 0 0.0036996858161162651 -0.00011894738398009552 0 0.0036928025482237722 -0.00011714490087290326 0 0.0037192319734824942 -0.00011835722759186407 0 0.0036928025482237722 -0.00011714490087290326 0 0.0037254304705658359 -0.00016670439475089408 0 0.0036928025482237722 -0.00011714490087290326 0 0.0036650505896538318 -0.00015122027106213173 0 0.0037254304705658359 -0.00016670439475089408 0 0.0016650688583358933 0.00022988169039843713 0 0.0022549925124421637 0.00011746272291790157 0 0.0036650505896538318 -0.00015122027106213173 0 0.0037295291127144542 -0.00020426065435864238 0 0.0036914594142393054 -0.00023342956011770962 0 0.0036650505896538318 -0.00015122027106213173 0 0.0037254304705658359 -0.00016670439475089408 0 0.0037295291127144542 -0.00020426065435864238 0 0.0037254304705658359 -0.00016670439475089408 0 0.0037295291127144542 -0.00020426065435864238 0 0.0038218650604010329 -0.0002425417440310823 0 0.0037295291127144542 -0.00020426065435864238 0 0.0038218650604010329 -0.0002425417440310823 0 0.003759764205503403 -0.00024769589995632445 0 0.0037295291127144542 -0.00020426065435864238 0 0.0036914594142393054 -0.00023342956011770962 0 0.003759764205503403 -0.00024769589995632445 0 0.0036914594142393054 -0.00023342956011770962 0 0.003618875781600799 -0.00018668364820098219 0 0.0036536501828361547 -0.00024489554546705512 0 0.0036650505896538318 -0.00015122027106213173 0 0.0036914594142393054 -0.00023342956011770962 0 0.003618875781600799 -0.00018668364820098219 0 0.0036119779977821123 -0.00023637577791292259 0 0.003618875781600799 -0.00018668364820098219 0 0.0036536501828361547 -0.00024489554546705512 0 -0.0063867757326528714 -9.3179386047237224e-05 0 -0.0064593388058612764 -8.1881307263356303e-05 0 -0.0064579447248790164 -0.00010128871907733526 0 -0.010666464902366625 -3.0659639787895587e-05 0 -0.0089443939386470959 -0.00020175907777137921 0 -0.0064108747714293271 -0.00011902141461018649 0 -0.0064304111919513476 -0.00014423761240003329 0 -0.0064579447248790164 -0.00010128871907733526 0 -0.0064108747714293271 -0.00011902141461018649 0 -0.0063867757326528714 -9.3179386047237224e-05 0 -0.0064579447248790164 -0.00010128871907733526 0 -0.0015265706574701333 0.00031417155590741214 0 -0.0053742394048500661 -0.00035214197996896469 0 -0.0015265706574701333 0.00031417155590741214 0 -0.0065895770767292177 -0.00049869205140900652 0 -0.0024716445989452387 -7.6675474770671772e-05 0 -0.0027490551026081063 -2.2157852668898634e-05 0 -0.0026618339384769183 -0.00034736696905883588 0 -0.0064108747714293271 -0.00011902141461018649 0 -0.0063867757326528714 -9.3179386047237224e-05 0 -0.0063947191646112162 -0.00013566493345058277 0 0.0016650688583358933 0.00022988169039843713 0 -0.0015265706574701333 0.00031417155590741214 0 0.0035343256399532519 0.00088117053600745979 0 0.0037893060609560281 0.00020497340221162306 0 0.0034387924879698511 0.00024911044566618975 0 0.0030380209810980299 0.00097688086923246298 0 0.0035343256399532519 0.00088117053600745979 0 0.0034387924879698511 0.00024911044566618975 0 0.0037192319734824942 -0.00011835722759186407 0 0.0037254304705658359 -0.00016670439475089408 0 0.0038218650604010329 -0.0002425417440310823 0 0.0016650688583358933 0.00022988169039843713 0 0.0038377642127309644 -3.2809813273233104e-05 0 -0.00045349605982399446 0.00054596205946032283 0 -0.00043968830506927012 0.00058293928600086089 0 -0.00041438207862021069 0.00052982949762976031 0 -0.0015265706574701333 0.00031417155590741214 0 0.0019113730427916134 0.00034347770422039485 0 -0.00049269118722804293 0.00059078384262558909 0 -0.00045349605982399446 0.00054596205946032283 0 -0.00043968830506927012 0.00058293928600086089 0 -0.00045349605982399446 0.00054596205946032283 0 -0.0004099870413701219 0.0004944768584859144 0 -0.00041438207862021069 0.00052982949762976031 0 0.0037893060609560281 0.00020497340221162306 0 0.0034387924879698511 0.00024911044566618975 0 0.0038619787498473555 -0.00031404275201258572 0 0.0019113730427916134 0.00034347770422039485 0 0.0017564291575505799 8.4503115178648114e-05 0 0.0038218650604010329 -0.0002425417440310823 0 0.0038348116826211827 -0.0003048951903470051 0 0.0038619787498473555 -0.00031404275201258572 0 0.0038377642127309644 -3.2809813273233104e-05 0 0.0037820311123029212 -0.00026064393371823632 0 0.0038218650604010329 -0.0002425417440310823 0 0.0037981977663125062 -0.00027939044734816304 0 0.0038348116826211827 -0.0003048951903470051 0 0.0038218650604010329 -0.0002425417440310823 0 0.0037981977663125062 -0.00027939044734816304 0 0.003759764205503403 -0.00024769589995632445 0 0.0037981977663125062 -0.00027939044734816304 0 0.0038091452862925976 -0.00030962037106709012 0 0.0038348116826211827 -0.0003048951903470051 0 0.0038091452862925976 -0.00030962037106709012 0 0.0038438789968080352 -0.00035415213233789975 0 0.0038348116826211827 -0.0003048951903470051 0 0.0038091452862925976 -0.00030962037106709012 0 0.0038438789968080352 -0.00035415213233789975 0 0.0038017462322675675 -0.00035075859471481597 0 0.0038438789968080352 -0.00035415213233789975 0 0.0038017462322675675 -0.00035075859471481597 0 0.0038302297169000655 -0.00038326541738012171 0 0.0038738170322524675 -0.00036040430810850197 0 0.0038348116826211827 -0.0003048951903470051 0 0.0038619787498473555 -0.00031404275201258572 0 0.0038438789968080352 -0.00035415213233789975 0 0.0038738170322524675 -0.00036040430810850197 0 0.0038348116826211827 -0.0003048951903470051 0 0.0037893060609560281 0.00020497340221162306 0 0.0038619787498473555 -0.00031404275201258572 0 0.003978259982728583 -0.00031621925829394164 0 0.0038738170322524675 -0.00036040430810850197 0 0.003978259982728583 -0.00031621925829394164 0 0.0039240251750092877 -0.00041121939431188462 0 0.0038738170322524675 -0.00036040430810850197 0 0.0038619787498473555 -0.00031404275201258572 0 0.003978259982728583 -0.00031621925829394164 0 0.0037050122419746687 -0.00028100742193280662 0 0.0037420928612968132 -0.00030971599764307781 0 0.0037134581122316521 -0.00032453020658566785 0 0.0037050122419746687 -0.00028100742193280662 0 0.0036708522614842232 -0.00028597018460116218 0 0.0037134581122316521 -0.00032453020658566785 0 0.0036708522614842232 -0.00028597018460116218 0 0.0037134581122316521 -0.00032453020658566785 0 0.0036622562570776942 -0.00031296925313029192 0 0.003640928068416724 -0.00027487542437664971 0 0.0036708522614842232 -0.00028597018460116218 0 0.0036622562570776942 -0.00031296925313029192 0 0.003640928068416724 -0.00027487542437664971 0 0.0036708522614842232 -0.00028597018460116218 0 0.0036536501828361547 -0.00024489554546705512 0 0.0036119779977821123 -0.00023637577791292259 0 0.003640928068416724 -0.00027487542437664971 0 0.0036536501828361547 -0.00024489554546705512 0 0.0036914594142393054 -0.00023342956011770962 0 0.0037050122419746687 -0.00028100742193280662 0 0.0036536501828361547 -0.00024489554546705512 0 0.0037050122419746687 -0.00028100742193280662 0 0.0036708522614842232 -0.00028597018460116218 0 0.0036536501828361547 -0.00024489554546705512 0 0.0036914594142393054 -0.00023342956011770962 0 0.003759764205503403 -0.00024769589995632445 0 0.0037579249457096123 -0.00028379174653132892 0 0.0036914594142393054 -0.00023342956011770962 0 0.0037050122419746687 -0.00028100742193280662 0 0.0037579249457096123 -0.00028379174653132892 0 0.0037981977663125062 -0.00027939044734816304 0 0.003759764205503403 -0.00024769589995632445 0 0.0037579249457096123 -0.00028379174653132892 0 0.0038091452862925976 -0.00030962037106709012 0 0.0037579249457096123 -0.00028379174653132892 0 0.0037748460543332416 -0.00031842778899200555 0 0.0037981977663125062 -0.00027939044734816304 0 0.0038091452862925976 -0.00030962037106709012 0 0.0037579249457096123 -0.00028379174653132892 0 0.0037050122419746687 -0.00028100742193280662 0 0.0037579249457096123 -0.00028379174653132892 0 0.0037420928612968132 -0.00030971599764307781 0 0.0037579249457096123 -0.00028379174653132892 0 0.0037420928612968132 -0.00030971599764307781 0 0.0037748460543332416 -0.00031842778899200555 0 0.0037420928612968132 -0.00030971599764307781 0 0.0037583855164795774 -0.0003394601810460013 0 0.0037134581122316521 -0.00032453020658566785 0 0.0037420928612968132 -0.00030971599764307781 0 0.0037583855164795774 -0.0003394601810460013 0 0.0037748460543332416 -0.00031842778899200555 0 0.0038091452862925976 -0.00030962037106709012 0 0.0037748460543332416 -0.00031842778899200555 0 0.0038017462322675675 -0.00035075859471481597 0 0.0037583855164795774 -0.0003394601810460013 0 0.0037748460543332416 -0.00031842778899200555 0 0.0038017462322675675 -0.00035075859471481597 0 0.0038017462322675675 -0.00035075859471481597 0 0.0038068091574933031 -0.00039024716291710345 0 0.0038302297169000655 -0.00038326541738012171 0 0.0038017462322675675 -0.00035075859471481597 0 0.0037713151018611249 -0.00037500967460879232 0 0.0038068091574933031 -0.00039024716291710345 0 0.0037583855164795774 -0.0003394601810460013 0 0.0037713151018611249 -0.00037500967460879232 0 0.0037335005717569042 -0.00036307714547223832 0 0.0037583855164795774 -0.0003394601810460013 0 0.0038017462322675675 -0.00035075859471481597 0 0.0037713151018611249 -0.00037500967460879232 0 0.0037335005717569042 -0.00036307714547223832 0 0.0037134581122316521 -0.00032453020658566785 0 0.0036911946497082534 -0.00035061695788625512 0 0.0037713151018611249 -0.00037500967460879232 0 0.0037335005717569042 -0.00036307714547223832 0 0.0037533146945184794 -0.00039495352152875158 0 0.0037583855164795774 -0.0003394601810460013 0 0.0037335005717569042 -0.00036307714547223832 0 0.0037134581122316521 -0.00032453020658566785 0 0.0037134581122316521 -0.00032453020658566785 0 0.0036622562570776942 -0.00031296925313029192 0 0.0036911946497082534 -0.00035061695788625512 0 0.0036596495782552458 -0.00034427330801280268 0 0.0036622562570776942 -0.00031296925313029192 0 0.0036911946497082534 -0.00035061695788625512 0 0.0036823921010547852 -0.00037188728327559493 0 0.0036911946497082534 -0.00035061695788625512 0 0.0037142938994166094 -0.00039228345590809654 0 0.0037335005717569042 -0.00036307714547223832 0 0.0036911946497082534 -0.00035061695788625512 0 0.0037142938994166094 -0.00039228345590809654 0 0.0037142938994166094 -0.00039228345590809654 0 0.0037574609383820346 -0.00042835075806817142 0 0.0037533146945184794 -0.00039495352152875158 0 0.0037142938994166094 -0.00039228345590809654 0 0.0037574609383820346 -0.00042835075806817142 0 0.0037240074520596767 -0.00043805403281138626 0 0.0037574609383820346 -0.00042835075806817142 0 0.0037650972533239471 -0.00046957100907581189 0 0.0037240074520596767 -0.00043805403281138626 0 0.0037574609383820346 -0.00042835075806817142 0 0.0037941208326755117 -0.00041915355719073774 0 0.0037946433450404748 -0.00045494203937675203 0 0.0037574609383820346 -0.00042835075806817142 0 0.0037533146945184794 -0.00039495352152875158 0 0.0037941208326755117 -0.00041915355719073774 0 0.0037335005717569042 -0.00036307714547223832 0 0.0037142938994166094 -0.00039228345590809654 0 0.0037533146945184794 -0.00039495352152875158 0 0.0037713151018611249 -0.00037500967460879232 0 0.0037533146945184794 -0.00039495352152875158 0 0.0037941208326755117 -0.00041915355719073774 0 0.0037713151018611249 -0.00037500967460879232 0 0.0038068091574933031 -0.00039024716291710345 0 0.0037941208326755117 -0.00041915355719073774 0 0.0038068091574933031 -0.00039024716291710345 0 0.0038361531635384802 -0.00042290468595801439 0 0.0037941208326755117 -0.00041915355719073774 0 0.0038068091574933031 -0.00039024716291710345 0 0.0038361531635384802 -0.00042290468595801439 0 0.0038302297169000655 -0.00038326541738012171 0 0.0038361531635384802 -0.00042290468595801439 0 0.0037941208326755117 -0.00041915355719073774 0 0.0038415233254077228 -0.00046684372145531144 0 0.0037941208326755117 -0.00041915355719073774 0 0.0038415233254077228 -0.00046684372145531144 0 0.0037946433450404748 -0.00045494203937675203 0 0.0038415233254077228 -0.00046684372145531144 0 0.003814318929897064 -0.00049257633206205948 0 0.0037946433450404748 -0.00045494203937675203 0 0.0038415233254077228 -0.00046684372145531144 0 0.0038775098606141844 -0.00050416053743999878 0 0.0038879018095711072 -0.0004654726363801359 0 0.0038361531635384802 -0.00042290468595801439 0 0.0038415233254077228 -0.00046684372145531144 0 0.0038879018095711072 -0.0004654726363801359 0 0.0038415233254077228 -0.00046684372145531144 0 0.0038775098606141844 -0.00050416053743999878 0 0.0038564812854762023 -0.00051631843454039855 0 0.0038775098606141844 -0.00050416053743999878 0 0.0038564812854762023 -0.00051631843454039855 0 0.0038945989620118942 -0.00054328389987776972 0 0.0038415233254077228 -0.00046684372145531144 0 0.0038564812854762023 -0.00051631843454039855 0 0.003814318929897064 -0.00049257633206205948 0 0.0038564812854762023 -0.00051631843454039855 0 0.003814318929897064 -0.00049257633206205948 0 0.0038316963115937546 -0.00052965825973242059 0 0.003814318929897064 -0.00049257633206205948 0 0.0037878594449361068 -0.00050657845133583181 0 0.0038316963115937546 -0.00052965825973242059 0 0.003814318929897064 -0.00049257633206205948 0 0.0037878594449361068 -0.00050657845133583181 0 0.0037650972533239471 -0.00046957100907581189 0 0.0037574609383820346 -0.00042835075806817142 0 0.0037650972533239471 -0.00046957100907581189 0 0.0037946433450404748 -0.00045494203937675203 0 0.003814318929897064 -0.00049257633206205948 0 0.0037650972533239471 -0.00046957100907581189 0 0.0037946433450404748 -0.00045494203937675203 0 0.0039240251750092877 -0.00041121939431188462 0 0.0039439667261032367 -0.00048434487518024121 0 0.0040111118032835139 -0.0004396095507562004 0 0.003978259982728583 -0.00031621925829394164 0 0.0039240251750092877 -0.00041121939431188462 0 0.0040111118032835139 -0.0004396095507562004 0 0.0017564291575505799 8.4503115178648114e-05 0 0.0019109625669879418 0.00016037622414386639 0 -0.0004099870413701219 0.0004944768584859144 0 -0.00037844674321128397 0.00044781814600055729 0 -0.00036779975107927905 0.00042787945306094243 0 0.0039240251750092877 -0.00041121939431188462 0 0.0038639109218421286 -0.0004043292325712023 0 0.0038879018095711072 -0.0004654726363801359 0 0.0038438789968080352 -0.00035415213233789975 0 0.0038738170322524675 -0.00036040430810850197 0 0.0038639109218421286 -0.0004043292325712023 0 0.0038738170322524675 -0.00036040430810850197 0 0.0039240251750092877 -0.00041121939431188462 0 0.0038639109218421286 -0.0004043292325712023 0 0.0038438789968080352 -0.00035415213233789975 0 0.0038639109218421286 -0.0004043292325712023 0 0.0038302297169000655 -0.00038326541738012171 0 0.0038361531635384802 -0.00042290468595801439 0 0.0038639109218421286 -0.0004043292325712023 0 0.0038302297169000655 -0.00038326541738012171 0 0.0038361531635384802 -0.00042290468595801439 0 0.0038639109218421286 -0.0004043292325712023 0 0.0038879018095711072 -0.0004654726363801359 0 0.0038775098606141844 -0.00050416053743999878 0 0.0039156669191547713 -0.00052267720161346207 0 0.0038945989620118942 -0.00054328389987776972 0 0.0038775098606141844 -0.00050416053743999878 0 0.0038879018095711072 -0.0004654726363801359 0 0.0039156669191547713 -0.00052267720161346207 0 0.0039156669191547713 -0.00052267720161346207 0 0.0039439667261032367 -0.00048434487518024121 0 0.0039569510085452585 -0.00053266031508187293 0 0.0038879018095711072 -0.0004654726363801359 0 0.0039156669191547713 -0.00052267720161346207 0 0.0039439667261032367 -0.00048434487518024121 0 0.0039240251750092877 -0.00041121939431188462 0 0.0038879018095711072 -0.0004654726363801359 0 0.0039439667261032367 -0.00048434487518024121 0 0.0039439667261032367 -0.00048434487518024121 0 0.0039918657645757437 -0.0005207102007900008 0 0.0040111118032835139 -0.0004396095507562004 0 0.0039439667261032367 -0.00048434487518024121 0 0.0039918657645757437 -0.0005207102007900008 0 0.0039569510085452585 -0.00053266031508187293 0 0.0040268451079046048 -0.00058952489122524553 0 0.0040073499058431803 -0.00057762478096041721 0 0.0040126708353919694 -0.00060529994960591398 0 0.0040073499058431803 -0.00057762478096041721 0 0.0039953678274683808 -0.00059297839128212354 0 0.0040126708353919694 -0.00060529994960591398 0 0.0040268451079046048 -0.00058952489122524553 0 0.0040073499058431803 -0.00057762478096041721 0 0.0040185566847585783 -0.00055615300395789585 0 0.0040073499058431803 -0.00057762478096041721 0 0.0040185566847585783 -0.00055615300395789585 0 0.0039859258833191717 -0.00055714049364684196 0 0.0039918657645757437 -0.0005207102007900008 0 0.0040185566847585783 -0.00055615300395789585 0 0.0039859258833191717 -0.00055714049364684196 0 0.0039859258833191717 -0.00055714049364684196 0 0.0039569510085452585 -0.00053266031508187293 0 0.0039614702900554006 -0.00057201011477296681 0 0.0039918657645757437 -0.0005207102007900008 0 0.0039859258833191717 -0.00055714049364684196 0 0.0039569510085452585 -0.00053266031508187293 0 0.0040073499058431803 -0.00057762478096041721 0 0.0039859258833191717 -0.00055714049364684196 0 0.0039953678274683808 -0.00059297839128212354 0 0.0039953678274683808 -0.00059297839128212354 0 0.0039614702900554006 -0.00057201011477296681 0 0.0039862617453479835 -0.00061577261255956806 0 0.0039859258833191717 -0.00055714049364684196 0 0.0039953678274683808 -0.00059297839128212354 0 0.0039614702900554006 -0.00057201011477296681 0 0.0039614702900554006 -0.00057201011477296681 0 0.0039327451587595633 -0.00057259985724747182 0 0.0039608627084216251 -0.00059970894925906015 0 0.0039156669191547713 -0.00052267720161346207 0 0.0039569510085452585 -0.00053266031508187293 0 0.0039614702900554006 -0.00057201011477296681 0 0.0039156669191547713 -0.00052267720161346207 0 0.0039614702900554006 -0.00057201011477296681 0 0.0039327451587595633 -0.00057259985724747182 0 0.0039156669191547713 -0.00052267720161346207 0 0.0039327451587595633 -0.00057259985724747182 0 0.0038945989620118942 -0.00054328389987776972 0 0.0039327451587595633 -0.00057259985724747182 0 0.0039460248541130991 -0.00060655352604560304 0 0.0039608627084216251 -0.00059970894925906015 0 0.0039460248541130991 -0.00060655352604560304 0 0.0039708750011949543 -0.00062722374928033786 0 0.0039608627084216251 -0.00059970894925906015 0 0.0039460248541130991 -0.00060655352604560304 0 0.0039708750011949543 -0.00062722374928033786 0 0.0039656852051130256 -0.00063722421560189185 0 0.0039708750011949543 -0.00062722374928033786 0 0.0039656852051130256 -0.00063722421560189185 0 0.0039875937345764398 -0.00065235889757559731 0 0.0039656852051130256 -0.00063722421560189185 0 0.0039875937345764398 -0.00065235889757559731 0 0.0039785800146560461 -0.00065611967544523873 0 0.0039708750011949543 -0.00062722374928033786 0 0.0039929437277331599 -0.0006422723995686883 0 0.0039875937345764398 -0.00065235889757559731 0 0.0039708750011949543 -0.00062722374928033786 0 0.0039929437277331599 -0.0006422723995686883 0 0.0039862617453479835 -0.00061577261255956806 0 0.0039929437277331599 -0.0006422723995686883 0 0.0040045537451924062 -0.00064214538731578166 0 0.0040107909344000922 -0.00066822248628659335 0 0.0039929437277331599 -0.0006422723995686883 0 0.0039862617453479835 -0.00061577261255956806 0 0.0040045537451924062 -0.00064214538731578166 0 0.0039614702900554006 -0.00057201011477296681 0 0.0039862617453479835 -0.00061577261255956806 0 0.0039608627084216251 -0.00059970894925906015 0 0.0039708750011949543 -0.00062722374928033786 0 0.0039862617453479835 -0.00061577261255956806 0 0.0039608627084216251 -0.00059970894925906015 0 0.0039862617453479835 -0.00061577261255956806 0 0.0040101064295179258 -0.00062770232447997376 0 0.0040045537451924062 -0.00064214538731578166 0 0.0039953678274683808 -0.00059297839128212354 0 0.0040101064295179258 -0.00062770232447997376 0 0.0040126708353919694 -0.00060529994960591398 0 0.0039953678274683808 -0.00059297839128212354 0 0.0039862617453479835 -0.00061577261255956806 0 0.0040101064295179258 -0.00062770232447997376 0 0.0040101064295179258 -0.00062770232447997376 0 0.0040045537451924062 -0.00064214538731578166 0 0.0040199306616557524 -0.00066125050606526158 0 0.0040101064295179258 -0.00062770232447997376 0 0.0040269630933237625 -0.00064740572697577015 0 0.0040261306415625073 -0.00062051820385130305 0 0.0040101064295179258 -0.00062770232447997376 0 0.0040269630933237625 -0.00064740572697577015 0 0.0040199306616557524 -0.00066125050606526158 0 0.0040269630933237625 -0.00064740572697577015 0 0.0040261306415625073 -0.00062051820385130305 0 0.0040406404236012407 -0.00063802539490169735 0 0.0040101064295179258 -0.00062770232447997376 0 0.0040261306415625073 -0.00062051820385130305 0 0.0040126708353919694 -0.00060529994960591398 0 0.0040268451079046048 -0.00058952489122524553 0 0.0040261306415625073 -0.00062051820385130305 0 0.0040126708353919694 -0.00060529994960591398 0 0.0038533115689326335 -0.00056750094558960561 0 0.0038316963115937546 -0.00052965825973242059 0 0.003874710689687407 -0.00055566192363403096 0 0.0038533115689326335 -0.00056750094558960561 0 0.003800817897577506 -0.00053942616656974386 0 0.0038294894421472738 -0.00057960931372130276 0 0.003800817897577506 -0.00053942616656974386 0 0.0038294894421472738 -0.00057960931372130276 0 0.0037810098094834717 -0.0005571802253077591 0 0.0037878594449361068 -0.00050657845133583181 0 0.003800817897577506 -0.00053942616656974386 0 0.0038316963115937546 -0.00052965825973242059 0 0.0038533115689326335 -0.00056750094558960561 0 0.003800817897577506 -0.00053942616656974386 0 0.0038316963115937546 -0.00052965825973242059 0 0.0038564812854762023 -0.00051631843454039855 0 0.0038945989620118942 -0.00054328389987776972 0 0.003874710689687407 -0.00055566192363403096 0 0.0038564812854762023 -0.00051631843454039855 0 0.0038316963115937546 -0.00052965825973242059 0 0.003874710689687407 -0.00055566192363403096 0 0.0039327451587595633 -0.00057259985724747182 0 0.0039460248541130991 -0.00060655352604560304 0 0.0039123316872678717 -0.00058240106063895097 0 0.0038945989620118942 -0.00054328389987776972 0 0.0039123316872678717 -0.00058240106063895097 0 0.003874710689687407 -0.00055566192363403096 0 0.0039327451587595633 -0.00057259985724747182 0 0.0038945989620118942 -0.00054328389987776972 0 0.0039123316872678717 -0.00058240106063895097 0 0.0039123316872678717 -0.00058240106063895097 0 0.003874710689687407 -0.00055566192363403096 0 0.003894585676361841 -0.00059195035704494965 0 0.0038533115689326335 -0.00056750094558960561 0 0.003874710689687407 -0.00055566192363403096 0 0.003894585676361841 -0.00059195035704494965 0 0.003894585676361841 -0.00059195035704494965 0 0.0039325307040234498 -0.00061500920878170408 0 0.0039168832766312426 -0.00062434010046114182 0 0.0039123316872678717 -0.00058240106063895097 0 0.003894585676361841 -0.00059195035704494965 0 0.0039325307040234498 -0.00061500920878170408 0 0.0039460248541130991 -0.00060655352604560304 0 0.0039123316872678717 -0.00058240106063895097 0 0.0039325307040234498 -0.00061500920878170408 0 0.0039460248541130991 -0.00060655352604560304 0 0.0039325307040234498 -0.00061500920878170408 0 0.0039656852051130256 -0.00063722421560189185 0 0.0039325307040234498 -0.00061500920878170408 0 0.0039539054676620998 -0.00064375039420757729 0 0.0039656852051130256 -0.00063722421560189185 0 0.0039539054676620998 -0.00064375039420757729 0 0.0039656852051130256 -0.00063722421560189185 0 0.0039785800146560461 -0.00065611967544523873 0 0.0039325307040234498 -0.00061500920878170408 0 0.0039539054676620998 -0.00064375039420757729 0 0.0039168832766312426 -0.00062434010046114182 0 0.0039539054676620998 -0.00064375039420757729 0 0.0039168832766312426 -0.00062434010046114182 0 0.0039431764036174091 -0.0006535323475751971 0 0.0039168832766312426 -0.00062434010046114182 0 0.0038977618715958281 -0.00063432600369142005 0 0.0038744717403903155 -0.00060216856038335185 0 0.0039168832766312426 -0.00062434010046114182 0 0.0038977618715958281 -0.00063432600369142005 0 0.0039431764036174091 -0.0006535323475751971 0 0.003894585676361841 -0.00059195035704494965 0 0.0039168832766312426 -0.00062434010046114182 0 0.0038744717403903155 -0.00060216856038335185 0 0.0038533115689326335 -0.00056750094558960561 0 0.003894585676361841 -0.00059195035704494965 0 0.0038744717403903155 -0.00060216856038335185 0 0.0038533115689326335 -0.00056750094558960561 0 0.0038744717403903155 -0.00060216856038335185 0 0.0038294894421472738 -0.00057960931372130276 0 0.0038294894421472738 -0.00057960931372130276 0 0.0038488619494211418 -0.00061377706573202109 0 0.0038064110773376515 -0.0005965262643037577 0 0.0038744717403903155 -0.00060216856038335185 0 0.0038294894421472738 -0.00057960931372130276 0 0.0038488619494211418 -0.00061377706573202109 0 0.0038977618715958281 -0.00063432600369142005 0 0.0038744717403903155 -0.00060216856038335185 0 0.0038488619494211418 -0.00061377706573202109 0 0.0038488619494211418 -0.00061377706573202109 0 0.0038259410555107269 -0.00062452352157093844 0 0.0038740032153810958 -0.00064379560991488147 0 0.0038977618715958281 -0.00063432600369142005 0 0.0038488619494211418 -0.00061377706573202109 0 0.0038740032153810958 -0.00064379560991488147 0 0.0038259410555107269 -0.00062452352157093844 0 0.0038412785350804102 -0.00065387804451999423 0 0.0038740032153810958 -0.00064379560991488147 0 0.0038259410555107269 -0.00062452352157093844 0 0.0037496633327807195 -0.00060930187418234134 0 0.0038412785350804102 -0.00065387804451999423 0 0.0037496633327807195 -0.00060930187418234134 0 0.0037241753110493106 -0.00060229222194189014 0 0.0038101817167437483 -0.00068033638634605793 0 0.0037496633327807195 -0.00060930187418234134 0 0.0037241753110493106 -0.00060229222194189014 0 0.0036643468055916032 -0.00055693993009635595 0 0.0038259410555107269 -0.00062452352157093844 0 0.0037496633327807195 -0.00060930187418234134 0 0.0038064110773376515 -0.0005965262643037577 0 0.0037496633327807195 -0.00060930187418234134 0 0.0038064110773376515 -0.0005965262643037577 0 0.0037810098094834717 -0.0005571802253077591 0 0.0038488619494211418 -0.00061377706573202109 0 0.0038259410555107269 -0.00062452352157093844 0 0.0038064110773376515 -0.0005965262643037577 0 0.0037241753110493106 -0.00060229222194189014 0 0.0035989185010351903 -0.00066584162426474875 0 0.0036964667691101053 -0.00081354814420876785 0 0.0037060469850439984 -0.00062850698236654751 0 0.0040621271143336567 -0.00072559822570723723 0 0.0044698417150081157 -0.00050101994235424304 0 0.0044308702198095308 -0.00049687929663874003 0 0.0044394287669293616 -0.00054816017402019551 0 0.0037241753110493106 -0.00060229222194189014 0 0.0035989185010351903 -0.00066584162426474875 0 0.0036214927040912189 -0.00057884632885790146 0 0.0037241753110493106 -0.00060229222194189014 0 0.0036214927040912189 -0.00057884632885790146 0 0.0036643468055916032 -0.00055693993009635595 0 0.0035989185010351903 -0.00066584162426474875 0 0.0036214927040912189 -0.00057884632885790146 0 0.0035379446109294293 -0.00055308184410942003 0 0.004073411159571271 -0.00070711231691663017 0 0.0020593752247000936 -0.00075010554372575164 0 0.0036039976945680965 -0.00052316222196904078 0 0.0035633268905521718 -0.0004701851571281947 0 0.0035379446109294293 -0.00055308184410942003 0 0.0036214927040912189 -0.00057884632885790146 0 0.0036039976945680965 -0.00052316222196904078 0 0.0035379446109294293 -0.00055308184410942003 0 0.0036214927040912189 -0.00057884632885790146 0 0.0036643468055916032 -0.00055693993009635595 0 0.0036039976945680965 -0.00052316222196904078 0 0.0036643468055916032 -0.00055693993009635595 0 0.0036039976945680965 -0.00052316222196904078 0 0.0036170119759323604 -0.00048474985135302321 0 0.0037496633327807195 -0.00060930187418234134 0 0.0037810098094834717 -0.0005571802253077591 0 0.0037219620987864192 -0.00050075827062105109 0 0.0037878594449361068 -0.00050657845133583181 0 0.003800817897577506 -0.00053942616656974386 0 0.0037219620987864192 -0.00050075827062105109 0 0.0037310073973928232 -0.00060579188916485367 0 0.0036760451925401082 -0.00050165602457875891 0 0.0037496633327807195 -0.00060930187418234134 0 0.0036643468055916032 -0.00055693993009635595 0 0.0036170119759323604 -0.00048474985135302321 0 0.0038294894421472738 -0.00057960931372130276 0 0.0038064110773376515 -0.0005965262643037577 0 0.0037810098094834717 -0.0005571802253077591 0 0.003800817897577506 -0.00053942616656974386 0 0.0037810098094834717 -0.0005571802253077591 0 0.0037219620987864192 -0.00050075827062105109 0 0.0037878594449361068 -0.00050657845133583181 0 0.0037650972533239471 -0.00046957100907581189 0 0.0037219620987864192 -0.00050075827062105109 0 0.0037650972533239471 -0.00046957100907581189 0 0.0037219620987864192 -0.00050075827062105109 0 0.0037240074520596767 -0.00043805403281138626 0 0.0037219620987864192 -0.00050075827062105109 0 0.0036675179002057354 -0.00040226680115603504 0 0.0037240074520596767 -0.00043805403281138626 0 0.0036760451925401082 -0.00050165602457875891 0 0.003564814937476438 -0.0004204005680587941 0 0.0036039976945680965 -0.00052316222196904078 0 0.0036170119759323604 -0.00048474985135302321 0 0.0035633268905521718 -0.0004701851571281947 0 0.0036170119759323604 -0.00048474985135302321 0 0.0035633268905521718 -0.0004701851571281947 0 0.0035355645566962574 -0.00045926346755757828 0 -0.001193687197547748 -0.00081623855546234631 0 -0.0011530399221688368 -0.00056614281721458523 0 -0.0013377961809784606 -0.00065397928576259898 0 0.0035633268905521718 -0.0004701851571281947 0 0.0035256566300664502 -0.00046268391448708987 0 0.0035355645566962574 -0.00045926346755757828 0 0.0010946605388358697 -0.00068868374004319843 0 0.0011840641291098804 -0.00050347043058616612 0 0.0037142938994166094 -0.00039228345590809654 0 0.0036675179002057354 -0.00040226680115603504 0 0.0037240074520596767 -0.00043805403281138626 0 0.0036823921010547852 -0.00037188728327559493 0 0.0037142938994166094 -0.00039228345590809654 0 0.0036675179002057354 -0.00040226680115603504 0 -0.001624750354114281 -0.00058163440252003535 0 -0.0013377961809784606 -0.00065397928576259898 0 -0.0014317933365399899 -0.00082421043823387521 0 0.0019377053774457286 -0.00050532507982852741 0 0.0012772701330854609 -0.00040951951986217767 0 -0.001193687197547748 -0.00081623855546234631 0 -0.0014317933365399899 -0.00082421043823387521 0 -0.0012352474125361462 -0.0010660365094487154 0 -0.001193687197547748 -0.00081623855546234631 0 -0.0013377961809784606 -0.00065397928576259898 0 -0.0014317933365399899 -0.00082421043823387521 0 0.0043301602811372667 -0.00019422879037579605 0 0.0042540612877020791 -0.00037437435241306451 0 0.0041562123208684389 -0.00022393124920018571 0 0.0041565011731265807 5.5553626163939799e-05 0 0.0043301602811372667 -0.00019422879037579605 0 0.0041562123208684389 -0.00022393124920018571 0 0.0043301602811372667 -0.00019422879037579605 0 0.0042540612877020791 -0.00037437435241306451 0 0.0043669832444651899 -0.00042098915069618684 0 0.0010946605388358697 -0.00068868374004319843 0 0.0020593752247000936 -0.00075010554372575164 0 0.0043301602811372667 -0.00019422879037579605 0 0.0043669832444651899 -0.00042098915069618684 0 0.0044370397318201985 -0.00040294659634362157 0 0.0012772701330854609 -0.00040951951986217767 0 0.0020593752247000936 -0.00075010554372575164 0 0.0043669832444651899 -0.00042098915069618684 0 0.0044301075593558082 -0.00042089047171125132 0 0.0044370397318201985 -0.00040294659634362157 0 0.0022085443282810402 -0.00061236553164587394 0 0.0020593752247000936 -0.00075010554372575164 0 0.0044698417150081157 -0.00050101994235424304 0 0.0044301075593558082 -0.00042089047171125132 0 0.0044333803941979518 -0.00040829869577532464 0 0.0044698417150081157 -0.00050101994235424304 0 0.0044301075593558082 -0.00042089047171125132 0 0.0044308702198095308 -0.00049687929663874003 0 0.0044301075593558082 -0.00042089047171125132 0 0.004406395840049402 -0.00046542892632066133 0 0.0044308702198095308 -0.00049687929663874003 0 0.0043669832444651899 -0.00042098915069618684 0 0.004406395840049402 -0.00046542892632066133 0 0.0043933279982739356 -0.00051548786335922463 0 0.0043669832444651899 -0.00042098915069618684 0 0.0044301075593558082 -0.00042089047171125132 0 0.004406395840049402 -0.00046542892632066133 0 0.004406395840049402 -0.00046542892632066133 0 0.0043933279982739356 -0.00051548786335922463 0 0.0044308702198095308 -0.00049687929663874003 0 0.0043933279982739356 -0.00051548786335922463 0 0.0044308702198095308 -0.00049687929663874003 0 0.0044394287669293616 -0.00054816017402019551 0 0.0042540612877020791 -0.00037437435241306451 0 0.0043669832444651899 -0.00042098915069618684 0 0.0043077083250386596 -0.00049395194273762642 0 0.0043669832444651899 -0.00042098915069618684 0 0.0043933279982739356 -0.00051548786335922463 0 0.0043077083250386596 -0.00049395194273762642 0 0.0043077083250386596 -0.00049395194273762642 0 0.0041083754698254251 -0.00044044248984334642 0 0.0042709596000496605 -0.0005517208376979207 0 0.0041083754698254251 -0.00044044248984334642 0 0.0042467056951999947 -0.00057428757540977347 0 0.0042709596000496605 -0.0005517208376979207 0 0.0042540612877020791 -0.00037437435241306451 0 0.0043077083250386596 -0.00049395194273762642 0 0.0041083754698254251 -0.00044044248984334642 0 0.0042540612877020791 -0.00037437435241306451 0 0.0041083754698254251 -0.00044044248984334642 0 0.0041562123208684389 -0.00022393124920018571 0 0.0041083754698254251 -0.00044044248984334642 0 0.0039237046508269844 -0.0004758363364539374 0 0.0038184759911687014 -0.00029227990684680278 0 0.0041083754698254251 -0.00044044248984334642 0 0.0038184759911687014 -0.00029227990684680278 0 0.0039346470786304905 -0.0001335847959715046 0 0.0041225041991209991 -0.00044513424354048473 0 0.0041486181836513387 -0.00059494206020189078 0 0.0041083754698254251 -0.00044044248984334642 0 0.0039237046508269844 -0.0004758363364539374 0 0.0040489186880643497 -0.00064050633890825129 0 0.0038491867337256333 -0.00056976065083003385 0 0.0039237046508269844 -0.0004758363364539374 0 0.0040489186880643497 -0.00064050633890825129 0 0.0038491867337256333 -0.00056976065083003385 0 0.0039237046508269844 -0.0004758363364539374 0 0.0036624020732758094 -0.00046805425282715686 0 0.0038491867337256333 -0.00056976065083003385 0 0.0036624020732758094 -0.00046805425282715686 0 0.0037540924133698966 -0.00056364369713815705 0 0.0036474455002757427 -0.00052710392598842939 0 0.003690171602268848 -0.00055565804898463503 0 0.0036624020732758094 -0.00046805425282715686 0 0.0035636604147716699 -0.00015874623982911357 0 0.0034339435917040556 -0.00024643225348939846 0 0.0036624020732758094 -0.00046805425282715686 0 0.0038184759911687014 -0.00029227990684680278 0 0.0035636604147716699 -0.00015874623982911357 0 0.0039237046508269844 -0.0004758363364539374 0 0.0036624020732758094 -0.00046805425282715686 0 0.0038184759911687014 -0.00029227990684680278 0 0.0038184759911687014 -0.00029227990684680278 0 0.0037109424882147261 -1.1559416350780115e-05 0 0.0039346470786304905 -0.0001335847959715046 0 0.0038184759911687014 -0.00029227990684680278 0 0.0035636604147716699 -0.00015874623982911357 0 0.0037109424882147261 -1.1559416350780115e-05 0 0.0035636604147716699 -0.00015874623982911357 0 0.0033058624967942404 -9.3637945798234136e-05 0 0.0034690613063108945 0.00013512064183908361 0 0.0035636604147716699 -0.00015874623982911357 0 0.0037109424882147261 -1.1559416350780115e-05 0 0.0034690613063108945 0.00013512064183908361 0 0.0037109424882147261 -1.1559416350780115e-05 0 0.0039346470786304905 -0.0001335847959715046 0 0.0039199673593750721 8.5997179892553717e-05 0 0.0041565011731265807 5.5553626163939799e-05 0 0.0041562123208684389 -0.00022393124920018571 0 0.0039346470786304905 -0.0001335847959715046 0 0.0041565011731265807 5.5553626163939799e-05 0 0.0039346470786304905 -0.0001335847959715046 0 0.0039199673593750721 8.5997179892553717e-05 0 0.0041083754698254251 -0.00044044248984334642 0 0.0041562123208684389 -0.00022393124920018571 0 0.0039346470786304905 -0.0001335847959715046 0 -0.0009321301326039469 -0.00022645137410227237 0 -0.00081422815058023541 -0.00079464297787051506 0 -0.00023508158373052721 -0.00041226470180926177 0 -0.00051527202340565079 -3.8400729447478588e-05 0 -0.0009321301326039469 -0.00022645137410227237 0 -0.00023508158373052721 -0.00041226470180926177 0 -0.00081422815058023541 -0.00079464297787051506 0 6.3036986225928395e-05 -0.00090445002191906054 0 -0.00022037842705597069 -0.0014859402923988435 0 6.3036986225928395e-05 -0.00090445002191906054 0 -0.00023508158373052721 -0.00041226470180926177 0 0.0002209560140085918 -0.00031417906527577447 0 -0.00081422815058023541 -0.00079464297787051506 0 6.3036986225928395e-05 -0.00090445002191906054 0 -0.00023508158373052721 -0.00041226470180926177 0 -0.00051527202340565079 -3.8400729447478588e-05 0 -0.00023508158373052721 -0.00041226470180926177 0 1.8276624774748863e-05 0.00025095168851504968 0 -0.00023508158373052721 -0.00041226470180926177 0 0.0002209560140085918 -0.00031417906527577447 0 1.8276624774748863e-05 0.00025095168851504968 0 0.0002209560140085918 -0.00031417906527577447 0 0.00066871175373993971 -0.0007460270246665492 0 0.00060128955273423454 7.8585149642971375e-05 0 6.3036986225928395e-05 -0.00090445002191906054 0 0.0002209560140085918 -0.00031417906527577447 0 0.00066871175373993971 -0.0007460270246665492 0 0.0036624020732758094 -0.00046805425282715686 0 0.0034622402613296356 -0.00078799856469207276 0 0.0033702830860175047 -0.0004051722720276152 0 0.0032563102455826103 -0.00063987187570376197 0 0.0034622402613296356 -0.00078799856469207276 0 0.0033702830860175047 -0.0004051722720276152 0 0.0032563102455826103 -0.00063987187570376197 0 0.0033702830860175047 -0.0004051722720276152 0 0.0032285177358448063 -0.00024262005143777584 0 0.0020389807857996052 -0.00067204866905896618 0 0.00057014153855429179 -0.00042228318280158466 0 0.0036624020732758094 -0.00046805425282715686 0 0.0033702830860175047 -0.0004051722720276152 0 0.0034339435917040556 -0.00024643225348939846 0 0.0033702830860175047 -0.0004051722720276152 0 0.0033354252461246766 -0.00027908196118805204 0 0.0032285177358448063 -0.00024262005143777584 0 0.0033702830860175047 -0.0004051722720276152 0 0.0034339435917040556 -0.00024643225348939846 0 0.0033354252461246766 -0.00027908196118805204 0 0.0033058624967942404 -9.3637945798234136e-05 0 0.0031650017976379958 4.6861139869413595e-05 0 0.0032285177358448063 -0.00024262005143777584 0 0.0035636604147716699 -0.00015874623982911357 0 0.0034339435917040556 -0.00024643225348939846 0 0.0033058624967942404 -9.3637945798234136e-05 0 0.0034339435917040556 -0.00024643225348939846 0 0.0033354252461246766 -0.00027908196118805204 0 0.003306820703631393 -0.00022176463694049405 0 0.003306820703631393 -0.00022176463694049405 0 0.0033058624967942404 -9.3637945798234136e-05 0 0.0032285177358448063 -0.00024262005143777584 0 0.0034339435917040556 -0.00024643225348939846 0 0.003306820703631393 -0.00022176463694049405 0 0.0033058624967942404 -9.3637945798234136e-05 0 0.0033354252461246766 -0.00027908196118805204 0 0.003306820703631393 -0.00022176463694049405 0 0.0032285177358448063 -0.00024262005143777584 0 0.0033058624967942404 -9.3637945798234136e-05 0 0.0031650017976379958 4.6861139869413595e-05 0 0.0034690613063108945 0.00013512064183908361 0 -0.0039267884466696549 0.0010776269224950289 0 -0.0024302907462702846 0.000624681909401793 0 -0.0083002237434025693 0.0011995627696172022 0 -0.008031255851279109 0.0013236120524284117 0 -0.0080482430479382108 0.0010102943916211254 0 -0.0039267884466696549 0.0010776269224950289 0 -0.0061053543045572105 0.00080081313338274218 0 -0.002180436710660553 0.0011023142147719052 0 -0.0032111391597816298 -0.0001246165399163054 0 -0.003275209712561105 0.00065813878119123492 0 0.0002209560140085918 -0.00031417906527577447 0 0.00060128955273423454 7.8585149642971375e-05 0 1.8276624774748863e-05 0.00025095168851504968 0 -0.0039267884466696549 0.0010776269224950289 0 0.00057014153855429179 -0.00042228318280158466 0 -0.002180436710660553 0.0011023142147719052 0 -0.0020454476977084207 -0.00046677723096525146 0 -0.0032111391597816298 -0.0001246165399163054 0 0.00057014153855429179 -0.00042228318280158466 0 -0.0015462522051034825 4.8944571168304003e-05 0 -0.0061053543045572105 0.00080081313338274218 0 -0.0040432877666929188 0.00068750161325317641 0 -0.0032111391597816298 -0.0001246165399163054 0 -0.003275209712561105 0.00065813878119123492 0 -0.0043658213677215413 0.00022165365110204783 0 -0.0015462522051034825 4.8944571168304003e-05 0 -0.0040432877666929188 0.00068750161325317641 0 -0.00051527202340565079 -3.8400729447478588e-05 0 1.8276624774748863e-05 0.00025095168851504968 0 -0.00056948699701600514 0.00042401890581032303 0 -0.008031255851279109 0.0013236120524284117 0 -0.0077239209889972595 0.0011131720030874623 0 -0.0080482430479382108 0.0010102943916211254 0 -0.008031255851279109 0.0013236120524284117 0 -0.0077239209889972595 0.0011131720030874623 0 -0.0077297714705075113 0.0014566630549318514 0 -0.0073375758545654677 0.0013582246840829978 0 -0.0077239209889972595 0.0011131720030874623 0 -0.0077297714705075113 0.0014566630549318514 0 -0.0012914529958107203 0.00013052351207358138 0 -0.0009321301326039469 -0.00022645137410227237 0 -0.00056948699701600514 0.00042401890581032303 0 -0.0019784040179139178 0.00019755594821331367 0 -0.0040432877666929188 0.00068750161325317641 0 -0.0062712889432508696 0.0012327416308233793 0 -0.0040432877666929188 0.00068750161325317641 0 -0.00051527202340565079 -3.8400729447478588e-05 0 -0.0009321301326039469 -0.00022645137410227237 0 -0.00056948699701600514 0.00042401890581032303 0 -0.007477765345638575 0.00037033025285691833 0 -0.0078469049689883375 0.00058119800832506471 0 -0.0072731049039074522 0.000927326947956352 0 -0.0077239209889972595 0.0011131720030874623 0 -0.0078638689669609674 0.00056911479339658911 0 -0.0078638689669609674 0.00056911479339658911 0 -0.0080482430479382108 0.0010102943916211254 0 -0.00829382420073713 0.00083591311495299025 0 -0.0077239209889972595 0.0011131720030874623 0 -0.0078638689669609674 0.00056911479339658911 0 -0.0080482430479382108 0.0010102943916211254 0 -0.0078638689669609674 0.00056911479339658911 0 -0.00829382420073713 0.00083591311495299025 0 -0.0083026891764986736 0.00050607897225296984 0 -0.0039267884466696549 0.0010776269224950289 0 -0.0088398946431239873 0.0010194846622052914 0 -0.0083002237434025693 0.0011995627696172022 0 -0.0080482430479382108 0.0010102943916211254 0 -0.00829382420073713 0.00083591311495299025 0 -0.0082684673610335935 0.0013112403988247449 0 -0.00829382420073713 0.00083591311495299025 0 -0.0087619429049846133 0.001127127994339302 0 -0.00829382420073713 0.00083591311495299025 0 -0.00867190411958247 0.00074317305292539331 0 -0.0087619429049846133 0.001127127994339302 0 -0.00829382420073713 0.00083591311495299025 0 -0.00867190411958247 0.00074317305292539331 0 -0.0083026891764986736 0.00050607897225296984 0 -0.00867190411958247 0.00074317305292539331 0 -0.0085904214270292999 0.00043345562556991029 0 -0.0083026891764986736 0.00050607897225296984 0 -0.0085904214270292999 0.00043345562556991029 0 -0.0083967267610230035 0.00019222904029271755 0 -0.0083026891764986736 0.00050607897225296984 0 -0.008591953807935853 0.00042923087560183345 0 -0.0083319251383059695 7.5688524727084874e-05 0 -0.0085904214270292999 0.00043345562556991029 0 -0.0087120300957929716 0.00010226579256176856 0 -0.0084197063504880838 -2.1362866067547818e-06 0 -0.0087120300957929716 0.00010226579256176856 0 -0.0084197063504880838 -2.1362866067547818e-06 0 -0.0087180926691385573 -0.00041549977034830202 0 -0.0083967267610230035 0.00019222904029271755 0 -0.0081070540721099454 0.0003523872051834166 0 -0.0080659815691930137 0.00021236285843514313 0 -0.0083967267610230035 0.00019222904029271755 0 -0.0080659815691930137 0.00021236285843514313 0 -0.0081534029929487099 9.0342158549902032e-05 0 -0.0083967267610230035 0.00019222904029271755 0 -0.0083026891764986736 0.00050607897225296984 0 -0.0081070540721099454 0.0003523872051834166 0 -0.0078638689669609674 0.00056911479339658911 0 -0.0083026891764986736 0.00050607897225296984 0 -0.0081070540721099454 0.0003523872051834166 0 -0.0078638689669609674 0.00056911479339658911 0 -0.0081070540721099454 0.0003523872051834166 0 -0.0079455656759699986 0.00028953275369724123 0 -0.0080659815691930137 0.00021236285843514313 0 -0.0079959728287103491 0.00012390837196318773 0 -0.0081534029929487099 9.0342158549902032e-05 0 -0.0080659815691930137 0.00021236285843514313 0 -0.0079455656759699986 0.00028953275369724123 0 -0.0079959728287103491 0.00012390837196318773 0 -0.0081070540721099454 0.0003523872051834166 0 -0.0080659815691930137 0.00021236285843514313 0 -0.0079455656759699986 0.00028953275369724123 0 -0.0079455656759699986 0.00028953275369724123 0 -0.0078652379100573027 0.0001667803492926032 0 -0.0077990285558872836 0.00034496551845658834 0 -0.0079455656759699986 0.00028953275369724123 0 -0.0078652379100573027 0.0001667803492926032 0 -0.0079959728287103491 0.00012390837196318773 0 -0.0078638689669609674 0.00056911479339658911 0 -0.0079455656759699986 0.00028953275369724123 0 -0.0077990285558872836 0.00034496551845658834 0 -0.0076822997466703437 0.00045602092224307977 0 -0.0078638689669609674 0.00056911479339658911 0 -0.0077990285558872836 0.00034496551845658834 0 -0.0035668633946319825 3.1494534450938299e-05 0 -0.0026785817646904951 0.00062769301655999613 0 -0.0096507688944870371 0.00068911705653588193 0 -0.0093058460896647491 0.00090613440846848783 0 -0.0094208988617904468 0.00050399987743211165 0 -0.0096507688944870371 0.00068911705653588193 0 -0.0094208988617904468 0.00050399987743211165 0 -0.0095492832689460395 0.00049130901042791417 0 -0.0035668633946319825 3.1494534450938299e-05 0 -0.009376937824515208 0.0013741246716075285 0 -0.0087169239383607742 0.0012054881129142838 0 -0.0087095801524593522 0.0011478906383778323 0 -0.008761056826924624 0.0011337012974827092 0 -0.0015594096949229849 -0.00022704423344012289 0 -0.001624750354114281 -0.00058163440252003535 0 -0.0018212024485596229 -0.00033008632157500881 0 -0.0088455473074234032 0.001170456739104249 0 -0.0087169239383607742 0.0012054881129142838 0 -0.008761056826924624 0.0011337012974827092 0 -0.0054942594238513998 0.00046035409222581857 0 -0.0035668633946319825 3.1494534450938299e-05 0 0.0041565011731265807 5.5553626163939799e-05 0 0.0039380774812801146 0.00030354276043223532 0 0.0039199673593750721 8.5997179892553717e-05 0 0.0019377053774457286 -0.00050532507982852741 0 -0.0035668633946319825 3.1494534450938299e-05 0 0.0039380774812801146 0.00030354276043223532 0 0.0039199673593750721 8.5997179892553717e-05 0 0.0037162277180570929 0.0002077227988610853 0 0.0037109424882147261 -1.1559416350780115e-05 0 0.0039199673593750721 8.5997179892553717e-05 0 0.0037162277180570929 0.0002077227988610853 0 0.0037109424882147261 -1.1559416350780115e-05 0 0.0037162277180570929 0.0002077227988610853 0 0.0034690613063108945 0.00013512064183908361 0 -0.00867190411958247 0.00074317305292539331 0 -0.0087619429049846133 0.001127127994339302 0 -0.0090164854654672232 0.000749068365674392 0 -0.0093058460896647491 0.00090613440846848783 0 -0.0087619429049846133 0.001127127994339302 0 -0.0090164854654672232 0.000749068365674392 0 -0.0026785817646904951 0.00062769301655999613 0 -0.0024302907462702846 0.000624681909401793 0 -0.00867190411958247 0.00074317305292539331 0 -0.0085904214270292999 0.00043345562556991029 0 -0.0089156127045922039 0.00042670831671456352 0 -0.00867190411958247 0.00074317305292539331 0 -0.0090164854654672232 0.000749068365674392 0 -0.0089156127045922039 0.00042670831671456352 0 -0.0093058460896647491 0.00090613440846848783 0 -0.0090164854654672232 0.000749068365674392 0 -0.0094208988617904468 0.00050399987743211165 0 -0.0090164854654672232 0.000749068365674392 0 -0.0094208988617904468 0.00050399987743211165 0 -0.0089156127045922039 0.00042670831671456352 0 -0.0094667211603182647 0.00048258503779922941 0 -0.0094564062029392111 0.00032189447991347455 0 -0.0094208988617904468 0.00050399987743211165 0 -0.009628294131255823 0.00049848054998091502 0 -0.0099374293845663625 0.00048104943886475226 0 -0.0094208988617904468 0.00050399987743211165 0 -0.0089156127045922039 0.00042670831671456352 0 -0.0090306142677221493 2.7878976264433599e-05 0 -0.0094208988617904468 0.00050399987743211165 0 -0.0095073326298581121 0.00049063959071767667 0 -0.009628294131255823 0.00049848054998091502 0 -0.009628294131255823 0.00049848054998091502 0 -0.009762357901248981 0.00049663441642260726 0 -0.0097613654611561247 0.00050430090756717371 0 -0.009628294131255823 0.00049848054998091502 0 -0.0095168086134846397 0.00053114252495957068 0 -0.0095245592279297568 0.00050193430500179584 0 -0.009623273157194117 0.00046036197123741038 0 -0.0093438103761168921 0.00069663639679363488 0 -0.0095073326298581121 0.00049063959071767667 0 -0.009628294131255823 0.00049848054998091502 0 -0.0095245592279297568 0.00050193430500179584 0 -0.0087120300957929716 0.00010226579256176856 0 -0.0089156127045922039 0.00042670831671456352 0 -0.0090306142677221493 2.7878976264433599e-05 0 -0.0085904214270292999 0.00043345562556991029 0 -0.0087120300957929716 0.00010226579256176856 0 -0.0089156127045922039 0.00042670831671456352 0 -0.0087120300957929716 0.00010226579256176856 0 -0.0090306142677221493 2.7878976264433599e-05 0 -0.0087180926691385573 -0.00041549977034830202 0 -0.0099374293845663625 0.00048104943886475226 0 -0.0098452085756564438 0.00052175085179461322 0 -0.010011190329898625 0.00061700372009759069 0 -0.009628294131255823 0.00049848054998091502 0 -0.009762357901248981 0.00049663441642260726 0 -0.0098452085756564438 0.00052175085179461322 0 -0.0097838202087215543 0.00051278165146570378 0 -0.009762357901248981 0.00049663441642260726 0 -0.0098452085756564438 0.00052175085179461322 0 -0.0097838202087215543 0.00051278165146570378 0 -0.009762357901248981 0.00049663441642260726 0 -0.0097664755847900967 0.00048758850306596183 0 -0.0093641046997075053 0.00069260969136511073 0 -0.0093438103761168921 0.00069663639679363488 0 -0.009628294131255823 0.00049848054998091502 0 -0.0099374293845663625 0.00048104943886475226 0 -0.0098452085756564438 0.00052175085179461322 0 -0.0097838202087215543 0.00051278165146570378 0 -0.0098452085756564438 0.00052175085179461322 0 -0.0097711519382012238 0.00055128186621722505 0 -0.0097664755847900967 0.00048758850306596183 0 -0.0096993296417834975 0.00055720602719575799 0 -0.0097711519382012238 0.00055128186621722505 0 -0.0086799002062794839 0.0010845519697772056 0 -0.0087592121236347714 0.001081074574601713 0 -0.0087773529007976903 0.0010010773085626272 0 -0.0093438103761168921 0.00069663639679363488 0 -0.009210621201627394 0.00080142491876445429 0 -0.0097838202087215543 0.00051278165146570378 0 -0.0097664755847900967 0.00048758850306596183 0 -0.0097711519382012238 0.00055128186621722505 0 -0.0086799002062794839 0.0010845519697772056 0 -0.0087282392741264165 0.0011122851728079094 0 -0.0087095801524593522 0.0011478906383778323 0 -0.0095168086134846397 0.00053114252495957068 0 -0.0095245592279297568 0.00050193430500179584 0 -0.0095492832689460395 0.00049130901042791417 0 -0.0086799002062794839 0.0010845519697772056 0 -0.0087282392741264165 0.0011122851728079094 0 -0.0087592121236347714 0.001081074574601713 0 -0.0093438103761168921 0.00069663639679363488 0 -0.009376937824515208 0.0013741246716075285 0 -0.0087282392741264165 0.0011122851728079094 0 -0.0087095801524593522 0.0011478906383778323 0 -0.008761056826924624 0.0011337012974827092 0 -0.0095073326298581121 0.00049063959071767667 0 -0.0095245592279297568 0.00050193430500179584 0 -0.0095492832689460395 0.00049130901042791417 0 -0.0094208988617904468 0.00050399987743211165 0 -0.0095073326298581121 0.00049063959071767667 0 -0.0095492832689460395 0.00049130901042791417 0 -0.0088455473074234032 0.001170456739104249 0 -0.008761056826924624 0.0011337012974827092 0 -0.0088192105771045595 0.0010881429975959029 0 -0.008761056826924624 0.0011337012974827092 0 -0.0088192105771045595 0.0010881429975959029 0 -0.0087592121236347714 0.001081074574601713 0 -0.0087282392741264165 0.0011122851728079094 0 -0.008761056826924624 0.0011337012974827092 0 -0.0087592121236347714 0.001081074574601713 0 -0.0088192105771045595 0.0010881429975959029 0 -0.0087592121236347714 0.001081074574601713 0 -0.0087773529007976903 0.0010010773085626272 0 -0.008902048908457711 0.0010466693857443567 0 -0.0088192105771045595 0.0010881429975959029 0 -0.0087773529007976903 0.0010010773085626272 0 -0.009210621201627394 0.00080142491876445429 0 -0.0092053457421703601 0.00080202011950165951 0 -0.009725279297466121 0.00070882974463520702 0 -0.0096755857113879594 0.00088917690902788203 0 -0.0095000043877094889 0.00066779183072237017 0 -0.0096993296417834975 0.00055720602719575799 0 -0.009725279297466121 0.00070882974463520702 0 -0.0095000043877094889 0.00066779183072237017 0 -0.0099604647793996616 0.00056222046117010449 0 -0.009459673451249196 0.0012017757667150842 0 -0.009725279297466121 0.00070882974463520702 0 -0.0098419723256424913 0.00064311086065895926 0 -0.0098611090926850678 0.00084815527678496557 0 -0.0096993296417834975 0.00055720602719575799 0 -0.009725279297466121 0.00070882974463520702 0 -0.0098419723256424913 0.00064311086065895926 0 -0.0096993296417834975 0.00055720602719575799 0 -0.0097711519382012238 0.00055128186621722505 0 -0.0098419723256424913 0.00064311086065895926 0 -0.0098452085756564438 0.00052175085179461322 0 -0.0099732875636871637 0.0006779789299458408 0 -0.010011190329898625 0.00061700372009759069 0 -0.0098452085756564438 0.00052175085179461322 0 -0.0097711519382012238 0.00055128186621722505 0 -0.0098419723256424913 0.00064311086065895926 0 -0.0098533817593645327 0.00056633001723889931 0 -0.0099604647793996616 0.00056222046117010449 0 -0.010011190329898625 0.00061700372009759069 0 -0.010121578609604715 0.00074202972373964391 0 -0.01019229374022824 0.00062597602898600455 0 -0.0099374293845663625 0.00048104943886475226 0 -0.010011190329898625 0.00061700372009759069 0 -0.01019229374022824 0.00062597602898600455 0 -0.0094564062029392111 0.00032189447991347455 0 -0.0097329100613209787 -0.00019221186992606016 0 -0.010121578609604715 0.00074202972373964391 0 -0.01019229374022824 0.00062597602898600455 0 -0.010246432532210642 0.00077606550583361321 0 -0.0099732875636871637 0.0006779789299458408 0 -0.010101350817241407 0.00082330794284031701 0 -0.010029855922735646 0.00081344482598427693 0 -0.0099732875636871637 0.0006779789299458408 0 -0.010011190329898625 0.00061700372009759069 0 -0.010121578609604715 0.00074202972373964391 0 -0.0099732875636871637 0.0006779789299458408 0 -0.010121578609604715 0.00074202972373964391 0 -0.010101350817241407 0.00082330794284031701 0 -0.010101350817241407 0.00082330794284031701 0 -0.010093647417210552 0.00086428564530263458 0 -0.01014279737913166 0.00090455982005443949 0 -0.010101350817241407 0.00082330794284031701 0 -0.010203531024832943 0.00086935884320444949 0 -0.01014279737913166 0.00090455982005443949 0 -0.010101350817241407 0.00082330794284031701 0 -0.010093647417210552 0.00086428564530263458 0 -0.010029855922735646 0.00081344482598427693 0 -0.010121578609604715 0.00074202972373964391 0 -0.010203531024832943 0.00086935884320444949 0 -0.010246432532210642 0.00077606550583361321 0 -0.010121578609604715 0.00074202972373964391 0 -0.010101350817241407 0.00082330794284031701 0 -0.010203531024832943 0.00086935884320444949 0 -0.010203531024832943 0.00086935884320444949 0 -0.010203075043363055 0.00094341314149295531 0 -0.010313102580660044 0.0009519735707384456 0 -0.010203531024832943 0.00086935884320444949 0 -0.010203075043363055 0.00094341314149295531 0 -0.01014279737913166 0.00090455982005443949 0 -0.010203075043363055 0.00094341314149295531 0 -0.010313102580660044 0.0009519735707384456 0 -0.010256731253672749 0.0010277118494472568 0 -0.010203075043363055 0.00094341314149295531 0 -0.01014279737913166 0.00090455982005443949 0 -0.010124977912979463 0.00095874521482380252 0 -0.010093647417210552 0.00086428564530263458 0 -0.01014279737913166 0.00090455982005443949 0 -0.010102275157816646 0.00091423068718573348 0 -0.01014279737913166 0.00090455982005443949 0 -0.010124977912979463 0.00095874521482380252 0 -0.010102275157816646 0.00091423068718573348 0 -0.014943252275875797 0.00043512201434352992 0 -0.011984524834870664 -0.00022412733026574747 0 -0.021813424632794041 -0.00090756851718933561 0 -0.02153312097713422 -0.001036021018005133 0 -0.021649763420059736 -0.00086961233205685225 0 -0.010102275157816646 0.00091423068718573348 0 -0.010069722559686023 0.00092239315209220513 0 -0.010029855922735646 0.00081344482598427693 0 -0.010146668191335573 0.00095157491379545245 0 -0.010102275157816646 0.00091423068718573348 0 -0.010069722559686023 0.00092239315209220513 0 -0.014943252275875797 0.00043512201434352992 0 -0.015451856159706694 0.00014572287079028961 0 -0.015451856159706694 0.00014572287079028961 0 -0.014976408259960546 -0.00038540070210705635 0 -0.021518362249931745 -0.0014910571357721481 0 -0.020810779546837292 -0.0013348796511998915 0 -0.020306009656331201 -0.0017879280281232893 0 -0.0098544909238270188 0.0011197168193734681 0 -0.0096755857113879594 0.00088917690902788203 0 -0.0095324496904679295 0.0010545997880487574 0 -0.021518362249931745 -0.0014910571357721481 0 -0.020810779546837292 -0.0013348796511998915 0 -0.021177332603130556 -0.0011529618234456212 0 -0.0096755857113879594 0.00088917690902788203 0 -0.0094538185602036362 0.00086769037622851553 0 -0.0095000043877094889 0.00066779183072237017 0 -0.0096755857113879594 0.00088917690902788203 0 -0.0095324496904679295 0.0010545997880487574 0 -0.0094538185602036362 0.00086769037622851553 0 -0.010093647417210552 0.00086428564530263458 0 -0.010102275157816646 0.00091423068718573348 0 -0.010029855922735646 0.00081344482598427693 0 -0.0098544909238270188 0.0011197168193734681 0 -0.0096755857113879594 0.00088917690902788203 0 -0.0098611090926850678 0.00084815527678496557 0 -0.015451856159706694 0.00014572287079028961 0 -0.009459673451249196 0.0012017757667150842 0 -0.009725279297466121 0.00070882974463520702 0 -0.0096755857113879594 0.00088917690902788203 0 -0.0098611090926850678 0.00084815527678496557 0 -0.014585022226891004 -0.00035135192496293108 0 -0.015044936404641671 0.00020515817197096532 0 -0.014912059884806518 -0.00043402397338685665 0 -0.014484845556556157 0.00027648012044707501 0 -0.014585022226891004 -0.00035135192496293108 0 -0.015044936404641671 0.00020515817197096532 0 -0.0077937977188028149 8.9753334884448886e-05 0 -0.0078652379100573027 0.0001667803492926032 0 -0.0080329195043376839 4.4447499149268166e-05 0 -0.011280503231019888 0.00019715289444228074 0 -0.010912235977077162 -0.00032639362420721491 0 -0.0078652379100573027 0.0001667803492926032 0 -0.0080329195043376839 4.4447499149268166e-05 0 -0.0079959728287103491 0.00012390837196318773 0 -0.010912235977077162 -0.00032639362420721491 0 -0.0094418419350762693 -0.00044397653318466168 0 -0.0080373426111520936 1.2117343850067423e-06 0 -0.0081534029929487099 9.0342158549902032e-05 0 -0.0082761017494815004 -1.9253113357137198e-05 0 -0.0080373426111520936 1.2117343850067423e-06 0 -0.0079959728287103491 0.00012390837196318773 0 -0.0081534029929487099 9.0342158549902032e-05 0 -0.010912235977077162 -0.00032639362420721491 0 -0.0092937390812548037 0.00047679971961146761 0 -0.011491755156149216 -0.00058620369915629274 0 -0.010995808030687046 -0.00056760008016718477 0 -0.011316845824190269 3.0878091727172507e-05 0 -0.015044936404641671 0.00020515817197096532 0 -0.015216525165236802 -0.00038451618849659849 0 -0.014912059884806518 -0.00043402397338685665 0 -0.010912235977077162 -0.00032639362420721491 0 -0.013417626263016728 -0.00028826413025525427 0 -0.0094418419350762693 -0.00044397653318466168 0 -0.013417626263016728 -0.00028826413025525427 0 -0.011050827657838061 -0.00082496362212902848 0 -0.010735372770924323 1.1623627877821655e-05 0 -0.01152237694912828 7.5330895497886563e-05 0 -0.0083319251383059695 7.5688524727084874e-05 0 -0.0094418419350762693 -0.00044397653318466168 0 -0.0083967267610230035 0.00019222904029271755 0 -0.0081534029929487099 9.0342158549902032e-05 0 -0.0082761017494815004 -1.9253113357137198e-05 0 -0.0084197063504880838 -2.1362866067547818e-06 0 -0.0082412981100284752 -0.00039248165346728308 0 -0.0087180926691385573 -0.00041549977034830202 0 -0.0094418419350762693 -0.00044397653318466168 0 -0.0097329100613209787 -0.00019221186992606016 0 -0.01019229374022824 0.00062597602898600455 0 -0.010368623765897035 0.00075846821193885307 0 -0.010246432532210642 0.00077606550583361321 0 -0.011050827657838061 -0.00082496362212902848 0 -0.010163664887609327 -0.00078622846981930708 0 -0.010735372770924323 1.1623627877821655e-05 0 -0.0097329100613209787 -0.00019221186992606016 0 -0.010425267072135239 0.00047899852526355266 0 -0.010203531024832943 0.00086935884320444949 0 -0.010246432532210642 0.00077606550583361321 0 -0.010348620462525908 0.00087503768245445152 0 -0.010368623765897035 0.00075846821193885307 0 -0.010246432532210642 0.00077606550583361321 0 -0.010348620462525908 0.00087503768245445152 0 -0.010203531024832943 0.00086935884320444949 0 -0.010313102580660044 0.0009519735707384456 0 -0.010348620462525908 0.00087503768245445152 0 -0.010313102580660044 0.0009519735707384456 0 -0.010348620462525908 0.00087503768245445152 0 -0.01042983182693941 0.00094911280391288494 0 -0.010313102580660044 0.0009519735707384456 0 -0.01042983182693941 0.00094911280391288494 0 -0.010412285452063505 0.0010218931656303179 0 -0.010348620462525908 0.00087503768245445152 0 -0.010515159797275195 0.00089694388103981173 0 -0.01042983182693941 0.00094911280391288494 0 -0.010368623765897035 0.00075846821193885307 0 -0.010348620462525908 0.00087503768245445152 0 -0.010515159797275195 0.00089694388103981173 0 -0.010735372770924323 1.1623627877821655e-05 0 -0.011305393159533194 0.00080316573272568557 0 -0.01152237694912828 7.5330895497886563e-05 0 -0.010425267072135239 0.00047899852526355266 0 -0.012600393620692436 9.2089086751296947e-05 0 -0.012600393620692436 9.2089086751296947e-05 0 -0.013417626263016728 -0.00028826413025525427 0 -0.013417626263016728 -0.00028826413025525427 0 -0.015041719466171803 -0.00074075215572251074 0 -0.015093259683658492 -0.00088325890495033455 0 -0.014999642647702208 -0.00061497662528317283 0 -0.014899221575094396 -0.00086020650321144611 0 -0.015216525165236802 -0.00038451618849659849 0 -0.015011306376478961 -0.00077262332147325281 0 -0.014912059884806518 -0.00043402397338685665 0 -0.015093259683658492 -0.00088325890495033455 0 -0.014899221575094396 -0.00086020650321144611 0 -0.014942541318236736 -0.0011667879696635741 0 -0.012600393620692436 9.2089086751296947e-05 0 -0.014805081117105157 -0.00072364245301763429 0 -0.014899221575094396 -0.00086020650321144611 0 -0.014801508038837738 -0.0011153782325567078 0 -0.014942541318236736 -0.0011667879696635741 0 -0.015011306376478961 -0.00077262332147325281 0 -0.014707134632589278 -0.00081975858654904541 0 -0.014801508038837738 -0.0011153782325567078 0 -0.015041719466171803 -0.00074075215572251074 0 -0.014800059034091768 -0.0011152159877403131 0 -0.014585022226891004 -0.00035135192496293108 0 -0.014707134632589278 -0.00081975858654904541 0 -0.014912059884806518 -0.00043402397338685665 0 -0.015011306376478961 -0.00077262332147325281 0 -0.014707134632589278 -0.00081975858654904541 0 -0.014912059884806518 -0.00043402397338685665 0 -0.014755871541797869 -0.0014874718577868101 0 -0.014760289233834271 -0.0012697646934935203 0 -0.014942541318236736 -0.0011667879696635741 0 -0.014581817790289546 -0.0011930737581677139 0 -0.014755871541797869 -0.0014874718577868101 0 -0.014760289233834271 -0.0012697646934935203 0 -0.015272998496971096 -0.0026344052934686845 0 -0.015168796299210344 -0.0031732734834474681 0 -0.015501718549646003 -0.0033073453397648609 0 -0.015607596423062491 -0.0015593396451900809 0 -0.014805081117105157 -0.00072364245301763429 0 -0.016535357470502339 -0.00061597478188335616 0 -0.015993462084306541 -0.00079437907755355159 0 -0.016379920791251088 -0.00029902973604336485 0 -0.014644044385584497 -7.9844947743670195e-05 0 -0.014632370655213061 -5.5912684767476286e-05 0 -0.014344183630989162 -0.00013993901039065641 0 -0.014930517093202372 -0.002011526822318328 0 -0.015607596423062491 -0.0015593396451900809 0 -0.015168796299210344 -0.0031732734834474681 0 -0.015501718549646003 -0.0033073453397648609 0 -0.015451856568774144 -0.0033800093936375663 0 -0.015607596423062491 -0.0015593396451900809 0 -0.015901525054171306 -0.0016824520836491951 0 -0.015901525054171306 -0.0016824520836491951 0 -0.015829647728117829 -0.0013110071007428929 0 -0.015813337841658431 -0.0013947115029523899 0 -0.015737787725946337 -0.0015046875495977436 0 -0.015849460475877958 -0.0014660185145027123 0 -0.017330610963577783 -0.0016225931367156198 0 -0.017184701358395008 -0.0016725521300186589 0 -0.016866717963853309 -0.001034118076926945 0 -0.015607596423062491 -0.0015593396451900809 0 -0.015829647728117829 -0.0013110071007428929 0 -0.014581817790289546 -0.0011930737581677139 0 -0.014707134632589278 -0.00081975858654904541 0 -0.014801508038837738 -0.0011153782325567078 0 -0.014581817790289546 -0.0011930737581677139 0 -0.014801508038837738 -0.0011153782325567078 0 -0.014760289233834271 -0.0012697646934935203 0 -0.014801508038837738 -0.0011153782325567078 0 -0.014760289233834271 -0.0012697646934935203 0 -0.014942541318236736 -0.0011667879696635741 0 -0.014188735421707226 -0.00066921685164629541 0 -0.01441431960556106 -0.00037459518343092315 0 -0.014252333935384019 -0.00035365470323241545 0 -0.01441431960556106 -0.00037459518343092315 0 -0.014252333935384019 -0.00035365470323241545 0 -0.014344183630989162 -0.00013993901039065641 0 -0.015829647728117829 -0.0013110071007428929 0 -0.015323522062462149 -0.00041537490874945214 0 -0.015993462084306541 -0.00079437907755355159 0 -0.015445632790581859 -0.00056227585771402382 0 -0.016379920791251088 -0.00029902973604336485 0 -0.014644044385584497 -7.9844947743670195e-05 0 -0.01441431960556106 -0.00037459518343092315 0 -0.014344183630989162 -0.00013993901039065641 0 -0.015993462084306541 -0.00079437907755355159 0 -0.015384559013605432 -0.00075402057928388984 0 -0.015448233316771998 -0.00097228721329784332 0 -0.015323522062462149 -0.00041537490874945214 0 -0.013513936437324105 0.00029093495693898521 0 -0.015993462084306541 -0.00079437907755355159 0 -0.015445632790581859 -0.00056227585771402382 0 -0.015384559013605432 -0.00075402057928388984 0 -0.017595325703465624 -0.00024916543106524142 0 -0.017478848451357047 -0.00028370042352770847 0 -0.017401943283796413 -1.5416068449294429e-05 0 -0.016522968022606374 -0.00069535037619373921 0 -0.016330300470463563 -0.00055168756640373558 0 -0.015868036375986248 -0.00057133888053872344 0 -0.015859259912051511 -0.00057372122288706516 0 -0.015861124144639586 -0.0005858702071078819 0 -0.016330300470463563 -0.00055168756640373558 0 -0.015146298332590924 -0.00047412109080431907 0 -0.016522968022606374 -0.00069535037619373921 0 -0.015146298332590924 -0.00047412109080431907 0 -0.015146298332590924 -0.00047412109080431907 0 -0.012983233362460191 0.00037998227522957682 0 -0.015146298332590924 -0.00047412109080431907 0 -0.013513936437324105 0.00029093495693898521 0 -0.014018217251847912 -8.1746716758150485e-05 0 -0.013945851959313117 0.00014179297687074186 0 -0.01409320456686055 0.0001934860270842262 0 -0.010515159797275195 0.00089694388103981173 0 -0.01042983182693941 0.00094911280391288494 0 -0.010478675706749761 0.0010904310542419163 0 -0.01042983182693941 0.00094911280391288494 0 -0.010478675706749761 0.0010904310542419163 0 -0.010412285452063505 0.0010218931656303179 0 -0.014188735421707226 -0.00066921685164629541 0 -0.014252333935384019 -0.00035365470323241545 0 -0.014062615783815043 -0.0002290411370647228 0 -0.014252333935384019 -0.00035365470323241545 0 -0.014344183630989162 -0.00013993901039065641 0 -0.014062615783815043 -0.0002290411370647228 0 -0.012600393620692436 9.2089086751296947e-05 0 -0.013513936437324105 0.00029093495693898521 0 -0.010478675706749761 0.0010904310542419163 0 -0.01044344513747735 0.0010797676585114779 0 -0.010412285452063505 0.0010218931656303179 0 -0.013513936437324105 0.00029093495693898521 0 -0.012983233362460191 0.00037998227522957682 0 -0.010313102580660044 0.0009519735707384456 0 -0.010412285452063505 0.0010218931656303179 0 -0.010256731253672749 0.0010277118494472568 0 -0.012983233362460191 0.00037998227522957682 0 -0.01164192776594402 0.00068108107001030327 0 -0.012983233362460191 0.00037998227522957682 0 -0.012894146925929214 0.00032650441365409766 0 -0.010443924997157312 0.0010907039885893542 0 -0.010412285452063505 0.0010218931656303179 0 -0.010256731253672749 0.0010277118494472568 0 -0.015500205544368723 -0.00043375125845528394 0 -0.015741213365804505 -0.00057534643364146 0 -0.016131954180414586 -0.00025182463568196187 0 -0.015936431854146445 -0.0006914139944174698 0 -0.015741213365804505 -0.00057534643364146 0 -0.016095450549122151 -0.00049913010778304006 0 -0.016330300470463563 -0.00055168756640373558 0 -0.016458487541594975 -0.00053558718107404694 0 -0.017470945283647229 -0.00026890785911013875 0 -0.016934214744044742 -0.00040585120818807565 0 -0.01713600923967477 -0.00014406570130514029 0 -0.015478288743732934 -0.00082239564222719218 0 -0.015936431854146445 -0.0006914139944174698 0 -0.015741213365804505 -0.00057534643364146 0 -0.015431527748254398 -0.00067736044848353612 0 -0.015500205544368723 -0.00043375125845528394 0 -0.015741213365804505 -0.00057534643364146 0 -0.015478288743732934 -0.00082239564222719218 0 -0.015431527748254398 -0.00067736044848353612 0 -0.015741213365804505 -0.00057534643364146 0 -0.016934214744044742 -0.00040585120818807565 0 -0.01713600923967477 -0.00014406570130514029 0 -0.016736193497357492 1.9651074673157139e-06 0 -0.017401943283796413 -1.5416068449294429e-05 0 -0.017089556744107254 0.00011528272624478858 0 -0.017141570907971367 0.00063083810478549625 0 -0.017089556744107254 0.00011528272624478858 0 -0.017141570907971367 0.00063083810478549625 0 -0.016736193497357492 1.9651074673157139e-06 0 -0.019626158051852922 -7.8082815191464383e-05 0 -0.019350572286634126 -0.00022631644823043577 0 -0.01713600923967477 -0.00014406570130514029 0 -0.017089556744107254 0.00011528272624478858 0 -0.016736193497357492 1.9651074673157139e-06 0 -0.01713600923967477 -0.00014406570130514029 0 -0.017401943283796413 -1.5416068449294429e-05 0 -0.017089556744107254 0.00011528272624478858 0 -0.017470945283647229 -0.00026890785911013875 0 -0.01713600923967477 -0.00014406570130514029 0 -0.017401943283796413 -1.5416068449294429e-05 0 -0.022052383978761844 -0.00036686077862264275 0 -0.02204725463966908 -0.00035819874360507221 0 -0.022085460393026116 -0.00031143894164465671 0 -0.022052383978761844 -0.00036686077862264275 0 -0.02204725463966908 -0.00035819874360507221 0 -0.022031224683229902 -0.00038457530106229815 0 -0.019626158051852922 -7.8082815191464383e-05 0 -0.01933584943937797 0.00061146575737944795 0 -0.017141570907971367 0.00063083810478549625 0 -0.017807329492894892 0.00040747538825316575 0 -0.018018445908429929 0.001060953108833909 0 -0.017821203436290078 -0.00011652300139736551 0 -0.01933584943937797 0.00061146575737944795 0 -0.016522968022606374 -0.00069535037619373921 0 -0.017821203436290078 -0.00011652300139736551 0 -0.017595325703465624 -0.00024916543106524142 0 -0.017401943283796413 -1.5416068449294429e-05 0 -0.017807329492894892 0.00040747538825316575 0 -0.017546707295949145 -0.001624936268134994 0 -0.017862790915895137 -0.00059418317849931209 0 -0.018514266081871702 -0.0005980611574188117 0 -0.017401943283796413 -1.5416068449294429e-05 0 -0.017141570907971367 0.00063083810478549625 0 -0.017807329492894892 0.00040747538825316575 0 -0.016330300470463563 -0.00055168756640373558 0 -0.016800661571040754 -0.00030121914808947246 0 -0.016522968022606374 -0.00069535037619373921 0 -0.017723633806135057 -0.00098484040846483819 0 -0.017546707295949145 -0.001624936268134994 0 -0.018514266081871702 -0.0005980611574188117 0 -0.01912267976840698 -0.0011725397462276001 0 -0.018954853494033069 -0.00083356983708170467 0 -0.018514266081871702 -0.0005980611574188117 0 -0.01912267976840698 -0.0011725397462276001 0 -0.018514266081871702 -0.0005980611574188117 0 -0.018775333434843368 -5.7679892577300023e-05 0 -0.018177203081959539 0.00045020325118657294 0 -0.017862790915895137 -0.00059418317849931209 0 -0.018514266081871702 -0.0005980611574188117 0 -0.018177203081959539 0.00045020325118657294 0 -0.018514266081871702 -0.0005980611574188117 0 -0.018775333434843368 -5.7679892577300023e-05 0 -0.019163123193663652 -0.00033091510237934603 0 -0.018954853494033069 -0.00083356983708170467 0 -0.018514266081871702 -0.0005980611574188117 0 -0.019163123193663652 -0.00033091510237934603 0 -0.018954853494033069 -0.00083356983708170467 0 -0.019163123193663652 -0.00033091510237934603 0 -0.019469780192590401 -0.00066129230436927074 0 -0.019163123193663652 -0.00033091510237934603 0 -0.019687501530587511 -0.00036209052459184205 0 -0.019469780192590401 -0.00066129230436927074 0 -0.018775333434843368 -5.7679892577300023e-05 0 -0.019163123193663652 -0.00033091510237934603 0 -0.019210573839707971 3.2586896129099057e-05 0 -0.018775333434843368 -5.7679892577300023e-05 0 -0.019210573839707971 3.2586896129099057e-05 0 -0.019234259934129413 0.00044515380600147845 0 -0.019163123193663652 -0.00033091510237934603 0 -0.019210573839707971 3.2586896129099057e-05 0 -0.019545998249723386 -8.3911237678131986e-07 0 -0.019210573839707971 3.2586896129099057e-05 0 -0.019545998249723386 -8.3911237678131986e-07 0 -0.019473172735573013 0.00024345879483856421 0 -0.020036332431372535 -0.00014929086254865517 0 -0.019848397395155881 0.00018705837787279329 0 -0.019545998249723386 -8.3911237678131986e-07 0 -0.020036332431372535 -0.00014929086254865517 0 -0.019545998249723386 -8.3911237678131986e-07 0 -0.019687501530587511 -0.00036209052459184205 0 -0.019848397395155881 0.00018705837787279329 0 -0.019545998249723386 -8.3911237678131986e-07 0 -0.019473172735573013 0.00024345879483856421 0 -0.020068503270323886 -0.00091131627733224887 0 -0.019687501530587511 -0.00036209052459184205 0 -0.019469780192590401 -0.00066129230436927074 0 -0.019163123193663652 -0.00033091510237934603 0 -0.019545998249723386 -8.3911237678131986e-07 0 -0.019687501530587511 -0.00036209052459184205 0 -0.017966609536956165 -0.00070974332137250086 0 -0.017330610963577783 -0.0016225931367156198 0 -0.016866717963853309 -0.001034118076926945 0 -0.020068503270323886 -0.00091131627733224887 0 -0.019469780192590401 -0.00066129230436927074 0 -0.019128090022236706 -0.0011833828071044674 0 -0.018815776440132236 -0.00095041988075377187 0 -0.017723633806135057 -0.00098484040846483819 0 -0.018954853494033069 -0.00083356983708170467 0 -0.019469780192590401 -0.00066129230436927074 0 -0.019128090022236706 -0.0011833828071044674 0 -0.018312649196946015 -0.0012059336155936817 0 -0.017723633806135057 -0.00098484040846483819 0 -0.015829647728117829 -0.0013110071007428929 0 -0.017723633806135057 -0.00098484040846483819 0 -0.018815776440132236 -0.00095041988075377187 0 -0.015901525054171306 -0.0016824520836491951 0 -0.021642131501232439 -0.00058345508146572271 0 -0.021845031798733358 -0.00049300763523613047 0 -0.021762119011383595 -0.00066170219920888009 0 -0.021642131501232439 -0.00058345508146572271 0 -0.021845031798733358 -0.00049300763523613047 0 -0.021712067499477114 -0.00047058791126071691 0 -0.021642131501232439 -0.00058345508146572271 0 -0.021516886287729579 -0.00072650225588102271 0 -0.02151754441012433 -0.00051891445183712868 0 -0.021712067499477114 -0.00047058791126071691 0 -0.021671910464017723 -0.00037658905011867617 0 -0.02151754441012433 -0.00051891445183712868 0 -0.021642131501232439 -0.00058345508146572271 0 -0.021712067499477114 -0.00047058791126071691 0 -0.02151754441012433 -0.00051891445183712868 0 -0.02149346499424018 -0.00072237433131797416 0 -0.020903815883693493 -0.00038560129751298648 0 -0.020810779546837292 -0.0013348796511998915 0 -0.020658176085701436 -0.00075066082399840163 0 -0.019989473133088149 -0.00096803357799168444 0 -0.020658176085701436 -0.00075066082399840163 0 -0.021516886287729579 -0.00072650225588102271 0 -0.020238277757289133 -0.00021846962294268685 0 -0.020810779546837292 -0.0013348796511998915 0 -0.020658176085701436 -0.00075066082399840163 0 -0.02106932577891444 -0.00096135679974179125 0 -0.020658176085701436 -0.00075066082399840163 0 -0.02106932577891444 -0.00096135679974179125 0 -0.021516886287729579 -0.00072650225588102271 0 -0.02106932577891444 -0.00096135679974179125 0 -0.021177332603130556 -0.0011529618234456212 0 -0.021436376482702926 -0.00082300884021567489 0 -0.02106932577891444 -0.00096135679974179125 0 -0.021436376482702926 -0.00082300884021567489 0 -0.021516886287729579 -0.00072650225588102271 0 -0.020810779546837292 -0.0013348796511998915 0 -0.02106932577891444 -0.00096135679974179125 0 -0.021177332603130556 -0.0011529618234456212 0 -0.021518362249931745 -0.0014910571357721481 0 -0.021177332603130556 -0.0011529618234456212 0 -0.021436376482702926 -0.00082300884021567489 0 -0.02153312097713422 -0.001036021018005133 0 -0.021572103086009216 -0.00082920164251715819 0 -0.021436376482702926 -0.00082300884021567489 0 -0.02153312097713422 -0.001036021018005133 0 -0.021572103086009216 -0.00082920164251715819 0 -0.021649763420059736 -0.00086961233205685225 0 -0.015451856159706694 0.00014572287079028961 0 -0.020399197061549555 -0.0018843704677050073 0 -0.021572103086009216 -0.00082920164251715819 0 -0.021436376482702926 -0.00082300884021567489 0 -0.021516886287729579 -0.00072650225588102271 0 -0.021642131501232439 -0.00058345508146572271 0 -0.021516886287729579 -0.00072650225588102271 0 -0.021645371050801644 -0.00070936819542126201 0 -0.021572103086009216 -0.00082920164251715819 0 -0.021516886287729579 -0.00072650225588102271 0 -0.021645371050801644 -0.00070936819542126201 0 -0.021762119011383595 -0.00066170219920888009 0 -0.021645371050801644 -0.00070936819542126201 0 -0.021649763420059736 -0.00086961233205685225 0 -0.021642131501232439 -0.00058345508146572271 0 -0.021762119011383595 -0.00066170219920888009 0 -0.021645371050801644 -0.00070936819542126201 0 -0.021572103086009216 -0.00082920164251715819 0 -0.021645371050801644 -0.00070936819542126201 0 -0.021649763420059736 -0.00086961233205685225 0 -0.021813424632794041 -0.00090756851718933561 0 -0.021762119011383595 -0.00066170219920888009 0 -0.021649763420059736 -0.00086961233205685225 0 -0.014943252275875797 0.00043512201434352992 0 -0.012894146925929214 0.00032650441365409766 0 -0.021813424632794041 -0.00090756851718933561 0 -0.021762119011383595 -0.00066170219920888009 0 -0.021984839434840642 -0.00059423486226666618 0 -0.014943252275875797 0.00043512201434352992 0 -0.019575430058854686 -0.00045047007657406324 0 -0.016635212068795195 -8.5174874270000912e-05 0 -0.016131954180414586 -0.00025182463568196187 0 -0.016378169329977838 -0.00053690600625645095 0 -0.010203075043363055 0.00094341314149295531 0 -0.010124977912979463 0.00095874521482380252 0 -0.010256731253672749 0.0010277118494472568 0 -0.016131954180414586 -0.00025182463568196187 0 -0.016095450549122151 -0.00049913010778304006 0 -0.016406068699179037 -0.00051636526046705685 0 -0.016131954180414586 -0.00025182463568196187 0 -0.016406068699179037 -0.00051636526046705685 0 -0.016378169329977838 -0.00053690600625645095 0 -0.015741213365804505 -0.00057534643364146 0 -0.016131954180414586 -0.00025182463568196187 0 -0.016095450549122151 -0.00049913010778304006 0 -0.021984839434840642 -0.00059423486226666618 0 -0.021995479896012197 -0.00040156314989724394 0 -0.022044059300607155 -0.0004291227799581748 0 -0.015936431854146445 -0.0006914139944174698 0 -0.016095450549122151 -0.00049913010778304006 0 -0.016406068699179037 -0.00051636526046705685 0 -0.016406068699179037 -0.00051636526046705685 0 -0.016378169329977838 -0.00053690600625645095 0 -0.016736193497357492 1.9651074673157139e-06 0 -0.019575430058854686 -0.00045047007657406324 0 -0.019350572286634126 -0.00022631644823043577 0 -0.016934214744044742 -0.00040585120818807565 0 -0.016406068699179037 -0.00051636526046705685 0 -0.016736193497357492 1.9651074673157139e-06 0 -0.016458487541594975 -0.00053558718107404694 0 -0.016405257648922488 -0.0005310262108979524 0 -0.021845031798733358 -0.00049300763523613047 0 -0.021762119011383595 -0.00066170219920888009 0 -0.021984839434840642 -0.00059423486226666618 0 -0.021845031798733358 -0.00049300763523613047 0 -0.021984839434840642 -0.00059423486226666618 0 -0.021995479896012197 -0.00040156314989724394 0 -0.021845031798733358 -0.00049300763523613047 0 -0.021995479896012197 -0.00040156314989724394 0 -0.021994539879410305 -0.00035752591812103425 0 -0.022052383978761844 -0.00036686077862264275 0 -0.022044059300607155 -0.0004291227799581748 0 -0.022031224683229902 -0.00038457530106229815 0 -0.021995479896012197 -0.00040156314989724394 0 -0.022044059300607155 -0.0004291227799581748 0 -0.022031224683229902 -0.00038457530106229815 0 -0.021995479896012197 -0.00040156314989724394 0 -0.022031224683229902 -0.00038457530106229815 0 -0.022020574518956743 -0.00035553029813420429 0 -0.02204725463966908 -0.00035819874360507221 0 -0.022031224683229902 -0.00038457530106229815 0 -0.022020574518956743 -0.00035553029813420429 0 -0.023098927988127273 -6.523837575358771e-05 0 -0.022733684591463393 -6.2229197754335683e-05 0 -0.021994539879410305 -0.00035752591812103425 0 -0.022584819453082355 -0.00023005855696450484 0 -0.022026291125274447 -0.00035234487788908249 0 -0.021995479896012197 -0.00040156314989724394 0 -0.022020574518956743 -0.00035553029813420429 0 -0.021994539879410305 -0.00035752591812103425 0 -0.022733684591463393 -6.2229197754335683e-05 0 -0.021994539879410305 -0.00035752591812103425 0 -0.022054323030945538 3.8069521100081126e-05 0 -0.021994539879410305 -0.00035752591812103425 0 -0.022054323030945538 3.8069521100081126e-05 0 -0.021777161725659341 -3.3960229764318465e-05 0 -0.021994539879410305 -0.00035752591812103425 0 -0.021750301918239366 -0.00024463600647257867 0 -0.021777161725659341 -3.3960229764318465e-05 0 -0.021994539879410305 -0.00035752591812103425 0 -0.021671910464017723 -0.00037658905011867617 0 -0.021750301918239366 -0.00024463600647257867 0 -0.021712067499477114 -0.00047058791126071691 0 -0.021994539879410305 -0.00035752591812103425 0 -0.021671910464017723 -0.00037658905011867617 0 -0.021845031798733358 -0.00049300763523613047 0 -0.021712067499477114 -0.00047058791126071691 0 -0.021994539879410305 -0.00035752591812103425 0 -0.021671910464017723 -0.00037658905011867617 0 -0.021507110036593207 -0.00031308183045713751 0 -0.02151754441012433 -0.00051891445183712868 0 -0.021671910464017723 -0.00037658905011867617 0 -0.0215879385027372 -0.00019989012529392499 0 -0.021507110036593207 -0.00031308183045713751 0 -0.0215879385027372 -0.00019989012529392499 0 -0.021528870557864063 2.9883996309855646e-05 0 -0.021777161725659341 -3.3960229764318465e-05 0 -0.021671910464017723 -0.00037658905011867617 0 -0.0215879385027372 -0.00019989012529392499 0 -0.021750301918239366 -0.00024463600647257867 0 -0.0215879385027372 -0.00019989012529392499 0 -0.021750301918239366 -0.00024463600647257867 0 -0.021777161725659341 -3.3960229764318465e-05 0 -0.0215879385027372 -0.00019989012529392499 0 -0.021442950992957153 -0.00018741357870324777 0 -0.021528870557864063 2.9883996309855646e-05 0 -0.0215879385027372 -0.00019989012529392499 0 -0.021442950992957153 -0.00018741357870324777 0 -0.021507110036593207 -0.00031308183045713751 0 -0.021371172324495941 -0.00020526313237514163 0 -0.021367758108762305 -0.00014649921990384781 0 -0.021442950992957153 -0.00018741357870324777 0 -0.021380641563922664 -0.00021926733625069606 0 -0.021328720288546103 5.998043151353958e-05 0 -0.021380641563922664 -0.00021926733625069606 0 -0.021488004773822289 -0.00033616780744864056 0 -0.021371293044452056 -0.00036883134042265883 0 -0.021442950992957153 -0.00018741357870324777 0 -0.021380641563922664 -0.00021926733625069606 0 -0.021353732148417896 -0.0002809205606812808 0 -0.021442950992957153 -0.00018741357870324777 0 -0.021353732148417896 -0.0002809205606812808 0 -0.021507110036593207 -0.00031308183045713751 0 -0.021353732148417896 -0.0002809205606812808 0 -0.021507110036593207 -0.00031308183045713751 0 -0.02151754441012433 -0.00051891445183712868 0 -0.018594309273479621 0.00039596337840914922 0 -0.018106830067440991 0.00026315135714719419 0 -0.017991985644963831 0.00062540370546361359 0 -0.021515789552074095 -0.00017896546018317898 0 -0.021815295450343053 -0.00027652048781016671 0 -0.021636811824589916 -0.00034369839766825496 0 -0.020069424457131856 9.6475920515202407e-05 0 -0.019904019465971801 0.00015927011278326142 0 -0.021515789552074095 -0.00017896546018317898 0 -0.021636811824589916 -0.00034369839766825496 0 -0.021488004773822289 -0.00033616780744864056 0 -0.021380641563922664 -0.00021926733625069606 0 -0.021515789552074095 -0.00017896546018317898 0 -0.021488004773822289 -0.00033616780744864056 0 -0.020363382902786862 -9.0413393705183082e-05 0 -0.020069424457131856 9.6475920515202407e-05 0 -0.019333344438337292 0.00011243850027679858 0 -0.018793708829826738 -2.400470259245281e-05 0 -0.019070594656127385 -0.00019405435990132267 0 -0.018594309273479621 0.00039596337840914922 0 -0.018793708829826738 -2.400470259245281e-05 0 -0.018318796901748809 -0.00013437546114824378 0 -0.019333344438337292 0.00011243850027679858 0 -0.018594309273479621 0.00039596337840914922 0 -0.018793708829826738 -2.400470259245281e-05 0 -0.021380641563922664 -0.00021926733625069606 0 -0.021353732148417896 -0.0002809205606812808 0 -0.021515789552074095 -0.00017896546018317898 0 -0.018594309273479621 0.00039596337840914922 0 -0.018318796901748809 -0.00013437546114824378 0 -0.018106830067440991 0.00026315135714719419 0 -0.018318796901748809 -0.00013437546114824378 0 -0.018118765996672906 -0.00045814372209515065 0 -0.018399542187966234 -0.00053558184787210242 0 -0.018118765996672906 -0.00045814372209515065 0 -0.018210682459956253 -0.00067909010499969061 0 -0.017954126157753828 -0.00064047720790078846 0 -0.018118765996672906 -0.00045814372209515065 0 -0.018399542187966234 -0.00053558184787210242 0 -0.018210682459956253 -0.00067909010499969061 0 -0.018318796901748809 -0.00013437546114824378 0 -0.018118765996672906 -0.00045814372209515065 0 -0.017880269294967523 -0.00026617059330003175 0 -0.018318796901748809 -0.00013437546114824378 0 -0.018399542187966234 -0.00053558184787210242 0 -0.018686409741289971 -0.00034369228667081273 0 -0.018399542187966234 -0.00053558184787210242 0 -0.018686409741289971 -0.00034369228667081273 0 -0.018689711303406235 -0.00072399367009435417 0 -0.018686409741289971 -0.00034369228667081273 0 -0.019017310275444024 -0.0005180244423572762 0 -0.018689711303406235 -0.00072399367009435417 0 -0.018793708829826738 -2.400470259245281e-05 0 -0.018318796901748809 -0.00013437546114824378 0 -0.018686409741289971 -0.00034369228667081273 0 -0.018793708829826738 -2.400470259245281e-05 0 -0.018686409741289971 -0.00034369228667081273 0 -0.019070594656127385 -0.00019405435990132267 0 -0.018686409741289971 -0.00034369228667081273 0 -0.019070594656127385 -0.00019405435990132267 0 -0.019017310275444024 -0.0005180244423572762 0 -0.019017310275444024 -0.0005180244423572762 0 -0.018689711303406235 -0.00072399367009435417 0 -0.019123627457565365 -0.0009707541231120866 0 -0.018689711303406235 -0.00072399367009435417 0 -0.019123627457565365 -0.0009707541231120866 0 -0.018617305242264452 -0.0011520457291967045 0 -0.018399542187966234 -0.00053558184787210242 0 -0.018689711303406235 -0.00072399367009435417 0 -0.018346005000947938 -0.00088488228472922113 0 -0.018399542187966234 -0.00053558184787210242 0 -0.018346005000947938 -0.00088488228472922113 0 -0.018210682459956253 -0.00067909010499969061 0 -0.018346005000947938 -0.00088488228472922113 0 -0.018617305242264452 -0.0011520457291967045 0 -0.018274519182211329 -0.001260185760017552 0 -0.018689711303406235 -0.00072399367009435417 0 -0.018346005000947938 -0.00088488228472922113 0 -0.018617305242264452 -0.0011520457291967045 0 -0.018346005000947938 -0.00088488228472922113 0 -0.018059741553123503 -0.0010805301665748374 0 -0.018011101321866906 -0.00082834036112410295 0 -0.018346005000947938 -0.00088488228472922113 0 -0.018059741553123503 -0.0010805301665748374 0 -0.018274519182211329 -0.001260185760017552 0 -0.018346005000947938 -0.00088488228472922113 0 -0.018210682459956253 -0.00067909010499969061 0 -0.018011101321866906 -0.00082834036112410295 0 -0.020238277757289133 -0.00021846962294268685 0 -0.01953047943708066 -0.00039067238591548496 0 -0.019989473133088149 -0.00096803357799168444 0 -0.020363382902786862 -9.0413393705183082e-05 0 -0.020903815883693493 -0.00038560129751298648 0 -0.019333344438337292 0.00011243850027679858 0 -0.020238277757289133 -0.00021846962294268685 0 -0.01953047943708066 -0.00039067238591548496 0 -0.019333344438337292 0.00011243850027679858 0 -0.019070594656127385 -0.00019405435990132267 0 -0.01953047943708066 -0.00039067238591548496 0 -0.019070594656127385 -0.00019405435990132267 0 -0.019017310275444024 -0.0005180244423572762 0 -0.01953047943708066 -0.00039067238591548496 0 -0.019123627457565365 -0.0009707541231120866 0 -0.019989473133088149 -0.00096803357799168444 0 -0.019506194595582196 -0.0014471714215269296 0 -0.01953047943708066 -0.00039067238591548496 0 -0.019123627457565365 -0.0009707541231120866 0 -0.019989473133088149 -0.00096803357799168444 0 -0.019017310275444024 -0.0005180244423572762 0 -0.01953047943708066 -0.00039067238591548496 0 -0.019123627457565365 -0.0009707541231120866 0 -0.020658176085701436 -0.00075066082399840163 0 -0.020238277757289133 -0.00021846962294268685 0 -0.019989473133088149 -0.00096803357799168444 0 -0.020810779546837292 -0.0013348796511998915 0 -0.019989473133088149 -0.00096803357799168444 0 -0.020306009656331201 -0.0017879280281232893 0 -0.019989473133088149 -0.00096803357799168444 0 -0.020306009656331201 -0.0017879280281232893 0 -0.019506194595582196 -0.0014471714215269296 0 -0.020306009656331201 -0.0017879280281232893 0 -0.019319614274059937 -0.0019649996074185827 0 -0.019506194595582196 -0.0014471714215269296 0 -0.014976408259960546 -0.00038540070210705635 0 -0.014123623100877482 -0.00054411342303864213 0 -0.0095324496904679295 0.0010545997880487574 0 -0.0094538185602036362 0.00086769037622851553 0 -0.0091220169661396025 0.00089947648618719106 0 -0.0091153940595162537 0.00090284141694286721 0 -0.0092053457421703601 0.00080202011950165951 0 -0.0094538185602036362 0.00086769037622851553 0 -0.0091220169661396025 0.00089947648618719106 0 -0.0095000043877094889 0.00066779183072237017 0 -0.0090652420881857636 0.00090844288371129801 0 -0.0091220169661396025 0.00089947648618719106 0 -0.0089158437346276327 0.00092299097650098277 0 -0.0095324496904679295 0.0010545997880487574 0 -0.0091220169661396025 0.00089947648618719106 0 -0.0090761475560867007 0.00091149497425085729 0 -0.0090652420881857636 0.00090844288371129801 0 -0.0091220169661396025 0.00089947648618719106 0 -0.0090761475560867007 0.00091149497425085729 0 -0.019123627457565365 -0.0009707541231120866 0 -0.019506194595582196 -0.0014471714215269296 0 -0.018904694863429092 -0.001550376708924772 0 -0.019319614274059937 -0.0019649996074185827 0 -0.019506194595582196 -0.0014471714215269296 0 -0.018904694863429092 -0.001550376708924772 0 -0.019123627457565365 -0.0009707541231120866 0 -0.018617305242264452 -0.0011520457291967045 0 -0.018904694863429092 -0.001550376708924772 0 -0.018617305242264452 -0.0011520457291967045 0 -0.018904694863429092 -0.001550376708924772 0 -0.018412266132641564 -0.0015944846025862387 0 -0.018274519182211329 -0.001260185760017552 0 -0.018071952107513001 -0.0015558141167497013 0 -0.017986469076137688 -0.0013109439970835984 0 -0.018059741553123503 -0.0010805301665748374 0 -0.018274519182211329 -0.001260185760017552 0 -0.017986469076137688 -0.0013109439970835984 0 -0.018617305242264452 -0.0011520457291967045 0 -0.018274519182211329 -0.001260185760017552 0 -0.018412266132641564 -0.0015944846025862387 0 -0.018274519182211329 -0.001260185760017552 0 -0.018412266132641564 -0.0015944846025862387 0 -0.018071952107513001 -0.0015558141167497013 0 -0.018412266132641564 -0.0015944846025862387 0 -0.018106066975326351 -0.0018926392687577916 0 -0.018503628422679674 -0.0021447437546434798 0 -0.018106066975326351 -0.0018926392687577916 0 -0.018503628422679674 -0.0021447437546434798 0 -0.017708858770853587 -0.0023712590339245395 0 -0.018412266132641564 -0.0015944846025862387 0 -0.018071952107513001 -0.0015558141167497013 0 -0.018106066975326351 -0.0018926392687577916 0 -0.018071952107513001 -0.0015558141167497013 0 -0.018106066975326351 -0.0018926392687577916 0 -0.017810985940368569 -0.0017663014362631875 0 -0.018904694863429092 -0.001550376708924772 0 -0.018412266132641564 -0.0015944846025862387 0 -0.018503628422679674 -0.0021447437546434798 0 -0.019319614274059937 -0.0019649996074185827 0 -0.018904694863429092 -0.001550376708924772 0 -0.018503628422679674 -0.0021447437546434798 0 -0.014123623100877482 -0.00054411342303864213 0 -0.014237192713272808 -0.00057565737721540478 0 -0.0090652420881857636 0.00090844288371129801 0 -0.0090761475560867007 0.00091149497425085729 0 -0.0091080163643999859 0.00090390017175014743 0 -0.0091080163643999859 0.00090390017175014743 0 -0.0090516870248434651 0.0009480665154823376 0 -0.0090923453271943705 0.00094939127949572621 0 -0.0090652420881857636 0.00090844288371129801 0 -0.0091080163643999859 0.00090390017175014743 0 -0.0090516870248434651 0.0009480665154823376 0 -0.0090923453271943705 0.00094939127949572621 0 -0.0091001452569661918 0.00097460125565844511 0 -0.0091710798861761485 0.0009162304529487437 0 -0.0091080163643999859 0.00090390017175014743 0 -0.0090923453271943705 0.00094939127949572621 0 -0.0091710798861761485 0.0009162304529487437 0 -0.014237192713272808 -0.00057565737721540478 0 -0.011244124021626637 -0.00039617935847987255 0 -0.0090923453271943705 0.00094939127949572621 0 -0.0091001452569661918 0.00097460125565844511 0 -0.0090539101882155873 0.00099646212002897335 0 -0.0091001452569661918 0.00097460125565844511 0 -0.0090729167367865522 0.0010150732404204952 0 -0.0090539101882155873 0.00099646212002897335 0 -0.0090342485897848268 0.0010463571300466969 0 -0.0090729167367865522 0.0010150732404204952 0 -0.0090539101882155873 0.00099646212002897335 0 -0.0091001452569661918 0.00097460125565844511 0 -0.0090729167367865522 0.0010150732404204952 0 -0.0091169067367273815 0.00099591465447835138 0 -0.0090516870248434651 0.0009480665154823376 0 -0.0090923453271943705 0.00094939127949572621 0 -0.0090539101882155873 0.00099646212002897335 0 -0.009000977247563895 0.0010455376972032539 0 -0.0090539101882155873 0.00099646212002897335 0 -0.0089841167440029672 0.0010070092413917357 0 -0.0090516870248434651 0.0009480665154823376 0 -0.0090539101882155873 0.00099646212002897335 0 -0.0089841167440029672 0.0010070092413917357 0 -0.0090516870248434651 0.0009480665154823376 0 -0.0089841167440029672 0.0010070092413917357 0 -0.0089158437346276327 0.00092299097650098277 0 -0.008902048908457711 0.0010466693857443567 0 -0.0087773529007976903 0.0010010773085626272 0 -0.0089158437346276327 0.00092299097650098277 0 -0.008902048908457711 0.0010466693857443567 0 -0.0089841167440029672 0.0010070092413917357 0 -0.0089158437346276327 0.00092299097650098277 0 -0.0090652420881857636 0.00090844288371129801 0 -0.0090516870248434651 0.0009480665154823376 0 -0.0089158437346276327 0.00092299097650098277 0 -0.015702959918703466 0.00066511399087062768 0 -0.014986202176037064 -8.8927717211494158e-05 0 -0.015771144315906812 -0.00042743487911254781 0 -0.0088271528010076521 -0.00057330188598035973 0 -0.009107038274665951 -0.00048532509179018298 0 -0.0092157815783997701 -0.0001491246774253974 0 -0.010666464902366625 -3.0659639787895587e-05 0 -0.01210722933908606 1.4221854403853684e-05 0 -0.015702959918703466 0.00066511399087062768 0 -0.016061363681065043 0.00051735467217752472 0 -0.015771144315906812 -0.00042743487911254781 0 -0.014162094464236909 3.3229093444682239e-05 0 -0.01631039614399454 7.0832875871563712e-06 0 -0.016256571155504679 0.00078755342853043214 0 -0.015771144315906812 -0.00042743487911254781 0 -0.016696237360053549 -1.5940819131664211e-05 0 -0.011739095083958867 0.00039018846094815136 0 -0.011150746958322293 0.00063044677739648128 0 -0.010556906516704458 -0.0008309145488535147 0 -0.014162094464236909 3.3229093444682239e-05 0 -0.0089443939386470959 -0.00020175907777137921 0 -0.010666464902366625 -3.0659639787895587e-05 0 -0.014162094464236909 3.3229093444682239e-05 0 -0.0064108747714293271 -0.00011902141461018649 0 -0.0064304111919513476 -0.00014423761240003329 0 -0.0063947191646112162 -0.00013566493345058277 0 -0.010666464902366625 -3.0659639787895587e-05 0 -0.0065895770767292177 -0.00049869205140900652 0 -0.0088271528010076521 -0.00057330188598035973 0 -0.009107038274665951 -0.00048532509179018298 0 -0.0090440114551108286 -0.00066212112758672851 0 -0.009107038274665951 -0.00048532509179018298 0 -0.0090411041783052849 -0.00064807725669511563 0 -0.009197750425075835 -0.00055977104724003256 0 -0.0079489263841202706 -0.00016910582477125475 0 -0.0065895770767292177 -0.00049869205140900652 0 -0.0092940039147006541 -0.00074699002188626429 0 -0.0090411041783052849 -0.00064807725669511563 0 -0.009197750425075835 -0.00055977104724003256 0 -0.0033396361645480982 0.00011377579752786893 0 -0.0065895770767292177 -0.00049869205140900652 0 -0.0092940039147006541 -0.00074699002188626429 0 -0.009197750425075835 -0.00055977104724003256 0 -0.009350201257322506 -0.00035576414115846936 0 -0.0054779436153305034 0.00052154974831558176 0 -0.0051842973801224891 0.00037059169272862823 0 -0.0052575897032546923 -6.789026133368908e-05 0 -0.0033396361645480982 0.00011377579752786893 0 -0.0089002993739452727 -0.00045156751014472491 0 -0.0092940039147006541 -0.00074699002188626429 0 -0.0095535380753513834 -0.00028342772915886425 0 -0.009350201257322506 -0.00035576414115846936 0 -0.009107038274665951 -0.00048532509179018298 0 -0.009197750425075835 -0.00055977104724003256 0 -0.009350201257322506 -0.00035576414115846936 0 -0.0091001452569661918 0.00097460125565844511 0 -0.0091169067367273815 0.00099591465447835138 0 -0.0091710798861761485 0.0009162304529487437 0 -0.0048952484759534369 0.00034893608799295612 0 -0.0051842973801224891 0.00037059169272862823 0 -0.0052575897032546923 -6.789026133368908e-05 0 -0.0051023572884505578 0.00068292345092435308 0 -0.0048952484759534369 0.00034893608799295612 0 -0.0051842973801224891 0.00037059169272862823 0 -0.0048952484759534369 0.00034893608799295612 0 -0.0052575897032546923 -6.789026133368908e-05 0 -0.0050914645343369041 -0.0001292978999268464 0 -0.0069336134042604644 0.0009158474212413451 0 -0.011244124021626637 -0.00039617935847987255 0 -0.0089002993739452727 -0.00045156751014472491 0 -0.0092372868529356118 -0.00014017048318198122 0 -0.0097212525158555264 -0.00027170050904097353 0 -0.0098016548309200896 -0.00012182845722672995 0 -0.0095717698348894795 -9.9911853617488244e-05 0 -0.0089002993739452727 -0.00045156751014472491 0 -0.011244124021626637 -0.00039617935847987255 0 -0.0097284852166583443 -0.00027368295149583506 0 -0.0098016548309200896 -0.00012182845722672995 0 -0.0099499522694616611 -0.00019876627951590222 0 -0.009107038274665951 -0.00048532509179018298 0 -0.009350201257322506 -0.00035576414115846936 0 -0.0092157815783997701 -0.0001491246774253974 0 -0.0089002993739452727 -0.00045156751014472491 0 -0.0095388090697674337 -0.00027880292039864421 0 -0.0097212525158555264 -0.00027170050904097353 0 -0.009350201257322506 -0.00035576414115846936 0 -0.0095717698348894795 -9.9911853617488244e-05 0 -0.009350201257322506 -0.00035576414115846936 0 -0.0095717698348894795 -9.9911853617488244e-05 0 -0.0092157815783997701 -0.0001491246774253974 0 -0.014986202176037064 -8.8927717211494158e-05 0 -0.014913422140446962 -0.00080749324559746484 0 -0.014201664154457649 -0.0009179111592619735 0 -0.01210722933908606 1.4221854403853684e-05 0 -0.01383148334545308 -0.001060881257809905 0 -0.0095717698348894795 -9.9911853617488244e-05 0 -0.0092157815783997701 -0.0001491246774253974 0 -0.009777812339126956 0.00041156970122058678 0 -0.017708858770853587 -0.0023712590339245395 0 -0.017545790949431522 -0.001673556419739374 0 -0.017810985940368569 -0.0017663014362631875 0 -0.011244124021626637 -0.00039617935847987255 0 -0.01383148334545308 -0.001060881257809905 0 -0.0098016548309200896 -0.00012182845722672995 0 -0.0099499522694616611 -0.00019876627951590222 0 -0.009777812339126956 0.00041156970122058678 0 -0.0098016548309200896 -0.00012182845722672995 0 -0.0095717698348894795 -9.9911853617488244e-05 0 -0.009777812339126956 0.00041156970122058678 0 -0.018106066975326351 -0.0018926392687577916 0 -0.017708858770853587 -0.0023712590339245395 0 -0.017810985940368569 -0.0017663014362631875 0 -0.017545790949431522 -0.001673556419739374 0 -0.017810985940368569 -0.0017663014362631875 0 -0.017609739110740787 -0.0016134607357714439 0 -0.018071952107513001 -0.0015558141167497013 0 -0.017818462802179153 -0.001498203210592651 0 -0.017986469076137688 -0.0013109439970835984 0 -0.018071952107513001 -0.0015558141167497013 0 -0.017810985940368569 -0.0017663014362631875 0 -0.017818462802179153 -0.001498203210592651 0 -0.017810985940368569 -0.0017663014362631875 0 -0.017818462802179153 -0.001498203210592651 0 -0.017609739110740787 -0.0016134607357714439 0 -0.017549960681932691 -0.0016723241455358835 0 -0.017640077751728822 -0.0014231691311513747 0 -0.017453453074139497 -0.0011790135375368126 0 -0.01383148334545308 -0.001060881257809905 0 -0.016401255270783007 -0.0010339743811734557 0 -0.017818462802179153 -0.001498203210592651 0 -0.017640077751728822 -0.0014231691311513747 0 -0.017785711587088127 -0.0013062316103447337 0 -0.017818462802179153 -0.001498203210592651 0 -0.017640077751728822 -0.0014231691311513747 0 -0.017609739110740787 -0.0016134607357714439 0 -0.017549960681932691 -0.0016723241455358835 0 -0.017640077751728822 -0.0014231691311513747 0 -0.017609739110740787 -0.0016134607357714439 0 -0.01383148334545308 -0.001060881257809905 0 -0.014241932167367055 -0.0008713358230149382 0 -0.017640077751728822 -0.0014231691311513747 0 -0.017644285127148312 -0.0012450252081631166 0 -0.017453453074139497 -0.0011790135375368126 0 -0.017644285127148312 -0.0012450252081631166 0 -0.017585886928317147 -0.0011358124352181002 0 -0.017453453074139497 -0.0011790135375368126 0 -0.017644285127148312 -0.0012450252081631166 0 -0.017740609844033094 -0.0011822632124098939 0 -0.017785711587088127 -0.0013062316103447337 0 -0.017644285127148312 -0.0012450252081631166 0 -0.017585886928317147 -0.0011358124352181002 0 -0.017740609844033094 -0.0011822632124098939 0 -0.017640077751728822 -0.0014231691311513747 0 -0.017644285127148312 -0.0012450252081631166 0 -0.017785711587088127 -0.0013062316103447337 0 -0.017818462802179153 -0.001498203210592651 0 -0.017785711587088127 -0.0013062316103447337 0 -0.017986469076137688 -0.0013109439970835984 0 -0.017785711587088127 -0.0013062316103447337 0 -0.017882033657723503 -0.0011822480760185954 0 -0.017986469076137688 -0.0013109439970835984 0 -0.017740609844033094 -0.0011822632124098939 0 -0.017882033657723503 -0.0011822480760185954 0 -0.017869960969384018 -0.0010237160108325764 0 -0.017740609844033094 -0.0011822632124098939 0 -0.017785711587088127 -0.0013062316103447337 0 -0.017882033657723503 -0.0011822480760185954 0 -0.018059741553123503 -0.0010805301665748374 0 -0.017882033657723503 -0.0011822480760185954 0 -0.017986469076137688 -0.0013109439970835984 0 -0.014913422140446962 -0.00080749324559746484 0 -0.014201664154457649 -0.0009179111592619735 0 -0.014404233583269647 -0.0015329229454604815 0 -0.017157146547302229 -0.00065323458017195035 0 -0.017387046930634482 -0.0005835802040669388 0 -0.017322475119619603 -0.00072295819722931285 0 -0.016401255270783007 -0.0010339743811734557 0 -0.016273129975443983 -0.00093361173592698026 0 -0.014913422140446962 -0.00080749324559746484 0 -0.014404233583269647 -0.0015329229454604815 0 -0.015412085106383117 -0.001224418554683312 0 -0.01680141819920223 -0.00096289076659529266 0 -0.016401255270783007 -0.0010339743811734557 0 -0.017387046930634482 -0.0005835802040669388 0 -0.017553153217525767 -0.0006856400150932944 0 -0.017322475119619603 -0.00072295819722931285 0 -0.014913422140446962 -0.00080749324559746484 0 -0.015412085106383117 -0.001224418554683312 0 -0.015771144315906812 -0.00042743487911254781 0 -0.014986202176037064 -8.8927717211494158e-05 0 -0.014913422140446962 -0.00080749324559746484 0 -0.015771144315906812 -0.00042743487911254781 0 -0.015771144315906812 -0.00042743487911254781 0 -0.016696237360053549 -1.5940819131664211e-05 0 -0.016553376820046994 -0.00090000198652390444 0 -0.015412085106383117 -0.001224418554683312 0 -0.015771144315906812 -0.00042743487911254781 0 -0.016553376820046994 -0.00090000198652390444 0 -0.016273129975443983 -0.00093361173592698026 0 -0.01710837631282822 -0.00068457600005183711 0 -0.017387046930634482 -0.0005835802040669388 0 -0.017553153217525767 -0.0006856400150932944 0 -0.017598002624662112 -0.00051957523426283264 0 -0.017553153217525767 -0.0006856400150932944 0 -0.017440488797130459 -0.00083304555296193289 0 -0.017635348438420413 -0.00087851232160579443 0 -0.017553153217525767 -0.0006856400150932944 0 -0.017322475119619603 -0.00072295819722931285 0 -0.017440488797130459 -0.00083304555296193289 0 -0.017322475119619603 -0.00072295819722931285 0 -0.017440488797130459 -0.00083304555296193289 0 -0.017235656837370935 -0.00088210175898773989 0 -0.017440488797130459 -0.00083304555296193289 0 -0.017235656837370935 -0.00088210175898773989 0 -0.017503673544247134 -0.001018774107121566 0 -0.017503673544247134 -0.001018774107121566 0 -0.017635348438420413 -0.00087851232160579443 0 -0.017756697887178444 -0.0010240376712402014 0 -0.017440488797130459 -0.00083304555296193289 0 -0.017503673544247134 -0.001018774107121566 0 -0.017635348438420413 -0.00087851232160579443 0 -0.018210682459956253 -0.00067909010499969061 0 -0.017954126157753828 -0.00064047720790078846 0 -0.018011101321866906 -0.00082834036112410295 0 -0.017954126157753828 -0.00064047720790078846 0 -0.017838695808907196 -0.00084449325443064407 0 -0.018011101321866906 -0.00082834036112410295 0 -0.018059741553123503 -0.0010805301665748374 0 -0.018011101321866906 -0.00082834036112410295 0 -0.017869960969384018 -0.0010237160108325764 0 -0.018059741553123503 -0.0010805301665748374 0 -0.017882033657723503 -0.0011822480760185954 0 -0.017869960969384018 -0.0010237160108325764 0 -0.017838695808907196 -0.00084449325443064407 0 -0.018011101321866906 -0.00082834036112410295 0 -0.017869960969384018 -0.0010237160108325764 0 -0.017838695808907196 -0.00084449325443064407 0 -0.017869960969384018 -0.0010237160108325764 0 -0.017732391700680732 -0.000988401839824534 0 -0.017838695808907196 -0.00084449325443064407 0 -0.017732391700680732 -0.000988401839824534 0 -0.01768220275201678 -0.00077901870399210921 0 -0.017585886928317147 -0.0011358124352181002 0 -0.017488346358418918 -0.0011648748682989421 0 -0.01768220275201678 -0.00077901870399210921 0 -0.017585886928317147 -0.0011358124352181002 0 -0.017732391700680732 -0.000988401839824534 0 -0.01768220275201678 -0.00077901870399210921 0 -0.017585886928317147 -0.0011358124352181002 0 -0.017740609844033094 -0.0011822632124098939 0 -0.017732391700680732 -0.000988401839824534 0 -0.017740609844033094 -0.0011822632124098939 0 -0.017869960969384018 -0.0010237160108325764 0 -0.017732391700680732 -0.000988401839824534 0 -0.017954126157753828 -0.00064047720790078846 0 -0.017838695808907196 -0.00084449325443064407 0 -0.01768220275201678 -0.00077901870399210921 0 -0.017488346358418918 -0.0011648748682989421 0 -0.01768220275201678 -0.00077901870399210921 0 -0.017403338449116852 -0.00042825834087522718 0 -0.016401255270783007 -0.0010339743811734557 0 -0.017416970856086691 -0.00066185781864893951 0 -0.017157146547302229 -0.00065323458017195035 0 -0.017322475119619603 -0.00072295819722931285 0 -0.017235656837370935 -0.00088210175898773989 0 -0.017403338449116852 -0.00042825834087522718 0 -0.017880269294967523 -0.00026617059330003175 0 -0.017705940858240846 0.00013390398504538781 0 -0.01768220275201678 -0.00077901870399210921 0 -0.017403338449116852 -0.00042825834087522718 0 -0.017880269294967523 -0.00026617059330003175 0 -0.017954126157753828 -0.00064047720790078846 0 -0.01768220275201678 -0.00077901870399210921 0 -0.017880269294967523 -0.00026617059330003175 0 -0.018118765996672906 -0.00045814372209515065 0 -0.017954126157753828 -0.00064047720790078846 0 -0.017880269294967523 -0.00026617059330003175 0 -0.017880269294967523 -0.00026617059330003175 0 -0.017705940858240846 0.00013390398504538781 0 -0.018106830067440991 0.00026315135714719419 0 -0.018318796901748809 -0.00013437546114824378 0 -0.017880269294967523 -0.00026617059330003175 0 -0.018106830067440991 0.00026315135714719419 0 -0.017403338449116852 -0.00042825834087522718 0 -0.017705940858240846 0.00013390398504538781 0 -0.017355902189442655 0.00019082022607821254 0 -0.017416970856086691 -0.00066185781864893951 0 -0.017355428882686503 -0.00050507558300696162 0 -0.017705940858240846 0.00013390398504538781 0 -0.017571911428171098 0.00050003824558210593 0 -0.017355902189442655 0.00019082022607821254 0 -0.017705940858240846 0.00013390398504538781 0 -0.018106830067440991 0.00026315135714719419 0 -0.017991985644963831 0.00062540370546361359 0 -0.017705940858240846 0.00013390398504538781 0 -0.017571911428171098 0.00050003824558210593 0 -0.017991985644963831 0.00062540370546361359 0 -0.017503673544247134 -0.001018774107121566 0 -0.017508845004571182 -0.0012532262430443471 0 -0.0176683381272996 -0.001166626741728128 0 -0.017503673544247134 -0.001018774107121566 0 -0.017756697887178444 -0.0010240376712402014 0 -0.0176683381272996 -0.001166626741728128 0 -0.017235656837370935 -0.00088210175898773989 0 -0.017503673544247134 -0.001018774107121566 0 -0.017316570776580983 -0.0011274947361595393 0 -0.017503673544247134 -0.001018774107121566 0 -0.017316570776580983 -0.0011274947361595393 0 -0.017508845004571182 -0.0012532262430443471 0 -0.017571911428171098 0.00050003824558210593 0 -0.017355902189442655 0.00019082022607821254 0 -0.017337370589147152 0.00064078092818475754 0 -0.017316570776580983 -0.0011274947361595393 0 -0.017508845004571182 -0.0012532262430443471 0 -0.01741139606620172 -0.0013936454601410958 0 -0.017355428882686503 -0.00050507558300696162 0 -0.01715708666014093 -0.00025852435990368313 0 -0.017508845004571182 -0.0012532262430443471 0 -0.017659956094940869 -0.0013470319758788693 0 -0.017556790911207858 -0.001358841696010193 0 -0.017508845004571182 -0.0012532262430443471 0 -0.017659956094940869 -0.0013470319758788693 0 -0.0176683381272996 -0.001166626741728128 0 -0.017588964578393866 -0.0014452354188561783 0 -0.017470617367206093 -0.0013958415235359651 0 -0.017521091730559924 -0.0017681662135797813 0 -0.017659956094940869 -0.0013470319758788693 0 -0.017588964578393866 -0.0014452354188561783 0 -0.017685715335644385 -0.0015722828290962222 0 -0.017659956094940869 -0.0013470319758788693 0 -0.017556790911207858 -0.001358841696010193 0 -0.017588964578393866 -0.0014452354188561783 0 -0.017556790911207858 -0.001358841696010193 0 -0.017588964578393866 -0.0014452354188561783 0 -0.017470617367206093 -0.0013958415235359651 0 -0.017508845004571182 -0.0012532262430443471 0 -0.017556790911207858 -0.001358841696010193 0 -0.017470617367206093 -0.0013958415235359651 0 -0.01741139606620172 -0.0013936454601410958 0 -0.017470617367206093 -0.0013958415235359651 0 -0.017512637079530571 -0.0015448524442260234 0 -0.017508845004571182 -0.0012532262430443471 0 -0.01741139606620172 -0.0013936454601410958 0 -0.017470617367206093 -0.0013958415235359651 0 -0.01715708666014093 -0.00025852435990368313 0 -0.019271900502114504 -0.0006129196351092708 0 -0.017337370589147152 0.00064078092818475754 0 -0.017296195599347548 0.00091305052508668788 0 -0.0175484604964425 0.00078474224274074011 0 -0.019271900502114504 -0.0006129196351092708 0 -0.019881139865752486 0.00025991886315563457 0 -0.02230477335805538 -0.00060971052480903809 0 -0.022154067547470166 -0.00059450647561202802 0 -0.022084287291769433 -0.00042691140360503387 0 -0.017685715335644385 -0.0015722828290962222 0 -0.017521091730559924 -0.0017681662135797813 0 -0.01779641764687127 -0.0017341678435965993 0 -0.017144582398029108 -0.0015655090927602822 0 -0.019062276409128748 -0.0011899168210843893 0 -0.017588964578393866 -0.0014452354188561783 0 -0.017685715335644385 -0.0015722828290962222 0 -0.017521091730559924 -0.0017681662135797813 0 -0.017470617367206093 -0.0013958415235359651 0 -0.017512637079530571 -0.0015448524442260234 0 -0.017536070264321944 -0.0015567511511613446 0 -0.019271900502114504 -0.0006129196351092708 0 -0.019062276409128748 -0.0011899168210843893 0 -0.020592590809785739 -0.0013120843856029708 0 -0.020591608579356099 -0.0012420606765737425 0 -0.020477327128854909 -0.0012403988505364177 0 -0.019062276409128748 -0.0011899168210843893 0 -0.019259449240277175 -0.0016652605644471615 0 -0.019271900502114504 -0.0006129196351092708 0 -0.021261040106651204 -0.0010965629231407003 0 -0.020006264833294134 -0.00057453526434003894 0 -0.020151836111435773 -0.00066729793185195993 0 -0.020268208518250425 -0.0013445676476875094 0 -0.019062276409128748 -0.0011899168210843893 0 -0.021261040106651204 -0.0010965629231407003 0 -0.02230477335805538 -0.00060971052480903809 0 -0.022244692966907162 -0.00071107056736578538 0 -0.022154067547470166 -0.00059450647561202802 0 -0.02230477335805538 -0.00060971052480903809 0 -0.022305943531896886 -0.00077886460581865575 0 -0.022244692966907162 -0.00071107056736578538 0 -0.022244692966907162 -0.00071107056736578538 0 -0.022117934674406474 -0.00071513154420050446 0 -0.022154067547470166 -0.00059450647561202802 0 -0.022244692966907162 -0.00071107056736578538 0 -0.022273227974606624 -0.00082247075776500759 0 -0.022117934674406474 -0.00071513154420050446 0 -0.022305943531896886 -0.00077886460581865575 0 -0.022244692966907162 -0.00071107056736578538 0 -0.022273227974606624 -0.00082247075776500759 0 -0.022273227974606624 -0.00082247075776500759 0 -0.022200182068968986 -0.00083961541502534389 0 -0.022340667943519646 -0.00090654654292030696 0 -0.021261040106651204 -0.0010965629231407003 0 -0.022169530856663212 -0.00074662559457102078 0 -0.021261040106651204 -0.0010965629231407003 0 -0.021275752129252243 -0.00095103250960933421 0 -0.022305943531896886 -0.00077886460581865575 0 -0.022273227974606624 -0.00082247075776500759 0 -0.022200182068968986 -0.00083961541502534389 0 -0.020591608579356099 -0.0012420606765737425 0 -0.020574088881035298 -0.001115485193553731 0 -0.020477327128854909 -0.0012403988505364177 0 -0.021976811449188897 -0.00099011439556572259 0 -0.021941281608317501 -0.00076649254286095955 0 -0.02197742252363695 -0.00075711936247298739 0 -0.021905633126264475 -0.00091455661470570058 0 -0.021983393418035728 -0.00074568265880668608 0 -0.021819226323227411 -0.00074693563591280603 0 -0.021905633126264475 -0.00091455661470570058 0 -0.022112852728207746 -0.00085978354324577207 0 -0.021983393418035728 -0.00074568265880668608 0 -0.022112852728207746 -0.00085978354324577207 0 -0.022117934674406474 -0.00071513154420050446 0 -0.021983393418035728 -0.00074568265880668608 0 -0.022273227974606624 -0.00082247075776500759 0 -0.022112852728207746 -0.00085978354324577207 0 -0.022117934674406474 -0.00071513154420050446 0 -0.022273227974606624 -0.00082247075776500759 0 -0.022112852728207746 -0.00085978354324577207 0 -0.022340667943519646 -0.00090654654292030696 0 -0.022117934674406474 -0.00071513154420050446 0 -0.021890484603523504 -0.0005509707380490995 0 -0.022154067547470166 -0.00059450647561202802 0 -0.021983393418035728 -0.00074568265880668608 0 -0.021890484603523504 -0.0005509707380490995 0 -0.021819226323227411 -0.00074693563591280603 0 -0.022117934674406474 -0.00071513154420050446 0 -0.021983393418035728 -0.00074568265880668608 0 -0.021890484603523504 -0.0005509707380490995 0 -0.021890484603523504 -0.0005509707380490995 0 -0.022154067547470166 -0.00059450647561202802 0 -0.022084287291769433 -0.00042691140360503387 0 -0.017571911428171098 0.00050003824558210593 0 -0.0175484604964425 0.00078474224274074011 0 -0.017991985644963831 0.00062540370546361359 0 -0.017571911428171098 0.00050003824558210593 0 -0.017337370589147152 0.00064078092818475754 0 -0.0175484604964425 0.00078474224274074011 0 -0.019881139865752486 0.00025991886315563457 0 -0.019904019465971801 0.00015927011278326142 0 -0.021890484603523504 -0.0005509707380490995 0 -0.021815295450343053 -0.00027652048781016671 0 -0.021636811824589916 -0.00034369839766825496 0 -0.021890484603523504 -0.0005509707380490995 0 -0.022084287291769433 -0.00042691140360503387 0 -0.021815295450343053 -0.00027652048781016671 0 -0.021636811824589916 -0.00034369839766825496 0 -0.021488004773822289 -0.00033616780744864056 0 -0.021623438838913874 -0.00049961331944493848 0 -0.021471217042915478 -0.00053053031216402562 0 -0.021623438838913874 -0.00049961331944493848 0 -0.021592869062347357 -0.00070817698083189805 0 -0.021488004773822289 -0.00033616780744864056 0 -0.021471217042915478 -0.00053053031216402562 0 -0.021623438838913874 -0.00049961331944493848 0 -0.021890484603523504 -0.0005509707380490995 0 -0.021623438838913874 -0.00049961331944493848 0 -0.021738504164006234 -0.00062169458593529117 0 -0.021890484603523504 -0.0005509707380490995 0 -0.021636811824589916 -0.00034369839766825496 0 -0.021623438838913874 -0.00049961331944493848 0 -0.021528870557864063 2.9883996309855646e-05 0 -0.021328720288546103 5.998043151353958e-05 0 -0.021408429710253842 0.00041932989283731962 0 -0.021442950992957153 -0.00018741357870324777 0 -0.021528870557864063 2.9883996309855646e-05 0 -0.021328720288546103 5.998043151353958e-05 0 -0.021488004773822289 -0.00033616780744864056 0 -0.021471217042915478 -0.00053053031216402562 0 -0.021371293044452056 -0.00036883134042265883 0 -0.021471217042915478 -0.00053053031216402562 0 -0.021371293044452056 -0.00036883134042265883 0 -0.021322458972799503 -0.00058045743562390255 0 -0.021367758108762305 -0.00014649921990384781 0 -0.021252452386069112 -8.1328263943587965e-05 0 -0.021408429710253842 0.00041932989283731962 0 -0.021634881139222906 0.00046603348369552816 0 -0.021676388616475025 0.00024820295234058806 0 -0.021528870557864063 2.9883996309855646e-05 0 -0.021408429710253842 0.00041932989283731962 0 -0.021676388616475025 0.00024820295234058806 0 -0.021252452386069112 -8.1328263943587965e-05 0 -0.022676702162060657 -0.00025831205047181256 0 -0.021408429710253842 0.00041932989283731962 0 -0.021634881139222906 0.00046603348369552816 0 -0.021514996765761286 0.00072906270131756158 0 -0.021322458972799503 -0.00058045743562390255 0 -0.02143024213661231 -0.00072186184558240267 0 -0.021266553732107438 -0.00080783031268526239 0 -0.021471217042915478 -0.00053053031216402562 0 -0.021322458972799503 -0.00058045743562390255 0 -0.02143024213661231 -0.00072186184558240267 0 -0.024524568695900733 -0.0010692925143624497 0 -0.024038076535770857 -0.00087627327753271491 0 -0.024409818101235516 -0.00082778509300847065 0 -0.02143024213661231 -0.00072186184558240267 0 -0.021266553732107438 -0.00080783031268526239 0 -0.021549425559801022 -0.00095307347880029328 0 -0.022676702162060657 -0.00025831205047181256 0 -0.022827581207685615 -0.0010380640813046739 0 -0.023493653998784992 7.4758308303574908e-05 0 -0.023346254883994624 -0.00044265168948155601 0 -0.022702308505318892 0.00044151023196769282 0 -0.024524568695900733 -0.0010692925143624497 0 -0.024604276874919166 -0.00081891759140808186 0 -0.024409818101235516 -0.00082778509300847065 0 -0.022676702162060657 -0.00025831205047181256 0 -0.02408422579042907 -0.00042901758361201203 0 -0.021890484603523504 -0.0005509707380490995 0 -0.021819226323227411 -0.00074693563591280603 0 -0.021738504164006234 -0.00062169458593529117 0 -0.021819226323227411 -0.00074693563591280603 0 -0.021738504164006234 -0.00062169458593529117 0 -0.021592869062347357 -0.00070817698083189805 0 -0.021623438838913874 -0.00049961331944493848 0 -0.021738504164006234 -0.00062169458593529117 0 -0.021592869062347357 -0.00070817698083189805 0 -0.021471217042915478 -0.00053053031216402562 0 -0.02143024213661231 -0.00072186184558240267 0 -0.021592869062347357 -0.00070817698083189805 0 -0.021592869062347357 -0.00070817698083189805 0 -0.021699902452024501 -0.00086903915937685823 0 -0.021549425559801022 -0.00095307347880029328 0 -0.02143024213661231 -0.00072186184558240267 0 -0.021592869062347357 -0.00070817698083189805 0 -0.021549425559801022 -0.00095307347880029328 0 -0.021905633126264475 -0.00091455661470570058 0 -0.021819226323227411 -0.00074693563591280603 0 -0.021699902452024501 -0.00086903915937685823 0 -0.021819226323227411 -0.00074693563591280603 0 -0.021592869062347357 -0.00070817698083189805 0 -0.021699902452024501 -0.00086903915937685823 0 -0.021905633126264475 -0.00091455661470570058 0 -0.021699902452024501 -0.00086903915937685823 0 -0.021780609857932735 -0.00097963112970179977 0 -0.021780609857932735 -0.00097963112970179977 0 -0.021549425559801022 -0.00095307347880029328 0 -0.021872347935280166 -0.0011133151721499021 0 -0.021905633126264475 -0.00091455661470570058 0 -0.021780609857932735 -0.00097963112970179977 0 -0.021877191218694008 -0.0010075139489092336 0 -0.022827581207685615 -0.0010380640813046739 0 -0.022836182610409192 -0.00076506938521024581 0 -0.021699902452024501 -0.00086903915937685823 0 -0.021780609857932735 -0.00097963112970179977 0 -0.021549425559801022 -0.00095307347880029328 0 -0.024038076535770857 -0.00087627327753271491 0 -0.023910746628206199 -0.00048928087650228571 0 -0.023472123706169471 -0.00063674459706564818 0 -0.021780609857932735 -0.00097963112970179977 0 -0.021877191218694008 -0.0010075139489092336 0 -0.021872347935280166 -0.0011133151721499021 0 -0.024038076535770857 -0.00087627327753271491 0 -0.023910746628206199 -0.00048928087650228571 0 -0.024161929592210536 -0.00059514005065187026 0 -0.023910746628206199 -0.00048928087650228571 0 -0.024161929592210536 -0.00059514005065187026 0 -0.024361308406252544 -0.00036267657538196195 0 -0.023987248077841909 -0.00051808143042155429 0 -0.024278539744418681 -0.00039471710170944799 0 -0.023844298331007725 -0.00060839219662625632 0 -0.024361308406252544 -0.00036267657538196195 0 -0.024064416724191805 -9.9583287494963029e-05 0 -0.023844298331007725 -0.00060839219662625632 0 -0.023419342246388558 -0.00050982786477432878 0 -0.023251914213427916 -0.00080524722682877726 0 -0.023987248077841909 -0.00051808143042155429 0 -0.022836182610409192 -0.00076506938521024581 0 -0.023844298331007725 -0.00060839219662625632 0 -0.023419342246388558 -0.00050982786477432878 0 -0.023675599913267016 -0.00030247209693122604 0 -0.023419342246388558 -0.00050982786477432878 0 -0.023372026286649621 -0.0002405164407963102 0 -0.023212510967363268 -0.00043166024197758955 0 -0.023419342246388558 -0.00050982786477432878 0 -0.023251914213427916 -0.00080524722682877726 0 -0.023199479899140372 -0.00061889591057607413 0 -0.024604479594133605 -0.00080479750801796472 0 -0.024530918567409837 -0.00070810954018536373 0 -0.024573621911845641 -0.00050907671372378278 0 -0.02408422579042907 -0.00042901758361201203 0 -0.024430084454355589 -0.00076776130642619057 0 -0.024604276874919166 -0.00081891759140808186 0 -0.024530918567409837 -0.00070810954018536373 0 -0.024409818101235516 -0.00082778509300847065 0 -0.024530918567409837 -0.00070810954018536373 0 -0.024418355295995786 -0.00067122781679886914 0 -0.024476018682261867 -0.00057743037322338089 0 -0.024530918567409837 -0.00070810954018536373 0 -0.024418355295995786 -0.00067122781679886914 0 -0.024409818101235516 -0.00082778509300847065 0 -0.024038076535770857 -0.00087627327753271491 0 -0.024409818101235516 -0.00082778509300847065 0 -0.024284081520746792 -0.00071318204967987949 0 -0.024418355295995786 -0.00067122781679886914 0 -0.024284081520746792 -0.00071318204967987949 0 -0.024389657450651036 -0.00053951874480091865 0 -0.024418355295995786 -0.00067122781679886914 0 -0.024409818101235516 -0.00082778509300847065 0 -0.024284081520746792 -0.00071318204967987949 0 -0.024038076535770857 -0.00087627327753271491 0 -0.024284081520746792 -0.00071318204967987949 0 -0.024161929592210536 -0.00059514005065187026 0 -0.024284081520746792 -0.00071318204967987949 0 -0.024161929592210536 -0.00059514005065187026 0 -0.024389657450651036 -0.00053951874480091865 0 -0.024161929592210536 -0.00059514005065187026 0 -0.024361308406252544 -0.00036267657538196195 0 -0.024389657450651036 -0.00053951874480091865 0 -0.024418355295995786 -0.00067122781679886914 0 -0.024389657450651036 -0.00053951874480091865 0 -0.024476018682261867 -0.00057743037322338089 0 -0.024145183760523194 -9.440360013671177e-06 0 -0.024138802433020936 -0.00011344372620013748 0 -0.024197342616882681 -0.00015059609215612512 0 -0.024604479594133605 -0.00080479750801796472 0 -0.024573621911845641 -0.00050907671372378278 0 -0.024706850977337311 -0.00037484816871646831 0 -0.02408422579042907 -0.00042901758361201203 0 -0.02448951049857391 -0.00025417255169739528 0 -0.024530918567409837 -0.00070810954018536373 0 -0.024476018682261867 -0.00057743037322338089 0 -0.024573621911845641 -0.00050907671372378278 0 -0.024476018682261867 -0.00057743037322338089 0 -0.024487409321245764 -0.00048793368587048586 0 -0.024573621911845641 -0.00050907671372378278 0 -0.024389657450651036 -0.00053951874480091865 0 -0.024476018682261867 -0.00057743037322338089 0 -0.024487409321245764 -0.00048793368587048586 0 -0.024487409321245764 -0.00048793368587048586 0 -0.024573621911845641 -0.00050907671372378278 0 -0.024509864047919126 -0.00032887499352419656 0 -0.024389657450651036 -0.00053951874480091865 0 -0.024487409321245764 -0.00048793368587048586 0 -0.024509864047919126 -0.00032887499352419656 0 -0.024573621911845641 -0.00050907671372378278 0 -0.024509864047919126 -0.00032887499352419656 0 -0.024706850977337311 -0.00037484816871646831 0 -0.024605392147195169 -0.00016738516963795701 0 -0.024509864047919126 -0.00032887499352419656 0 -0.024706850977337311 -0.00037484816871646831 0 -0.024605392147195169 -0.00016738516963795701 0 -0.024509864047919126 -0.00032887499352419656 0 -0.024470616463027887 -0.00012748126725023616 0 -0.024361308406252544 -0.00036267657538196195 0 -0.024389657450651036 -0.00053951874480091865 0 -0.024501246614051574 7.4963437145790304e-05 0 -0.024389657450651036 -0.00053951874480091865 0 -0.024509864047919126 -0.00032887499352419656 0 -0.024470616463027887 -0.00012748126725023616 0 -0.02440255309284212 -0.00051149104711157504 0 -0.024486841471274286 -3.5199432474732349e-05 0 -0.024361308406252544 -0.00036267657538196195 0 -0.024501246614051574 7.4963437145790304e-05 0 -0.024064416724191805 -9.9583287494963029e-05 0 -0.02453710401190333 0.0002507717589145646 0 -0.024501246614051574 7.4963437145790304e-05 0 -0.024614239349983608 0.000483357249957127 0 -0.02453710401190333 0.0002507717589145646 0 -0.024501246614051574 7.4963437145790304e-05 0 -0.024064416724191805 -9.9583287494963029e-05 0 -0.024605392147195169 -0.00016738516963795701 0 -0.024470616463027887 -0.00012748126725023616 0 -0.024607860465826512 -2.5820954121112664e-05 0 -0.023680486751896362 -5.4905766665579522e-05 0 -0.023372026286649621 -0.0002405164407963102 0 -0.023381428262591271 2.1818955013138398e-05 0 -0.023419342246388558 -0.00050982786477432878 0 -0.023372026286649621 -0.0002405164407963102 0 -0.023675599913267016 -0.00030247209693122604 0 -0.023680486751896362 -5.4905766665579522e-05 0 -0.023372026286649621 -0.0002405164407963102 0 -0.023675599913267016 -0.00030247209693122604 0 -0.023844298331007725 -0.00060839219662625632 0 -0.023675599913267016 -0.00030247209693122604 0 -0.024064416724191805 -9.9583287494963029e-05 0 -0.023680486751896362 -5.4905766665579522e-05 0 -0.023675599913267016 -0.00030247209693122604 0 -0.024064416724191805 -9.9583287494963029e-05 0 -0.02453710401190333 0.0002507717589145646 0 -0.024064416724191805 -9.9583287494963029e-05 0 -0.023778460081892595 0.00028918871979844292 0 -0.024505066526443554 0.00025672488937725392 0 -0.024066363166520902 0.00023043686419473849 0 -0.02453710401190333 0.0002507717589145646 0 -0.024361752857886425 0.00019227986668219767 0 -0.024482290840141415 0.00033083335507351198 0 -0.023680486751896362 -5.4905766665579522e-05 0 -0.024064416724191805 -9.9583287494963029e-05 0 -0.023778460081892595 0.00028918871979844292 0 -0.024066363166520902 0.00023043686419473849 0 -0.023321534383638744 0.00010680772667925419 0 -0.023778460081892595 0.00028918871979844292 0 -0.023381428262591271 2.1818955013138398e-05 0 -0.023024529761127743 0.00016849259458874913 0 -0.024361752857886425 0.00019227986668219767 0 -0.023636984136487182 3.9154284684781857e-05 0 -0.024104102683010383 0.00041224737785633002 0 -0.023680486751896362 -5.4905766665579522e-05 0 -0.023778460081892595 0.00028918871979844292 0 -0.023381428262591271 2.1818955013138398e-05 0 -0.023636984136487182 3.9154284684781857e-05 0 -0.02332401273263783 0.00036677777838686954 0 -0.024104102683010383 0.00041224737785633002 0 -0.023024529761127743 0.00016849259458874913 0 -0.023092704515704811 -6.8127710747499843e-05 0 -0.022826116435453337 -0.00011507080090544134 0 -0.023381428262591271 2.1818955013138398e-05 0 -0.023024529761127743 0.00016849259458874913 0 -0.023092704515704811 -6.8127710747499843e-05 0 -0.023372026286649621 -0.0002405164407963102 0 -0.023381428262591271 2.1818955013138398e-05 0 -0.023092704515704811 -6.8127710747499843e-05 0 -0.023372026286649621 -0.0002405164407963102 0 -0.023092704515704811 -6.8127710747499843e-05 0 -0.02304602129298236 -0.00028137265495381541 0 -0.023092704515704811 -6.8127710747499843e-05 0 -0.02304602129298236 -0.00028137265495381541 0 -0.022826116435453337 -0.00011507080090544134 0 -0.02304602129298236 -0.00028137265495381541 0 -0.022813437749844765 -0.00035538002691372968 0 -0.022826116435453337 -0.00011507080090544134 0 -0.02304602129298236 -0.00028137265495381541 0 -0.022813437749844765 -0.00035538002691372968 0 -0.02303252715258185 -0.00051515891691825653 0 -0.023372026286649621 -0.0002405164407963102 0 -0.02304602129298236 -0.00028137265495381541 0 -0.023212510967363268 -0.00043166024197758955 0 -0.022826116435453337 -0.00011507080090544134 0 -0.022575616211175389 -0.00023873400760891057 0 -0.022478927845381146 -9.4166164668503855e-06 0 -0.022813437749844765 -0.00035538002691372968 0 -0.022575616211175389 -0.00023873400760891057 0 -0.022570304337207081 -0.00047026288381419554 0 -0.022813437749844765 -0.00035538002691372968 0 -0.022826116435453337 -0.00011507080090544134 0 -0.022575616211175389 -0.00023873400760891057 0 -0.023024529761127743 0.00016849259458874913 0 -0.022826116435453337 -0.00011507080090544134 0 -0.022478927845381146 -9.4166164668503855e-06 0 -0.023636984136487182 3.9154284684781857e-05 0 -0.022478927845381146 -9.4166164668503855e-06 0 -0.02332401273263783 0.00036677777838686954 0 -0.023321534383638744 0.00010680772667925419 0 -0.022536897067915566 -7.4346292335470895e-07 0 -0.023899014839361191 0.00044327018455876292 0 -0.023935641518468293 0.00044853399604095716 0 -0.023974692626927273 0.00042444355634672882 0 -0.023114537061698536 0.0002979419174328656 0 -0.023658991384851426 0.00038881882794188327 0 -0.022388676245820107 0.00016188363918497031 0 -0.022478927845381146 -9.4166164668503855e-06 0 -0.02332401273263783 0.00036677777838686954 0 -0.022388676245820107 0.00016188363918497031 0 -0.022478927845381146 -9.4166164668503855e-06 0 -0.02226211111483067 -0.00017028622283435998 0 -0.023899014839361191 0.00044327018455876292 0 -0.02389283340961678 0.00046009015098164707 0 -0.023897461655378267 0.00046058157127715872 0 -0.023114537061698536 0.0002979419174328656 0 -0.023131921451970131 0.00017688075343984101 0 -0.022388676245820107 0.00016188363918497031 0 -0.021934755378550847 -1.0833273914684633e-05 0 -0.02226211111483067 -0.00017028622283435998 0 -0.023131921451970131 0.00017688075343984101 0 -0.02189991349536545 -0.00054963347088441534 0 -0.021934755378550847 -1.0833273914684633e-05 0 -0.02226211111483067 -0.00017028622283435998 0 -0.022039839045615899 -0.00049767303580761373 0 -0.02226211111483067 -0.00017028622283435998 0 -0.022361773229719922 -0.00038883210294030231 0 -0.022039839045615899 -0.00049767303580761373 0 -0.022575616211175389 -0.00023873400760891057 0 -0.022478927845381146 -9.4166164668503855e-06 0 -0.022415529423924038 -0.00020142505077059731 0 -0.022478927845381146 -9.4166164668503855e-06 0 -0.022415529423924038 -0.00020142505077059731 0 -0.02226211111483067 -0.00017028622283435998 0 -0.022415529423924038 -0.00020142505077059731 0 -0.02226211111483067 -0.00017028622283435998 0 -0.022361773229719922 -0.00038883210294030231 0 -0.022575616211175389 -0.00023873400760891057 0 -0.022415529423924038 -0.00020142505077059731 0 -0.022361773229719922 -0.00038883210294030231 0 -0.022575616211175389 -0.00023873400760891057 0 -0.022361773229719922 -0.00038883210294030231 0 -0.022570304337207081 -0.00047026288381419554 0 -0.022361773229719922 -0.00038883210294030231 0 -0.022332514522834118 -0.00068215095753193815 0 -0.022570304337207081 -0.00047026288381419554 0 -0.022361773229719922 -0.00038883210294030231 0 -0.022332514522834118 -0.00068215095753193815 0 -0.022039839045615899 -0.00049767303580761373 0 -0.022332514522834118 -0.00068215095753193815 0 -0.022570304337207081 -0.00047026288381419554 0 -0.022557979993035601 -0.00069526779541432019 0 -0.021968899549765167 -0.00051599183262721309 0 -0.02197742252363695 -0.00075711936247298739 0 -0.021894658634708644 -0.00053549301721796344 0 -0.02189991349536545 -0.00054963347088441534 0 -0.022169530856663212 -0.00074662559457102078 0 -0.022332514522834118 -0.00068215095753193815 0 -0.022039839045615899 -0.00049767303580761373 0 -0.022200182068968986 -0.00083961541502534389 0 -0.021941281608317501 -0.00076649254286095955 0 -0.02197742252363695 -0.00075711936247298739 0 -0.021894658634708644 -0.00053549301721796344 0 -0.021275752129252243 -0.00095103250960933421 0 -0.02106339174368322 -0.00075035814442396141 0 -0.022332514522834118 -0.00068215095753193815 0 -0.022200182068968986 -0.00083961541502534389 0 -0.022340667943519646 -0.00090654654292030696 0 -0.022332514522834118 -0.00068215095753193815 0 -0.022340667943519646 -0.00090654654292030696 0 -0.022557979993035601 -0.00069526779541432019 0 -0.022384676572053983 -0.00092786560955975992 0 -0.022403363585523275 -0.00096998090339638977 0 -0.022340667943519646 -0.00090654654292030696 0 -0.022823468056288564 -0.00089210728994859189 0 -0.022557979993035601 -0.00069526779541432019 0 -0.022112852728207746 -0.00085978354324577207 0 -0.022340667943519646 -0.00090654654292030696 0 -0.022078063797438551 -0.0010456759281336503 0 -0.022112852728207746 -0.00085978354324577207 0 -0.022078063797438551 -0.0010456759281336503 0 -0.021951529160020619 -0.0010238303617337583 0 -0.021905633126264475 -0.00091455661470570058 0 -0.022112852728207746 -0.00085978354324577207 0 -0.021951529160020619 -0.0010238303617337583 0 -0.021905633126264475 -0.00091455661470570058 0 -0.021877191218694008 -0.0010075139489092336 0 -0.021951529160020619 -0.0010238303617337583 0 -0.021877191218694008 -0.0010075139489092336 0 -0.021951529160020619 -0.0010238303617337583 0 -0.021872347935280166 -0.0011133151721499021 0 -0.022823468056288564 -0.00089210728994859189 0 -0.023249711469224669 -0.0008057345860476786 0 -0.023202258918299749 -0.00078061135414379671 0 -0.022836182610409192 -0.00076506938521024581 0 -0.022880202506823401 -0.0007800466448000667 0 -0.022078063797438551 -0.0010456759281336503 0 -0.021951529160020619 -0.0010238303617337583 0 -0.021872347935280166 -0.0011133151721499021 0 -0.022403363585523275 -0.00096998090339638977 0 -0.022836182610409192 -0.00076506938521024581 0 -0.022823468056288564 -0.00089210728994859189 0 -0.022961798472149603 -0.00072044162395449435 0 -0.023202258918299749 -0.00078061135414379671 0 -0.022961798472149603 -0.00072044162395449435 0 -0.02303252715258185 -0.00051515891691825653 0 -0.022785421435281658 -0.00060058139274367427 0 -0.022961798472149603 -0.00072044162395449435 0 -0.023096621922098819 -0.00067313268865165372 0 -0.02303252715258185 -0.00051515891691825653 0 -0.022823468056288564 -0.00089210728994859189 0 -0.022961798472149603 -0.00072044162395449435 0 -0.022785421435281658 -0.00060058139274367427 0 -0.022961798472149603 -0.00072044162395449435 0 -0.023202258918299749 -0.00078061135414379671 0 -0.023096621922098819 -0.00067313268865165372 0 -0.023251914213427916 -0.00080524722682877726 0 -0.023202258918299749 -0.00078061135414379671 0 -0.023199479899140372 -0.00061889591057607413 0 -0.023202258918299749 -0.00078061135414379671 0 -0.023096621922098819 -0.00067313268865165372 0 -0.023199479899140372 -0.00061889591057607413 0 -0.023096621922098819 -0.00067313268865165372 0 -0.023199479899140372 -0.00061889591057607413 0 -0.02303252715258185 -0.00051515891691825653 0 -0.02304602129298236 -0.00028137265495381541 0 -0.023212510967363268 -0.00043166024197758955 0 -0.02303252715258185 -0.00051515891691825653 0 -0.023419342246388558 -0.00050982786477432878 0 -0.023199479899140372 -0.00061889591057607413 0 -0.023212510967363268 -0.00043166024197758955 0 -0.023199479899140372 -0.00061889591057607413 0 -0.023212510967363268 -0.00043166024197758955 0 -0.02303252715258185 -0.00051515891691825653 0 -0.022813437749844765 -0.00035538002691372968 0 -0.02303252715258185 -0.00051515891691825653 0 -0.022785421435281658 -0.00060058139274367427 0 -0.022813437749844765 -0.00035538002691372968 0 -0.022570304337207081 -0.00047026288381419554 0 -0.022785421435281658 -0.00060058139274367427 0 -0.022570304337207081 -0.00047026288381419554 0 -0.022557979993035601 -0.00069526779541432019 0 -0.022785421435281658 -0.00060058139274367427 0 -0.022823468056288564 -0.00089210728994859189 0 -0.022557979993035601 -0.00069526779541432019 0 -0.022785421435281658 -0.00060058139274367427 0 -0.021793618549837537 0.0019222181157610321 0 -0.021938944647135038 0.0018736711506093559 0 -0.021859398677389841 0.0019740539420529525 0 -0.021831387878196724 0.0018354759389143807 0 -0.021793618549837537 0.0019222181157610321 0 -0.021938944647135038 0.0018736711506093559 0 -0.021938944647135038 0.0018736711506093559 0 -0.021974457101149862 0.0020065696752578736 0 -0.021859398677389841 0.0019740539420529525 0 -0.023901683199280179 0.00049701188271621176 0 -0.023982438006547681 0.00082491808462207281 0 -0.024183430227846067 0.00055961966362549952 0 -0.022687091068171759 0.0011688300682186827 0 -0.024190483008711912 0.00031237331130985974 0 -0.022966303970129352 0.0012526419227696063 0 -0.022687091068171759 0.0011688300682186827 0 -0.023763196533536347 0.00051983932953957512 0 -0.023764949162079062 0.00054142381969318981 0 -0.023846914511649078 0.00036752165274454005 0 -0.023763196533536347 0.00051983932953957512 0 -0.023748063095045617 0.00042982905180433801 0 -0.023764949162079062 0.00054142381969318981 0 -0.021822424415759208 0.0020549962256784927 0 -0.021974457101149862 0.0020065696752578736 0 -0.021859398677389841 0.0019740539420529525 0 -0.021288334571412843 0.00096252537146001237 0 -0.020964002623910051 0.00096159231703725706 0 -0.021124476100498796 0.001034317271116863 0 -0.021074509315572823 0.0012521164433652162 0 -0.021288334571412843 0.00096252537146001237 0 -0.021124476100498796 0.001034317271116863 0 -0.021822424415759208 0.0020549962256784927 0 -0.021974457101149862 0.0020065696752578736 0 -0.021854565296844312 0.002158644763113734 0 -0.022687091068171759 0.0011688300682186827 0 -0.020647648177007611 0.0013864782159591833 0 -0.020647648177007611 0.0013864782159591833 0 -0.020417996304065662 0.0013937329913698596 0 -0.019682371979106196 0.0012040803196874431 0 -0.019846447273224883 0.00098522516570187361 0 -0.019729851050477424 0.00074301642292942866 0 -0.019682371979106196 0.0012040803196874431 0 -0.019234259934129413 0.00044515380600147845 0 -0.018177203081959539 0.00045020325118657294 0 -0.019682371979106196 0.0012040803196874431 0 -0.019729851050477424 0.00074301642292942866 0 -0.019234259934129413 0.00044515380600147845 0 -0.019984372429558726 0.00061354175502232081 0 -0.019846447273224883 0.00098522516570187361 0 -0.019729851050477424 0.00074301642292942866 0 -0.019234259934129413 0.00044515380600147845 0 -0.019473172735573013 0.00024345879483856421 0 -0.019625431637852943 0.00045148760235814436 0 -0.019210573839707971 3.2586896129099057e-05 0 -0.019234259934129413 0.00044515380600147845 0 -0.019473172735573013 0.00024345879483856421 0 -0.019729851050477424 0.00074301642292942866 0 -0.019234259934129413 0.00044515380600147845 0 -0.019625431637852943 0.00045148760235814436 0 -0.019848397395155881 0.00018705837787279329 0 -0.019473172735573013 0.00024345879483856421 0 -0.019625431637852943 0.00045148760235814436 0 -0.019984372429558726 0.00061354175502232081 0 -0.019848397395155881 0.00018705837787279329 0 -0.019625431637852943 0.00045148760235814436 0 -0.019984372429558726 0.00061354175502232081 0 -0.019729851050477424 0.00074301642292942866 0 -0.019625431637852943 0.00045148760235814436 0 -0.020647648177007611 0.0013864782159591833 0 -0.01933584943937797 0.00061146575737944795 0 -0.018775333434843368 -5.7679892577300023e-05 0 -0.019234259934129413 0.00044515380600147845 0 -0.018177203081959539 0.00045020325118657294 0 -0.021288334571412843 0.00096252537146001237 0 -0.020895893616086816 0.00075899991595789514 0 -0.020964002623910051 0.00096159231703725706 0 -0.01933584943937797 0.00061146575737944795 0 -0.021681359397790975 0.00088472296774764808 0 -0.022687091068171759 0.0011688300682186827 0 -0.021681359397790975 0.00088472296774764808 0 -0.021074509315572823 0.0012521164433652162 0 -0.020993794699836851 0.00097033352567966558 0 -0.021124476100498796 0.001034317271116863 0 -0.023763196533536347 0.00051983932953957512 0 -0.023775216323962213 0.00039696533048223684 0 -0.023748063095045617 0.00042982905180433801 0 -0.021681359397790975 0.00088472296774764808 0 -0.02103576333637221 0.00088060732576634201 0 -0.023775216323962213 0.00039696533048223684 0 -0.023748063095045617 0.00042982905180433801 0 -0.023674780881824876 0.00034519361066126687 0 -0.023748063095045617 0.00042982905180433801 0 -0.023401376701937565 0.00040287646258266074 0 -0.023764949162079062 0.00054142381969318981 0 -0.02387925525782552 0.0005806810012139739 0 -0.022613496103773119 0.00013474906437306025 0 -0.023748063095045617 0.00042982905180433801 0 -0.023556640655237788 0.00014514689810507774 0 -0.023401376701937565 0.00040287646258266074 0 -0.02016603984921838 -0.00011448950750409541 0 -0.021055267034572576 0.00033423134456147938 0 -0.020575722889583963 0.00053436431201377566 0 -0.021681359397790975 0.00088472296774764808 0 -0.022613496103773119 0.00013474906437306025 0 -0.021055267034572576 0.00033423134456147938 0 -0.021206422655672113 0.00083012257623491837 0 -0.020575722889583963 0.00053436431201377566 0 -0.019626158051852922 -7.8082815191464383e-05 0 -0.022613496103773119 0.00013474906437306025 0 -0.02204725463966908 -0.00035819874360507221 0 -0.022020574518956743 -0.00035553029813420429 0 -0.022085460393026116 -0.00031143894164465671 0 -0.022584819453082355 -0.00023005855696450484 0 -0.022613496103773119 0.00013474906437306025 0 -0.023556640655237788 0.00014514689810507774 0 -0.023278873156910265 0.00025969248063933498 0 -0.023185437877016626 0.00014203152852965064 0 -0.023098927988127273 -6.523837575358771e-05 0 -0.023556640655237788 0.00014514689810507774 0 -0.023185437877016626 0.00014203152852965064 0 -0.023278873156910265 0.00025969248063933498 0 -0.023401376701937565 0.00040287646258266074 0 -0.023206841728447721 0.00035684985264962214 0 -0.023556640655237788 0.00014514689810507774 0 -0.023278873156910265 0.00025969248063933498 0 -0.023401376701937565 0.00040287646258266074 0 -0.023401376701937565 0.00040287646258266074 0 -0.023764949162079062 0.00054142381969318981 0 -0.023247075185133696 0.00061614105085349444 0 -0.023777991869509463 0.00053866402201425512 0 -0.023752034689779034 0.00052640742910196848 0 -0.023401376701937565 0.00040287646258266074 0 -0.023247075185133696 0.00061614105085349444 0 -0.023136835862631416 0.00047710749742036146 0 -0.023764949162079062 0.00054142381969318981 0 -0.023966507337284431 0.00043554850398906555 0 -0.024238847543776643 0.000482593692544158 0 -0.023764949162079062 0.00054142381969318981 0 -0.023966507337284431 0.00043554850398906555 0 -0.023846914511649078 0.00036752165274454005 0 -0.023966507337284431 0.00043554850398906555 0 -0.023846914511649078 0.00036752165274454005 0 -0.024093043406522189 0.00033012144437645892 0 -0.024093043406522189 0.00033012144437645892 0 -0.024238847543776643 0.000482593692544158 0 -0.024375793311652651 0.00019533831975672295 0 -0.023966507337284431 0.00043554850398906555 0 -0.024093043406522189 0.00033012144437645892 0 -0.024238847543776643 0.000482593692544158 0 -0.024238847543776643 0.000482593692544158 0 -0.024526453070566855 0.00031438607973515478 0 -0.024375793311652651 0.00019533831975672295 0 -0.023247075185133696 0.00061614105085349444 0 -0.023124096478326642 0.00035724616753748988 0 -0.023116050378706069 0.00049321113858522318 0 -0.023752034689779034 0.00052640742910196848 0 -0.02385097892742041 0.00034777831776082642 0 -0.023124096478326642 0.00035724616753748988 0 -0.023116050378706069 0.00049321113858522318 0 -0.023323120113584277 0.00040609204870350064 0 -0.023116050378706069 0.00049321113858522318 0 -0.023061296477876084 0.00054480998977007422 0 -0.023136835862631416 0.00047710749742036146 0 -0.023116050378706069 0.00049321113858522318 0 -0.023061296477876084 0.00054480998977007422 0 -0.023323120113584277 0.00040609204870350064 0 -0.023247075185133696 0.00061614105085349444 0 -0.023116050378706069 0.00049321113858522318 0 -0.023136835862631416 0.00047710749742036146 0 -0.023401376701937565 0.00040287646258266074 0 -0.023136835862631416 0.00047710749742036146 0 -0.023206841728447721 0.00035684985264962214 0 -0.023136835862631416 0.00047710749742036146 0 -0.023073558562952508 0.00029810626010845205 0 -0.023206841728447721 0.00035684985264962214 0 -0.023136835862631416 0.00047710749742036146 0 -0.023073558562952508 0.00029810626010845205 0 -0.023021940012734537 0.00038547936302964539 0 -0.023278873156910265 0.00025969248063933498 0 -0.023073558562952508 0.00029810626010845205 0 -0.023206841728447721 0.00035684985264962214 0 -0.023278873156910265 0.00025969248063933498 0 -0.023073558562952508 0.00029810626010845205 0 -0.023185437877016626 0.00014203152852965064 0 -0.023073558562952508 0.00029810626010845205 0 -0.023185437877016626 0.00014203152852965064 0 -0.022938131426558279 0.00018950340927239979 0 -0.023098927988127273 -6.523837575358771e-05 0 -0.023185437877016626 0.00014203152852965064 0 -0.022938131426558279 0.00018950340927239979 0 -0.023098927988127273 -6.523837575358771e-05 0 -0.022733684591463393 -6.2229197754335683e-05 0 -0.022938131426558279 0.00018950340927239979 0 -0.022733684591463393 -6.2229197754335683e-05 0 -0.022938131426558279 0.00018950340927239979 0 -0.022905625050383609 0.0003611147026437521 0 -0.022733684591463393 -6.2229197754335683e-05 0 -0.02208075390251989 0.00036358974880481388 0 -0.022054323030945538 3.8069521100081126e-05 0 -0.022774266039787563 -8.0694249530248362e-05 0 -0.022427084444280453 0.00036681205263873419 0 -0.022938131426558279 0.00018950340927239979 0 -0.023021940012734537 0.00038547936302964539 0 -0.022905625050383609 0.0003611147026437521 0 -0.023061296477876084 0.00054480998977007422 0 -0.023136835862631416 0.00047710749742036146 0 -0.023021940012734537 0.00038547936302964539 0 -0.023073558562952508 0.00029810626010845205 0 -0.022938131426558279 0.00018950340927239979 0 -0.023021940012734537 0.00038547936302964539 0 -0.023061296477876084 0.00054480998977007422 0 -0.023021940012734537 0.00038547936302964539 0 -0.022905625050383609 0.0003611147026437521 0 -0.022427084444280453 0.00036681205263873419 0 -0.022652114830407015 0.00062569502793200513 0 -0.02208075390251989 0.00036358974880481388 0 -0.021814650576645701 0.0003835298967698343 0 -0.021811874002776031 0.00060185055248493044 0 -0.02208075390251989 0.00036358974880481388 0 -0.021878708949563112 0.00021459792267892837 0 -0.021814650576645701 0.0003835298967698343 0 -0.02208075390251989 0.00036358974880481388 0 -0.021878708949563112 0.00021459792267892837 0 -0.022054323030945538 3.8069521100081126e-05 0 -0.021878708949563112 0.00021459792267892837 0 -0.022054323030945538 3.8069521100081126e-05 0 -0.021777161725659341 -3.3960229764318465e-05 0 -0.021528870557864063 2.9883996309855646e-05 0 -0.021777161725659341 -3.3960229764318465e-05 0 -0.021676388616475025 0.00024820295234058806 0 -0.021878708949563112 0.00021459792267892837 0 -0.021777161725659341 -3.3960229764318465e-05 0 -0.021676388616475025 0.00024820295234058806 0 -0.021878708949563112 0.00021459792267892837 0 -0.021676388616475025 0.00024820295234058806 0 -0.021814650576645701 0.0003835298967698343 0 -0.021634881139222906 0.00046603348369552816 0 -0.021676388616475025 0.00024820295234058806 0 -0.021814650576645701 0.0003835298967698343 0 -0.021634881139222906 0.00046603348369552816 0 -0.021814650576645701 0.0003835298967698343 0 -0.021811874002776031 0.00060185055248493044 0 -0.021634881139222906 0.00046603348369552816 0 -0.021514996765761286 0.00072906270131756158 0 -0.021811874002776031 0.00060185055248493044 0 -0.023281642442989216 0.00052846532700581272 0 -0.022652114830407015 0.00062569502793200513 0 -0.023061296477876084 0.00054480998977007422 0 -0.022905625050383609 0.0003611147026437521 0 -0.022654700362568284 0.00072975606978406885 0 -0.023061296477876084 0.00054480998977007422 0 -0.023650352366309964 0.00057611371072198902 0 -0.023323120113584277 0.00040609204870350064 0 -0.023323120113584277 0.00040609204870350064 0 -0.023725454200560284 0.00029292291414261847 0 -0.023518498480217403 1.3953776418305699e-05 0 -0.023124096478326642 0.00035724616753748988 0 -0.023323120113584277 0.00040609204870350064 0 -0.023518498480217403 1.3953776418305699e-05 0 -0.023650352366309964 0.00057611371072198902 0 -0.023323120113584277 0.00040609204870350064 0 -0.023725454200560284 0.00029292291414261847 0 -0.022676702162060657 -0.00025831205047181256 0 -0.022652114830407015 0.00062569502793200513 0 -0.024145183760523194 -9.440360013671177e-06 0 -0.023650352366309964 0.00057611371072198902 0 -0.023725454200560284 0.00029292291414261847 0 -0.02408422579042907 -0.00042901758361201203 0 -0.022652114830407015 0.00062569502793200513 0 -0.024145183760523194 -9.440360013671177e-06 0 -0.023725454200560284 0.00029292291414261847 0 -0.023931415771947205 1.9493684270378181e-05 0 -0.024027853222621284 1.2709007247317526e-05 0 -0.024118962233164745 -0.00014742733290995866 0 -0.023688614968330527 0.00021001953901568493 0 -0.024027853222621284 1.2709007247317526e-05 0 -0.023725454200560284 0.00029292291414261847 0 -0.023931415771947205 1.9493684270378181e-05 0 -0.023674239646522426 -4.5399585114512041e-05 0 -0.023931415771947205 1.9493684270378181e-05 0 -0.023674239646522426 -4.5399585114512041e-05 0 -0.024138802433020936 -0.00011344372620013748 0 -0.024145183760523194 -9.440360013671177e-06 0 -0.023931415771947205 1.9493684270378181e-05 0 -0.024138802433020936 -0.00011344372620013748 0 -0.02385097892742041 0.00034777831776082642 0 -0.024027853222621284 1.2709007247317526e-05 0 -0.024313418156828755 -0.00026709356542757839 0 -0.024413406341064568 -0.00012451422540918917 0 -0.024279700472656748 -0.00015219738199610976 0 -0.024681400730885997 0.00020308549144426786 0 -0.024611298936747513 8.1201897445460459e-05 0 -0.024547987247253582 0.00016665341091118342 0 -0.024413406341064568 -0.00012451422540918917 0 -0.024279700472656748 -0.00015219738199610976 0 -0.024393530826374559 -5.7892259320672331e-05 0 -0.024027853222621284 1.2709007247317526e-05 0 -0.024547159147303786 5.8797432922622108e-07 0 -0.024313418156828755 -0.00026709356542757839 0 -0.024279700472656748 -0.00015219738199610976 0 -0.024138802433020936 -0.00011344372620013748 0 -0.024279700472656748 -0.00015219738199610976 0 -0.024197342616882681 -0.00015059609215612512 0 -0.024393530826374559 -5.7892259320672331e-05 0 -0.024279700472656748 -0.00015219738199610976 0 -0.024138802433020936 -0.00011344372620013748 0 -0.024197342616882681 -0.00015059609215612512 0 -0.024197342616882681 -0.00015059609215612512 0 -0.024396280128486603 3.7933858279790661e-05 0 -0.024393530826374559 -5.7892259320672331e-05 0 -0.02448951049857391 -0.00025417255169739528 0 -0.024546496935009429 -2.5524733371741246e-05 0 -0.024605392147195169 -0.00016738516963795701 0 -0.024706850977337311 -0.00037484816871646831 0 -0.024715597507385029 -4.6608684221896187e-05 0 -0.024605392147195169 -0.00016738516963795701 0 -0.024607860465826512 -2.5820954121112664e-05 0 -0.024715597507385029 -4.6608684221896187e-05 0 -0.024396280128486603 3.7933858279790661e-05 0 -0.024504505896233809 4.4991413374968224e-05 0 -0.024393530826374559 -5.7892259320672331e-05 0 -0.024504505896233809 4.4991413374968224e-05 0 -0.024393530826374559 -5.7892259320672331e-05 0 -0.024511859451739556 -2.4317567122597501e-05 0 -0.024413406341064568 -0.00012451422540918917 0 -0.024393530826374559 -5.7892259320672331e-05 0 -0.024511859451739556 -2.4317567122597501e-05 0 -0.024611298936747513 8.1201897445460459e-05 0 -0.024548171583222585 8.5044229320362064e-06 0 -0.024506344553755395 6.7618430590541076e-05 0 -0.024547159147303786 5.8797432922622108e-07 0 -0.024526859205354714 -7.5966870535929281e-06 0 -0.024548171583222585 8.5044229320362064e-06 0 -0.024498999634477735 1.2866009711506312e-05 0 -0.024506344553755395 6.7618430590541076e-05 0 -0.024504505896233809 4.4991413374968224e-05 0 -0.024511859451739556 -2.4317567122597501e-05 0 -0.024547167860027565 3.7254229886537357e-05 0 -0.024526859205354714 -7.5966870535929281e-06 0 -0.024547443000959974 3.4886189444560677e-05 0 -0.024548171583222585 8.5044229320362064e-06 0 -0.024530559807991889 1.6456147342027207e-05 0 -0.024547167860027565 3.7254229886537357e-05 0 -0.024530559807991889 1.6456147342027207e-05 0 -0.024537034268687644 1.705891830710593e-05 0 -0.024547167860027565 3.7254229886537357e-05 0 -0.024530559807991889 1.6456147342027207e-05 0 -0.024537034268687644 1.705891830710593e-05 0 -0.024498999634477735 1.2866009711506312e-05 0 -0.024498999634477735 1.2866009711506312e-05 0 -0.024506344553755395 6.7618430590541076e-05 0 -0.024422994017404099 4.9479914718416651e-05 0 -0.024548171583222585 8.5044229320362064e-06 0 -0.024530559807991889 1.6456147342027207e-05 0 -0.024498999634477735 1.2866009711506312e-05 0 -0.024506344553755395 6.7618430590541076e-05 0 -0.024547987247253582 0.00016665341091118342 0 -0.024375793311652651 0.00019533831975672295 0 -0.024506344553755395 6.7618430590541076e-05 0 -0.024375793311652651 0.00019533831975672295 0 -0.024422994017404099 4.9479914718416651e-05 0 -0.024611298936747513 8.1201897445460459e-05 0 -0.024506344553755395 6.7618430590541076e-05 0 -0.024547987247253582 0.00016665341091118342 0 -0.024526453070566855 0.00031438607973515478 0 -0.024547987247253582 0.00016665341091118342 0 -0.024375793311652651 0.00019533831975672295 0 -0.024526453070566855 0.00031438607973515478 0 -0.024681400730885997 0.00020308549144426786 0 -0.024547987247253582 0.00016665341091118342 0 -0.024093043406522189 0.00033012144437645892 0 -0.024375793311652651 0.00019533831975672295 0 -0.024121883947534603 0.00015363032369755479 0 -0.023846914511649078 0.00036752165274454005 0 -0.024093043406522189 0.00033012144437645892 0 -0.024121883947534603 0.00015363032369755479 0 -0.024190483008711912 0.00031237331130985974 0 -0.024205233892492829 0.0002672732301522363 0 -0.024183430227846067 0.00055961966362549952 0 -0.024362516571463814 0.00028847659823338895 0 -0.024100301850376451 0.00029748216424777316 0 -0.024362516571463814 0.00028847659823338895 0 -0.024252691589201153 8.5451953593678921e-05 0 -0.02437661349318921 6.4561052335686627e-05 0 -0.024362516571463814 0.00028847659823338895 0 -0.024252691589201153 8.5451953593678921e-05 0 -0.024100301850376451 0.00029748216424777316 0 -0.024205233892492829 0.0002672732301522363 0 -0.024404656288003704 5.721229680799863e-05 0 -0.024375793311652651 0.00019533831975672295 0 -0.024121883947534603 0.00015363032369755479 0 -0.024422994017404099 4.9479914718416651e-05 0 -0.024362516571463814 0.00028847659823338895 0 -0.02437661349318921 6.4561052335686627e-05 0 -0.024422994017404099 4.9479914718416651e-05 0 -0.024498999634477735 1.2866009711506312e-05 0 -0.024422994017404099 4.9479914718416651e-05 0 -0.024467926818477734 -1.4944049512496919e-05 0 -0.02437661349318921 6.4561052335686627e-05 0 -0.024422994017404099 4.9479914718416651e-05 0 -0.024467926818477734 -1.4944049512496919e-05 0 -0.024537034268687644 1.705891830710593e-05 0 -0.024498999634477735 1.2866009711506312e-05 0 -0.024467926818477734 -1.4944049512496919e-05 0 -0.024537034268687644 1.705891830710593e-05 0 -0.024467926818477734 -1.4944049512496919e-05 0 -0.024560383893079185 1.9422107100634112e-05 0 -0.024537034268687644 1.705891830710593e-05 0 -0.024560383893079185 1.9422107100634112e-05 0 -0.024574537321915162 3.124018931321277e-05 0 -0.024560383893079185 1.9422107100634112e-05 0 -0.024579426787765569 -2.9764765167538317e-05 0 -0.024632783977380879 3.2795952597760432e-05 0 -0.02492315679506751 -3.7426200058106221e-05 0 -0.024926834833886895 -3.6876556431880671e-05 0 -0.024927432636429662 -3.6850892764874127e-05 0 -0.024503006226232041 -5.8182893133143865e-05 0 -0.024803820739242328 9.2188143355290447e-06 0 -0.02437661349318921 6.4561052335686627e-05 0 -0.024467926818477734 -1.4944049512496919e-05 0 -0.024259474656838059 -4.8480371720540555e-05 0 -0.024467926818477734 -1.4944049512496919e-05 0 -0.024560383893079185 1.9422107100634112e-05 0 -0.024579426787765569 -2.9764765167538317e-05 0 -0.024436060546276183 -2.5891201847990213e-05 0 -0.024503006226232041 -5.8182893133143865e-05 0 -0.024252691589201153 8.5451953593678921e-05 0 -0.02437661349318921 6.4561052335686627e-05 0 -0.024259474656838059 -4.8480371720540555e-05 0 -0.024307911298298804 4.8300154934574761e-05 0 -0.024503006226232041 -5.8182893133143865e-05 0 -0.024252691589201153 8.5451953593678921e-05 0 -0.024240410022220119 -9.308918391936268e-05 0 -0.024034205159299354 0.00010515861366369908 0 -0.024503006226232041 -5.8182893133143865e-05 0 -0.024554395785046947 -7.1534350510489295e-05 0 -0.02492315679506751 -3.7426200058106221e-05 0 -0.024925016749773897 -3.6202728565816038e-05 0 -0.024926834833886895 -3.6876556431880671e-05 0 -0.024240410022220119 -9.308918391936268e-05 0 -0.023989731013423689 -9.9215912581733642e-05 0 -0.024034205159299354 0.00010515861366369908 0 -0.024925016749773897 -3.6202728565816038e-05 0 -0.024926834833886895 -3.6876556431880671e-05 0 -0.024928610058958026 -3.6698968445809433e-05 0 -0.024926834833886895 -3.6876556431880671e-05 0 -0.024928610058958026 -3.6698968445809433e-05 0 -0.024929259437155956 -3.7015287288669915e-05 0 -0.024926834833886895 -3.6876556431880671e-05 0 -0.024929259437155956 -3.7015287288669915e-05 0 -0.024927432636429662 -3.6850892764874127e-05 0 -0.024934128367131519 -3.6664710777469766e-05 0 -0.024928610058958026 -3.6698968445809433e-05 0 -0.024923022602867332 -3.3294866895497759e-05 0 -0.024925016749773897 -3.6202728565816038e-05 0 -0.024928610058958026 -3.6698968445809433e-05 0 -0.024923022602867332 -3.3294866895497759e-05 0 -0.023816861869050927 0.00071154706306483491 0 -0.022775620092151814 0.0009292365618353461 0 -0.023989731013423689 -9.9215912581733642e-05 0 -0.023744429021662287 -0.00010216589400230787 0 -0.023826571178443397 0.00019246737271732772 0 -0.024554395785046947 -7.1534350510489295e-05 0 -0.023816861869050927 0.00071154706306483491 0 -0.023989731013423689 -9.9215912581733642e-05 0 -0.023826571178443397 0.00019246737271732772 0 -0.024034205159299354 0.00010515861366369908 0 -0.024252691589201153 8.5451953593678921e-05 0 -0.024034205159299354 0.00010515861366369908 0 -0.024100301850376451 0.00029748216424777316 0 -0.023826571178443397 0.00019246737271732772 0 -0.024034205159299354 0.00010515861366369908 0 -0.024100301850376451 0.00029748216424777316 0 -0.023901683199280179 0.00049701188271621176 0 -0.024183430227846067 0.00055961966362549952 0 -0.024100301850376451 0.00029748216424777316 0 -0.023901683199280179 0.00049701188271621176 0 -0.023826571178443397 0.00019246737271732772 0 -0.024100301850376451 0.00029748216424777316 0 -0.021831387878196724 0.0018354759389143807 0 -0.021938944647135038 0.0018736711506093559 0 -0.021919846626955505 0.001743287637614162 0 -0.022966303970129352 0.0012526419227696063 0 -0.022775620092151814 0.0009292365618353461 0 -0.024950727144925262 -3.017823120972528e-05 0 -0.024955336689450165 -1.9128765176706689e-05 0 -0.024939733602676789 -2.7785161843281472e-05 0 -0.024955336689450165 -1.9128765176706689e-05 0 -0.024939733602676789 -2.7785161843281472e-05 0 -0.024921637749204594 -8.7264658960427576e-06 0 -0.024939733602676789 -2.7785161843281472e-05 0 -0.024927106715541731 -2.8119535069080493e-05 0 -0.024921637749204594 -8.7264658960427576e-06 0 -0.024873753351060249 9.0954904390953312e-06 0 -0.024910565634880488 -1.4355124466475733e-06 0 -0.024933857625213239 -3.2922673627490073e-05 0 -0.024929538885624814 -3.579665939987284e-05 0 -0.024927106715541731 -2.8119535069080493e-05 0 -0.024939733602676789 -2.7785161843281472e-05 0 -0.024933857625213239 -3.2922673627490073e-05 0 -0.024939674781739675 -3.3335924851385503e-05 0 -0.024939733602676789 -2.7785161843281472e-05 0 -0.024933857625213239 -3.2922673627490073e-05 0 -0.024927106715541731 -2.8119535069080493e-05 0 -0.024933857625213239 -3.2922673627490073e-05 0 -0.024939674781739675 -3.3335924851385503e-05 0 -0.024933921289667472 -3.5886981747742165e-05 0 -0.024950727144925262 -3.017823120972528e-05 0 -0.024939733602676789 -2.7785161843281472e-05 0 -0.024939674781739675 -3.3335924851385503e-05 0 -0.024950727144925262 -3.017823120972528e-05 0 -0.024939674781739675 -3.3335924851385503e-05 0 -0.024940078978616352 -3.6533321859851553e-05 0 -0.024940078978616352 -3.6533321859851553e-05 0 -0.02493312577665786 -3.7076779258497189e-05 0 -0.024933921289667472 -3.5886981747742165e-05 0 -0.024939674781739675 -3.3335924851385503e-05 0 -0.024940078978616352 -3.6533321859851553e-05 0 -0.024933921289667472 -3.5886981747742165e-05 0 -0.024934128367131519 -3.6664710777469766e-05 0 -0.024928610058958026 -3.6698968445809433e-05 0 -0.02493312577665786 -3.7076779258497189e-05 0 -0.024934128367131519 -3.6664710777469766e-05 0 -0.024940078978616352 -3.6533321859851553e-05 0 -0.02493312577665786 -3.7076779258497189e-05 0 -0.024930527110181483 -3.6742651537058552e-05 0 -0.024929538885624814 -3.579665939987284e-05 0 -0.024927432636429662 -3.6850892764874127e-05 0 -0.024928610058958026 -3.6698968445809433e-05 0 -0.02493312577665786 -3.7076779258497189e-05 0 -0.024929259437155956 -3.7015287288669915e-05 0 -0.024929259437155956 -3.7015287288669915e-05 0 -0.024930527110181483 -3.6742651537058552e-05 0 -0.024927432636429662 -3.6850892764874127e-05 0 -0.02493312577665786 -3.7076779258497189e-05 0 -0.024929259437155956 -3.7015287288669915e-05 0 -0.024930527110181483 -3.6742651537058552e-05 0 -0.024930527110181483 -3.6742651537058552e-05 0 -0.024933921289667472 -3.5886981747742165e-05 0 -0.024929538885624814 -3.579665939987284e-05 0 -0.02493312577665786 -3.7076779258497189e-05 0 -0.024930527110181483 -3.6742651537058552e-05 0 -0.024933921289667472 -3.5886981747742165e-05 0 -0.024933857625213239 -3.2922673627490073e-05 0 -0.024933921289667472 -3.5886981747742165e-05 0 -0.024929538885624814 -3.579665939987284e-05 0 -0.024725791995672847 8.4235909825775113e-05 0 -0.02471096877012658 8.3469029143534262e-05 0 -0.024632783977380879 3.2795952597760432e-05 0 -0.024725791995672847 8.4235909825775113e-05 0 -0.02471096877012658 8.3469029143534262e-05 0 -0.02476575399418517 6.6055354069622746e-05 0 -0.02471096877012658 8.3469029143534262e-05 0 -0.024768974025190092 6.801095319891625e-05 0 -0.02476575399418517 6.6055354069622746e-05 0 -0.02471096877012658 8.3469029143534262e-05 0 -0.024622770697443973 4.5570079106040924e-05 0 -0.024611641637763824 6.8003880540566249e-05 0 -0.02471096877012658 8.3469029143534262e-05 0 -0.024622770697443973 4.5570079106040924e-05 0 -0.024632783977380879 3.2795952597760432e-05 0 -0.024825641038378782 2.5839717242612048e-05 0 -0.024803820739242328 9.2188143355290447e-06 0 -0.024560383893079185 1.9422107100634112e-05 0 -0.024622770697443973 4.5570079106040924e-05 0 -0.024632783977380879 3.2795952597760432e-05 0 -0.024537034268687644 1.705891830710593e-05 0 -0.024574537321915162 3.124018931321277e-05 0 -0.024578851625268825 5.1929622600170248e-05 0 -0.024560383893079185 1.9422107100634112e-05 0 -0.024622770697443973 4.5570079106040924e-05 0 -0.024574537321915162 3.124018931321277e-05 0 -0.024622770697443973 4.5570079106040924e-05 0 -0.024578851625268825 5.1929622600170248e-05 0 -0.024611641637763824 6.8003880540566249e-05 0 -0.024622770697443973 4.5570079106040924e-05 0 -0.024574537321915162 3.124018931321277e-05 0 -0.024578851625268825 5.1929622600170248e-05 0 -0.02471096877012658 8.3469029143534262e-05 0 -0.024809890986999143 5.5517906202641325e-05 0 -0.024768974025190092 6.801095319891625e-05 0 -0.024713246984959702 7.9223311600324045e-05 0 -0.02469510335933927 7.3033668460664321e-05 0 -0.02471096877012658 8.3469029143534262e-05 0 -0.024611641637763824 6.8003880540566249e-05 0 -0.024577420917446743 9.6541559254867577e-05 0 -0.024578851625268825 5.1929622600170248e-05 0 -0.024611641637763824 6.8003880540566249e-05 0 -0.024575260541603753 7.2728251515398812e-05 0 -0.024611641637763824 6.8003880540566249e-05 0 -0.024577420917446743 9.6541559254867577e-05 0 -0.024575260541603753 7.2728251515398812e-05 0 -0.024768974025190092 6.801095319891625e-05 0 -0.024920549825104769 2.9907194747545405e-05 0 -0.024846619452826204 3.5142466500944187e-05 0 -0.024809890986999143 5.5517906202641325e-05 0 -0.024768974025190092 6.801095319891625e-05 0 -0.024804804860916262 3.8862281207863664e-05 0 -0.024783714555100211 6.6742809346827858e-05 0 -0.02485810714279784 3.1686680811092067e-05 0 -0.024725791995672847 8.4235909825775113e-05 0 -0.02476575399418517 6.6055354069622746e-05 0 -0.024816016827855107 3.2952941059171533e-05 0 -0.024825641038378782 2.5839717242612048e-05 0 -0.024873753351060249 9.0954904390953312e-06 0 -0.024768974025190092 6.801095319891625e-05 0 -0.02476575399418517 6.6055354069622746e-05 0 -0.024799907676043727 5.1213066031020135e-05 0 -0.02476575399418517 6.6055354069622746e-05 0 -0.024799907676043727 5.1213066031020135e-05 0 -0.024816016827855107 3.2952941059171533e-05 0 -0.024799907676043727 5.1213066031020135e-05 0 -0.024816016827855107 3.2952941059171533e-05 0 -0.024846619452826204 3.5142466500944187e-05 0 -0.024768974025190092 6.801095319891625e-05 0 -0.024799907676043727 5.1213066031020135e-05 0 -0.024846619452826204 3.5142466500944187e-05 0 -0.024816016827855107 3.2952941059171533e-05 0 -0.024846619452826204 3.5142466500944187e-05 0 -0.024890827739676817 2.2740402210359293e-06 0 -0.024816016827855107 3.2952941059171533e-05 0 -0.024890827739676817 2.2740402210359293e-06 0 -0.024921637749204594 -8.7264658960427576e-06 0 -0.024920549825104769 2.9907194747545405e-05 0 -0.024936652693779694 -5.6041226319380482e-06 0 -0.024890827739676817 2.2740402210359293e-06 0 -0.024920549825104769 2.9907194747545405e-05 0 -0.024846619452826204 3.5142466500944187e-05 0 -0.024890827739676817 2.2740402210359293e-06 0 -0.024804804860916262 3.8862281207863664e-05 0 -0.024780073946133376 3.1147879811212245e-05 0 -0.024780100826082157 5.0229586342137701e-05 0 -0.02485810714279784 3.1686680811092067e-05 0 -0.024872333659653981 2.3833038513942903e-05 0 -0.024780073946133376 3.1147879811212245e-05 0 -0.024734930591383281 4.7323166575449812e-05 0 -0.024780100826082157 5.0229586342137701e-05 0 -0.024604188770762158 5.188803481249083e-05 0 -0.024607816749086252 7.5386774486511842e-05 0 -0.024662645316901256 6.8265116059438167e-05 0 -0.024604188770762158 5.188803481249083e-05 0 -0.024607816749086252 7.5386774486511842e-05 0 -0.024583302724851888 7.9424632371308466e-05 0 -0.024577420917446743 9.6541559254867577e-05 0 -0.024604188770762158 5.188803481249083e-05 0 -0.024583302724851888 7.9424632371308466e-05 0 -0.024809890986999143 5.5517906202641325e-05 0 -0.024804804860916262 3.8862281207863664e-05 0 -0.024780073946133376 3.1147879811212245e-05 0 -0.02469510335933927 7.3033668460664321e-05 0 -0.024693838404398438 4.7794425190942774e-05 0 -0.024577420917446743 9.6541559254867577e-05 0 -0.024583302724851888 7.9424632371308466e-05 0 -0.024575260541603753 7.2728251515398812e-05 0 -0.024583302724851888 7.9424632371308466e-05 0 -0.024575260541603753 7.2728251515398812e-05 0 -0.024574344974578523 7.3491683196445602e-05 0 -0.024575260541603753 7.2728251515398812e-05 0 -0.024562517333090537 5.570006934839485e-05 0 -0.024574344974578523 7.3491683196445602e-05 0 -0.024578851625268825 5.1929622600170248e-05 0 -0.024575260541603753 7.2728251515398812e-05 0 -0.024562517333090537 5.570006934839485e-05 0 -0.024537034268687644 1.705891830710593e-05 0 -0.024562517333090537 5.570006934839485e-05 0 -0.024547167860027565 3.7254229886537357e-05 0 -0.024537034268687644 1.705891830710593e-05 0 -0.024578851625268825 5.1929622600170248e-05 0 -0.024562517333090537 5.570006934839485e-05 0 -0.024562517333090537 5.570006934839485e-05 0 -0.024547167860027565 3.7254229886537357e-05 0 -0.02456015715615948 6.752767671727917e-05 0 -0.024504505896233809 4.4991413374968224e-05 0 -0.024547167860027565 3.7254229886537357e-05 0 -0.02456015715615948 6.752767671727917e-05 0 -0.024562517333090537 5.570006934839485e-05 0 -0.02456015715615948 6.752767671727917e-05 0 -0.024574344974578523 7.3491683196445602e-05 0 -0.02456015715615948 6.752767671727917e-05 0 -0.024574344974578523 7.3491683196445602e-05 0 -0.024613783850867505 7.8156100346308711e-05 0 -0.024607816749086252 7.5386774486511842e-05 0 -0.024574344974578523 7.3491683196445602e-05 0 -0.024613783850867505 7.8156100346308711e-05 0 -0.024607816749086252 7.5386774486511842e-05 0 -0.024583302724851888 7.9424632371308466e-05 0 -0.024574344974578523 7.3491683196445602e-05 0 -0.024504505896233809 4.4991413374968224e-05 0 -0.02456015715615948 6.752767671727917e-05 0 -0.024613783850867505 7.8156100346308711e-05 0 -0.024396280128486603 3.7933858279790661e-05 0 -0.024504505896233809 4.4991413374968224e-05 0 -0.024613783850867505 7.8156100346308711e-05 0 -0.024715597507385029 -4.6608684221896187e-05 0 -0.024613783850867505 7.8156100346308711e-05 0 -0.024642530711550599 4.9473421868649781e-05 0 -0.024607860465826512 -2.5820954121112664e-05 0 -0.024715597507385029 -4.6608684221896187e-05 0 -0.024642530711550599 4.9473421868649781e-05 0 -0.024546496935009429 -2.5524733371741246e-05 0 -0.024604661436624955 6.367569331964615e-05 0 -0.024613783850867505 7.8156100346308711e-05 0 -0.024669172197999495 7.1389636142026009e-05 0 -0.024662645316901256 6.8265116059438167e-05 0 -0.024613783850867505 7.8156100346308711e-05 0 -0.024642530711550599 4.9473421868649781e-05 0 -0.024669172197999495 7.1389636142026009e-05 0 -0.024669172197999495 7.1389636142026009e-05 0 -0.024662645316901256 6.8265116059438167e-05 0 -0.024738438888134633 6.35451738794196e-05 0 -0.024607816749086252 7.5386774486511842e-05 0 -0.024613783850867505 7.8156100346308711e-05 0 -0.024662645316901256 6.8265116059438167e-05 0 -0.024693838404398438 4.7794425190942774e-05 0 -0.024726343470416169 4.5008076896660839e-05 0 -0.024604188770762158 5.188803481249083e-05 0 -0.024662645316901256 6.8265116059438167e-05 0 -0.024734930591383281 4.7323166575449812e-05 0 -0.024662645316901256 6.8265116059438167e-05 0 -0.024738438888134633 6.35451738794196e-05 0 -0.024734930591383281 4.7323166575449812e-05 0 -0.024738438888134633 6.35451738794196e-05 0 -0.024734930591383281 4.7323166575449812e-05 0 -0.024819035167618294 4.3806325533048712e-05 0 -0.024734930591383281 4.7323166575449812e-05 0 -0.02477337362854537 4.3407488547335988e-05 0 -0.024780100826082157 5.0229586342137701e-05 0 -0.024734930591383281 4.7323166575449812e-05 0 -0.02477337362854537 4.3407488547335988e-05 0 -0.024819035167618294 4.3806325533048712e-05 0 -0.02477337362854537 4.3407488547335988e-05 0 -0.024819035167618294 4.3806325533048712e-05 0 -0.024915652342081644 5.5154968785365004e-07 0 -0.024819035167618294 4.3806325533048712e-05 0 -0.024915652342081644 5.5154968785365004e-07 0 -0.024916652009693466 7.5510996776868184e-06 0 -0.024915652342081644 5.5154968785365004e-07 0 -0.024999943948062188 2.2458602381957456e-08 0 -0.024999871489446455 -5.7365216532439195e-09 0 -0.024915652342081644 5.5154968785365004e-07 0 -0.024999943948062188 2.2458602381957456e-08 0 -0.024981502913883551 -2.752899150769103e-06 0 -0.024873554631703886 1.5083549901294975e-05 0 -0.024905599089361595 2.8816925424954852e-06 0 -0.024969388790708088 -2.0401807769857676e-05 0 -0.024915652342081644 5.5154968785365004e-07 0 -0.024981502913883551 -2.752899150769103e-06 0 -0.024969388790708088 -2.0401807769857676e-05 0 -0.024981502913883551 -2.752899150769103e-06 0 -0.024978288472578096 -7.866485473171692e-06 0 -0.024981502913883551 -2.752899150769103e-06 0 -0.024999978958879676 -1.0205237503989805e-08 0 -0.024978288472578096 -7.866485473171692e-06 0 -0.024999943948062188 2.2458602381957456e-08 0 -0.024981502913883551 -2.752899150769103e-06 0 -0.024999978958879676 -1.0205237503989805e-08 0 -0.024999978958879676 -1.0205237503989805e-08 0 -0.024978288472578096 -7.866485473171692e-06 0 -0.024982548248539505 -4.1080065796543191e-06 0 -0.024978288472578096 -7.866485473171692e-06 0 -0.024959280935012818 -8.5798627602667462e-06 0 -0.024982548248539505 -4.1080065796543191e-06 0 -0.024978288472578096 -7.866485473171692e-06 0 -0.024962860867359608 -1.0806396597228924e-05 0 -0.024959280935012818 -8.5798627602667462e-06 0 -0.024962860867359608 -1.0806396597228924e-05 0 -0.024936652693779694 -5.6041226319380482e-06 0 -0.024959280935012818 -8.5798627602667462e-06 0 -0.024969388790708088 -2.0401807769857676e-05 0 -0.024962860867359608 -1.0806396597228924e-05 0 -0.024964460214144849 2.6379438018154019e-07 0 -0.024969388790708088 -2.0401807769857676e-05 0 -0.024978288472578096 -7.866485473171692e-06 0 -0.024962860867359608 -1.0806396597228924e-05 0 -0.024873554631703886 1.5083549901294975e-05 0 -0.024872333659653981 2.3833038513942903e-05 0 -0.024962860867359608 -1.0806396597228924e-05 0 -0.024964460214144849 2.6379438018154019e-07 0 -0.024936652693779694 -5.6041226319380482e-06 0 -0.024920549825104769 2.9907194747545405e-05 0 -0.024964460214144849 2.6379438018154019e-07 0 -0.024936652693779694 -5.6041226319380482e-06 0 -0.024936652693779694 -5.6041226319380482e-06 0 -0.024890827739676817 2.2740402210359293e-06 0 -0.024931473423666934 -6.3662573132601721e-06 0 -0.024890827739676817 2.2740402210359293e-06 0 -0.024931473423666934 -6.3662573132601721e-06 0 -0.024921637749204594 -8.7264658960427576e-06 0 -0.024931473423666934 -6.3662573132601721e-06 0 -0.024963896867936097 -2.1010545824775511e-06 0 -0.024921637749204594 -8.7264658960427576e-06 0 -0.024931473423666934 -6.3662573132601721e-06 0 -0.024959280935012818 -8.5798627602667462e-06 0 -0.024963896867936097 -2.1010545824775511e-06 0 -0.024936652693779694 -5.6041226319380482e-06 0 -0.024931473423666934 -6.3662573132601721e-06 0 -0.024959280935012818 -8.5798627602667462e-06 0 -0.024959280935012818 -8.5798627602667462e-06 0 -0.024982548248539505 -4.1080065796543191e-06 0 -0.024963896867936097 -2.1010545824775511e-06 0 -0.024999978958879676 -1.0205237503989805e-08 0 -0.024982548248539505 -4.1080065796543191e-06 0 -0.024999961140558118 -4.6944941916842599e-09 0 -0.024982548248539505 -4.1080065796543191e-06 0 -0.024999961140558118 -4.6944941916842599e-09 0 -0.024963896867936097 -2.1010545824775511e-06 0 -0.024963896867936097 -2.1010545824775511e-06 0 -0.024999970547377254 6.360951551465157e-09 0 -0.024974372921630114 -1.7346295472622406e-06 0 -0.024999961140558118 -4.6944941916842599e-09 0 -0.024963896867936097 -2.1010545824775511e-06 0 -0.024999970547377254 6.360951551465157e-09 0 -0.024986944747135972 -5.9568876659534492e-07 0 -0.024999970547377254 6.360951551465157e-09 0 -0.024974372921630114 -1.7346295472622406e-06 0 -0.024970541557646109 -9.9221729262536329e-06 0 -0.024974372921630114 -1.7346295472622406e-06 0 -0.024954616630428042 -5.685136002494375e-06 0 -0.024963896867936097 -2.1010545824775511e-06 0 -0.024954616630428042 -5.685136002494375e-06 0 -0.024921637749204594 -8.7264658960427576e-06 0 -0.024963896867936097 -2.1010545824775511e-06 0 -0.024974372921630114 -1.7346295472622406e-06 0 -0.024954616630428042 -5.685136002494375e-06 0 -0.024955336689450165 -1.9128765176706689e-05 0 -0.024954616630428042 -5.685136002494375e-06 0 -0.024921637749204594 -8.7264658960427576e-06 0 -0.024970541557646109 -9.9221729262536329e-06 0 -0.024955336689450165 -1.9128765176706689e-05 0 -0.024954616630428042 -5.685136002494375e-06 0 -0.023977607564903358 0.00066323722667470798 0 -0.023910473752408859 0.00056195514742700295 0 -0.0240004768815325 0.00055570878811517092 0 -0.02451020933745738 0.00033922472604159404 0 -0.023830079024531818 0.00046666943345170483 0 -0.025127161605550487 0.00026689209198123152 0 -0.025006446998083558 0.00024832258910436987 0 -0.024939859002329541 0.00037406999790825189 0 -0.023977607564903358 0.00066323722667470798 0 -0.0240004768815325 0.00055570878811517092 0 -0.02416428902107453 0.00063587076385424588 0 -0.02451020933745738 0.00033922472604159404 0 -0.02456107500383449 0.00051987982405211875 0 -0.024975257831978018 5.6326275621017223e-05 0 -0.02496619660222809 4.7220540622055564e-05 0 -0.02498335336579768 3.9555111281789566e-05 0 -0.025127161605550487 0.00026689209198123152 0 -0.025006446998083558 0.00024832258910436987 0 -0.024988769308546859 0.00013148122060593862 0 -0.02451020933745738 0.00033922472604159404 0 -0.025073794043984892 7.9632450442830251e-05 0 -0.024975257831978018 5.6326275621017223e-05 0 -0.024990360179225984 4.4269805624423772e-05 0 -0.02498335336579768 3.9555111281789566e-05 0 -0.02451020933745738 0.00033922472604159404 0 -0.024396335725607309 0.0001893193430740151 0 -0.023897957071411471 0.00033460381531781597 0 -0.023910222214480539 0.00040778778745721901 0 -0.023971414896513835 0.00038051765500667176 0 -0.023897957071411471 0.00033460381531781597 0 -0.023910222214480539 0.00040778778745721901 0 -0.023856727146831885 0.00042112891455356336 0 -0.023822479112599691 0.00037804997854469871 0 -0.023897957071411471 0.00033460381531781597 0 -0.023856727146831885 0.00042112891455356336 0 -0.023910473752408859 0.00056195514742700295 0 -0.023890228936902676 0.00046704667393770402 0 -0.023916116926267796 0.00047134039764304501 0 -0.023910222214480539 0.00040778778745721901 0 -0.023856727146831885 0.00042112891455356336 0 -0.023890228936902676 0.00046704667393770402 0 -0.023830079024531818 0.00046666943345170483 0 -0.023905878765100981 0.0004892141251598229 0 -0.023910222214480539 0.00040778778745721901 0 -0.023890228936902676 0.00046704667393770402 0 -0.023928520779392778 0.00045878258829023009 0 -0.02389283340961678 0.00046009015098164707 0 -0.023897461655378267 0.00046058157127715872 0 -0.023928520779392778 0.00045878258829023009 0 -0.023890228936902676 0.00046704667393770402 0 -0.023897461655378267 0.00046058157127715872 0 -0.023928520779392778 0.00045878258829023009 0 -0.023890228936902676 0.00046704667393770402 0 -0.023897461655378267 0.00046058157127715872 0 -0.023900929652421254 0.00045834478247133221 0 -0.023890228936902676 0.00046704667393770402 0 -0.023916116926267796 0.00047134039764304501 0 -0.023900929652421254 0.00045834478247133221 0 -0.023899014839361191 0.00044327018455876292 0 -0.023897461655378267 0.00046058157127715872 0 -0.023900929652421254 0.00045834478247133221 0 -0.023899014839361191 0.00044327018455876292 0 -0.023900929652421254 0.00045834478247133221 0 -0.023913981007787913 0.00045349815054060867 0 -0.023899014839361191 0.00044327018455876292 0 -0.023913981007787913 0.00045349815054060867 0 -0.023935641518468293 0.00044853399604095716 0 -0.023916116926267796 0.00047134039764304501 0 -0.023900929652421254 0.00045834478247133221 0 -0.023913981007787913 0.00045349815054060867 0 -0.023916116926267796 0.00047134039764304501 0 -0.023913981007787913 0.00045349815054060867 0 -0.023935641518468293 0.00044853399604095716 0 -0.023935641518468293 0.00044853399604095716 0 -0.023974692626927273 0.00042444355634672882 0 -0.023966898795428914 0.00047420725281166443 0 -0.023916116926267796 0.00047134039764304501 0 -0.023935641518468293 0.00044853399604095716 0 -0.023966898795428914 0.00047420725281166443 0 -0.023910473752408859 0.00056195514742700295 0 -0.023966898795428914 0.00047420725281166443 0 -0.0240004768815325 0.00055570878811517092 0 -0.023910473752408859 0.00056195514742700295 0 -0.023916116926267796 0.00047134039764304501 0 -0.023966898795428914 0.00047420725281166443 0 -0.0240004768815325 0.00055570878811517092 0 -0.024029953337720046 0.0004703080325110208 0 -0.02416428902107453 0.00063587076385424588 0 -0.023966898795428914 0.00047420725281166443 0 -0.0240004768815325 0.00055570878811517092 0 -0.024029953337720046 0.0004703080325110208 0 -0.023658991384851426 0.00038881882794188327 0 -0.024058270106130736 0.00042466465997009382 0 -0.023974692626927273 0.00042444355634672882 0 -0.024029953337720046 0.0004703080325110208 0 -0.024104102683010383 0.00041224737785633002 0 -0.023974692626927273 0.00042444355634672882 0 -0.023966898795428914 0.00047420725281166443 0 -0.024029953337720046 0.0004703080325110208 0 -0.024361752857886425 0.00019227986668219767 0 -0.024104102683010383 0.00041224737785633002 0 -0.024341758038882749 0.00041639547524779404 0 -0.024361752857886425 0.00019227986668219767 0 -0.024341758038882749 0.00041639547524779404 0 -0.024482290840141415 0.00033083335507351198 0 -0.024341758038882749 0.00041639547524779404 0 -0.024482290840141415 0.00033083335507351198 0 -0.024612647191151263 0.00047931863644723623 0 -0.024341758038882749 0.00041639547524779404 0 -0.02416428902107453 0.00063587076385424588 0 -0.024612647191151263 0.00047931863644723623 0 -0.02456107500383449 0.00051987982405211875 0 -0.02461268822553643 0.00047328821380930949 0 -0.024939859002329541 0.00037406999790825189 0 -0.024612647191151263 0.00047931863644723623 0 -0.024786569777462634 0.00031050073003092429 0 -0.024029953337720046 0.0004703080325110208 0 -0.024104102683010383 0.00041224737785633002 0 -0.02416428902107453 0.00063587076385424588 0 -0.024104102683010383 0.00041224737785633002 0 -0.024341758038882749 0.00041639547524779404 0 -0.02416428902107453 0.00063587076385424588 0 -0.024607860465826512 -2.5820954121112664e-05 0 -0.024642530711550599 4.9473421868649781e-05 0 -0.024594596877134434 6.1299609891865767e-05 0 -0.024470616463027887 -0.00012748126725023616 0 -0.024607860465826512 -2.5820954121112664e-05 0 -0.024594596877134434 6.1299609891865767e-05 0 -0.02453710401190333 0.0002507717589145646 0 -0.024614239349983608 0.000483357249957127 0 -0.02455426866140328 0.00037511631992360171 0 -0.024486841471274286 -3.5199432474732349e-05 0 -0.024601022914269629 0.00026346045497861975 0 -0.024614239349983608 0.000483357249957127 0 -0.02455426866140328 0.00037511631992360171 0 -0.024612647191151263 0.00047931863644723623 0 -0.02453710401190333 0.0002507717589145646 0 -0.024482290840141415 0.00033083335507351198 0 -0.02455426866140328 0.00037511631992360171 0 -0.024482290840141415 0.00033083335507351198 0 -0.02455426866140328 0.00037511631992360171 0 -0.024612647191151263 0.00047931863644723623 0 -0.024614239349983608 0.000483357249957127 0 -0.024612647191151263 0.00047931863644723623 0 -0.024665790682060863 0.0002781313865394634 0 -0.024601022914269629 0.00026346045497861975 0 -0.024686643561843344 0.00017469842254121227 0 -0.024642530711550599 4.9473421868649781e-05 0 -0.024669172197999495 7.1389636142026009e-05 0 -0.024594596877134434 6.1299609891865767e-05 0 -0.024669172197999495 7.1389636142026009e-05 0 -0.024594596877134434 6.1299609891865767e-05 0 -0.024695966242209599 7.1154998825649567e-05 0 -0.024669172197999495 7.1389636142026009e-05 0 -0.024738438888134633 6.35451738794196e-05 0 -0.024695966242209599 7.1154998825649567e-05 0 -0.024665790682060863 0.0002781313865394634 0 -0.024786569777462634 0.00031050073003092429 0 -0.024857429440803776 0.00016312139078704746 0 -0.024612647191151263 0.00047931863644723623 0 -0.024665790682060863 0.0002781313865394634 0 -0.024786569777462634 0.00031050073003092429 0 -0.024665790682060863 0.0002781313865394634 0 -0.024857429440803776 0.00016312139078704746 0 -0.024792123877867892 7.1286125580608732e-05 0 -0.024686643561843344 0.00017469842254121227 0 -0.024772668569370267 7.8764952910725811e-05 0 -0.024738438888134633 6.35451738794196e-05 0 -0.024695966242209599 7.1154998825649567e-05 0 -0.024792123877867892 7.1286125580608732e-05 0 -0.025006446998083558 0.00024832258910436987 0 -0.024939859002329541 0.00037406999790825189 0 -0.024786569777462634 0.00031050073003092429 0 -0.025006446998083558 0.00024832258910436987 0 -0.024786569777462634 0.00031050073003092429 0 -0.024857429440803776 0.00016312139078704746 0 -0.025006446998083558 0.00024832258910436987 0 -0.024857429440803776 0.00016312139078704746 0 -0.024988769308546859 0.00013148122060593862 0 -0.025073794043984892 7.9632450442830251e-05 0 -0.024891795990028491 2.7012502194601403e-05 0 -0.02496619660222809 4.7220540622055564e-05 0 -0.024925758760160347 3.0152526394761766e-05 0 -0.024980381033653434 1.0866862050320888e-05 0 -0.024857429440803776 0.00016312139078704746 0 -0.024988769308546859 0.00013148122060593862 0 -0.024925758760160347 3.0152526394761766e-05 0 -0.024857429440803776 0.00016312139078704746 0 -0.024925758760160347 3.0152526394761766e-05 0 -0.024792123877867892 7.1286125580608732e-05 0 -0.024738438888134633 6.35451738794196e-05 0 -0.024819035167618294 4.3806325533048712e-05 0 -0.024792123877867892 7.1286125580608732e-05 0 -0.024925758760160347 3.0152526394761766e-05 0 -0.024792123877867892 7.1286125580608732e-05 0 -0.024916652009693466 7.5510996776868184e-06 0 -0.024819035167618294 4.3806325533048712e-05 0 -0.024792123877867892 7.1286125580608732e-05 0 -0.024916652009693466 7.5510996776868184e-06 0 -0.024916652009693466 7.5510996776868184e-06 0 -0.024999933185719889 -6.487415836861149e-09 0 -0.024999871489446455 -5.7365216532439195e-09 0 -0.024916652009693466 7.5510996776868184e-06 0 -0.024999933185719889 -6.487415836861149e-09 0 -0.024969837050915371 4.558925550274488e-06 0 -0.024915652342081644 5.5154968785365004e-07 0 -0.024916652009693466 7.5510996776868184e-06 0 -0.024999871489446455 -5.7365216532439195e-09 0 -0.024925758760160347 3.0152526394761766e-05 0 -0.024969837050915371 4.558925550274488e-06 0 -0.024980381033653434 1.0866862050320888e-05 0 -0.024925758760160347 3.0152526394761766e-05 0 -0.024916652009693466 7.5510996776868184e-06 0 -0.024969837050915371 4.558925550274488e-06 0 -0.024999933185719889 -6.487415836861149e-09 0 -0.024969837050915371 4.558925550274488e-06 0 -0.024999970530632264 1.52662465582091e-09 0 -0.024969837050915371 4.558925550274488e-06 0 -0.024999970530632264 1.52662465582091e-09 0 -0.024980381033653434 1.0866862050320888e-05 0 -0.024999993209659746 1.6060623802807986e-09 0 -0.024980381033653434 1.0866862050320888e-05 0 -0.024989007728440728 1.9160811846411345e-05 0 -0.024999970530632264 1.52662465582091e-09 0 -0.024999993209659746 1.6060623802807986e-09 0 -0.024980381033653434 1.0866862050320888e-05 0 -0.024999993209659746 1.6060623802807986e-09 0 -0.024989007728440728 1.9160811846411345e-05 0 -0.02499725208202417 8.8001637016491673e-06 0 -0.02496619660222809 4.7220540622055564e-05 0 -0.024980381033653434 1.0866862050320888e-05 0 -0.024989007728440728 1.9160811846411345e-05 0 -0.02496619660222809 4.7220540622055564e-05 0 -0.024989007728440728 1.9160811846411345e-05 0 -0.02498335336579768 3.9555111281789566e-05 0 -0.024396335725607309 0.0001893193430740151 0 -0.02463142310550805 8.1740021601846749e-05 0 -0.024990360179225984 4.4269805624423772e-05 0 -0.024997843005589136 2.1104233929606148e-05 0 -0.025005505571375385 3.2098790680642328e-05 0 -0.024990360179225984 4.4269805624423772e-05 0 -0.02498335336579768 3.9555111281789566e-05 0 -0.024997843005589136 2.1104233929606148e-05 0 -0.024989007728440728 1.9160811846411345e-05 0 -0.02498335336579768 3.9555111281789566e-05 0 -0.024997843005589136 2.1104233929606148e-05 0 -0.024997843005589136 2.1104233929606148e-05 0 -0.02499725208202417 8.8001637016491673e-06 0 -0.02500173055452513 5.5014577669871611e-06 0 -0.024989007728440728 1.9160811846411345e-05 0 -0.024997843005589136 2.1104233929606148e-05 0 -0.02499725208202417 8.8001637016491673e-06 0 -0.024999993209659746 1.6060623802807986e-09 0 -0.02499725208202417 8.8001637016491673e-06 0 -0.02499999674280427 6.8504171501468476e-09 0 -0.02499725208202417 8.8001637016491673e-06 0 -0.02499999674280427 6.8504171501468476e-09 0 -0.02500173055452513 5.5014577669871611e-06 0 -0.02500173055452513 5.5014577669871611e-06 0 -0.025001058375245352 8.5779068841198726e-07 0 -0.025007475732011165 1.3735766919768585e-05 0 -0.02499999674280427 6.8504171501468476e-09 0 -0.02500173055452513 5.5014577669871611e-06 0 -0.025000016774797653 1.3398136931229102e-09 0 -0.02500173055452513 5.5014577669871611e-06 0 -0.025001058375245352 8.5779068841198726e-07 0 -0.025000016774797653 1.3398136931229102e-09 0 -0.024997145661462331 -1.0069098091755813e-07 0 -0.024999976554980551 -2.0839337642846124e-09 0 -0.024981990572299818 8.2416776680705808e-06 0 -0.024997145661462331 -1.0069098091755813e-07 0 -0.024999979765938412 4.6246506789365821e-10 0 -0.024999976554980551 -2.0839337642846124e-09 0 -0.024957213262964649 -4.574916381019269e-05 0 -0.024999838204589158 -7.7776906074171603e-08 0 -0.024957213262964649 -4.574916381019269e-05 0 -0.024908177053284665 -9.6468963533998196e-06 0 -0.024957213262964649 -4.574916381019269e-05 0 -0.02495639980313194 -3.0571086477494859e-05 0 -0.024997145661462331 -1.0069098091755813e-07 0 -0.024981990572299818 8.2416776680705808e-06 0 -0.024954584707454264 1.8844482327107719e-05 0 -0.024858153885258714 -0.00013932709524274792 0 -0.024841283962345074 -4.6112491797635698e-05 0 -0.024872450216396575 -3.5342828733123509e-05 0 -0.024981990572299818 8.2416776680705808e-06 0 -0.024968744645039075 2.1159992585366888e-05 0 -0.024954584707454264 1.8844482327107719e-05 0 -0.024997843005589136 2.1104233929606148e-05 0 -0.02500173055452513 5.5014577669871611e-06 0 -0.025007475732011165 1.3735766919768585e-05 0 -0.02499930910566147 8.8679581292821691e-09 0 -0.024530880400839523 0.00020668246068648294 0 -0.024810466735809243 8.0841841268292056e-05 0 -0.024999898889365844 7.5206706310751797e-08 0 -0.024765830954747409 0.00012636726558310174 0 -0.024999976554980551 -2.0839337642846124e-09 0 -0.024981990572299818 8.2416776680705808e-06 0 -0.024989435811655594 1.4547812599422826e-05 0 -0.025000016719222109 5.0313149168423766e-09 0 -0.024999976554980551 -2.0839337642846124e-09 0 -0.024989435811655594 1.4547812599422826e-05 0 -0.024981990572299818 8.2416776680705808e-06 0 -0.024989435811655594 1.4547812599422826e-05 0 -0.024968744645039075 2.1159992585366888e-05 0 -0.024530880400839523 0.00020668246068648294 0 -0.024502689939465819 0.00028451877174911323 0 -0.024810466735809243 8.0841841268292056e-05 0 -0.024530880400839523 0.00020668246068648294 0 -0.024411365811397762 0.00033859808387939753 0 -0.024502689939465819 0.00028451877174911323 0 -0.024989435811655594 1.4547812599422826e-05 0 -0.024968744645039075 2.1159992585366888e-05 0 -0.024942165137952211 7.1420143452327888e-05 0 -0.024765830954747409 0.00012636726558310174 0 -0.024691277633865919 0.00018927677452858775 0 -0.024530880400839523 0.00020668246068648294 0 -0.02442303384323441 0.00032013885677169382 0 -0.024411365811397762 0.00033859808387939753 0 -0.02442303384323441 0.00032013885677169382 0 -0.024411365811397762 0.00033859808387939753 0 -0.02438691791698535 0.00026427557886863831 0 -0.024997843005589136 2.1104233929606148e-05 0 -0.025007475732011165 1.3735766919768585e-05 0 -0.025005505571375385 3.2098790680642328e-05 0 -0.02495639980313194 -3.0571086477494859e-05 0 -0.02463142310550805 8.1740021601846749e-05 0 -0.024908177053284665 -9.6468963533998196e-06 0 -0.024903109604350101 9.3476312311667871e-05 0 -0.024841283962345074 -4.6112491797635698e-05 0 -0.024876660495969559 4.1084688263548525e-05 0 -0.024822603010671827 6.6806174176923207e-05 0 -0.024841283962345074 -4.6112491797635698e-05 0 -0.024872450216396575 -3.5342828733123509e-05 0 -0.024876660495969559 4.1084688263548525e-05 0 -0.024968744645039075 2.1159992585366888e-05 0 -0.024942165137952211 7.1420143452327888e-05 0 -0.024954584707454264 1.8844482327107719e-05 0 -0.024942165137952211 7.1420143452327888e-05 0 -0.024954584707454264 1.8844482327107719e-05 0 -0.024897097834449048 9.2897257874714666e-05 0 -0.024872450216396575 -3.5342828733123509e-05 0 -0.024876660495969559 4.1084688263548525e-05 0 -0.024897097834449048 9.2897257874714666e-05 0 -0.024901707032331855 1.611399873756599e-05 0 -0.02463142310550805 8.1740021601846749e-05 0 -0.024876660495969559 4.1084688263548525e-05 0 -0.024897097834449048 9.2897257874714666e-05 0 -0.024854396313645909 8.4629139425641028e-05 0 -0.024876660495969559 4.1084688263548525e-05 0 -0.024854396313645909 8.4629139425641028e-05 0 -0.024809712297633124 6.5262777583139262e-05 0 -0.024809712297633124 6.5262777583139262e-05 0 -0.024773840799903562 0.00018872773513700785 0 -0.024833366071623817 0.00014263879732321873 0 -0.023897957071411471 0.00033460381531781597 0 -0.023997773449329268 0.00028222018081126149 0 -0.023971414896513835 0.00038051765500667176 0 -0.02463142310550805 8.1740021601846749e-05 0 -0.02432401561426065 0.00030152890598238212 0 -0.024773840799903562 0.00018872773513700785 0 -0.024871461618966133 0.00019154975958628873 0 -0.024833366071623817 0.00014263879732321873 0 -0.024773840799903562 0.00018872773513700785 0 -0.024871461618966133 0.00019154975958628873 0 -0.024788005352005295 0.00024789687962769338 0 -0.024942165137952211 7.1420143452327888e-05 0 -0.024897097834449048 9.2897257874714666e-05 0 -0.024871461618966133 0.00019154975958628873 0 -0.024897097834449048 9.2897257874714666e-05 0 -0.024871461618966133 0.00019154975958628873 0 -0.024833366071623817 0.00014263879732321873 0 -0.024854396313645909 8.4629139425641028e-05 0 -0.024809712297633124 6.5262777583139262e-05 0 -0.024833366071623817 0.00014263879732321873 0 -0.024897097834449048 9.2897257874714666e-05 0 -0.024854396313645909 8.4629139425641028e-05 0 -0.024833366071623817 0.00014263879732321873 0 -0.02442303384323441 0.00032013885677169382 0 -0.024489486047877537 0.00014653431197641454 0 -0.02438691791698535 0.00026427557886863831 0 -0.024691277633865919 0.00018927677452858775 0 -0.024642658426308393 0.00017201620364651124 0 -0.024489486047877537 0.00014653431197641454 0 -0.02438691791698535 0.00026427557886863831 0 -0.02428129048991565 0.00017539247273277368 0 -0.024411365811397762 0.00033859808387939753 0 -0.024351927291666443 -0.00012152966459572166 0 -0.024059493279389565 5.2425727460090166e-05 0 -0.024388633440197746 0.00031256869730590897 0 -0.02432165915673062 2.9380427691978936e-05 0 -0.024411365811397762 0.00033859808387939753 0 -0.02438691791698535 0.00026427557886863831 0 -0.02428129048991565 0.00017539247273277368 0 -0.02432165915673062 2.9380427691978936e-05 0 -0.024225764979949948 -0.00044724848090203502 0 -0.024489486047877537 0.00014653431197641454 0 -0.02428129048991565 0.00017539247273277368 0 -0.024373394846229576 -1.9755965546739733e-06 0 -0.024373394846229576 -1.9755965546739733e-06 0 -0.024340806525649517 -0.0001812889974751826 0 -0.024553994283855692 -0.00014507576368363319 0 -0.024373394846229576 -1.9755965546739733e-06 0 -0.02421210485656481 -5.8084524232449288e-05 0 -0.024340806525649517 -0.0001812889974751826 0 -0.024351927291666443 -0.00012152966459572166 0 -0.024271210854538223 -0.00080413244141704489 0 -0.023830674698297551 -0.00075434836778202061 0 -0.02428129048991565 0.00017539247273277368 0 -0.024373394846229576 -1.9755965546739733e-06 0 -0.02421210485656481 -5.8084524232449288e-05 0 -0.024271210854538223 -0.00080413244141704489 0 -0.023923502742755478 -0.0011892918243622446 0 -0.023830674698297551 -0.00075434836778202061 0 -0.02421210485656481 -5.8084524232449288e-05 0 -0.024340806525649517 -0.0001812889974751826 0 -0.024162486084326019 -0.0003232007829792454 0 -0.024225764979949948 -0.00044724848090203502 0 -0.024418060018674474 -0.0008384938510894378 0 -0.024271210854538223 -0.00080413244141704489 0 -0.023923502742755478 -0.0011892918243622446 0 -0.024238452405976035 -0.0015179785940469084 0 -0.024340806525649517 -0.0001812889974751826 0 -0.024300837437623426 -0.00032175137766261711 0 -0.024162486084326019 -0.0003232007829792454 0 -0.024340806525649517 -0.0001812889974751826 0 -0.024442114178595944 -0.00034288385866315088 0 -0.024300837437623426 -0.00032175137766261711 0 -0.024340806525649517 -0.0001812889974751826 0 -0.024553994283855692 -0.00014507576368363319 0 -0.024442114178595944 -0.00034288385866315088 0 -0.024799440238343542 0.00030573431448099409 0 -0.024738608521844185 0.0003532616005918568 0 -0.024731606512480891 0.00040896820764003413 0 -0.023131921451970131 0.00017688075343984101 0 -0.024478285186352033 0.00041128171532797247 0 -0.024690877197386409 0.00039893286026763204 0 -0.024738608521844185 0.0003532616005918568 0 -0.024732881525811181 0.00029855737802261632 0 -0.024799440238343542 0.00030573431448099409 0 -0.024738608521844185 0.0003532616005918568 0 -0.024732881525811181 0.00029855737802261632 0 -0.024799440238343542 0.00030573431448099409 0 -0.024732881525811181 0.00029855737802261632 0 -0.024788005352005295 0.00024789687962769338 0 -0.024773840799903562 0.00018872773513700785 0 -0.024732881525811181 0.00029855737802261632 0 -0.024788005352005295 0.00024789687962769338 0 -0.023910222214480539 0.00040778778745721901 0 -0.023971414896513835 0.00038051765500667176 0 -0.023928520779392778 0.00045878258829023009 0 -0.02432401561426065 0.00030152890598238212 0 -0.024478285186352033 0.00041128171532797247 0 -0.024642658426308393 0.00017201620364651124 0 -0.024925247281335331 8.5871594408024122e-05 0 -0.024871461618966133 0.00019154975958628873 0 -0.024799440238343542 0.00030573431448099409 0 -0.024788005352005295 0.00024789687962769338 0 -0.024489486047877537 0.00014653431197641454 0 -0.024373394846229576 -1.9755965546739733e-06 0 -0.024553994283855692 -0.00014507576368363319 0 -0.022975024026126587 -0.00055698828555165092 0 -0.022403263565773001 -0.00066137452687744125 0 -0.022667738140896499 -0.0010509561585779876 0 -0.022403263565773001 -0.00066137452687744125 0 -0.021967452108540352 -0.00049848352970832753 0 -0.022066835482632174 -0.00098171881196317261 0 -0.022403263565773001 -0.00066137452687744125 0 -0.022667738140896499 -0.0010509561585779876 0 -0.022066835482632174 -0.00098171881196317261 0 -0.022667738140896499 -0.0010509561585779876 0 -0.022066835482632174 -0.00098171881196317261 0 -0.02205493769700911 -0.0012962762690345176 0 -0.022667738140896499 -0.0010509561585779876 0 -0.023398767651911602 -0.00099236714178307776 0 -0.023157354302578457 -0.0016944858075581062 0 -0.023398767651911602 -0.00099236714178307776 0 -0.023923502742755478 -0.0011892918243622446 0 -0.023661082089671468 -0.0015709437789203351 0 -0.023920782000791427 -0.0012419761977136301 0 -0.024013905402380228 -0.0018110959331421787 0 -0.023398767651911602 -0.00099236714178307776 0 -0.023661082089671468 -0.0015709437789203351 0 -0.023157354302578457 -0.0016944858075581062 0 -0.023398767651911602 -0.00099236714178307776 0 -0.023830674698297551 -0.00075434836778202061 0 -0.023679919487040846 -0.00039203189600128758 0 -0.023398767651911602 -0.00099236714178307776 0 -0.023923502742755478 -0.0011892918243622446 0 -0.023830674698297551 -0.00075434836778202061 0 -0.022975024026126587 -0.00055698828555165092 0 -0.023398767651911602 -0.00099236714178307776 0 -0.023679919487040846 -0.00039203189600128758 0 -0.022975024026126587 -0.00055698828555165092 0 -0.022667738140896499 -0.0010509561585779876 0 -0.023398767651911602 -0.00099236714178307776 0 -0.022975024026126587 -0.00055698828555165092 0 -0.023679919487040846 -0.00039203189600128758 0 -0.023321830966899153 -2.0419715800194012e-06 0 -0.023679919487040846 -0.00039203189600128758 0 -0.024059493279389565 5.2425727460090166e-05 0 -0.023321830966899153 -2.0419715800194012e-06 0 -0.024351927291666443 -0.00012152966459572166 0 -0.023830674698297551 -0.00075434836778202061 0 -0.023679919487040846 -0.00039203189600128758 0 -0.024351927291666443 -0.00012152966459572166 0 -0.023679919487040846 -0.00039203189600128758 0 -0.024059493279389565 5.2425727460090166e-05 0 -0.024059493279389565 5.2425727460090166e-05 0 -0.023321830966899153 -2.0419715800194012e-06 0 -0.024219909316627208 0.00043623855426259473 0 -0.023321830966899153 -2.0419715800194012e-06 0 -0.022598034937943288 0.00025748911146774071 0 -0.023019521112762301 0.00068539615526415246 0 -0.023321830966899153 -2.0419715800194012e-06 0 -0.022706340894784283 -0.0002072491986582666 0 -0.022598034937943288 0.00025748911146774071 0 -0.022975024026126587 -0.00055698828555165092 0 -0.022403263565773001 -0.00066137452687744125 0 -0.022706340894784283 -0.0002072491986582666 0 -0.022975024026126587 -0.00055698828555165092 0 -0.023321830966899153 -2.0419715800194012e-06 0 -0.022706340894784283 -0.0002072491986582666 0 -0.022403263565773001 -0.00066137452687744125 0 -0.022706340894784283 -0.0002072491986582666 0 -0.022306813566388767 -0.00032095714218372472 0 -0.022403263565773001 -0.00066137452687744125 0 -0.022306813566388767 -0.00032095714218372472 0 -0.021967452108540352 -0.00049848352970832753 0 -0.022706340894784283 -0.0002072491986582666 0 -0.022306813566388767 -0.00032095714218372472 0 -0.022300016333891167 8.0449039300277627e-06 0 -0.022306813566388767 -0.00032095714218372472 0 -0.022300016333891167 8.0449039300277627e-06 0 -0.021998289922817754 -8.1553493893248737e-05 0 -0.022598034937943288 0.00025748911146774071 0 -0.022300016333891167 8.0449039300277627e-06 0 -0.022068754497582409 0.00029345568587106185 0 -0.022706340894784283 -0.0002072491986582666 0 -0.022598034937943288 0.00025748911146774071 0 -0.022300016333891167 8.0449039300277627e-06 0 -0.022598034937943288 0.00025748911146774071 0 -0.022230016982113535 0.000690547613596738 0 -0.022068754497582409 0.00029345568587106185 0 -0.023517824926259718 0.00053004868840399546 0 -0.023954636696118053 0.00050388888753311576 0 -0.022598034937943288 0.00025748911146774071 0 -0.022230016982113535 0.000690547613596738 0 -0.023019521112762301 0.00068539615526415246 0 -0.024844387804615196 0.00036733060216357602 0 -0.024636523069243282 0.0002328812840335805 0 -0.024896564374594043 0.00010774471405561907 0 -0.024844387804615196 0.00036733060216357602 0 -0.0249687274766629 0.00016996856298991803 0 -0.024896564374594043 0.00010774471405561907 0 -0.024993407290940604 0.00026395715023445248 0 -0.024844387804615196 0.00036733060216357602 0 -0.0249687274766629 0.00016996856298991803 0 -0.024993407290940604 0.00026395715023445248 0 -0.0249687274766629 0.00016996856298991803 0 -0.025018339023833828 0.00019220817710609148 0 -0.024411365811397762 0.00033859808387939753 0 -0.024059493279389565 5.2425727460090166e-05 0 -0.024219909316627208 0.00043623855426259473 0 -0.024411365811397762 0.00033859808387939753 0 -0.024219909316627208 0.00043623855426259473 0 -0.024502689939465819 0.00028451877174911323 0 -0.023321830966899153 -2.0419715800194012e-06 0 -0.023019521112762301 0.00068539615526415246 0 -0.024219909316627208 0.00043623855426259473 0 -0.024844387804615196 0.00036733060216357602 0 -0.024219909316627208 0.00043623855426259473 0 -0.024636523069243282 0.0002328812840335805 0 -0.023954636696118053 0.00050388888753311576 0 -0.024190369596381323 0.00045404347280242937 0 -0.024636523069243282 0.0002328812840335805 0 -0.024502689939465819 0.00028451877174911323 0 -0.024716120959747553 0.00015669290513680478 0 -0.024219909316627208 0.00043623855426259473 0 -0.024636523069243282 0.0002328812840335805 0 -0.024502689939465819 0.00028451877174911323 0 -0.024716120959747553 0.00015669290513680478 0 -0.024810466735809243 8.0841841268292056e-05 0 -0.024879451819476459 6.340745298008527e-05 0 -0.024502689939465819 0.00028451877174911323 0 -0.024716120959747553 0.00015669290513680478 0 -0.024810466735809243 8.0841841268292056e-05 0 -0.024636523069243282 0.0002328812840335805 0 -0.024879451819476459 6.340745298008527e-05 0 -0.024896564374594043 0.00010774471405561907 0 -0.024636523069243282 0.0002328812840335805 0 -0.024716120959747553 0.00015669290513680478 0 -0.024879451819476459 6.340745298008527e-05 0 -0.024879451819476459 6.340745298008527e-05 0 -0.024999893964538489 4.9240747221206346e-08 0 -0.024999832764785138 -1.6580638261401804e-08 0 -0.02499930910566147 8.8679581292821691e-09 0 -0.024810466735809243 8.0841841268292056e-05 0 -0.024999893964538489 4.9240747221206346e-08 0 -0.024810466735809243 8.0841841268292056e-05 0 -0.024879451819476459 6.340745298008527e-05 0 -0.024999893964538489 4.9240747221206346e-08 0 -0.0249687274766629 0.00016996856298991803 0 -0.024974379059885633 6.1469862985813958e-05 0 -0.024896564374594043 0.00010774471405561907 0 -0.0249687274766629 0.00016996856298991803 0 -0.024974379059885633 6.1469862985813958e-05 0 -0.025014261907598079 0.00010796890500958617 0 -0.024879451819476459 6.340745298008527e-05 0 -0.024896564374594043 0.00010774471405561907 0 -0.024999832764785138 -1.6580638261401804e-08 0 -0.024974379059885633 6.1469862985813958e-05 0 -0.024896564374594043 0.00010774471405561907 0 -0.024999832764785138 -1.6580638261401804e-08 0 -0.024974379059885633 6.1469862985813958e-05 0 -0.024999832764785138 -1.6580638261401804e-08 0 -0.025000113293473677 1.2056757012321944e-07 0 -0.024974379059885633 6.1469862985813958e-05 0 -0.025000113293473677 1.2056757012321944e-07 0 -0.025014261907598079 0.00010796890500958617 0 -0.024999990067069103 7.8840660614110906e-09 0 -0.024980466601532091 4.1141810668302667e-05 0 -0.025000011504777434 2.4981187844120825e-09 0 -0.025007383746270442 -7.5335534557515075e-06 0 -0.025000016564794839 -1.1424876296896311e-08 0 -0.025000011504777434 2.4981187844120825e-09 0 -0.025017322329028382 -1.5988989613413439e-05 0 -0.025007383746270442 -7.5335534557515075e-06 0 -0.025000113293473677 1.2056757012321944e-07 0 -0.024962279092140559 0.00011948609870075752 0 -0.025014261907598079 0.00010796890500958617 0 -0.025017322329028382 -1.5988989613413439e-05 0 -0.025007288535376426 -1.8991450387280912e-05 0 -0.025010850344278024 -4.9116775205532892e-05 0 -0.025017322329028382 -1.5988989613413439e-05 0 -0.025007288535376426 -1.8991450387280912e-05 0 -0.025007383746270442 -7.5335534557515075e-06 0 -0.025007288535376426 -1.8991450387280912e-05 0 -0.025007383746270442 -7.5335534557515075e-06 0 -0.025000597594804951 -8.0582461232800459e-06 0 -0.025007383746270442 -7.5335534557515075e-06 0 -0.025000016564794839 -1.1424876296896311e-08 0 -0.025000597594804951 -8.0582461232800459e-06 0 -0.025000016564794839 -1.1424876296896311e-08 0 -0.025000597594804951 -8.0582461232800459e-06 0 -0.024999989198336271 3.3067801435529378e-09 0 -0.025000597594804951 -8.0582461232800459e-06 0 -0.024999989198336271 3.3067801435529378e-09 0 -0.024987274632246401 -2.045323586189816e-05 0 -0.024999989198336271 3.3067801435529378e-09 0 -0.024952211856206209 -7.6941327542725267e-06 0 -0.024999846173017808 2.7022161157795469e-08 0 -0.024999989198336271 3.3067801435529378e-09 0 -0.024952211856206209 -7.6941327542725267e-06 0 -0.024987274632246401 -2.045323586189816e-05 0 -0.024952211856206209 -7.6941327542725267e-06 0 -0.024987274632246401 -2.045323586189816e-05 0 -0.024951792622277601 -4.8361753172321521e-05 0 -0.024952211856206209 -7.6941327542725267e-06 0 -0.024951792622277601 -4.8361753172321521e-05 0 -0.024880921940146825 -5.4795026637814377e-05 0 -0.025007288535376426 -1.8991450387280912e-05 0 -0.025000597594804951 -8.0582461232800459e-06 0 -0.024987274632246401 -2.045323586189816e-05 0 -0.025007288535376426 -1.8991450387280912e-05 0 -0.024987274632246401 -2.045323586189816e-05 0 -0.025010850344278024 -4.9116775205532892e-05 0 -0.024987274632246401 -2.045323586189816e-05 0 -0.025010850344278024 -4.9116775205532892e-05 0 -0.024988251974120055 -5.8070732315186225e-05 0 -0.025010850344278024 -4.9116775205532892e-05 0 -0.024988251974120055 -5.8070732315186225e-05 0 -0.025005830511362959 -6.9183878969816139e-05 0 -0.024987274632246401 -2.045323586189816e-05 0 -0.024988251974120055 -5.8070732315186225e-05 0 -0.024951792622277601 -4.8361753172321521e-05 0 -0.024988251974120055 -5.8070732315186225e-05 0 -0.024995038261836456 -8.4490431529128429e-05 0 -0.025005830511362959 -6.9183878969816139e-05 0 -0.024988251974120055 -5.8070732315186225e-05 0 -0.024995038261836456 -8.4490431529128429e-05 0 -0.02496598535597647 -8.392485762680191e-05 0 -0.024995038261836456 -8.4490431529128429e-05 0 -0.02496598535597647 -8.392485762680191e-05 0 -0.024974848026451953 -0.00012509096836530844 0 -0.024995038261836456 -8.4490431529128429e-05 0 -0.025005830511362959 -6.9183878969816139e-05 0 -0.025027707768127325 -8.6995624012772637e-05 0 -0.025010850344278024 -4.9116775205532892e-05 0 -0.025005830511362959 -6.9183878969816139e-05 0 -0.025027707768127325 -8.6995624012772637e-05 0 -0.024988251974120055 -5.8070732315186225e-05 0 -0.024951792622277601 -4.8361753172321521e-05 0 -0.02496598535597647 -8.392485762680191e-05 0 -0.024951792622277601 -4.8361753172321521e-05 0 -0.02496598535597647 -8.392485762680191e-05 0 -0.024919665517861258 -0.00010348726284572279 0 -0.024951792622277601 -4.8361753172321521e-05 0 -0.024919665517861258 -0.00010348726284572279 0 -0.024880921940146825 -5.4795026637814377e-05 0 -0.02496598535597647 -8.392485762680191e-05 0 -0.024919665517861258 -0.00010348726284572279 0 -0.024974848026451953 -0.00012509096836530844 0 -0.024919665517861258 -0.00010348726284572279 0 -0.024921265030461322 -0.00017677418502811345 0 -0.024974848026451953 -0.00012509096836530844 0 -0.024921265030461322 -0.00017677418502811345 0 -0.024974848026451953 -0.00012509096836530844 0 -0.024979061504010049 -0.00016352870486171082 0 -0.024921265030461322 -0.00017677418502811345 0 -0.024979061504010049 -0.00016352870486171082 0 -0.024978846128296889 -0.00026378404001752947 0 -0.024919665517861258 -0.00010348726284572279 0 -0.024921265030461322 -0.00017677418502811345 0 -0.024812793198001212 -0.00016883911184275129 0 -0.024590555131481409 -0.00013673340952367416 0 -0.024745898940627759 -0.00012761865088889437 0 -0.024332964306317911 -0.0005052747610718041 0 -0.024590555131481409 -0.00013673340952367416 0 -0.024332964306317911 -0.0005052747610718041 0 -0.024107440481596874 -0.00059767200709539723 0 -0.025027707768127325 -8.6995624012772637e-05 0 -0.024979061504010049 -0.00016352870486171082 0 -0.024978846128296889 -0.00026378404001752947 0 -0.024809914835331438 -0.00011850676429218577 0 -0.024510290103907879 -0.00044348292762645946 0 -0.023781669894606908 0.00011422153182541491 0 -0.022686224069541221 -0.00014783252433241722 0 -0.024995038261836456 -8.4490431529128429e-05 0 -0.025027707768127325 -8.6995624012772637e-05 0 -0.024974848026451953 -0.00012509096836530844 0 -0.025027707768127325 -8.6995624012772637e-05 0 -0.024974848026451953 -0.00012509096836530844 0 -0.024979061504010049 -0.00016352870486171082 0 -0.021567304647597881 0.00045798655779770968 0 -0.021481145205921166 0.00027938891288022089 0 -0.021208538268827626 0.00020882876673782445 0 -0.021567304647597881 0.00045798655779770968 0 -0.021603509787756967 0.00071666591598736843 0 -0.021208538268827626 0.00020882876673782445 0 -0.021567304647597881 0.00045798655779770968 0 -0.021643871340103437 0.00030206454126325893 0 -0.021481145205921166 0.00027938891288022089 0 -0.021567304647597881 0.00045798655779770968 0 -0.021813575996584483 0.00046178081734603489 0 -0.021603509787756967 0.00071666591598736843 0 -0.021567304647597881 0.00045798655779770968 0 -0.021813575996584483 0.00046178081734603489 0 -0.021643871340103437 0.00030206454126325893 0 -0.021813575996584483 0.00046178081734603489 0 -0.021784912709939583 0.00017108057299706852 0 -0.021643871340103437 0.00030206454126325893 0 -0.022230016982113535 0.000690547613596738 0 -0.021813575996584483 0.00046178081734603489 0 -0.021603509787756967 0.00071666591598736843 0 -0.022230016982113535 0.000690547613596738 0 -0.021813575996584483 0.00046178081734603489 0 -0.022068754497582409 0.00029345568587106185 0 -0.023517824926259718 0.00053004868840399546 0 -0.023781669894606908 0.00011422153182541491 0 -0.025381805842539587 0.00018269044378487175 0 -0.023781669894606908 0.00011422153182541491 0 -0.025014261907598079 0.00010796890500958617 0 -0.025018339023833828 0.00019220817710609148 0 -0.025105974545091184 0.00023069244317694832 0 -0.024993407290940604 0.00026395715023445248 0 -0.025018339023833828 0.00019220817710609148 0 -0.025105974545091184 0.00023069244317694832 0 -0.024962279092140559 0.00011948609870075752 0 -0.025014261907598079 0.00010796890500958617 0 -0.024732663232908497 -0.00013315025826256206 0 -0.0249687274766629 0.00016996856298991803 0 -0.025014261907598079 0.00010796890500958617 0 -0.025018339023833828 0.00019220817710609148 0 -0.024980466601532091 4.1141810668302667e-05 0 -0.024809914835331438 -0.00011850676429218577 0 -0.025017322329028382 -1.5988989613413439e-05 0 -0.025010850344278024 -4.9116775205532892e-05 0 -0.025027707768127325 -8.6995624012772637e-05 0 -0.024962279092140559 0.00011948609870075752 0 -0.024679694834574224 -0.00012454769762641708 0 -0.024732663232908497 -0.00013315025826256206 0 -0.024962279092140559 0.00011948609870075752 0 -0.024590555131481409 -0.00013673340952367416 0 -0.024679694834574224 -0.00012454769762641708 0 -0.024590555131481409 -0.00013673340952367416 0 -0.024679694834574224 -0.00012454769762641708 0 -0.024745898940627759 -0.00012761865088889437 0 -0.02405929027521217 6.613411760952615e-05 0 -0.023781669894606908 0.00011422153182541491 0 -0.024999981684160937 2.6642650457583601e-09 0 -0.024999994496066151 1.7089475974983091e-09 0 -0.024985082805824416 4.9507037851540274e-06 0 -0.024999981684160937 2.6642650457583601e-09 0 -0.024989808237711617 3.4155442818650656e-06 0 -0.024985082805824416 4.9507037851540274e-06 0 -0.024989808237711617 3.4155442818650656e-06 0 -0.024977956392676505 5.729554210843028e-06 0 -0.024985082805824416 4.9507037851540274e-06 0 -0.024989808237711617 3.4155442818650656e-06 0 -0.024990143146519424 3.7275087352274825e-06 0 -0.024977956392676505 5.729554210843028e-06 0 -0.024989808237711617 3.4155442818650656e-06 0 -0.024990143146519424 3.7275087352274825e-06 0 -0.024999991633410098 2.8362909446223171e-09 0 -0.024999981684160937 2.6642650457583601e-09 0 -0.024989808237711617 3.4155442818650656e-06 0 -0.024999991633410098 2.8362909446223171e-09 0 -0.024933792835102161 -1.2012710363343934e-05 0 -0.024999972117720495 -1.1091637500408408e-08 0 -0.024952211856206209 -7.6941327542725267e-06 0 -0.024881285522337437 -1.1003190248733311e-05 0 -0.024999846173017808 2.7022161157795469e-08 0 -0.024952211856206209 -7.6941327542725267e-06 0 -0.024881285522337437 -1.1003190248733311e-05 0 -0.024880921940146825 -5.4795026637814377e-05 0 -0.024881285522337437 -1.1003190248733311e-05 0 -0.024880921940146825 -5.4795026637814377e-05 0 -0.024735362469617304 -0.00010035052301675832 0 -0.024880921940146825 -5.4795026637814377e-05 0 -0.024812793198001212 -0.00016883911184275129 0 -0.024735362469617304 -0.00010035052301675832 0 -0.024919665517861258 -0.00010348726284572279 0 -0.024880921940146825 -5.4795026637814377e-05 0 -0.024812793198001212 -0.00016883911184275129 0 -0.024812793198001212 -0.00016883911184275129 0 -0.024735362469617304 -0.00010035052301675832 0 -0.024561180826019921 -0.00028983654539277789 0 -0.024982115685109385 2.3434002195170665e-06 0 -0.024966833857822085 -2.8583703845305422e-06 0 -0.024974291443216372 -1.287468035302538e-05 0 -0.024855998174523459 -5.0546820823120235e-05 0 -0.02478188146980588 -0.00018600038154019914 0 -0.024933792835102161 -1.2012710363343934e-05 0 -0.024855998174523459 -5.0546820823120235e-05 0 -0.024990143146519424 3.7275087352274825e-06 0 -0.024982115685109385 2.3434002195170665e-06 0 -0.024977956392676505 5.729554210843028e-06 0 -0.024977956392676505 5.729554210843028e-06 0 -0.024966833857822085 -2.8583703845305422e-06 0 -0.024954764113856082 6.0213597339996005e-06 0 -0.024982115685109385 2.3434002195170665e-06 0 -0.024977956392676505 5.729554210843028e-06 0 -0.024966833857822085 -2.8583703845305422e-06 0 -0.024977956392676505 5.729554210843028e-06 0 -0.024954764113856082 6.0213597339996005e-06 0 -0.024985082805824416 4.9507037851540274e-06 0 -0.024958143122689246 5.2112502094881083e-06 0 -0.024975272006415618 5.8104431422932126e-06 0 -0.023701905212652048 5.6844748336571556e-05 0 -0.025024894702726445 -3.1314128087768079e-05 0 -0.024933913649140032 -3.0413361944529064e-05 0 -0.02494566064890287 -1.2550227096435885e-05 0 -0.02495637073957481 -1.9249020257442999e-05 0 -0.024937399811408089 -6.797524248219128e-05 0 -0.02494566064890287 -1.2550227096435885e-05 0 -0.024920382760281721 -3.3100156924680612e-05 0 -0.024966833857822085 -2.8583703845305422e-06 0 -0.024954764113856082 6.0213597339996005e-06 0 -0.02494566064890287 -1.2550227096435885e-05 0 -0.024966833857822085 -2.8583703845305422e-06 0 -0.02494566064890287 -1.2550227096435885e-05 0 -0.02495637073957481 -1.9249020257442999e-05 0 -0.024954764113856082 6.0213597339996005e-06 0 -0.02494566064890287 -1.2550227096435885e-05 0 -0.024932433531674545 4.3166993847146934e-06 0 -0.024966833857822085 -2.8583703845305422e-06 0 -0.02495637073957481 -1.9249020257442999e-05 0 -0.024974291443216372 -1.287468035302538e-05 0 -0.024933913649140032 -3.0413361944529064e-05 0 -0.02495637073957481 -1.9249020257442999e-05 0 -0.024963153588869032 -3.7180485051050994e-05 0 -0.02495637073957481 -1.9249020257442999e-05 0 -0.024974291443216372 -1.287468035302538e-05 0 -0.024963153588869032 -3.7180485051050994e-05 0 -0.02478188146980588 -0.00018600038154019914 0 -0.024469629699722002 -0.00019515666835063722 0 -0.02456751593985242 -0.00052271700549835678 0 -0.024561180826019921 -0.00028983654539277789 0 -0.024734052353852985 -0.00033278262298053305 0 -0.02456751593985242 -0.00052271700549835678 0 -0.024561180826019921 -0.00028983654539277789 0 -0.024341550603847944 -0.00062524017044367317 0 -0.024812793198001212 -0.00016883911184275129 0 -0.024734052353852985 -0.00033278262298053305 0 -0.024852224232994345 -0.00028523951321882043 0 -0.024812793198001212 -0.00016883911184275129 0 -0.024561180826019921 -0.00028983654539277789 0 -0.024734052353852985 -0.00033278262298053305 0 -0.024921265030461322 -0.00017677418502811345 0 -0.024812793198001212 -0.00016883911184275129 0 -0.024852224232994345 -0.00028523951321882043 0 -0.02456751593985242 -0.00052271700549835678 0 -0.024734052353852985 -0.00033278262298053305 0 -0.024822913335309071 -0.0005617503479079832 0 -0.024734052353852985 -0.00033278262298053305 0 -0.024852224232994345 -0.00028523951321882043 0 -0.024822913335309071 -0.0005617503479079832 0 -0.023622684708519172 -0.0010846970222973022 0 -0.023453316533667654 -0.0013112324541121082 0 -0.023892108393848727 -0.00090462776907810401 0 -0.024377356948968958 -0.0008285584706663019 0 -0.022858673843507208 -0.0011948513835362911 0 -0.020599542646107083 -0.00064434649128279425 0 -0.020687224413301661 -0.00077079185172602874 0 -0.020907298749445712 -0.00064561434196384762 0 -0.023622684708519172 -0.0010846970222973022 0 -0.023453316533667654 -0.0013112324541121082 0 -0.023156101739929439 -0.0015886451086575442 0 -0.024822913335309071 -0.0005617503479079832 0 -0.024483852095934212 -0.0011322625293242572 0 -0.024614198440471181 -0.00064634904856153798 0 -0.021959422080101414 -0.0010506617813677726 0 -0.022410611213890638 -0.00056134869732440756 0 -0.02456751593985242 -0.00052271700549835678 0 -0.024822913335309071 -0.0005617503479079832 0 -0.024614198440471181 -0.00064634904856153798 0 -0.020687224413301661 -0.00077079185172602874 0 -0.020557594141470809 -0.0008440737982695069 0 -0.020798798720804278 -0.00087426904702794827 0 -0.020557594141470809 -0.0008440737982695069 0 -0.020798798720804278 -0.00087426904702794827 0 -0.020635354213901988 -0.0010149399130869969 0 -0.020599542646107083 -0.00064434649128279425 0 -0.020687224413301661 -0.00077079185172602874 0 -0.020557594141470809 -0.0008440737982695069 0 -0.021959422080101414 -0.0010506617813677726 0 -0.022858673843507208 -0.0011948513835362911 0 -0.020599542646107083 -0.00064434649128279425 0 -0.020557594141470809 -0.0008440737982695069 0 -0.020459831024768827 -0.00082975392920662833 0 -0.020557594141470809 -0.0008440737982695069 0 -0.020392719421967961 -0.00091528390642987281 0 -0.020502309081887958 -0.00093506401066233938 0 -0.020557594141470809 -0.0008440737982695069 0 -0.020459831024768827 -0.00082975392920662833 0 -0.020392719421967961 -0.00091528390642987281 0 -0.024483852095934212 -0.0011322625293242572 0 -0.024302816202563866 -0.0013999165375521744 0 -0.024303356175665605 -0.001098982337235278 0 -0.024302816202563866 -0.0013999165375521744 0 -0.024303356175665605 -0.001098982337235278 0 -0.024077081885026462 -0.00099541537111419529 0 -0.022858673843507208 -0.0011948513835362911 0 -0.022756884267729045 -0.0012031261794284143 0 -0.024303356175665605 -0.001098982337235278 0 -0.024350276456494534 -0.00092585296428052502 0 -0.024077081885026462 -0.00099541537111419529 0 -0.024483852095934212 -0.0011322625293242572 0 -0.024303356175665605 -0.001098982337235278 0 -0.024350276456494534 -0.00092585296428052502 0 -0.024483852095934212 -0.0011322625293242572 0 -0.024350276456494534 -0.00092585296428052502 0 -0.024446508691562143 -0.0007753481494919347 0 -0.024350276456494534 -0.00092585296428052502 0 -0.024381563294059903 -0.00075222939970056365 0 -0.024077081885026462 -0.00099541537111419529 0 -0.024483852095934212 -0.0011322625293242572 0 -0.024446508691562143 -0.0007753481494919347 0 -0.024614198440471181 -0.00064634904856153798 0 -0.024381563294059903 -0.00075222939970056365 0 -0.024446508691562143 -0.0007753481494919347 0 -0.024389768733118423 -0.00063726720574051789 0 -0.024350276456494534 -0.00092585296428052502 0 -0.024381563294059903 -0.00075222939970056365 0 -0.024446508691562143 -0.0007753481494919347 0 -0.024446508691562143 -0.0007753481494919347 0 -0.024614198440471181 -0.00064634904856153798 0 -0.024505031593827616 -0.00064044809161506217 0 -0.02456751593985242 -0.00052271700549835678 0 -0.024614198440471181 -0.00064634904856153798 0 -0.024505031593827616 -0.00064044809161506217 0 -0.02456751593985242 -0.00052271700549835678 0 -0.024505031593827616 -0.00064044809161506217 0 -0.024389768733118423 -0.00063726720574051789 0 -0.02456751593985242 -0.00052271700549835678 0 -0.024389768733118423 -0.00063726720574051789 0 -0.024341550603847944 -0.00062524017044367317 0 -0.024381563294059903 -0.00075222939970056365 0 -0.024389768733118423 -0.00063726720574051789 0 -0.02429240776569935 -0.00061608736765653431 0 -0.024451948297751859 -0.00024437945731777797 0 -0.024469629699722002 -0.00019515666835063722 0 -0.024446508691562143 -0.0007753481494919347 0 -0.024505031593827616 -0.00064044809161506217 0 -0.024389768733118423 -0.00063726720574051789 0 -0.023701905212652048 5.6844748336571556e-05 0 -0.024469629699722002 -0.00019515666835063722 0 -0.024381563294059903 -0.00075222939970056365 0 -0.02429240776569935 -0.00061608736765653431 0 -0.024077081885026462 -0.00099541537111419529 0 -0.022608024317617284 0.00040139704246433896 0 -0.024126346675933566 0.00011791181815257455 0 -0.023291000996447677 -0.00048273688917128808 0 -0.024126346675933566 0.00011791181815257455 0 -0.023934303596328831 -0.00077180989328792414 0 -0.023291000996447677 -0.00048273688917128808 0 -0.024469629699722002 -0.00019515666835063722 0 -0.023992851992305785 -0.00094062818140708986 0 -0.024302816202563866 -0.0013999165375521744 0 -0.024077081885026462 -0.00099541537111419529 0 -0.023747872976797094 -0.0016749769980080004 0 -0.023934303596328831 -0.00077180989328792414 0 -0.023278307975559562 -0.0012108435165238108 0 -0.023747872976797094 -0.0016749769980080004 0 -0.023992851992305785 -0.00094062818140708986 0 -0.023797678127427987 -0.0015856673836433608 0 -0.023934303596328831 -0.00077180989328792414 0 -0.023278307975559562 -0.0012108435165238108 0 -0.023291000996447677 -0.00048273688917128808 0 -0.023278307975559562 -0.0012108435165238108 0 -0.022505604078288711 -0.00095734046758432856 0 -0.023291000996447677 -0.00048273688917128808 0 -0.023278307975559562 -0.0012108435165238108 0 -0.022505604078288711 -0.00095734046758432856 0 -0.022911326832283675 -0.0017046392160308789 0 -0.019508942762264128 -0.00066587462496887808 0 -0.019974690402978546 -0.0015302491329104823 0 -0.022608024317617284 0.00040139704246433896 0 -0.022505604078288711 -0.00095734046758432856 0 -0.023291000996447677 -0.00048273688917128808 0 -0.023701905212652048 5.6844748336571556e-05 0 -0.019508942762264128 -0.00066587462496887808 0 -0.021518343783022573 -0.00048241279965801389 0 -0.02152547108850987 0.00010680781164877249 0 -0.021558309082386453 -1.9306406281799068e-05 0 -0.021676270787488225 -0.0001655659420373914 0 -0.021607844073653751 -0.00049535124066969359 0 -0.021967452108540352 -0.00049848352970832753 0 -0.021676270787488225 -0.0001655659420373914 0 -0.021412389219785631 -5.9352331070854796e-05 0 -0.021393990584337122 -0.00033214085331752935 0 -0.021676270787488225 -0.0001655659420373914 0 -0.021393990584337122 -0.00033214085331752935 0 -0.021607844073653751 -0.00049535124066969359 0 -0.022306813566388767 -0.00032095714218372472 0 -0.021998289922817754 -8.1553493893248737e-05 0 -0.021967452108540352 -0.00049848352970832753 0 -0.021676270787488225 -0.0001655659420373914 0 -0.021998289922817754 -8.1553493893248737e-05 0 -0.021967452108540352 -0.00049848352970832753 0 -0.021676270787488225 -0.0001655659420373914 0 -0.021998289922817754 -8.1553493893248737e-05 0 -0.021784912709939583 0.00017108057299706852 0 -0.022300016333891167 8.0449039300277627e-06 0 -0.021998289922817754 -8.1553493893248737e-05 0 -0.022068754497582409 0.00029345568587106185 0 -0.021998289922817754 -8.1553493893248737e-05 0 -0.022068754497582409 0.00029345568587106185 0 -0.021784912709939583 0.00017108057299706852 0 -0.021813575996584483 0.00046178081734603489 0 -0.022068754497582409 0.00029345568587106185 0 -0.021784912709939583 0.00017108057299706852 0 -0.021784912709939583 0.00017108057299706852 0 -0.021643871340103437 0.00030206454126325893 0 -0.021563256120449969 0.00010686878973656054 0 -0.021676270787488225 -0.0001655659420373914 0 -0.021784912709939583 0.00017108057299706852 0 -0.021563256120449969 0.00010686878973656054 0 -0.021676270787488225 -0.0001655659420373914 0 -0.021563256120449969 0.00010686878973656054 0 -0.021412389219785631 -5.9352331070854796e-05 0 -0.021563256120449969 0.00010686878973656054 0 -0.02138702114138958 0.00011749720075854315 0 -0.021412389219785631 -5.9352331070854796e-05 0 -0.021563256120449969 0.00010686878973656054 0 -0.021481145205921166 0.00027938891288022089 0 -0.02138702114138958 0.00011749720075854315 0 -0.021643871340103437 0.00030206454126325893 0 -0.021563256120449969 0.00010686878973656054 0 -0.021481145205921166 0.00027938891288022089 0 -0.021481145205921166 0.00027938891288022089 0 -0.02138702114138958 0.00011749720075854315 0 -0.021208538268827626 0.00020882876673782445 0 -0.02138702114138958 0.00011749720075854315 0 -0.021208538268827626 0.00020882876673782445 0 -0.021289804108786538 3.1934770772491713e-05 0 -0.021208538268827626 0.00020882876673782445 0 -0.021289804108786538 3.1934770772491713e-05 0 -0.02115282215281147 -0.00013746004624824531 0 -0.021412389219785631 -5.9352331070854796e-05 0 -0.021289804108786538 3.1934770772491713e-05 0 -0.02115282215281147 -0.00013746004624824531 0 -0.02138702114138958 0.00011749720075854315 0 -0.021412389219785631 -5.9352331070854796e-05 0 -0.021289804108786538 3.1934770772491713e-05 0 -0.022686224069541221 -0.00014783252433241722 0 -0.022410611213890638 -0.00056134869732440756 0 -0.021208538268827626 0.00020882876673782445 0 -0.020863144794987402 -0.00027253157208045832 0 -0.02115282215281147 -0.00013746004624824531 0 -0.024332964306317911 -0.0005052747610718041 0 -0.024107440481596874 -0.00059767200709539723 0 -0.023892108393848727 -0.00090462776907810401 0 -0.024921265030461322 -0.00017677418502811345 0 -0.024852224232994345 -0.00028523951321882043 0 -0.024978846128296889 -0.00026378404001752947 0 -0.024852224232994345 -0.00028523951321882043 0 -0.024822913335309071 -0.0005617503479079832 0 -0.024978846128296889 -0.00026378404001752947 0 -0.023622684708519172 -0.0010846970222973022 0 -0.024107440481596874 -0.00059767200709539723 0 -0.023892108393848727 -0.00090462776907810401 0 -0.024377356948968958 -0.0008285584706663019 0 -0.024510290103907879 -0.00044348292762645946 0 -0.020863144794987402 -0.00027253157208045832 0 -0.02115282215281147 -0.00013746004624824531 0 -0.021124749806651386 -0.00040797687486889082 0 -0.021412389219785631 -5.9352331070854796e-05 0 -0.02115282215281147 -0.00013746004624824531 0 -0.021393990584337122 -0.00033214085331752935 0 -0.02115282215281147 -0.00013746004624824531 0 -0.021124749806651386 -0.00040797687486889082 0 -0.021393990584337122 -0.00033214085331752935 0 -0.021124749806651386 -0.00040797687486889082 0 -0.021332969311082407 -0.00065198784971645088 0 -0.020907298749445712 -0.00064561434196384762 0 -0.021124749806651386 -0.00040797687486889082 0 -0.021393990584337122 -0.00033214085331752935 0 -0.021332969311082407 -0.00065198784971645088 0 -0.020599542646107083 -0.00064434649128279425 0 -0.020863144794987402 -0.00027253157208045832 0 -0.020907298749445712 -0.00064561434196384762 0 -0.020863144794987402 -0.00027253157208045832 0 -0.021124749806651386 -0.00040797687486889082 0 -0.020907298749445712 -0.00064561434196384762 0 -0.020687224413301661 -0.00077079185172602874 0 -0.020907298749445712 -0.00064561434196384762 0 -0.020798798720804278 -0.00087426904702794827 0 -0.020907298749445712 -0.00064561434196384762 0 -0.020798798720804278 -0.00087426904702794827 0 -0.021133266134222835 -0.0008818650182540387 0 -0.020926304988101146 -0.00066677369034539788 0 -0.021235489069486559 -0.0009773119450286619 0 -0.021332969311082407 -0.00065198784971645088 0 -0.020907298749445712 -0.00064561434196384762 0 -0.021343221280793627 -0.0010935854868684208 0 -0.021343221280793627 -0.0010935854868684208 0 -0.021749619215365515 -0.0011217370429262746 0 -0.021676526527404032 -0.00080947014902108992 0 -0.021332969311082407 -0.00065198784971645088 0 -0.021343221280793627 -0.0010935854868684208 0 -0.021676526527404032 -0.00080947014902108992 0 -0.021332969311082407 -0.00065198784971645088 0 -0.021676526527404032 -0.00080947014902108992 0 -0.021607844073653751 -0.00049535124066969359 0 -0.021676526527404032 -0.00080947014902108992 0 -0.021607844073653751 -0.00049535124066969359 0 -0.021967452108540352 -0.00049848352970832753 0 -0.021393990584337122 -0.00033214085331752935 0 -0.021332969311082407 -0.00065198784971645088 0 -0.021607844073653751 -0.00049535124066969359 0 -0.021676526527404032 -0.00080947014902108992 0 -0.021967452108540352 -0.00049848352970832753 0 -0.022066835482632174 -0.00098171881196317261 0 -0.021749619215365515 -0.0011217370429262746 0 -0.021676526527404032 -0.00080947014902108992 0 -0.022066835482632174 -0.00098171881196317261 0 -0.021749619215365515 -0.0011217370429262746 0 -0.021717372597465142 -0.0013813774612572332 0 -0.02205493769700911 -0.0012962762690345176 0 -0.021749619215365515 -0.0011217370429262746 0 -0.022066835482632174 -0.00098171881196317261 0 -0.02205493769700911 -0.0012962762690345176 0 -0.021570294179039766 -0.0012679601178401268 0 -0.021798151130149629 -0.0014996190368708601 0 -0.021717372597465142 -0.0013813774612572332 0 -0.021808030636248397 -0.0015129444267455196 0 -0.02205493769700911 -0.0012962762690345176 0 -0.021426833217127711 -0.0011415501178647747 0 -0.021808030636248397 -0.0015129444267455196 0 -0.021300958118611164 -0.0014926551198206611 0 -0.021426833217127711 -0.0011415501178647747 0 -0.02105844483827192 -0.0012086251418409757 0 -0.021300958118611164 -0.0014926551198206611 0 -0.021343221280793627 -0.0010935854868684208 0 -0.021749619215365515 -0.0011217370429262746 0 -0.021717372597465142 -0.0013813774612572332 0 -0.021235489069486559 -0.0009773119450286619 0 -0.021570294179039766 -0.0012679601178401268 0 -0.021133266134222835 -0.0008818650182540387 0 -0.021426833217127711 -0.0011415501178647747 0 -0.02105844483827192 -0.0012086251418409757 0 -0.021133266134222835 -0.0008818650182540387 0 -0.020878452327311892 -0.0010442521394815598 0 -0.02105844483827192 -0.0012086251418409757 0 -0.020798798720804278 -0.00087426904702794827 0 -0.020878452327311892 -0.0010442521394815598 0 -0.020635354213901988 -0.0010149399130869969 0 -0.020798798720804278 -0.00087426904702794827 0 -0.021133266134222835 -0.0008818650182540387 0 -0.020878452327311892 -0.0010442521394815598 0 -0.020767219196980033 -0.0012476849059433659 0 -0.02105844483827192 -0.0012086251418409757 0 -0.020931987601420655 -0.0015278869520923169 0 -0.020878452327311892 -0.0010442521394815598 0 -0.020767219196980033 -0.0012476849059433659 0 -0.02105844483827192 -0.0012086251418409757 0 -0.020931987601420655 -0.0015278869520923169 0 -0.021181185857094966 -0.0017300449893830751 0 -0.021300958118611164 -0.0014926551198206611 0 -0.02105844483827192 -0.0012086251418409757 0 -0.020931987601420655 -0.0015278869520923169 0 -0.021300958118611164 -0.0014926551198206611 0 -0.020767219196980033 -0.0012476849059433659 0 -0.020931987601420655 -0.0015278869520923169 0 -0.020588918193532257 -0.0014331346579575847 0 -0.020931987601420655 -0.0015278869520923169 0 -0.020934423485276354 -0.0018001113727404321 0 -0.020657046345667535 -0.0017017592124674065 0 -0.020931987601420655 -0.0015278869520923169 0 -0.020934423485276354 -0.0018001113727404321 0 -0.021181185857094966 -0.0017300449893830751 0 -0.020934423485276354 -0.0018001113727404321 0 -0.021181185857094966 -0.0017300449893830751 0 -0.021098701725055086 -0.0018804491370963889 0 -0.021181185857094966 -0.0017300449893830751 0 -0.021502141557546307 -0.0017801609214308681 0 -0.021245499918832268 -0.0018843340817251938 0 -0.021181185857094966 -0.0017300449893830751 0 -0.021502141557546307 -0.0017801609214308681 0 -0.021300958118611164 -0.0014926551198206611 0 -0.021502141557546307 -0.0017801609214308681 0 -0.021808030636248397 -0.0015129444267455196 0 -0.021882761669669459 -0.0017269449045100003 0 -0.021502141557546307 -0.0017801609214308681 0 -0.021808030636248397 -0.0015129444267455196 0 -0.021300958118611164 -0.0014926551198206611 0 -0.016839565901217636 -0.00097603690206338742 0 -0.016932865457203943 -0.001015982808480061 0 -0.016755640566511801 -0.0010326752446287427 0 -0.014852024580965953 -0.0014723903392667153 0 -0.014874401314618381 -0.00094754394165112222 0 -0.015176962223479787 -0.0010801425835212629 0 -0.016932865457203943 -0.001015982808480061 0 -0.016697904459577525 -0.0010720915163379312 0 -0.016755640566511801 -0.0010326752446287427 0 -0.017873618093505274 -0.0015786000834681435 0 -0.015772670932964066 -0.0012347140128010057 0 -0.015005351148147484 -0.0015627497749438905 0 -0.015288036275205856 -0.0012072464569822781 0 -0.015592236243523769 -0.0013349465538163457 0 -0.016839565901217636 -0.00097603690206338742 0 -0.016755640566511801 -0.0010326752446287427 0 -0.016816539094725323 -0.00092306323255765272 0 -0.017873618093505274 -0.0015786000834681435 0 -0.015001037343604074 -0.0013693747042818559 0 -0.016839565901217636 -0.00097603690206338742 0 -0.016870385961211279 -0.00090882426499960529 0 -0.016816539094725323 -0.00092306323255765272 0 -0.016855768116304987 -0.00084122016818431625 0 -0.016870385961211279 -0.00090882426499960529 0 -0.016816539094725323 -0.00092306323255765272 0 -0.019508942762264128 -0.00066587462496887808 0 -0.01682396017639403 -0.0010231053766481823 0 -0.023278307975559562 -0.0012108435165238108 0 -0.022911326832283675 -0.0017046392160308789 0 -0.023336996296166802 -0.0019276473783980538 0 -0.019974690402978546 -0.0015302491329104823 0 -0.017873618093505274 -0.0015786000834681435 0 -0.022911326832283675 -0.0017046392160308789 0 -0.023336996296166802 -0.0019276473783980538 0 -0.023326359070162755 -0.0024563102409919878 0 -0.016839565901217636 -0.00097603690206338742 0 -0.016870385961211279 -0.00090882426499960529 0 -0.016932865457203943 -0.001015982808480061 0 -0.022756884267729045 -0.0012031261794284143 0 -0.019735600627153082 -0.0010645477433590756 0 -0.023336996296166802 -0.0019276473783980538 0 -0.023747872976797094 -0.0016749769980080004 0 -0.023395700913779779 -0.0023778341591669297 0 -0.024302816202563866 -0.0013999165375521744 0 -0.023747872976797094 -0.0016749769980080004 0 -0.023395700913779779 -0.0023778341591669297 0 -0.019735600627153082 -0.0010645477433590756 0 -0.020610533888069198 -0.0010094618730311982 0 -0.020392719421967961 -0.00091528390642987281 0 -0.020216759733492379 -0.001127541417877576 0 -0.02047369463572371 -0.0010078903644992177 0 -0.023278307975559562 -0.0012108435165238108 0 -0.023336996296166802 -0.0019276473783980538 0 -0.023747872976797094 -0.0016749769980080004 0 -0.020069828507581339 -0.0011727132455521131 0 -0.020049283751987928 -0.0011963906733882532 0 -0.020330739796314206 -0.0012692780247937415 0 -0.020049283751987928 -0.0011963906733882532 0 -0.020330739796314206 -0.0012692780247937415 0 -0.020259091477017651 -0.0015680549831791491 0 -0.020069828507581339 -0.0011727132455521131 0 -0.020330739796314206 -0.0012692780247937415 0 -0.02047369463572371 -0.0010078903644992177 0 -0.023336996296166802 -0.0019276473783980538 0 -0.023395700913779779 -0.0023778341591669297 0 -0.023326359070162755 -0.0024563102409919878 0 -0.019735600627153082 -0.0010645477433590756 0 -0.017873618093505274 -0.0015786000834681435 0 -0.020330739796314206 -0.0012692780247937415 0 -0.02047369463572371 -0.0010078903644992177 0 -0.020551617980478096 -0.0011914751004822191 0 -0.020330739796314206 -0.0012692780247937415 0 -0.020551617980478096 -0.0011914751004822191 0 -0.020588918193532257 -0.0014331346579575847 0 -0.020392719421967961 -0.00091528390642987281 0 -0.020502309081887958 -0.00093506401066233938 0 -0.02047369463572371 -0.0010078903644992177 0 -0.020502309081887958 -0.00093506401066233938 0 -0.02047369463572371 -0.0010078903644992177 0 -0.020635354213901988 -0.0010149399130869969 0 -0.020878452327311892 -0.0010442521394815598 0 -0.020767219196980033 -0.0012476849059433659 0 -0.020635354213901988 -0.0010149399130869969 0 -0.02047369463572371 -0.0010078903644992177 0 -0.020635354213901988 -0.0010149399130869969 0 -0.020551617980478096 -0.0011914751004822191 0 -0.020557594141470809 -0.0008440737982695069 0 -0.020502309081887958 -0.00093506401066233938 0 -0.020635354213901988 -0.0010149399130869969 0 -0.020767219196980033 -0.0012476849059433659 0 -0.020635354213901988 -0.0010149399130869969 0 -0.020551617980478096 -0.0011914751004822191 0 -0.020767219196980033 -0.0012476849059433659 0 -0.020551617980478096 -0.0011914751004822191 0 -0.020588918193532257 -0.0014331346579575847 0 -0.020931987601420655 -0.0015278869520923169 0 -0.020588918193532257 -0.0014331346579575847 0 -0.020657046345667535 -0.0017017592124674065 0 -0.01730894155070135 -0.0010486861045551116 0 -0.017556151702089226 -0.0011455653023443996 0 -0.020657046345667535 -0.0017017592124674065 0 -0.020259091477017651 -0.0015680549831791491 0 -0.020465510124963327 -0.0019131061072960027 0 -0.020588918193532257 -0.0014331346579575847 0 -0.020657046345667535 -0.0017017592124674065 0 -0.020259091477017651 -0.0015680549831791491 0 -0.020330739796314206 -0.0012692780247937415 0 -0.020588918193532257 -0.0014331346579575847 0 -0.020259091477017651 -0.0015680549831791491 0 -0.014852024580965953 -0.0014723903392667153 0 -0.014487433445775246 -0.00064998057904473553 0 -0.014874401314618381 -0.00094754394165112222 0 -0.017873618093505274 -0.0015786000834681435 0 -0.01730894155070135 -0.0010486861045551116 0 -0.014487433445775246 -0.00064998057904473553 0 -0.014974872983560721 -0.00062694072499508576 0 -0.014874401314618381 -0.00094754394165112222 0 -0.014487433445775246 -0.00064998057904473553 0 -0.014582471129910563 -0.00025804094684812808 0 -0.01459656296099005 -0.00030996529469383893 0 -0.014487433445775246 -0.00064998057904473553 0 -0.014974872983560721 -0.00062694072499508576 0 -0.014582471129910563 -0.00025804094684812808 0 -0.014974872983560721 -0.00062694072499508576 0 -0.014582471129910563 -0.00025804094684812808 0 -0.015408481385541923 -0.0002988980236245212 0 -0.014974872983560721 -0.00062694072499508576 0 -0.014874401314618381 -0.00094754394165112222 0 -0.015176962223479787 -0.0010801425835212629 0 -0.014974872983560721 -0.00062694072499508576 0 -0.015176962223479787 -0.0010801425835212629 0 -0.01559806367045235 -0.0007263345669607826 0 -0.014091804818771307 -0.00032493354418560279 0 -0.014467459361932462 -0.00045453316325229197 0 -0.014085512806567297 -0.00065940263289347072 0 -0.014680853465037313 -3.9088305841156534e-05 0 -0.014573475467078855 -0.00022738885062422752 0 -0.014091804818771307 -0.00032493354418560279 0 -0.014582471129910563 -0.00025804094684812808 0 -0.014467459361932462 -0.00045453316325229197 0 -0.015306108227000804 0.00030111027746990442 0 -0.014582471129910563 -0.00025804094684812808 0 -0.015408481385541923 -0.0002988980236245212 0 -0.014582471129910563 -0.00025804094684812808 0 -0.014467459361932462 -0.00045453316325229197 0 -0.01459656296099005 -0.00030996529469383893 0 -0.014467459361932462 -0.00045453316325229197 0 -0.01459656296099005 -0.00030996529469383893 0 -0.014852331336688363 -0.00059600366906725191 0 -0.020657046345667535 -0.0017017592124674065 0 -0.020465510124963327 -0.0019131061072960027 0 -0.020744132311763339 -0.0019486787844697213 0 -0.020465510124963327 -0.0019131061072960027 0 -0.020671095755250633 -0.0022013302457387909 0 -0.020744132311763339 -0.0019486787844697213 0 -0.017556151702089226 -0.0011455653023443996 0 -0.01769355777541794 -0.0013898187004833763 0 -0.014852331336688363 -0.00059600366906725191 0 -0.014724470828263624 -0.00095109010349237019 0 -0.015107752422171071 -0.0009890607292476043 0 -0.014852331336688363 -0.00059600366906725191 0 -0.014724470828263624 -0.00095109010349237019 0 -0.014458259124315023 -0.00079544864517508103 0 -0.014724470828263624 -0.00095109010349237019 0 -0.014458259124315023 -0.00079544864517508103 0 -0.014448345939433367 -0.0011313212287024502 0 -0.014467459361932462 -0.00045453316325229197 0 -0.014852331336688363 -0.00059600366906725191 0 -0.014458259124315023 -0.00079544864517508103 0 -0.014467459361932462 -0.00045453316325229197 0 -0.014458259124315023 -0.00079544864517508103 0 -0.014085512806567297 -0.00065940263289347072 0 -0.014458259124315023 -0.00079544864517508103 0 -0.014129029633969085 -0.0010058482194884061 0 -0.014085512806567297 -0.00065940263289347072 0 -0.014458259124315023 -0.00079544864517508103 0 -0.014129029633969085 -0.0010058482194884061 0 -0.014448345939433367 -0.0011313212287024502 0 -0.014129029633969085 -0.0010058482194884061 0 -0.014085512806567297 -0.00065940263289347072 0 -0.01367992933833111 -0.00090559669688575998 0 -0.021305718479372737 -0.0020249971792079594 0 -0.021024958807797724 -0.0022329509677545983 0 -0.021245270708817161 -0.0020737383507871154 0 -0.021256531807622485 -0.0020461364604100018 0 -0.021225679484873899 -0.0020596342541552752 0 -0.021296114249919236 -0.0020342349405281504 0 -0.021154170544573421 -0.0020040168585038942 0 -0.021119985814319328 -0.0023657665603932323 0 -0.021245270708817161 -0.0020737383507871154 0 -0.021351430098359429 -0.0021019997093489791 0 -0.021256531807622485 -0.0020461364604100018 0 -0.021337386782572659 -0.0020880541492670659 0 -0.021368138800401084 -0.0020796454809551613 0 -0.021351430098359429 -0.0021019997093489791 0 -0.021513348854226715 -0.0019729008173155795 0 -0.021693422876259222 -0.0020930014957270537 0 -0.021245270708817161 -0.0020737383507871154 0 -0.021351430098359429 -0.0021019997093489791 0 -0.021182229881500248 -0.0020405176813509539 0 -0.021351430098359429 -0.0021019997093489791 0 -0.02179528619455345 -0.0021931881712278895 0 -0.021693422876259222 -0.0020930014957270537 0 -0.021502141557546307 -0.0017801609214308681 0 -0.021513348854226715 -0.0019729008173155795 0 -0.021256531807622485 -0.0020461364604100018 0 -0.021502141557546307 -0.0017801609214308681 0 -0.021513348854226715 -0.0019729008173155795 0 -0.02176247709463244 -0.001939409775956405 0 -0.021351430098359429 -0.0021019997093489791 0 -0.021513348854226715 -0.0019729008173155795 0 -0.021256531807622485 -0.0020461364604100018 0 -0.021466422829519525 -0.0018022820835732842 0 -0.021305718479372737 -0.0020249971792079594 0 -0.021502141557546307 -0.0017801609214308681 0 -0.021296114249919236 -0.0020342349405281504 0 -0.021245499918832268 -0.0018843340817251938 0 -0.021296114249919236 -0.0020342349405281504 0 -0.021154170544573421 -0.0020040168585038942 0 -0.021245499918832268 -0.0018843340817251938 0 -0.021154170544573421 -0.0020040168585038942 0 -0.021245499918832268 -0.0018843340817251938 0 -0.021098701725055086 -0.0018804491370963889 0 -0.021181185857094966 -0.0017300449893830751 0 -0.021245499918832268 -0.0018843340817251938 0 -0.021098701725055086 -0.0018804491370963889 0 -0.020934423485276354 -0.0018001113727404321 0 -0.021098701725055086 -0.0018804491370963889 0 -0.020986203674244898 -0.0019777035847489831 0 -0.021154170544573421 -0.0020040168585038942 0 -0.021098701725055086 -0.0018804491370963889 0 -0.020986203674244898 -0.0019777035847489831 0 -0.020934423485276354 -0.0018001113727404321 0 -0.020657046345667535 -0.0017017592124674065 0 -0.020744132311763339 -0.0019486787844697213 0 -0.020934423485276354 -0.0018001113727404321 0 -0.020986203674244898 -0.0019777035847489831 0 -0.020744132311763339 -0.0019486787844697213 0 -0.020671095755250633 -0.0022013302457387909 0 -0.020744132311763339 -0.0019486787844697213 0 -0.020871689758022904 -0.0021034719980817557 0 -0.020986203674244898 -0.0019777035847489831 0 -0.020744132311763339 -0.0019486787844697213 0 -0.020871689758022904 -0.0021034719980817557 0 -0.021154170544573421 -0.0020040168585038942 0 -0.021001421350363026 -0.0020996345438887049 0 -0.021040941962477671 -0.0022085283143269243 0 -0.021147877635738686 -0.0020365218427202984 0 -0.021024958807797724 -0.0022329509677545983 0 -0.021154170544573421 -0.0020040168585038942 0 -0.020986203674244898 -0.0019777035847489831 0 -0.021001421350363026 -0.0020996345438887049 0 -0.020986203674244898 -0.0019777035847489831 0 -0.020871689758022904 -0.0021034719980817557 0 -0.021001421350363026 -0.0020996345438887049 0 -0.020871689758022904 -0.0021034719980817557 0 -0.021001421350363026 -0.0020996345438887049 0 -0.020944312827357196 -0.0021910401451718554 0 -0.021001421350363026 -0.0020996345438887049 0 -0.021040941962477671 -0.0022085283143269243 0 -0.020944312827357196 -0.0021910401451718554 0 -0.021040941962477671 -0.0022085283143269243 0 -0.020944312827357196 -0.0021910401451718554 0 -0.020920293203095752 -0.0023165408997487128 0 -0.020944312827357196 -0.0021910401451718554 0 -0.020852451931935634 -0.0022349932661090521 0 -0.020920293203095752 -0.0023165408997487128 0 -0.021024958807797724 -0.0022329509677545983 0 -0.020845458541478713 -0.0023600810555328817 0 -0.020671095755250633 -0.0022013302457387909 0 -0.020852451931935634 -0.0022349932661090521 0 -0.020826818923167383 -0.0023318552273426788 0 -0.020671095755250633 -0.0022013302457387909 0 -0.020871689758022904 -0.0021034719980817557 0 -0.020852451931935634 -0.0022349932661090521 0 -0.020871689758022904 -0.0021034719980817557 0 -0.020944312827357196 -0.0021910401451718554 0 -0.020852451931935634 -0.0022349932661090521 0 -0.01769355777541794 -0.0013898187004833763 0 -0.018379109900704144 -0.0016274735429388464 0 -0.020671095755250633 -0.0022013302457387909 0 -0.020826818923167383 -0.0023318552273426788 0 -0.020821338352292759 -0.0023800454178624975 0 -0.020852451931935634 -0.0022349932661090521 0 -0.020826818923167383 -0.0023318552273426788 0 -0.020920293203095752 -0.0023165408997487128 0 -0.020826818923167383 -0.0023318552273426788 0 -0.020834944121274446 -0.0023292172270864939 0 -0.020820358637791574 -0.0023196534674345486 0 -0.020826818923167383 -0.0023318552273426788 0 -0.020920293203095752 -0.0023165408997487128 0 -0.020820358637791574 -0.0023196534674345486 0 -0.019202342808220144 -0.0020658901123801017 0 -0.018379109900704144 -0.0016274735429388464 0 -0.020757310404106999 -0.0024391235259156232 0 -0.020779704823945665 -0.0023816846993569567 0 -0.020752642310867417 -0.0023238727714943175 0 -0.021024958807797724 -0.0022329509677545983 0 -0.021174572630497608 -0.0021698770627464206 0 -0.020779704823945665 -0.0023816846993569567 0 -0.020752642310867417 -0.0023238727714943175 0 -0.020820358637791574 -0.0023196534674345486 0 -0.020845458541478713 -0.0023600810555328817 0 -0.020838965030020355 -0.002316027562499118 0 -0.021166906794169413 -0.0019849002655246196 0 -0.02109733750229701 -0.0019119477062949938 0 -0.021202092424260372 -0.0019327460059351364 0 -0.021225679484873899 -0.0020596342541552752 0 -0.021166906794169413 -0.0019849002655246196 0 -0.021202092424260372 -0.0019327460059351364 0 -0.021166906794169413 -0.0019849002655246196 0 -0.021087283253194818 -0.0019589038852034662 0 -0.02109733750229701 -0.0019119477062949938 0 -0.021166906794169413 -0.0019849002655246196 0 -0.02119222610414177 -0.0020306804821823548 0 -0.021087283253194818 -0.0019589038852034662 0 -0.021225679484873899 -0.0020596342541552752 0 -0.021166906794169413 -0.0019849002655246196 0 -0.02119222610414177 -0.0020306804821823548 0 -0.021245270708817161 -0.0020737383507871154 0 -0.02119222610414177 -0.0020306804821823548 0 -0.021182229881500248 -0.0020405176813509539 0 -0.021245270708817161 -0.0020737383507871154 0 -0.021225679484873899 -0.0020596342541552752 0 -0.02119222610414177 -0.0020306804821823548 0 -0.021182229881500248 -0.0020405176813509539 0 -0.021087283253194818 -0.0019589038852034662 0 -0.02095513340456635 -0.0020046936540452872 0 -0.021351430098359429 -0.0021019997093489791 0 -0.021182229881500248 -0.0020405176813509539 0 -0.02095513340456635 -0.0020046936540452872 0 -0.02119222610414177 -0.0020306804821823548 0 -0.021182229881500248 -0.0020405176813509539 0 -0.021087283253194818 -0.0019589038852034662 0 -0.021087283253194818 -0.0019589038852034662 0 -0.020899876383394904 -0.0018617934324912523 0 -0.020980254982630082 -0.0018881467927449507 0 -0.021087283253194818 -0.0019589038852034662 0 -0.020980254982630082 -0.0018881467927449507 0 -0.02109733750229701 -0.0019119477062949938 0 -0.020899876383394904 -0.0018617934324912523 0 -0.020880379566069543 -0.0017668541189189968 0 -0.02095513340456635 -0.0020046936540452872 0 -0.021087283253194818 -0.0019589038852034662 0 -0.020899876383394904 -0.0018617934324912523 0 -0.02095513340456635 -0.0020046936540452872 0 -0.021343949452882378 -0.0019082002546720062 0 -0.021368138800401084 -0.0020796454809551613 0 -0.021786680365625023 -0.002019320373330863 0 -0.02179528619455345 -0.0021931881712278895 0 -0.021920716441214561 -0.0021616916814243053 0 -0.02179528619455345 -0.0021931881712278895 0 -0.021693422876259222 -0.0020930014957270537 0 -0.021920716441214561 -0.0021616916814243053 0 -0.021693422876259222 -0.0020930014957270537 0 -0.021920716441214561 -0.0021616916814243053 0 -0.02176247709463244 -0.001939409775956405 0 -0.02196046051964089 -0.0021658746875221199 0 -0.022106852506484906 -0.0021949768824041636 0 -0.021920716441214561 -0.0021616916814243053 0 -0.022046976184376895 -0.0018667701808149019 0 -0.02176247709463244 -0.001939409775956405 0 -0.021513348854226715 -0.0019729008173155795 0 -0.021693422876259222 -0.0020930014957270537 0 -0.02176247709463244 -0.001939409775956405 0 -0.021615358315353744 -0.0023598142438240278 0 -0.02177846535875174 -0.0024053382443724215 0 -0.021613397935896686 -0.0022283772840283613 0 -0.021615358315353744 -0.0023598142438240278 0 -0.02177846535875174 -0.0024053382443724215 0 -0.021626136533910611 -0.0025084090112530814 0 -0.02177846535875174 -0.0024053382443724215 0 -0.021626136533910611 -0.0025084090112530814 0 -0.021868274590374173 -0.002571399542049099 0 -0.022184053127371019 -0.0025013648323734651 0 -0.02177846535875174 -0.0024053382443724215 0 -0.021868274590374173 -0.002571399542049099 0 -0.022184053127371019 -0.0025013648323734651 0 -0.02177846535875174 -0.0024053382443724215 0 -0.021824709008570323 -0.0022527856096453279 0 -0.021920716441214561 -0.0021616916814243053 0 -0.022184053127371019 -0.0025013648323734651 0 -0.021824709008570323 -0.0022527856096453279 0 -0.021920716441214561 -0.0021616916814243053 0 -0.021824709008570323 -0.0022527856096453279 0 -0.021691653232503043 -0.0020903069012501471 0 -0.021824709008570323 -0.0022527856096453279 0 -0.021613397935896686 -0.0022283772840283613 0 -0.021691653232503043 -0.0020903069012501471 0 -0.02177846535875174 -0.0024053382443724215 0 -0.021824709008570323 -0.0022527856096453279 0 -0.021613397935896686 -0.0022283772840283613 0 -0.021613397935896686 -0.0022283772840283613 0 -0.021535253768994494 -0.0020724857208865317 0 -0.021691653232503043 -0.0020903069012501471 0 -0.021535253768994494 -0.0020724857208865317 0 -0.021691653232503043 -0.0020903069012501471 0 -0.021515030802936711 -0.0019562838391044566 0 -0.021786680365625023 -0.002019320373330863 0 -0.021920716441214561 -0.0021616916814243053 0 -0.021691653232503043 -0.0020903069012501471 0 -0.021786680365625023 -0.002019320373330863 0 -0.021515030802936711 -0.0019562838391044566 0 -0.021383347463087992 -0.0018398186521538396 0 -0.021786680365625023 -0.002019320373330863 0 -0.021691653232503043 -0.0020903069012501471 0 -0.021515030802936711 -0.0019562838391044566 0 -0.021515030802936711 -0.0019562838391044566 0 -0.021409299476404405 -0.001960505145875847 0 -0.021440667028802499 -0.001890362312625961 0 -0.021535253768994494 -0.0020724857208865317 0 -0.021515030802936711 -0.0019562838391044566 0 -0.021409299476404405 -0.001960505145875847 0 -0.018399916187026799 -0.0014960824453644395 0 -0.018109427512135547 -0.0013723576170583305 0 -0.018197854801393139 -0.0016784640836660803 0 -0.018399916187026799 -0.0014960824453644395 0 -0.018197854801393139 -0.0016784640836660803 0 -0.018451577398323652 -0.0019083073695046636 0 -0.021535253768994494 -0.0020724857208865317 0 -0.021409299476404405 -0.001960505145875847 0 -0.021440447296848616 -0.0022147645274470402 0 -0.020061867482926266 -0.001746018910432114 0 -0.020003327061861548 -0.0020525068475252947 0 -0.017659956094940869 -0.0013470319758788693 0 -0.017685715335644385 -0.0015722828290962222 0 -0.017892398673145817 -0.0015397728674542664 0 -0.017659956094940869 -0.0013470319758788693 0 -0.017892398673145817 -0.0015397728674542664 0 -0.017844056788965536 -0.00125340897194032 0 -0.018109427512135547 -0.0013723576170583305 0 -0.018197854801393139 -0.0016784640836660803 0 -0.017892398673145817 -0.0015397728674542664 0 -0.018109427512135547 -0.0013723576170583305 0 -0.017892398673145817 -0.0015397728674542664 0 -0.017844056788965536 -0.00125340897194032 0 -0.018197854801393139 -0.0016784640836660803 0 -0.017892398673145817 -0.0015397728674542664 0 -0.018006192261939287 -0.0017703868783491476 0 -0.017892398673145817 -0.0015397728674542664 0 -0.018006192261939287 -0.0017703868783491476 0 -0.01779641764687127 -0.0017341678435965993 0 -0.017685715335644385 -0.0015722828290962222 0 -0.017892398673145817 -0.0015397728674542664 0 -0.01779641764687127 -0.0017341678435965993 0 -0.017521091730559924 -0.0017681662135797813 0 -0.01779641764687127 -0.0017341678435965993 0 -0.017864220409611851 -0.0020027539089578169 0 -0.018006192261939287 -0.0017703868783491476 0 -0.01779641764687127 -0.0017341678435965993 0 -0.017864220409611851 -0.0020027539089578169 0 -0.018197854801393139 -0.0016784640836660803 0 -0.018006192261939287 -0.0017703868783491476 0 -0.018276124481358774 -0.0019194765898799006 0 -0.018006192261939287 -0.0017703868783491476 0 -0.017864220409611851 -0.0020027539089578169 0 -0.018276124481358774 -0.0019194765898799006 0 -0.017864220409611851 -0.0020027539089578169 0 -0.018276124481358774 -0.0019194765898799006 0 -0.018252205460303671 -0.0022466024309902447 0 -0.019259449240277175 -0.0016652605644471615 0 -0.01885388063075186 -0.0018767770346347769 0 -0.020477327128854909 -0.0012403988505364177 0 -0.020331598695484825 -0.0011559109743763233 0 -0.020457254804724687 -0.0010793198464234283 0 -0.020574088881035298 -0.001115485193553731 0 -0.020477327128854909 -0.0012403988505364177 0 -0.020457254804724687 -0.0010793198464234283 0 -0.021613397935896686 -0.0022283772840283613 0 -0.021535253768994494 -0.0020724857208865317 0 -0.021440447296848616 -0.0022147645274470402 0 -0.020003327061861548 -0.0020525068475252947 0 -0.020306182884240288 -0.002158982389570613 0 -0.021615358315353744 -0.0023598142438240278 0 -0.021613397935896686 -0.0022283772840283613 0 -0.02144427042914477 -0.0023063076522357741 0 -0.021613397935896686 -0.0022283772840283613 0 -0.021440447296848616 -0.0022147645274470402 0 -0.02144427042914477 -0.0023063076522357741 0 -0.018451577398323652 -0.0019083073695046636 0 -0.018276124481358774 -0.0019194765898799006 0 -0.018422203661115737 -0.0020186403416955403 0 -0.018197854801393139 -0.0016784640836660803 0 -0.018451577398323652 -0.0019083073695046636 0 -0.018276124481358774 -0.0019194765898799006 0 -0.018276124481358774 -0.0019194765898799006 0 -0.018378567894089676 -0.0020442359404409705 0 -0.018422203661115737 -0.0020186403416955403 0 -0.018235236409445313 -0.0020439376946507618 0 -0.01885388063075186 -0.0018767770346347769 0 -0.018378567894089676 -0.0020442359404409705 0 -0.018422203661115737 -0.0020186403416955403 0 -0.018482233863077208 -0.0020412344021776487 0 -0.020306182884240288 -0.002158982389570613 0 -0.019276311276934729 -0.0020949142580034526 0 -0.02144427042914477 -0.0023063076522357741 0 -0.021626136533910611 -0.0025084090112530814 0 -0.021506642161708629 -0.0026886927726399645 0 -0.018422203661115737 -0.0020186403416955403 0 -0.018461220179703322 -0.0019720118149954796 0 -0.018436679684394077 -0.0020305315765440351 0 -0.018451577398323652 -0.0019083073695046636 0 -0.018422203661115737 -0.0020186403416955403 0 -0.018461220179703322 -0.0019720118149954796 0 -0.020306182884240288 -0.002158982389570613 0 -0.021137527381016267 -0.0025106877400271304 0 -0.021615358315353744 -0.0023598142438240278 0 -0.02144427042914477 -0.0023063076522357741 0 -0.021626136533910611 -0.0025084090112530814 0 -0.020813196758263184 -0.0021338147049819512 0 -0.020871249035094849 -0.0022068176892354454 0 -0.020854328252030194 -0.0021974575513120176 0 -0.021626136533910611 -0.0025084090112530814 0 -0.021506642161708629 -0.0026886927726399645 0 -0.021741907173615002 -0.0026937419787035487 0 -0.021506642161708629 -0.0026886927726399645 0 -0.021741907173615002 -0.0026937419787035487 0 -0.021710858050143299 -0.0029181346222942007 0 -0.018482233863077208 -0.0020412344021776487 0 -0.018537767900527434 -0.001856895342892883 0 -0.018747658741860143 -0.0017952850590209886 0 -0.018422203661115737 -0.0020186403416955403 0 -0.018436679684394077 -0.0020305315765440351 0 -0.018482233863077208 -0.0020412344021776487 0 -0.01885388063075186 -0.0018767770346347769 0 -0.019423576498870349 -0.0014424933997544897 0 -0.018657566617218579 -0.0021530075460328038 0 -0.018482233863077208 -0.0020412344021776487 0 -0.018747658741860143 -0.0017952850590209886 0 -0.01885388063075186 -0.0018767770346347769 0 -0.018514684288336268 -0.0019514797242143993 0 -0.018436679684394077 -0.0020305315765440351 0 -0.018482233863077208 -0.0020412344021776487 0 -0.018537767900527434 -0.001856895342892883 0 -0.018537767900527434 -0.001856895342892883 0 -0.018747658741860143 -0.0017952850590209886 0 -0.018428145771662133 -0.0015328532571571678 0 -0.021506642161708629 -0.0026886927726399645 0 -0.021581939773115337 -0.0032241510500288406 0 -0.021710858050143299 -0.0029181346222942007 0 -0.021137527381016267 -0.0025106877400271304 0 -0.022597269698285925 -0.0025016447897646538 0 -0.019276311276934729 -0.0020949142580034526 0 -0.021743847223479246 -0.0018362802826714364 0 -0.018436679684394077 -0.0020305315765440351 0 -0.018537767900527434 -0.001856895342892883 0 -0.018428145771662133 -0.0015328532571571678 0 -0.020871249035094849 -0.0022068176892354454 0 -0.020917586023492807 -0.0022791536866773711 0 -0.020898849681833646 -0.0022831585067823049 0 -0.020871249035094849 -0.0022068176892354454 0 -0.020854328252030194 -0.0021974575513120176 0 -0.020898849681833646 -0.0022831585067823049 0 -0.020574088881035298 -0.001115485193553731 0 -0.020457254804724687 -0.0010793198464234283 0 -0.020554392994869469 -0.0009680618647593829 0 -0.020331598695484825 -0.0011559109743763233 0 -0.020354437359580937 -0.0010078465116088026 0 -0.020457254804724687 -0.0010793198464234283 0 -0.020354437359580937 -0.0010078465116088026 0 -0.020457254804724687 -0.0010793198464234283 0 -0.020452463819132724 -0.00093469346301767325 0 -0.020457254804724687 -0.0010793198464234283 0 -0.020452463819132724 -0.00093469346301767325 0 -0.020554392994869469 -0.0009680618647593829 0 -0.020452463819132724 -0.00093469346301767325 0 -0.020554392994869469 -0.0009680618647593829 0 -0.020531141713026148 -0.00080732590139466411 0 -0.021968899549765167 -0.00051599183262721309 0 -0.021894658634708644 -0.00053549301721796344 0 -0.02184156493163833 -0.00030150313816652732 0 -0.021953309111234255 -0.0002715243079202244 0 -0.021968899549765167 -0.00051599183262721309 0 -0.02184156493163833 -0.00030150313816652732 0 -0.02106339174368322 -0.00075035814442396141 0 -0.022953566834350816 -0.00024056789377570402 0 -0.019423576498870349 -0.0014424933997544897 0 -0.021831803470373948 -0.00077381008486709761 0 -0.021831803470373948 -0.00077381008486709761 0 -0.022953566834350816 -0.00024056789377570402 0 -0.020452463819132724 -0.00093469346301767325 0 -0.020385649167089015 -0.00084497797345302588 0 -0.020531141713026148 -0.00080732590139466411 0 -0.020354437359580937 -0.0010078465116088026 0 -0.020452463819132724 -0.00093469346301767325 0 -0.020385649167089015 -0.00084497797345302588 0 -0.024553994283855692 -0.00014507576368363319 0 -0.024442114178595944 -0.00034288385866315088 0 -0.024609773232822634 -0.00044351054217033135 0 -0.024408052747341476 -0.00049728267359689065 0 -0.024442114178595944 -0.00034288385866315088 0 -0.024609773232822634 -0.00044351054217033135 0 -0.021831803470373948 -0.00077381008486709761 0 -0.024194263057571441 -0.00020283861900930892 0 -0.024925247281335331 8.5871594408024122e-05 0 -0.022953566834350816 -0.00024056789377570402 0 -0.023131921451970131 0.00017688075343984101 0 -0.022953566834350816 -0.00024056789377570402 0 -0.024690877197386409 0.00039893286026763204 0 -0.024738608521844185 0.0003532616005918568 0 -0.024731606512480891 0.00040896820764003413 0 -0.024047427023912524 -0.0022286680666228301 0 -0.024224169122880494 -0.0021821281487411207 0 -0.023993254833681706 -0.0017192270444861745 0 -0.022597269698285925 -0.0025016447897646538 0 -0.024013905402380228 -0.0018110959331421787 0 -0.022597269698285925 -0.0025016447897646538 0 -0.021743847223479246 -0.0018362802826714364 0 -0.024418492606632869 -0.00053327261059115175 0 -0.024132762475721214 -0.0006160712909292793 0 -0.024260452887406452 -0.00046112240786845641 0 -0.018747658741860143 -0.0017952850590209886 0 -0.018825186741167441 -0.0014177811448768715 0 -0.018428145771662133 -0.0015328532571571678 0 -0.021831803470373948 -0.00077381008486709761 0 -0.021743847223479246 -0.0018362802826714364 0 -0.024418492606632869 -0.00053327261059115175 0 -0.024442114178595944 -0.00034288385866315088 0 -0.024260452887406452 -0.00046112240786845641 0 -0.024442114178595944 -0.00034288385866315088 0 -0.024260452887406452 -0.00046112240786845641 0 -0.024300837437623426 -0.00032175137766261711 0 -0.024260452887406452 -0.00046112240786845641 0 -0.024300837437623426 -0.00032175137766261711 0 -0.024162486084326019 -0.0003232007829792454 0 -0.024224169122880494 -0.0021821281487411207 0 -0.023993254833681706 -0.0017192270444861745 0 -0.024238452405976035 -0.0015179785940469084 0 -0.024132762475721214 -0.0006160712909292793 0 -0.024260452887406452 -0.00046112240786845641 0 -0.024162486084326019 -0.0003232007829792454 0 -0.023923502742755478 -0.0011892918243622446 0 -0.023993254833681706 -0.0017192270444861745 0 -0.024238452405976035 -0.0015179785940469084 0 -0.021743847223479246 -0.0018362802826714364 0 -0.024418060018674474 -0.0008384938510894378 0 -0.023975459487826013 -0.0018749617498731357 0 -0.023661082089671468 -0.0015709437789203351 0 -0.023582784815653957 -0.0022249828970947148 0 -0.023661082089671468 -0.0015709437789203351 0 -0.023582784815653957 -0.0022249828970947148 0 -0.023157354302578457 -0.0016944858075581062 0 -0.023923502742755478 -0.0011892918243622446 0 -0.023975459487826013 -0.0018749617498731357 0 -0.023661082089671468 -0.0015709437789203351 0 -0.024082340791525922 -0.0026410831560154265 0 -0.023975459487826013 -0.0018749617498731357 0 -0.023582784815653957 -0.0022249828970947148 0 -0.023582784815653957 -0.0022249828970947148 0 -0.023384500624169306 -0.0028303830120465644 0 -0.023008164039487515 -0.0023447794139717384 0 -0.024082340791525922 -0.0026410831560154265 0 -0.023582784815653957 -0.0022249828970947148 0 -0.023384500624169306 -0.0028303830120465644 0 -0.022597269698285925 -0.0025016447897646538 0 -0.022669960504122996 -0.0029618942153075757 0 -0.023008164039487515 -0.0023447794139717384 0 -0.02247659377029471 -0.0021067099985696502 0 -0.022490129376348245 -0.0029546796614567513 0 -0.023384500624169306 -0.0028303830120465644 0 -0.023008164039487515 -0.0023447794139717384 0 -0.022490129376348245 -0.0029546796614567513 0 -0.023008164039487515 -0.0023447794139717384 0 -0.023157354302578457 -0.0016944858075581062 0 -0.02247659377029471 -0.0021067099985696502 0 -0.023582784815653957 -0.0022249828970947148 0 -0.023008164039487515 -0.0023447794139717384 0 -0.023157354302578457 -0.0016944858075581062 0 -0.022667738140896499 -0.0010509561585779876 0 -0.023157354302578457 -0.0016944858075581062 0 -0.02247659377029471 -0.0021067099985696502 0 -0.022667738140896499 -0.0010509561585779876 0 -0.022365107550354871 -0.0013305552491199907 0 -0.02205493769700911 -0.0012962762690345176 0 -0.022613670604663471 -0.0010886492928967324 0 -0.022435175414557338 -0.0017072980993284132 0 -0.021808030636248397 -0.0015129444267455196 0 -0.02205493769700911 -0.0012962762690345176 0 -0.022093774179600872 -0.001455489405289556 0 -0.02247659377029471 -0.0021067099985696502 0 -0.022360223596072055 -0.00300461209186987 0 -0.022490129376348245 -0.0029546796614567513 0 -0.022435175414557338 -0.0017072980993284132 0 -0.022266646115588082 -0.0022726407492408155 0 -0.022365107550354871 -0.0013305552491199907 0 -0.022093774179600872 -0.001455489405289556 0 -0.022170070386984396 -0.0015816952496154641 0 -0.022365107550354871 -0.0013305552491199907 0 -0.02205493769700911 -0.0012962762690345176 0 -0.022093774179600872 -0.001455489405289556 0 -0.022093774179600872 -0.001455489405289556 0 -0.022170070386984396 -0.0015816952496154641 0 -0.022014910242013554 -0.00158637958948493 0 -0.022014910242013554 -0.00158637958948493 0 -0.021882761669669459 -0.0017269449045100003 0 -0.022028904735276234 -0.0016900476004606038 0 -0.022170070386984396 -0.0015816952496154641 0 -0.022014910242013554 -0.00158637958948493 0 -0.022028904735276234 -0.0016900476004606038 0 -0.021808030636248397 -0.0015129444267455196 0 -0.022093774179600872 -0.001455489405289556 0 -0.022014910242013554 -0.00158637958948493 0 -0.021808030636248397 -0.0015129444267455196 0 -0.022014910242013554 -0.00158637958948493 0 -0.021882761669669459 -0.0017269449045100003 0 -0.021502141557546307 -0.0017801609214308681 0 -0.02176247709463244 -0.001939409775956405 0 -0.021882761669669459 -0.0017269449045100003 0 -0.022046976184376895 -0.0018667701808149019 0 -0.02176247709463244 -0.001939409775956405 0 -0.021882761669669459 -0.0017269449045100003 0 -0.022046976184376895 -0.0018667701808149019 0 -0.021882761669669459 -0.0017269449045100003 0 -0.022028904735276234 -0.0016900476004606038 0 -0.022106852506484906 -0.0021949768824041636 0 -0.022266646115588082 -0.0022726407492408155 0 -0.022046976184376895 -0.0018667701808149019 0 -0.022170070386984396 -0.0015816952496154641 0 -0.022028904735276234 -0.0016900476004606038 0 -0.022184053127371019 -0.0025013648323734651 0 -0.022010000992777948 -0.0027329669792619357 0 -0.021868274590374173 -0.002571399542049099 0 -0.022184053127371019 -0.0025013648323734651 0 -0.022010000992777948 -0.0027329669792619357 0 -0.022228095440855983 -0.0028521768450926045 0 -0.022184053127371019 -0.0025013648323734651 0 -0.022360223596072055 -0.00300461209186987 0 -0.022228095440855983 -0.0028521768450926045 0 -0.021626136533910611 -0.0025084090112530814 0 -0.021868274590374173 -0.002571399542049099 0 -0.021741907173615002 -0.0026937419787035487 0 -0.022010000992777948 -0.0027329669792619357 0 -0.021868274590374173 -0.002571399542049099 0 -0.021741907173615002 -0.0026937419787035487 0 -0.022010000992777948 -0.0027329669792619357 0 -0.021741907173615002 -0.0026937419787035487 0 -0.021904582009876578 -0.0028718437258067092 0 -0.022010000992777948 -0.0027329669792619357 0 -0.021904582009876578 -0.0028718437258067092 0 -0.022125261333340016 -0.0029022970770482387 0 -0.021741907173615002 -0.0026937419787035487 0 -0.021904582009876578 -0.0028718437258067092 0 -0.021710858050143299 -0.0029181346222942007 0 -0.021581939773115337 -0.0032241510500288406 0 -0.021928848644686142 -0.0031604283121644925 0 -0.021710858050143299 -0.0029181346222942007 0 -0.021928848644686142 -0.0031604283121644925 0 -0.021904582009876578 -0.0028718437258067092 0 -0.022125261333340016 -0.0029022970770482387 0 -0.021928848644686142 -0.0031604283121644925 0 -0.021904582009876578 -0.0028718437258067092 0 -0.021710858050143299 -0.0029181346222942007 0 -0.021928848644686142 -0.0031604283121644925 0 -0.022490129376348245 -0.0029546796614567513 0 -0.022125261333340016 -0.0029022970770482387 0 -0.022669960504122996 -0.0029618942153075757 0 -0.022514190840579783 -0.0029777844145990255 0 -0.022490129376348245 -0.0029546796614567513 0 -0.022228095440855983 -0.0028521768450926045 0 -0.022125261333340016 -0.0029022970770482387 0 -0.022360223596072055 -0.00300461209186987 0 -0.022490129376348245 -0.0029546796614567513 0 -0.022228095440855983 -0.0028521768450926045 0 -0.022010000992777948 -0.0027329669792619357 0 -0.022228095440855983 -0.0028521768450926045 0 -0.022125261333340016 -0.0029022970770482387 0 -0.019893120040007813 0.00015166039737235499 0 -0.02018478577077662 2.826914332784758e-07 0 -0.018810252984309921 1.7271597638855253e-07 0 -0.019893120040007813 0.00015166039737235499 0 -0.018810252984309921 1.7271597638855253e-07 0 -0.019079106049894417 0.00012696536038754965 0 -0.019079106049894417 0.00012696536038754965 0 -0.019495173231025717 0.00021598273569174408 0 -0.019330396708172552 -2.3328162793840336e-05 0 -0.018799080720062679 -0.00065245975225812838 0 -0.018179391755372996 -0.00044596896796018475 0 -0.018531984941659019 0.00015733398367191861 0 -0.019235760673843978 -0.00018546047936870665 0 -0.018365196936173833 -7.0363247963512316e-05 0 -0.018799080720062679 -0.00065245975225812838 0 -0.018291157195861326 -0.0010313398205539107 0 -0.018179391755372996 -0.00044596896796018475 0 -0.019893120040007813 0.00015166039737235499 0 -0.019495173231025717 0.00021598273569174408 0 -0.020341781881859887 7.7741041710995158e-05 0 -0.019893120040007813 0.00015166039737235499 0 -0.019079106049894417 0.00012696536038754965 0 -0.019495173231025717 0.00021598273569174408 0 -0.019235760673843978 -0.00018546047936870665 0 -0.01973434651831904 -0.00062167372385126029 0 -0.019095642634451227 -0.001433408755304303 0 -0.018291157195861326 -0.0010313398205539107 0 -0.018272356253393938 -0.0015895907471797299 0 -0.018799080720062679 -0.00065245975225812838 0 -0.019095642634451227 -0.001433408755304303 0 -0.018291157195861326 -0.0010313398205539107 0 -0.018272356253393938 -0.0015895907471797299 0 -0.018744676933826809 -0.0019328848907145335 0 -0.018248448302810572 -0.0019052356152343822 0 -0.019095642634451227 -0.001433408755304303 0 -0.018272356253393938 -0.0015895907471797299 0 -0.018744676933826809 -0.0019328848907145335 0 -0.01973434651831904 -0.00062167372385126029 0 -0.020227405432906517 -0.0011978188743123374 0 -0.019095642634451227 -0.001433408755304303 0 -0.018744676933826809 -0.0019328848907145335 0 -0.019412393237327616 -0.0022326825546836186 0 -0.020341781881859887 7.7741041710995158e-05 0 -0.02094905973850571 7.1129322676870334e-05 0 -0.021510591952078967 -5.4393309475163817e-05 0 -0.019893120040007813 0.00015166039737235499 0 -0.020341781881859887 7.7741041710995158e-05 0 -0.02094905973850571 7.1129322676870334e-05 0 -0.019893120040007813 0.00015166039737235499 0 -0.02018478577077662 2.826914332784758e-07 0 -0.02094905973850571 7.1129322676870334e-05 0 -0.02018478577077662 2.826914332784758e-07 0 -0.02094905973850571 7.1129322676870334e-05 0 -0.021558847733077324 7.8330173500885078e-08 0 -0.02094905973850571 7.1129322676870334e-05 0 -0.021558847733077324 7.8330173500885078e-08 0 -0.02194322778212645 1.9351394621841645e-05 0 -0.021558847733077324 7.8330173500885078e-08 0 -0.02194322778212645 1.9351394621841645e-05 0 -0.022933571698057372 1.8422051801015073e-07 0 -0.02094905973850571 7.1129322676870334e-05 0 -0.02194322778212645 1.9351394621841645e-05 0 -0.021510591952078967 -5.4393309475163817e-05 0 -0.022886241366914434 -0.00093713700572892926 0 -0.02193571245745209 -0.001376665526727841 0 -0.019412393237327616 -0.0022326825546836186 0 -0.01973175310882868 -0.0030425588899477642 0 -0.019055465802797242 -0.0026722977910653193 0 -0.020227405432906517 -0.0011978188743123374 0 -0.022886241366914434 -0.00093713700572892926 0 -0.02194322778212645 1.9351394621841645e-05 0 -0.021510591952078967 -5.4393309475163817e-05 0 -0.022687967565723537 -0.00022607253242683977 0 -0.02194322778212645 1.9351394621841645e-05 0 -0.022933571698057372 1.8422051801015073e-07 0 -0.022687967565723537 -0.00022607253242683977 0 -0.022933571698057372 1.8422051801015073e-07 0 -0.022687967565723537 -0.00022607253242683977 0 -0.024306164269240819 -1.1473574927322185e-06 0 -0.022886241366914434 -0.00093713700572892926 0 -0.024308307915412729 -2.8710113489848183e-08 0 -0.02497301692554383 -8.3541967697801555e-06 0 -0.024999973984538577 -5.9541169902644961e-09 0 -0.024999968434318169 -3.6080338189455797e-09 0 -0.022886241366914434 -0.00093713700572892926 0 -0.025000927328022508 5.6049149536364187e-07 0 -0.024797333308149726 -0.00032709733596561757 0 -0.024999574310891948 6.0968586005213225e-07 0 -0.024310152805788486 -6.2049601055999228e-07 0 -0.024999574310891948 6.0968586005213225e-07 0 -0.024999200160491324 3.2378429102577561e-09 0 -0.024310152805788486 -6.2049601055999228e-07 0 -0.024980914611476255 -5.391973506883433e-06 0 -0.024980645332486104 -6.6908382894918177e-06 0 -0.024999990101502563 -1.2237997259191523e-10 0 -0.024999968434318169 -3.6080338189455797e-09 0 -0.024980914611476255 -5.391973506883433e-06 0 -0.024999990101502563 -1.2237997259191523e-10 0 -0.02497301692554383 -8.3541967697801555e-06 0 -0.024999968434318169 -3.6080338189455797e-09 0 -0.024980914611476255 -5.391973506883433e-06 0 -0.024980914611476255 -5.391973506883433e-06 0 -0.024965915950262301 -1.0908785294721489e-05 0 -0.02496042869251365 -1.1653149197670809e-05 0 -0.02497301692554383 -8.3541967697801555e-06 0 -0.024980914611476255 -5.391973506883433e-06 0 -0.02496042869251365 -1.1653149197670809e-05 0 -0.024980914611476255 -5.391973506883433e-06 0 -0.024965915950262301 -1.0908785294721489e-05 0 -0.024980645332486104 -6.6908382894918177e-06 0 -0.023027988717067505 -0.00047657437293956997 0 -0.025182042382123605 0.00012428033366270694 0 -0.024965915950262301 -1.0908785294721489e-05 0 -0.024953636809495895 -1.6604227457835938e-05 0 -0.024980645332486104 -6.6908382894918177e-06 0 -0.024965915950262301 -1.0908785294721489e-05 0 -0.024954791879081815 -1.4423998968864995e-05 0 -0.02496042869251365 -1.1653149197670809e-05 0 -0.024965915950262301 -1.0908785294721489e-05 0 -0.024954791879081815 -1.4423998968864995e-05 0 -0.024953636809495895 -1.6604227457835938e-05 0 -0.02195579185124466 -0.0011346204750791189 0 -0.023027988717067505 -0.00047657437293956997 0 -0.02195579185124466 -0.0011346204750791189 0 -0.02193571245745209 -0.001376665526727841 0 -0.018688616749903408 -0.0024670213995197569 0 -0.019055465802797242 -0.0026722977910653193 0 -0.018821235533563095 -0.002287622632128861 0 -0.019412393237327616 -0.0022326825546836186 0 -0.019055465802797242 -0.0026722977910653193 0 -0.018821235533563095 -0.002287622632128861 0 -0.018744676933826809 -0.0019328848907145335 0 -0.019412393237327616 -0.0022326825546836186 0 -0.018821235533563095 -0.002287622632128861 0 -0.018744676933826809 -0.0019328848907145335 0 -0.018569021068629715 -0.0021459060161572534 0 -0.018248448302810572 -0.0019052356152343822 0 -0.022071521547415474 -0.0011941530516531185 0 -0.021810676604553002 -0.0010301728038663112 0 -0.021802270383730882 -0.0011069075286510885 0 -0.02195579185124466 -0.0011346204750791189 0 -0.021442428733931658 -0.0010242051839517482 0 -0.021442428733931658 -0.0010242051839517482 0 -0.023027988717067505 -0.00047657437293956997 0 -0.018688616749903408 -0.0024670213995197569 0 -0.018821235533563095 -0.002287622632128861 0 -0.018390443767335309 -0.0022989856420172565 0 -0.018821235533563095 -0.002287622632128861 0 -0.018390443767335309 -0.0022989856420172565 0 -0.018569021068629715 -0.0021459060161572534 0 -0.018744676933826809 -0.0019328848907145335 0 -0.018821235533563095 -0.002287622632128861 0 -0.018569021068629715 -0.0021459060161572534 0 -0.018390443767335309 -0.0022989856420172565 0 -0.018569021068629715 -0.0021459060161572534 0 -0.018248448302810572 -0.0019052356152343822 0 -0.024970945626283509 1.6678457690336838e-05 0 -0.02497208762109927 2.6087873712818592e-05 0 -0.024981608806383351 1.7873362290996316e-05 0 -0.02184337814155253 -0.00080735519891324378 0 -0.021840413187225918 -0.00084597094313334381 0 -0.021477648489447554 -0.00072170487507743249 0 -0.018390443767335309 -0.0022989856420172565 0 -0.017728842266531625 -0.0019129041941715174 0 -0.018248448302810572 -0.0019052356152343822 0 -0.02184337814155253 -0.00080735519891324378 0 -0.021477648489447554 -0.00072170487507743249 0 -0.021541234391444595 -0.0006276974979806156 0 -0.021442428733931658 -0.0010242051839517482 0 -0.019426234678381869 -0.0012674532884518262 0 -0.023027988717067505 -0.00047657437293956997 0 -0.023311019386466701 -0.00035200367603286156 0 -0.024981608806383351 1.7873362290996316e-05 0 -0.024986443660311327 1.2732268360417926e-05 0 -0.02497710719993828 2.6157852331465498e-05 0 -0.02497208762109927 2.6087873712818592e-05 0 -0.024981608806383351 1.7873362290996316e-05 0 -0.02497710719993828 2.6157852331465498e-05 0 -0.024970945626283509 1.6678457690336838e-05 0 -0.024981608806383351 1.7873362290996316e-05 0 -0.024989541537049149 1.2590616692889463e-05 0 -0.024981608806383351 1.7873362290996316e-05 0 -0.024989541537049149 1.2590616692889463e-05 0 -0.024993080249987937 6.9094251648302808e-06 0 -0.024981608806383351 1.7873362290996316e-05 0 -0.024986443660311327 1.2732268360417926e-05 0 -0.024993080249987937 6.9094251648302808e-06 0 -0.024986443660311327 1.2732268360417926e-05 0 -0.024993080249987937 6.9094251648302808e-06 0 -0.024999979112559592 4.2983017430158842e-09 0 -0.024993080249987937 6.9094251648302808e-06 0 -0.02499999660668158 9.8483511789444494e-09 0 -0.024999979112559592 4.2983017430158842e-09 0 -0.025182042382123605 0.00012428033366270694 0 -0.02499989932288357 -1.8926902099230833e-07 0 -0.024989541537049149 1.2590616692889463e-05 0 -0.024993080249987937 6.9094251648302808e-06 0 -0.02499999660668158 9.8483511789444494e-09 0 -0.024999979112559592 4.2983017430158842e-09 0 -0.024981793210962083 9.5377057688967131e-06 0 -0.024999976832015151 4.5608881132771573e-09 0 -0.024986443660311327 1.2732268360417926e-05 0 -0.024981793210962083 9.5377057688967131e-06 0 -0.02497710719993828 2.6157852331465498e-05 0 -0.024986443660311327 1.2732268360417926e-05 0 -0.024999979112559592 4.2983017430158842e-09 0 -0.024981793210962083 9.5377057688967131e-06 0 -0.024981793210962083 9.5377057688967131e-06 0 -0.024964464640622748 1.5148523358047929e-05 0 -0.024999976832015151 4.5608881132771573e-09 0 -0.024981793210962083 9.5377057688967131e-06 0 -0.024958458502048315 2.4482596309597692e-05 0 -0.024964464640622748 1.5148523358047929e-05 0 -0.024981793210962083 9.5377057688967131e-06 0 -0.024958458502048315 2.4482596309597692e-05 0 -0.02497710719993828 2.6157852331465498e-05 0 -0.024958458502048315 2.4482596309597692e-05 0 -0.02497710719993828 2.6157852331465498e-05 0 -0.024934954941542214 4.1045307053831286e-05 0 -0.023311019386466701 -0.00035200367603286156 0 -0.023014219135407219 -0.00027028517116971598 0 -0.02497208762109927 2.6087873712818592e-05 0 -0.02497710719993828 2.6157852331465498e-05 0 -0.024973691366628005 5.2002974016826173e-05 0 -0.02497710719993828 2.6157852331465498e-05 0 -0.024934954941542214 4.1045307053831286e-05 0 -0.024973691366628005 5.2002974016826173e-05 0 -0.023014219135407219 -0.00027028517116971598 0 -0.023030632138041372 -0.00019217715893846067 0 -0.021164026687418711 -0.00060550279511139139 0 -0.0210287642641717 -0.00033888189305594758 0 -0.021269529740016526 -0.00047255409101835239 0 -0.021164026687418711 -0.00060550279511139139 0 -0.0210287642641717 -0.00033888189305594758 0 -0.020891821871758254 -0.00050418308478252893 0 -0.024934954941542214 4.1045307053831286e-05 0 -0.024973691366628005 5.2002974016826173e-05 0 -0.024870896534269223 7.881946986405186e-05 0 -0.018844198637572206 -0.00073308457086111321 0 -0.019229562770816454 -0.00099331674585482837 0 -0.016620160641120249 -0.0010894926977404798 0 -0.017109595266409969 -0.0014968788995318599 0 -0.017106932166015318 -0.00093288895956773873 0 -0.017109595266409969 -0.0014968788995318599 0 -0.017591537119895532 -0.0014107416767873385 0 -0.017106932166015318 -0.00093288895956773873 0 -0.021477648489447554 -0.00072170487507743249 0 -0.021164026687418711 -0.00060550279511139139 0 -0.021269529740016526 -0.00047255409101835239 0 -0.021477648489447554 -0.00072170487507743249 0 -0.021269529740016526 -0.00047255409101835239 0 -0.021541234391444595 -0.0006276974979806156 0 -0.019229562770816454 -0.00099331674585482837 0 -0.019426234678381869 -0.0012674532884518262 0 -0.017109595266409969 -0.0014968788995318599 0 -0.017728842266531625 -0.0019129041941715174 0 -0.017591537119895532 -0.0014107416767873385 0 -0.018272356253393938 -0.0015895907471797299 0 -0.017728842266531625 -0.0019129041941715174 0 -0.018248448302810572 -0.0019052356152343822 0 -0.018272356253393938 -0.0015895907471797299 0 -0.017728842266531625 -0.0019129041941715174 0 -0.017591537119895532 -0.0014107416767873385 0 -0.018291157195861326 -0.0010313398205539107 0 -0.017591537119895532 -0.0014107416767873385 0 -0.017694949097518418 -0.00094692618025659606 0 -0.018291157195861326 -0.0010313398205539107 0 -0.018272356253393938 -0.0015895907471797299 0 -0.017591537119895532 -0.0014107416767873385 0 -0.017591537119895532 -0.0014107416767873385 0 -0.017694949097518418 -0.00094692618025659606 0 -0.017106932166015318 -0.00093288895956773873 0 -0.017694949097518418 -0.00094692618025659606 0 -0.017474087125908724 -0.00056310548236300788 0 -0.017106932166015318 -0.00093288895956773873 0 -0.017694949097518418 -0.00094692618025659606 0 -0.018179391755372996 -0.00044596896796018475 0 -0.017474087125908724 -0.00056310548236300788 0 -0.018291157195861326 -0.0010313398205539107 0 -0.017694949097518418 -0.00094692618025659606 0 -0.018179391755372996 -0.00044596896796018475 0 -0.018179391755372996 -0.00044596896796018475 0 -0.017745173261084653 -7.1126957226425115e-05 0 -0.018531984941659019 0.00015733398367191861 0 -0.018179391755372996 -0.00044596896796018475 0 -0.017474087125908724 -0.00056310548236300788 0 -0.017745173261084653 -7.1126957226425115e-05 0 -0.016951945758413921 -0.00040676983918405267 0 -0.017312538839879332 -0.0002860221051292911 0 -0.017474087125908724 -0.00056310548236300788 0 -0.016894920106402308 -0.00042940661777652678 0 -0.017745173261084653 -7.1126957226425115e-05 0 -0.016894920106402308 -0.00042940661777652678 0 -0.016702688835641862 -0.00070905834714007313 0 -0.016645921212264662 -0.00039846487987780566 0 -0.016702688835641862 -0.00070905834714007313 0 -0.016494617598229021 -0.0005591435092597893 0 -0.016645921212264662 -0.00039846487987780566 0 -0.016620160641120249 -0.0010894926977404798 0 -0.016702688835641862 -0.00070905834714007313 0 -0.017106932166015318 -0.00093288895956773873 0 -0.016894920106402308 -0.00042940661777652678 0 -0.016702688835641862 -0.00070905834714007313 0 -0.017106932166015318 -0.00093288895956773873 0 -0.017474087125908724 -0.00056310548236300788 0 -0.016894920106402308 -0.00042940661777652678 0 -0.017106932166015318 -0.00093288895956773873 0 -0.01846525248360105 -0.00040151391434567382 0 -0.017897675566426616 -0.00026326564080377267 0 -0.019883178077170945 -0.00022200028094622646 0 -0.019625822481163388 -4.726825932425415e-05 0 -0.019621422385681663 -0.00028334609981357399 0 -0.018844198637572206 -0.00073308457086111321 0 -0.01846525248360105 -0.00040151391434567382 0 -0.016620160641120249 -0.0010894926977404798 0 -0.016702688835641862 -0.00070905834714007313 0 -0.016277900218437596 -0.00078541346540624956 0 -0.016702688835641862 -0.00070905834714007313 0 -0.016277900218437596 -0.00078541346540624956 0 -0.016494617598229021 -0.0005591435092597893 0 -0.01846525248360105 -0.00040151391434567382 0 -0.016186695165736266 -0.0010015448533978171 0 -0.016494617598229021 -0.0005591435092597893 0 -0.016389669846093007 -0.00036723468090645603 0 -0.016645921212264662 -0.00039846487987780566 0 -0.016494617598229021 -0.0005591435092597893 0 -0.01639655026536694 -0.00050155644927321293 0 -0.016389669846093007 -0.00036723468090645603 0 -0.016436207500609566 -0.00061279816668363446 0 -0.016494617598229021 -0.0005591435092597893 0 -0.01639655026536694 -0.00050155644927321293 0 -0.016436207500609566 -0.00061279816668363446 0 -0.01639655026536694 -0.00050155644927321293 0 -0.01628553823482139 -0.00049856658940543059 0 -0.01639655026536694 -0.00050155644927321293 0 -0.01628553823482139 -0.00049856658940543059 0 -0.016389669846093007 -0.00036723468090645603 0 -0.019405253385221252 -0.00012804717994748492 0 -0.019255304798024973 -0.00014839094327654531 0 -0.019331849197050874 0.00015885463021388576 0 -0.019625822481163388 -4.726825932425415e-05 0 -0.019405253385221252 -0.00012804717994748492 0 -0.019331849197050874 0.00015885463021388576 0 -0.017897675566426616 -0.00026326564080377267 0 -0.0177746033735992 -8.8913580484472929e-05 0 -0.019625822481163388 -4.726825932425415e-05 0 -0.019405253385221252 -0.00012804717994748492 0 -0.01948206775877136 -0.0002600986979269383 0 -0.019405253385221252 -0.00012804717994748492 0 -0.01948206775877136 -0.0002600986979269383 0 -0.019358461047174529 -0.00027409829928939201 0 -0.019405253385221252 -0.00012804717994748492 0 -0.019358461047174529 -0.00027409829928939201 0 -0.019255304798024973 -0.00014839094327654531 0 -0.01948206775877136 -0.0002600986979269383 0 -0.019621422385681663 -0.00028334609981357399 0 -0.019439501038618637 -0.00039982005476875171 0 -0.01948206775877136 -0.0002600986979269383 0 -0.019358461047174529 -0.00027409829928939201 0 -0.019439501038618637 -0.00039982005476875171 0 -0.019625822481163388 -4.726825932425415e-05 0 -0.01948206775877136 -0.0002600986979269383 0 -0.019621422385681663 -0.00028334609981357399 0 -0.020716047458720532 -0.00072265116346252795 0 -0.019900654460723553 -0.00048479928897254533 0 -0.02048951704651911 -0.00095788708512995065 0 -0.021625650992745247 -0.00036707917758875368 0 -0.019424718937030714 -0.00039201555980207097 0 -0.019621422385681663 -0.00028334609981357399 0 -0.019668889167991296 -0.00046658816909446877 0 -0.019439501038618637 -0.00039982005476875171 0 -0.021625650992745247 -0.00036707917758875368 0 -0.023350544196456338 -0.00011849001894841104 0 -0.019358461047174529 -0.00027409829928939201 0 -0.019439501038618637 -0.00039982005476875171 0 -0.019220888863969859 -0.00036902799042148085 0 -0.019424718937030714 -0.00039201555980207097 0 -0.019358272670538683 -0.00039059231901742011 0 -0.019706994019019104 -0.00078927244986210323 0 -0.019900654460723553 -0.00048479928897254533 0 -0.019220888863969859 -0.00036902799042148085 0 -0.019706994019019104 -0.00078927244986210323 0 -0.019900654460723553 -0.00048479928897254533 0 -0.02048951704651911 -0.00095788708512995065 0 -0.024662760562989317 -9.9502422512464764e-05 0 -0.024639566695600492 1.2545562256360617e-05 0 -0.024526557799600487 -8.1645689044588959e-05 0 -0.022334378123802387 -0.00047091529836768817 0 -0.023350544196456338 -0.00011849001894841104 0 -0.024662760562989317 -9.9502422512464764e-05 0 -0.024639566695600492 1.2545562256360617e-05 0 -0.024713284569406441 -3.8381472533993905e-05 0 -0.024639566695600492 1.2545562256360617e-05 0 -0.024757339458202545 3.2450788036046149e-05 0 -0.024713284569406441 -3.8381472533993905e-05 0 -0.024336329427253712 0.00023556937991278288 0 -0.024232058572146279 0.00012896074820273657 0 -0.024591232938077297 8.2816445460024527e-05 0 -0.024882737378757052 9.132599154806483e-05 0 -0.02489762310416262 7.6498478948742549e-05 0 -0.02490764793041152 7.2346840486988562e-05 0 -0.023350544196456338 -0.00011849001894841104 0 -0.024951606525215702 4.876252455641626e-05 0 -0.024885310663753366 0.00017158800337620838 0 -0.023350544196456338 -0.00011849001894841104 0 -0.024860669032536295 8.9930250880367778e-05 0 -0.024882737378757052 9.132599154806483e-05 0 -0.024885544671822565 7.9925085090691374e-05 0 -0.024882737378757052 9.132599154806483e-05 0 -0.024885544671822565 7.9925085090691374e-05 0 -0.02489762310416262 7.6498478948742549e-05 0 -0.024885544671822565 7.9925085090691374e-05 0 -0.02489762310416262 7.6498478948742549e-05 0 -0.024901804330129857 6.7244830786742401e-05 0 -0.021625650992745247 -0.00036707917758875368 0 -0.023030632138041372 -0.00019217715893846067 0 -0.024336329427253712 0.00023556937991278288 0 -0.024591232938077297 8.2816445460024527e-05 0 -0.024819007441670784 0.00010515260590939847 0 -0.02489762310416262 7.6498478948742549e-05 0 -0.02490764793041152 7.2346840486988562e-05 0 -0.024907441496820292 6.9420541545116242e-05 0 -0.02490764793041152 7.2346840486988562e-05 0 -0.024900832155258856 7.1752686074637396e-05 0 -0.024907441496820292 6.9420541545116242e-05 0 -0.01846525248360105 -0.00040151391434567382 0 -0.021625650992745247 -0.00036707917758875368 0 -0.020811988717319856 -0.00021604130352918439 0 -0.020642803411103569 -0.00041802701332400879 0 -0.020891821871758254 -0.00050418308478252893 0 -0.019883178077170945 -0.00022200028094622646 0 -0.019621422385681663 -0.00028334609981357399 0 -0.019668889167991296 -0.00046658816909446877 0 -0.0210287642641717 -0.00033888189305594758 0 -0.020811988717319856 -0.00021604130352918439 0 -0.020891821871758254 -0.00050418308478252893 0 -0.024951606525215702 4.876252455641626e-05 0 -0.024783933833661044 8.7245379462226271e-05 0 -0.02490764793041152 7.2346840486988562e-05 0 -0.024900832155258856 7.1752686074637396e-05 0 -0.024870896534269223 7.881946986405186e-05 0 -0.024973691366628005 5.2002974016826173e-05 0 -0.024819007441670784 0.00010515260590939847 0 -0.024870896534269223 7.881946986405186e-05 0 -0.024591232938077297 8.2816445460024527e-05 0 -0.024819007441670784 0.00010515260590939847 0 -0.024870896534269223 7.881946986405186e-05 0 -0.024900832155258856 7.1752686074637396e-05 0 -0.024870896534269223 7.881946986405186e-05 0 -0.024903483615370321 6.4041220665632487e-05 0 -0.024934954941542214 4.1045307053831286e-05 0 -0.024913924434895582 5.6840727280917074e-05 0 -0.024903483615370321 6.4041220665632487e-05 0 -0.024934954941542214 4.1045307053831286e-05 0 -0.024870896534269223 7.881946986405186e-05 0 -0.024903483615370321 6.4041220665632487e-05 0 -0.024900832155258856 7.1752686074637396e-05 0 -0.024913924434895582 5.6840727280917074e-05 0 -0.024903483615370321 6.4041220665632487e-05 0 -0.024934954941542214 4.1045307053831286e-05 0 -0.024913924434895582 5.6840727280917074e-05 0 -0.024940379471482928 3.4429038546381248e-05 0 -0.024913924434895582 5.6840727280917074e-05 0 -0.024925339428333127 4.5651510847374283e-05 0 -0.024940379471482928 3.4429038546381248e-05 0 -0.024907441496820292 6.9420541545116242e-05 0 -0.024914498633982356 5.7389326308807153e-05 0 -0.024901804330129857 6.7244830786742401e-05 0 -0.02489762310416262 7.6498478948742549e-05 0 -0.024907441496820292 6.9420541545116242e-05 0 -0.024901804330129857 6.7244830786742401e-05 0 -0.024913924434895582 5.6840727280917074e-05 0 -0.024907441496820292 6.9420541545116242e-05 0 -0.024914498633982356 5.7389326308807153e-05 0 -0.024900832155258856 7.1752686074637396e-05 0 -0.024913924434895582 5.6840727280917074e-05 0 -0.024907441496820292 6.9420541545116242e-05 0 -0.024913924434895582 5.6840727280917074e-05 0 -0.024914498633982356 5.7389326308807153e-05 0 -0.024925339428333127 4.5651510847374283e-05 0 -0.024914498633982356 5.7389326308807153e-05 0 -0.024917331469599076 4.6678295495055131e-05 0 -0.024925339428333127 4.5651510847374283e-05 0 -0.024914498633982356 5.7389326308807153e-05 0 -0.024917331469599076 4.6678295495055131e-05 0 -0.024901804330129857 6.7244830786742401e-05 0 -0.024917331469599076 4.6678295495055131e-05 0 -0.024925339428333127 4.5651510847374283e-05 0 -0.024939582554439371 3.0097557238896678e-05 0 -0.024925339428333127 4.5651510847374283e-05 0 -0.024939582554439371 3.0097557238896678e-05 0 -0.024940379471482928 3.4429038546381248e-05 0 -0.024917331469599076 4.6678295495055131e-05 0 -0.024939582554439371 3.0097557238896678e-05 0 -0.024928501616952363 2.6027650755509172e-05 0 -0.024939582554439371 3.0097557238896678e-05 0 -0.024955083325510583 1.4174850682893975e-05 0 -0.024928501616952363 2.6027650755509172e-05 0 -0.024958458502048315 2.4482596309597692e-05 0 -0.024934954941542214 4.1045307053831286e-05 0 -0.024940379471482928 3.4429038546381248e-05 0 -0.024939582554439371 3.0097557238896678e-05 0 -0.024940379471482928 3.4429038546381248e-05 0 -0.024964464640622748 1.5148523358047929e-05 0 -0.024958458502048315 2.4482596309597692e-05 0 -0.024940379471482928 3.4429038546381248e-05 0 -0.024964464640622748 1.5148523358047929e-05 0 -0.024939582554439371 3.0097557238896678e-05 0 -0.024964464640622748 1.5148523358047929e-05 0 -0.024955083325510583 1.4174850682893975e-05 0 -0.024964464640622748 1.5148523358047929e-05 0 -0.024955083325510583 1.4174850682893975e-05 0 -0.024975818075404367 5.1418672610488344e-06 0 -0.024955083325510583 1.4174850682893975e-05 0 -0.024945827757834861 8.7824693834177132e-06 0 -0.024928501616952363 2.6027650755509172e-05 0 -0.024955083325510583 1.4174850682893975e-05 0 -0.024969708130629986 3.2283646805815877e-06 0 -0.024945827757834861 8.7824693834177132e-06 0 -0.024955083325510583 1.4174850682893975e-05 0 -0.024975818075404367 5.1418672610488344e-06 0 -0.024969708130629986 3.2283646805815877e-06 0 -0.024975818075404367 5.1418672610488344e-06 0 -0.02499990324631661 -1.3596888247259227e-08 0 -0.024999976832015151 4.5608881132771573e-09 0 -0.024975818075404367 5.1418672610488344e-06 0 -0.024969708130629986 3.2283646805815877e-06 0 -0.02499990324631661 -1.3596888247259227e-08 0 -0.024964464640622748 1.5148523358047929e-05 0 -0.024975818075404367 5.1418672610488344e-06 0 -0.024999976832015151 4.5608881132771573e-09 0 -0.024977738273139222 -5.0061349137118627e-06 0 -0.024929970144934102 7.0518735437071383e-07 0 -0.024999986919093289 -7.2704056732745829e-09 0 -0.024991217303286174 -4.4896778336203084e-06 0 -0.024998279949927343 -1.6731027660404649e-06 0 -0.024991217303286174 -4.4896778336203084e-06 0 -0.024937703338520991 5.0328558138324483e-07 0 -0.024860032095496996 -7.5506436497391265e-06 0 -0.02499990324631661 -1.3596888247259227e-08 0 -0.024999986919093289 -7.2704056732745829e-09 0 -0.024991217303286174 -4.4896778336203084e-06 0 -0.02499990324631661 -1.3596888247259227e-08 0 -0.024991217303286174 -4.4896778336203084e-06 0 -0.024969268205019109 -1.3898533166562499e-06 0 -0.024969708130629986 3.2283646805815877e-06 0 -0.02499990324631661 -1.3596888247259227e-08 0 -0.024969268205019109 -1.3898533166562499e-06 0 -0.024991217303286174 -4.4896778336203084e-06 0 -0.024969268205019109 -1.3898533166562499e-06 0 -0.024937703338520991 5.0328558138324483e-07 0 -0.024937703338520991 5.0328558138324483e-07 0 -0.024945827757834861 8.7824693834177132e-06 0 -0.024904380285232532 1.8128047508227126e-05 0 -0.024969268205019109 -1.3898533166562499e-06 0 -0.024937703338520991 5.0328558138324483e-07 0 -0.024945827757834861 8.7824693834177132e-06 0 -0.024969708130629986 3.2283646805815877e-06 0 -0.024969268205019109 -1.3898533166562499e-06 0 -0.024945827757834861 8.7824693834177132e-06 0 -0.024945827757834861 8.7824693834177132e-06 0 -0.024904380285232532 1.8128047508227126e-05 0 -0.024928501616952363 2.6027650755509172e-05 0 -0.024904380285232532 1.8128047508227126e-05 0 -0.024860032095496996 -7.5506436497391265e-06 0 -0.024844826198864141 3.295554371986305e-05 0 -0.024937703338520991 5.0328558138324483e-07 0 -0.024904380285232532 1.8128047508227126e-05 0 -0.024860032095496996 -7.5506436497391265e-06 0 -0.024904380285232532 1.8128047508227126e-05 0 -0.024844826198864141 3.295554371986305e-05 0 -0.02488032635347627 3.359900702129966e-05 0 -0.024844826198864141 3.295554371986305e-05 0 -0.02488032635347627 3.359900702129966e-05 0 -0.024855678842542847 5.2567918381175558e-05 0 -0.02488032635347627 3.359900702129966e-05 0 -0.024897458608778192 3.965584122178359e-05 0 -0.024855678842542847 5.2567918381175558e-05 0 -0.024844826198864141 3.295554371986305e-05 0 -0.024823134228165521 4.5088484246790215e-05 0 -0.024855678842542847 5.2567918381175558e-05 0 -0.024844826198864141 3.295554371986305e-05 0 -0.024823134228165521 4.5088484246790215e-05 0 -0.024809677785291213 4.2263184637604439e-05 0 -0.024904380285232532 1.8128047508227126e-05 0 -0.02488032635347627 3.359900702129966e-05 0 -0.024897458608778192 3.965584122178359e-05 0 -0.024904380285232532 1.8128047508227126e-05 0 -0.024928501616952363 2.6027650755509172e-05 0 -0.024897458608778192 3.965584122178359e-05 0 -0.024917331469599076 4.6678295495055131e-05 0 -0.024897458608778192 3.965584122178359e-05 0 -0.024887662380182311 6.26449420653914e-05 0 -0.024917331469599076 4.6678295495055131e-05 0 -0.024928501616952363 2.6027650755509172e-05 0 -0.024897458608778192 3.965584122178359e-05 0 -0.024917331469599076 4.6678295495055131e-05 0 -0.024887662380182311 6.26449420653914e-05 0 -0.024901804330129857 6.7244830786742401e-05 0 -0.024897458608778192 3.965584122178359e-05 0 -0.024887662380182311 6.26449420653914e-05 0 -0.024855678842542847 5.2567918381175558e-05 0 -0.024860669032536295 8.9930250880367778e-05 0 -0.024885544671822565 7.9925085090691374e-05 0 -0.024887662380182311 6.26449420653914e-05 0 -0.024885544671822565 7.9925085090691374e-05 0 -0.024887662380182311 6.26449420653914e-05 0 -0.024901804330129857 6.7244830786742401e-05 0 -0.024823134228165521 4.5088484246790215e-05 0 -0.024855678842542847 5.2567918381175558e-05 0 -0.024783480380213028 5.2858232709365505e-05 0 -0.024860669032536295 8.9930250880367778e-05 0 -0.024855678842542847 5.2567918381175558e-05 0 -0.024783480380213028 5.2858232709365505e-05 0 -0.024860669032536295 8.9930250880367778e-05 0 -0.024887662380182311 6.26449420653914e-05 0 -0.024855678842542847 5.2567918381175558e-05 0 -0.024639566695600492 1.2545562256360617e-05 0 -0.024757339458202545 3.2450788036046149e-05 0 -0.024783480380213028 5.2858232709365505e-05 0 -0.024885310663753366 0.00017158800337620838 0 -0.024726495480031058 4.0720547147458644e-06 0 -0.024757339458202545 3.2450788036046149e-05 0 -0.024783480380213028 5.2858232709365505e-05 0 -0.024757022164444645 3.3088057802946388e-05 0 -0.024771869869750929 4.9440868015052618e-05 0 -0.024774011421336731 5.0875840202732763e-05 0 -0.024795284436059578 4.1665606812219025e-05 0 -0.024783480380213028 5.2858232709365505e-05 0 -0.024795284436059578 4.1665606812219025e-05 0 -0.024757022164444645 3.3088057802946388e-05 0 -0.024771869869750929 4.9440868015052618e-05 0 -0.024795284436059578 4.1665606812219025e-05 0 -0.024763106080910504 4.9913058095058686e-05 0 -0.024988793840421762 0.0001401333278404952 0 -0.02402133712281954 -0.00020764540060314458 0 -0.02461157953709206 -0.0001887716049185162 0 -0.02402133712281954 -0.00020764540060314458 0 -0.024771914685774159 6.1995722844041681e-05 0 -0.024774011421336731 5.0875840202732763e-05 0 -0.024778503881379681 4.147389873692619e-05 0 -0.024771914685774159 6.1995722844041681e-05 0 -0.024770030257737385 4.7799855893853818e-05 0 -0.024800761417588833 2.2411237437783688e-05 0 -0.024771914685774159 6.1995722844041681e-05 0 -0.024770030257737385 4.7799855893853818e-05 0 -0.024774011421336731 5.0875840202732763e-05 0 -0.024770030257737385 4.7799855893853818e-05 0 -0.024771869869750929 4.9440868015052618e-05 0 -0.024774011421336731 5.0875840202732763e-05 0 -0.024770030257737385 4.7799855893853818e-05 0 -0.024771869869750929 4.9440868015052618e-05 0 -0.024763106080910504 4.9913058095058686e-05 0 -0.024960148880028499 1.4728057721930299e-05 0 -0.024972590885833836 7.8718435010002701e-06 0 -0.024989364215041731 7.6608079289130612e-06 0 -0.024870044380446297 3.352985597707081e-05 0 -0.024884582757337029 2.4736485033169205e-05 0 -0.024972590885833836 7.8718435010002701e-06 0 -0.02498109880847383 4.9953552239947728e-06 0 -0.024989364215041731 7.6608079289130612e-06 0 -0.02498109880847383 4.9953552239947728e-06 0 -0.024989364215041731 7.6608079289130612e-06 0 -0.0249872773844526 3.300082401977365e-06 0 -0.024972590885833836 7.8718435010002701e-06 0 -0.02498109880847383 4.9953552239947728e-06 0 -0.024971280116714088 4.8550801696488076e-06 0 -0.024860032095496996 -7.5506436497391265e-06 0 -0.024844826198864141 3.295554371986305e-05 0 -0.024795284436059578 4.1665606812219025e-05 0 -0.024860032095496996 -7.5506436497391265e-06 0 -0.024778503881379681 4.147389873692619e-05 0 -0.024795284436059578 4.1665606812219025e-05 0 -0.024823134228165521 4.5088484246790215e-05 0 -0.024783480380213028 5.2858232709365505e-05 0 -0.024809677785291213 4.2263184637604439e-05 0 -0.024783480380213028 5.2858232709365505e-05 0 -0.024809677785291213 4.2263184637604439e-05 0 -0.024795284436059578 4.1665606812219025e-05 0 -0.024774011421336731 5.0875840202732763e-05 0 -0.024778503881379681 4.147389873692619e-05 0 -0.024795284436059578 4.1665606812219025e-05 0 -0.024844826198864141 3.295554371986305e-05 0 -0.024809677785291213 4.2263184637604439e-05 0 -0.024795284436059578 4.1665606812219025e-05 0 -0.024929970144934102 7.0518735437071383e-07 0 -0.024884582757337029 2.4736485033169205e-05 0 -0.024998279949927343 -1.6731027660404649e-06 0 -0.024989364215041731 7.6608079289130612e-06 0 -0.024992794833369428 8.9051755200715248e-07 0 -0.024998279949927343 -1.6731027660404649e-06 0 -0.024992794833369428 8.9051755200715248e-07 0 -0.024996777274969576 -1.1303849829902367e-06 0 -0.024992794833369428 8.9051755200715248e-07 0 -0.024992366508468287 -2.8766965474517432e-07 0 -0.024996777274969576 -1.1303849829902367e-06 0 -0.024989364215041731 7.6608079289130612e-06 0 -0.024992794833369428 8.9051755200715248e-07 0 -0.0249872773844526 3.300082401977365e-06 0 -0.02498109880847383 4.9953552239947728e-06 0 -0.0249872773844526 3.300082401977365e-06 0 -0.024986066207534827 1.5619936688324633e-06 0 -0.024992794833369428 8.9051755200715248e-07 0 -0.0249872773844526 3.300082401977365e-06 0 -0.024986066207534827 1.5619936688324633e-06 0 -0.02498109880847383 4.9953552239947728e-06 0 -0.024986066207534827 1.5619936688324633e-06 0 -0.024971280116714088 4.8550801696488076e-06 0 -0.024986066207534827 1.5619936688324633e-06 0 -0.024992366508468287 -2.8766965474517432e-07 0 -0.024987407456705371 2.4182304181200204e-07 0 -0.024992794833369428 8.9051755200715248e-07 0 -0.024986066207534827 1.5619936688324633e-06 0 -0.024992366508468287 -2.8766965474517432e-07 0 -0.024999990259649049 -3.1318367295555237e-10 0 -0.024992366508468287 -2.8766965474517432e-07 0 -0.024996777274969576 -1.1303849829902367e-06 0 -0.024999990259649049 -3.1318367295555237e-10 0 -0.024992366508468287 -2.8766965474517432e-07 0 -0.024987407456705371 2.4182304181200204e-07 0 -0.024999986919093289 -7.2704056732745829e-09 0 -0.024999990259649049 -3.1318367295555237e-10 0 -0.024996777274969576 -1.1303849829902367e-06 0 -0.024999986919093289 -7.2704056732745829e-09 0 -0.024998279949927343 -1.6731027660404649e-06 0 -0.024996777274969576 -1.1303849829902367e-06 0 -0.024999991145711713 4.5363818499594592e-09 0 -0.024975272006415618 5.8104431422932126e-06 0 -0.024999950727619139 -4.152316760976555e-09 0 -0.024987407456705371 2.4182304181200204e-07 0 -0.024965976134352388 6.4057289888499891e-06 0 -0.024999990259649049 -3.1318367295555237e-10 0 -0.024999950727619139 -4.152316760976555e-09 0 -0.024987407456705371 2.4182304181200204e-07 0 -0.024986066207534827 1.5619936688324633e-06 0 -0.024987407456705371 2.4182304181200204e-07 0 -0.024971280116714088 4.8550801696488076e-06 0 -0.024987407456705371 2.4182304181200204e-07 0 -0.024965976134352388 6.4057289888499891e-06 0 -0.024971280116714088 4.8550801696488076e-06 0 -0.024954764113856082 6.0213597339996005e-06 0 -0.024965976134352388 6.4057289888499891e-06 0 -0.024955206568017411 8.8354732509561754e-06 0 -0.024965976134352388 6.4057289888499891e-06 0 -0.024955206568017411 8.8354732509561754e-06 0 -0.024971280116714088 4.8550801696488076e-06 0 -0.024955206568017411 8.8354732509561754e-06 0 -0.024971280116714088 4.8550801696488076e-06 0 -0.024958476367070472 8.3332107866171118e-06 0 -0.024972590885833836 7.8718435010002701e-06 0 -0.024971280116714088 4.8550801696488076e-06 0 -0.024958476367070472 8.3332107866171118e-06 0 -0.024960148880028499 1.4728057721930299e-05 0 -0.024958476367070472 8.3332107866171118e-06 0 -0.02493847561074649 9.5392581010636518e-06 0 -0.024960148880028499 1.4728057721930299e-05 0 -0.02493847561074649 9.5392581010636518e-06 0 -0.024892713855457115 1.8443453535041482e-06 0 -0.024960148880028499 1.4728057721930299e-05 0 -0.024972590885833836 7.8718435010002701e-06 0 -0.024958476367070472 8.3332107866171118e-06 0 -0.024954764113856082 6.0213597339996005e-06 0 -0.02493847561074649 9.5392581010636518e-06 0 -0.024932433531674545 4.3166993847146934e-06 0 -0.024954764113856082 6.0213597339996005e-06 0 -0.024955206568017411 8.8354732509561754e-06 0 -0.02493847561074649 9.5392581010636518e-06 0 -0.024955206568017411 8.8354732509561754e-06 0 -0.024958476367070472 8.3332107866171118e-06 0 -0.02493847561074649 9.5392581010636518e-06 0 -0.02493847561074649 9.5392581010636518e-06 0 -0.024932433531674545 4.3166993847146934e-06 0 -0.024892713855457115 1.8443453535041482e-06 0 -0.024932433531674545 4.3166993847146934e-06 0 -0.024892713855457115 1.8443453535041482e-06 0 -0.024920382760281721 -3.3100156924680612e-05 0 -0.02494566064890287 -1.2550227096435885e-05 0 -0.024932433531674545 4.3166993847146934e-06 0 -0.024920382760281721 -3.3100156924680612e-05 0 -0.024892713855457115 1.8443453535041482e-06 0 -0.024920382760281721 -3.3100156924680612e-05 0 -0.024889517314200488 -7.0785984949134237e-05 0 -0.023701905212652048 5.6844748336571556e-05 0 -0.023173636490666491 -0.00022403594154209495 0 -0.024937399811408089 -6.797524248219128e-05 0 -0.024920382760281721 -3.3100156924680612e-05 0 -0.024889517314200488 -7.0785984949134237e-05 0 -0.024695551315765917 6.8972526566043552e-05 0 -0.024763449892271562 4.6408798448940191e-05 0 -0.024800761417588833 2.2411237437783688e-05 0 -0.020592611896119658 -0.00047002131832622247 0 -0.020867339607212439 -0.00052401144358817781 0 -0.02061820194328548 -0.00028968245450406571 0 -0.020606261579661198 -0.00029884553633389261 0 -0.018494563641752632 -0.00037801685396141922 0 -0.023173636490666491 -0.00022403594154209495 0 -0.020606261579661198 -0.00029884553633389261 0 -0.024695551315765917 6.8972526566043552e-05 0 -0.024755005288539602 6.5115901768444072e-05 0 -0.024763449892271562 4.6408798448940191e-05 0 -0.024755005288539602 6.5115901768444072e-05 0 -0.024763449892271562 4.6408798448940191e-05 0 -0.024773464409172614 3.3054570135143265e-05 0 -0.023173636490666491 -0.00022403594154209495 0 -0.025212274386125607 -2.1118239253533408e-05 0 -0.024892713855457115 1.8443453535041482e-06 0 -0.024889517314200488 -7.0785984949134237e-05 0 -0.024800761417588833 2.2411237437783688e-05 0 -0.024763449892271562 4.6408798448940191e-05 0 -0.024800761417588833 2.2411237437783688e-05 0 -0.024773464409172614 3.3054570135143265e-05 0 -0.024771914685774159 6.1995722844041681e-05 0 -0.024892713855457115 1.8443453535041482e-06 0 -0.024800761417588833 2.2411237437783688e-05 0 -0.024870044380446297 3.352985597707081e-05 0 -0.024895242027817583 1.0524865203937114e-06 0 -0.021801664227637706 -0.00039446339001063149 0 -0.02234247126839772 -0.00088194008153508533 0 -0.022262440004670446 -9.0032173430330231e-05 0 -0.024770030257737385 4.7799855893853818e-05 0 -0.024800761417588833 2.2411237437783688e-05 0 -0.024773464409172614 3.3054570135143265e-05 0 -0.024770030257737385 4.7799855893853818e-05 0 -0.024773464409172614 3.3054570135143265e-05 0 -0.024763106080910504 4.9913058095058686e-05 0 -0.023387975494537767 -0.00035133187177017875 0 -0.02402133712281954 -0.00020764540060314458 0 -0.02402133712281954 -0.00020764540060314458 0 -0.020302985337666019 -0.00046882311570995431 0 -0.024662760562989317 -9.9502422512464764e-05 0 -0.024713284569406441 -3.8381472533993905e-05 0 -0.024743427080092507 -0.00010834786798437079 0 -0.024713284569406441 -3.8381472533993905e-05 0 -0.024766413209565623 -1.5813380975957734e-05 0 -0.024743427080092507 -0.00010834786798437079 0 -0.024757339458202545 3.2450788036046149e-05 0 -0.024713284569406441 -3.8381472533993905e-05 0 -0.024766413209565623 -1.5813380975957734e-05 0 -0.019706994019019104 -0.00078927244986210323 0 -0.019128175021545367 -0.00060838316663395619 0 -0.019220888863969859 -0.00036902799042148085 0 -0.022334378123802387 -0.00047091529836768817 0 -0.020302985337666019 -0.00046882311570995431 0 -0.021263441894920666 9.507298569116797e-05 0 -0.021801664227637706 -0.00039446339001063149 0 -0.022262440004670446 -9.0032173430330231e-05 0 -0.016739043786086448 -0.00094750921320621692 0 -0.016763362848058697 -0.00094515898989750715 0 -0.016718513213859826 -0.0009425071476644438 0 -0.020606261579661198 -0.00029884553633389261 0 -0.020302985337666019 -0.00046882311570995431 0 -0.020606261579661198 -0.00029884553633389261 0 -0.023387975494537767 -0.00035133187177017875 0 -0.016694974474573476 -0.00094414127929053971 0 -0.016696663281199252 -0.00095040946566788721 0 -0.016718513213859826 -0.0009425071476644438 0 -0.016763362848058697 -0.00094515898989750715 0 -0.016694974474573476 -0.00094414127929053971 0 -0.016718513213859826 -0.0009425071476644438 0 -0.020302985337666019 -0.00046882311570995431 0 -0.017615490213595264 -0.0005675217489178008 0 -0.019220888863969859 -0.00036902799042148085 0 -0.019255304798024973 -0.00014839094327654531 0 -0.019068554541381042 -4.7645172341274541e-05 0 -0.019128175021545367 -0.00060838316663395619 0 -0.019220888863969859 -0.00036902799042148085 0 -0.019068554541381042 -4.7645172341274541e-05 0 -0.019358461047174529 -0.00027409829928939201 0 -0.019220888863969859 -0.00036902799042148085 0 -0.019255304798024973 -0.00014839094327654531 0 -0.019255304798024973 -0.00014839094327654531 0 -0.019068554541381042 -4.7645172341274541e-05 0 -0.019331849197050874 0.00015885463021388576 0 -0.016694974474573476 -0.00094414127929053971 0 -0.016696663281199252 -0.00095040946566788721 0 -0.016665843081611301 -0.00097254836776759367 0 -0.016696663281199252 -0.00095040946566788721 0 -0.016675526151449776 -0.00096765022563321732 0 -0.016665843081611301 -0.00097254836776759367 0 -0.016696663281199252 -0.00095040946566788721 0 -0.016699209346838658 -0.00095274688440390848 0 -0.016711650819124322 -0.00094472569573090972 0 -0.016699209346838658 -0.00095274688440390848 0 -0.016698631089632085 -0.00095832940255812123 0 -0.016675526151449776 -0.00096765022563321732 0 -0.016696663281199252 -0.00095040946566788721 0 -0.016699209346838658 -0.00095274688440390848 0 -0.016675526151449776 -0.00096765022563321732 0 -0.016698631089632085 -0.00095832940255812123 0 -0.016713844215907124 -0.00094938873907959972 0 -0.016710614121047813 -0.00095870933810740262 0 -0.016699209346838658 -0.00095274688440390848 0 -0.016698631089632085 -0.00095832940255812123 0 -0.016713844215907124 -0.00094938873907959972 0 -0.016730321302854081 -0.00094859810569616356 0 -0.016713844215907124 -0.00094938873907959972 0 -0.016710614121047813 -0.00095870933810740262 0 -0.016730321302854081 -0.00094859810569616356 0 -0.016713844215907124 -0.00094938873907959972 0 -0.016727362037933735 -0.00094245242068874478 0 -0.019508942762264128 -0.00066587462496887808 0 -0.019907757750293489 -0.00022724713482608251 0 -0.02152547108850987 0.00010680781164877249 0 -0.021558309082386453 -1.9306406281799068e-05 0 -0.021638447658596849 -9.4745836355815578e-05 0 -0.020534037983772686 -0.0004676845322387328 0 -0.019907757750293489 -0.00022724713482608251 0 -0.016713844215907124 -0.00094938873907959972 0 -0.016727362037933735 -0.00094245242068874478 0 -0.016711650819124322 -0.00094472569573090972 0 -0.016699209346838658 -0.00095274688440390848 0 -0.016713844215907124 -0.00094938873907959972 0 -0.016711650819124322 -0.00094472569573090972 0 -0.021518343783022573 -0.00048241279965801389 0 -0.021558309082386453 -1.9306406281799068e-05 0 -0.021647444099022237 -9.4159956495579414e-05 0 -0.021518343783022573 -0.00048241279965801389 0 -0.021921974734435041 -0.00055680526132510029 0 -0.021647444099022237 -9.4159956495579414e-05 0 -0.016727362037933735 -0.00094245242068874478 0 -0.016722598718113876 -0.00094124606586218926 0 -0.016711650819124322 -0.00094472569573090972 0 -0.019907757750293489 -0.00022724713482608251 0 -0.018494563641752632 -0.00037801685396141922 0 -0.020592611896119658 -0.00047002131832622247 0 -0.020362031733242161 -5.5024596684107933e-05 0 -0.02061820194328548 -0.00028968245450406571 0 -0.023173636490666491 -0.00022403594154209495 0 -0.019907757750293489 -0.00022724713482608251 0 -0.016739043786086448 -0.00094750921320621692 0 -0.016722598718113876 -0.00094124606586218926 0 -0.016718513213859826 -0.0009425071476644438 0 -0.016696663281199252 -0.00095040946566788721 0 -0.016718513213859826 -0.0009425071476644438 0 -0.016711650819124322 -0.00094472569573090972 0 -0.016722598718113876 -0.00094124606586218926 0 -0.016718513213859826 -0.0009425071476644438 0 -0.016711650819124322 -0.00094472569573090972 0 -0.016556161057493243 -0.0010030565920337081 0 -0.016617404326931942 -0.0010113332526189114 0 -0.016697904459577525 -0.0010720915163379312 0 -0.016626243654200824 -0.00099853733253781095 0 -0.016648794663822672 -0.0009973903510108685 0 -0.016617404326931942 -0.0010113332526189114 0 -0.016648794663822672 -0.0009973903510108685 0 -0.016670842071041855 -0.00098187743552118349 0 -0.016646469111463991 -0.00098844257928447734 0 -0.016626243654200824 -0.00099853733253781095 0 -0.016648794663822672 -0.0009973903510108685 0 -0.016646469111463991 -0.00098844257928447734 0 -0.016626243654200824 -0.00099853733253781095 0 -0.016631706329185526 -0.0009961197331134629 0 -0.016646469111463991 -0.00098844257928447734 0 -0.016626243654200824 -0.00099853733253781095 0 -0.016631706329185526 -0.0009961197331134629 0 -0.016614360590822816 -0.0010032330661330028 0 -0.016631706329185526 -0.0009961197331134629 0 -0.016617717369879846 -0.0010060632998574862 0 -0.016614360590822816 -0.0010032330661330028 0 -0.016631706329185526 -0.0009961197331134629 0 -0.016617717369879846 -0.0010060632998574862 0 -0.016633480050712812 -0.00099922399268297427 0 -0.016617717369879846 -0.0010060632998574862 0 -0.016614360590822816 -0.0010032330661330028 0 -0.016589898479642214 -0.0010089299270338776 0 -0.016626243654200824 -0.00099853733253781095 0 -0.016614360590822816 -0.0010032330661330028 0 -0.016593019096845064 -0.0010064639871241756 0 -0.016593019096845064 -0.0010064639871241756 0 -0.016589898479642214 -0.0010089299270338776 0 -0.016556161057493243 -0.0010030565920337081 0 -0.016589898479642214 -0.0010089299270338776 0 -0.016556161057493243 -0.0010030565920337081 0 -0.016556089389172947 -0.001001441260029853 0 -0.016614360590822816 -0.0010032330661330028 0 -0.016593019096845064 -0.0010064639871241756 0 -0.016589898479642214 -0.0010089299270338776 0 -0.016626243654200824 -0.00099853733253781095 0 -0.016593019096845064 -0.0010064639871241756 0 -0.016617404326931942 -0.0010113332526189114 0 -0.016593019096845064 -0.0010064639871241756 0 -0.016556161057493243 -0.0010030565920337081 0 -0.016617404326931942 -0.0010113332526189114 0 -0.016617404326931942 -0.0010113332526189114 0 -0.016697904459577525 -0.0010720915163379312 0 -0.016669241421592807 -0.0010132952473908641 0 -0.016755640566511801 -0.0010326752446287427 0 -0.016712427627318231 -0.00099286023250317332 0 -0.016723061427625082 -0.00096462002036198967 0 -0.016762823477844743 -0.0010073736806428825 0 -0.01682396017639403 -0.0010231053766481823 0 -0.016697904459577525 -0.0010720915163379312 0 -0.016709159439149905 -0.0010130564057654343 0 -0.016669241421592807 -0.0010132952473908641 0 -0.016697904459577525 -0.0010720915163379312 0 -0.016755640566511801 -0.0010326752446287427 0 -0.016709159439149905 -0.0010130564057654343 0 -0.016755640566511801 -0.0010326752446287427 0 -0.016709159439149905 -0.0010130564057654343 0 -0.016712427627318231 -0.00099286023250317332 0 -0.016709159439149905 -0.0010130564057654343 0 -0.016712427627318231 -0.00099286023250317332 0 -0.016684396350447845 -0.00099449189234505323 0 -0.016648794663822672 -0.0009973903510108685 0 -0.016617404326931942 -0.0010113332526189114 0 -0.016669241421592807 -0.0010132952473908641 0 -0.016648794663822672 -0.0009973903510108685 0 -0.016669241421592807 -0.0010132952473908641 0 -0.016684396350447845 -0.00099449189234505323 0 -0.016709159439149905 -0.0010130564057654343 0 -0.016669241421592807 -0.0010132952473908641 0 -0.016684396350447845 -0.00099449189234505323 0 -0.016648794663822672 -0.0009973903510108685 0 -0.016684396350447845 -0.00099449189234505323 0 -0.016670842071041855 -0.00098187743552118349 0 -0.016730321302854081 -0.00094859810569616356 0 -0.016723061427625082 -0.00096462002036198967 0 -0.016710614121047813 -0.00095870933810740262 0 -0.016684396350447845 -0.00099449189234505323 0 -0.016670842071041855 -0.00098187743552118349 0 -0.016698497415961664 -0.0009740339937062177 0 -0.016670842071041855 -0.00098187743552118349 0 -0.016698497415961664 -0.0009740339937062177 0 -0.01668711461706392 -0.00096846764596026584 0 -0.016712427627318231 -0.00099286023250317332 0 -0.016698497415961664 -0.0009740339937062177 0 -0.016723061427625082 -0.00096462002036198967 0 -0.016712427627318231 -0.00099286023250317332 0 -0.016684396350447845 -0.00099449189234505323 0 -0.016698497415961664 -0.0009740339937062177 0 -0.016698497415961664 -0.0009740339937062177 0 -0.016723061427625082 -0.00096462002036198967 0 -0.016710614121047813 -0.00095870933810740262 0 -0.016698497415961664 -0.0009740339937062177 0 -0.016710614121047813 -0.00095870933810740262 0 -0.01668711461706392 -0.00096846764596026584 0 -0.016698631089632085 -0.00095832940255812123 0 -0.016710614121047813 -0.00095870933810740262 0 -0.01668711461706392 -0.00096846764596026584 0 -0.01668711461706392 -0.00096846764596026584 0 -0.016675526151449776 -0.00096765022563321732 0 -0.016664770849888832 -0.00097782642501611887 0 -0.016698631089632085 -0.00095832940255812123 0 -0.01668711461706392 -0.00096846764596026584 0 -0.016675526151449776 -0.00096765022563321732 0 -0.016675526151449776 -0.00096765022563321732 0 -0.016664770849888832 -0.00097782642501611887 0 -0.0166510672445528 -0.00098458042507575572 0 -0.016670842071041855 -0.00098187743552118349 0 -0.01668711461706392 -0.00096846764596026584 0 -0.016664770849888832 -0.00097782642501611887 0 -0.016664770849888832 -0.00097782642501611887 0 -0.016646469111463991 -0.00098844257928447734 0 -0.0166510672445528 -0.00098458042507575572 0 -0.016670842071041855 -0.00098187743552118349 0 -0.016664770849888832 -0.00097782642501611887 0 -0.016646469111463991 -0.00098844257928447734 0 -0.0166510672445528 -0.00098458042507575572 0 -0.016633480050712812 -0.00099922399268297427 0 -0.016643533470964155 -0.00099229239078345993 0 -0.016631706329185526 -0.0009961197331134629 0 -0.0166510672445528 -0.00098458042507575572 0 -0.016633480050712812 -0.00099922399268297427 0 -0.016631706329185526 -0.0009961197331134629 0 -0.016646469111463991 -0.00098844257928447734 0 -0.0166510672445528 -0.00098458042507575572 0 -0.016675526151449776 -0.00096765022563321732 0 -0.0166510672445528 -0.00098458042507575572 0 -0.016665843081611301 -0.00097254836776759367 0 -0.016694974474573476 -0.00094414127929053971 0 -0.016665843081611301 -0.00097254836776759367 0 -0.016625812945162625 -0.0010060690387323715 0 -0.017615490213595264 -0.0005675217489178008 0 -0.017368405324493397 -0.00028116966323035801 0 -0.0166510672445528 -0.00098458042507575572 0 -0.016665843081611301 -0.00097254836776759367 0 -0.016643533470964155 -0.00099229239078345993 0 -0.016665843081611301 -0.00097254836776759367 0 -0.016643533470964155 -0.00099229239078345993 0 -0.016625812945162625 -0.0010060690387323715 0 -0.016643533470964155 -0.00099229239078345993 0 -0.016632068936542302 -0.0010066219286693466 0 -0.016625812945162625 -0.0010060690387323715 0 -0.016633480050712812 -0.00099922399268297427 0 -0.016643533470964155 -0.00099229239078345993 0 -0.016632068936542302 -0.0010066219286693466 0 -0.017368405324493397 -0.00028116966323035801 0 -0.0177746033735992 -8.8913580484472929e-05 0 -0.016138855050906967 -0.0002719605796015032 0 -0.016055509874498029 -0.00030877392456921229 0 -0.01616189080947553 -0.00039050759334020846 0 -0.019068554541381042 -4.7645172341274541e-05 0 -0.019013158659130287 0.00034236376180325767 0 -0.019331849197050874 0.00015885463021388576 0 -0.016138855050906967 -0.0002719605796015032 0 -0.016055509874498029 -0.00030877392456921229 0 -0.016044704382365233 -0.00019251342191691059 0 -0.016628010753311766 -0.0010179635866945696 0 -0.016610985192162555 -0.0010095579258131155 0 -0.016702634568601774 -0.00096109217823980668 0 -0.016628010753311766 -0.0010179635866945696 0 -0.016629646333254797 -0.0010208787552809719 0 -0.016702634568601774 -0.00096109217823980668 0 -0.017368405324493397 -0.00028116966323035801 0 -0.016293683854364294 -0.00062815178788026393 0 -0.016619559538380988 -0.0010112131651964988 0 -0.016628010753311766 -0.0010179635866945696 0 -0.016610985192162555 -0.0010095579258131155 0 -0.016617717369879846 -0.0010060632998574862 0 -0.016619559538380988 -0.0010112131651964988 0 -0.016625882986903408 -0.0010061630023424509 0 -0.016617717369879846 -0.0010060632998574862 0 -0.016589898479642214 -0.0010089299270338776 0 -0.016619559538380988 -0.0010112131651964988 0 -0.016633480050712812 -0.00099922399268297427 0 -0.016625882986903408 -0.0010061630023424509 0 -0.016632068936542302 -0.0010066219286693466 0 -0.016619559538380988 -0.0010112131651964988 0 -0.016625882986903408 -0.0010061630023424509 0 -0.016632068936542302 -0.0010066219286693466 0 -0.016617717369879846 -0.0010060632998574862 0 -0.016633480050712812 -0.00099922399268297427 0 -0.016625882986903408 -0.0010061630023424509 0 -0.016619559538380988 -0.0010112131651964988 0 -0.016632068936542302 -0.0010066219286693466 0 -0.016628010753311766 -0.0010179635866945696 0 -0.016632068936542302 -0.0010066219286693466 0 -0.016628010753311766 -0.0010179635866945696 0 -0.016625812945162625 -0.0010060690387323715 0 -0.017295648825624461 -0.00030531945488853501 0 -0.017368405324493397 -0.00028116966323035801 0 -0.016589898479642214 -0.0010089299270338776 0 -0.016619559538380988 -0.0010112131651964988 0 -0.016610985192162555 -0.0010095579258131155 0 -0.016589898479642214 -0.0010089299270338776 0 -0.016610985192162555 -0.0010095579258131155 0 -0.016556089389172947 -0.001001441260029853 0 -0.016556089389172947 -0.001001441260029853 0 -0.016702634568601774 -0.00096109217823980668 0 -0.016443130754051422 -0.00096190276441487997 0 -0.016610985192162555 -0.0010095579258131155 0 -0.016556089389172947 -0.001001441260029853 0 -0.016702634568601774 -0.00096109217823980668 0 -0.016138855050906967 -0.0002719605796015032 0 -0.016044704382365233 -0.00019251342191691059 0 -0.0161416604042743 -0.00017340477856801626 0 -0.016044704382365233 -0.00019251342191691059 0 -0.016037667596103915 -9.0150437524216505e-05 0 -0.016110892292572933 -7.9948690249259525e-05 0 -0.016044704382365233 -0.00019251342191691059 0 -0.016110892292572933 -7.9948690249259525e-05 0 -0.0161416604042743 -0.00017340477856801626 0 -0.016702634568601774 -0.00096109217823980668 0 -0.016706829152153397 -0.00031413994680576797 0 -0.016443130754051422 -0.00096190276441487997 0 -0.016293683854364294 -0.00062815178788026393 0 -0.016362409265512579 -0.00019977386360036528 0 -0.016706829152153397 -0.00031413994680576797 0 -0.01603650107634998 -0.0005312770834183995 0 -0.016002441041553225 -1.6109545396406593e-05 0 -0.016706829152153397 -0.00031413994680576797 0 -0.01603650107634998 -0.0005312770834183995 0 -0.016443130754051422 -0.00096190276441487997 0 -0.015592236243523769 -0.0013349465538163457 0 -0.016443130754051422 -0.00096190276441487997 0 -0.015918027422766632 -0.00088598301958437722 0 -0.016556161057493243 -0.0010030565920337081 0 -0.016697904459577525 -0.0010720915163379312 0 -0.016443130754051422 -0.00096190276441487997 0 -0.015772670932964066 -0.0012347140128010057 0 -0.016588144187428749 -0.00094293899763793476 0 -0.01603650107634998 -0.0005312770834183995 0 -0.016443130754051422 -0.00096190276441487997 0 -0.015918027422766632 -0.00088598301958437722 0 -0.016556161057493243 -0.0010030565920337081 0 -0.016556089389172947 -0.001001441260029853 0 -0.016443130754051422 -0.00096190276441487997 0 -0.015592236243523769 -0.0013349465538163457 0 -0.015918027422766632 -0.00088598301958437722 0 -0.01559806367045235 -0.0007263345669607826 0 -0.015288036275205856 -0.0012072464569822781 0 -0.015592236243523769 -0.0013349465538163457 0 -0.01559806367045235 -0.0007263345669607826 0 -0.015001037343604074 -0.0013693747042818559 0 -0.015641908647877525 -0.00067173965406708584 0 -0.01603650107634998 -0.0005312770834183995 0 -0.015408481385541923 -0.0002988980236245212 0 -0.016002441041553225 -1.6109545396406593e-05 0 -0.01603650107634998 -0.0005312770834183995 0 -0.015408481385541923 -0.0002988980236245212 0 -0.01559806367045235 -0.0007263345669607826 0 -0.014974872983560721 -0.00062694072499508576 0 -0.015408481385541923 -0.0002988980236245212 0 -0.01559806367045235 -0.0007263345669607826 0 -0.01603650107634998 -0.0005312770834183995 0 -0.015918027422766632 -0.00088598301958437722 0 -0.01559806367045235 -0.0007263345669607826 0 -0.015306108227000804 0.00030111027746990442 0 -0.015408481385541923 -0.0002988980236245212 0 -0.016002441041553225 -1.6109545396406593e-05 0 -0.016002441041553225 -1.6109545396406593e-05 0 -0.015947614951088658 0.00073392351486528619 0 -0.016616477472364062 0.00044551861333292362 0 -0.014680853465037313 -3.9088305841156534e-05 0 -0.014864594638120078 0.00014109156225889288 0 -0.015306108227000804 0.00030111027746990442 0 -0.016002441041553225 -1.6109545396406593e-05 0 -0.015947614951088658 0.00073392351486528619 0 -0.014091804818771307 -0.00032493354418560279 0 -0.014085512806567297 -0.00065940263289347072 0 -0.013669011716501981 -0.00049678247699587864 0 -0.014085512806567297 -0.00065940263289347072 0 -0.013669011716501981 -0.00049678247699587864 0 -0.01367992933833111 -0.00090559669688575998 0 -0.014864594638120078 0.00014109156225889288 0 -0.014572900127232313 0.00017309407298845883 0 -0.015947614951088658 0.00073392351486528619 0 -0.016528913901619303 0.0011555844629823847 0 -0.016616477472364062 0.00044551861333292362 0 -0.013669011716501981 -0.00049678247699587864 0 -0.01367992933833111 -0.00090559669688575998 0 -0.013303054242693199 -0.00071393107104474518 0 -0.01367992933833111 -0.00090559669688575998 0 -0.013303054242693199 -0.00071393107104474518 0 -0.013276483968613216 -0.0011728153717207859 0 -0.015832352758134476 -0.00027581400610191849 0 -0.015990916925691236 -2.5077308019406697e-05 0 -0.015490510826613287 -0.00017296027587644555 0 -0.015832352758134476 -0.00027581400610191849 0 -0.016112634381802108 1.7875456528795012e-07 0 -0.015990916925691236 -2.5077308019406697e-05 0 -0.014572900127232313 0.00017309407298845883 0 -0.012895055049765538 -0.00071497884290217125 0 -0.014023605089530966 -3.3244281404839815e-05 0 -0.014572900127232313 0.00017309407298845883 0 -0.01224655680408974 0.0001824946457136934 0 -0.012845344051778047 0.00061344878097800021 0 -0.012888935637930742 -0.00017478525309343006 0 -0.014572900127232313 0.00017309407298845883 0 -0.016467222814437486 0.00027778974646847787 0 -0.016112634381802108 1.7875456528795012e-07 0 -0.01604806509535367 8.4432948353760421e-06 0 -0.015990916925691236 -2.5077308019406697e-05 0 -0.016112634381802108 1.7875456528795012e-07 0 -0.01604806509535367 8.4432948353760421e-06 0 -0.016034127708252566 4.8273118261184227e-07 0 -0.015998829699915059 -1.9384497516239255e-05 0 -0.015796207573005133 9.626477547467262e-05 0 -0.015990916925691236 -2.5077308019406697e-05 0 -0.016074605086475565 5.2877320095009977e-06 0 -0.016154304749374605 4.8588812183393147e-05 0 -0.01604806509535367 8.4432948353760421e-06 0 -0.015990916925691236 -2.5077308019406697e-05 0 -0.016074605086475565 5.2877320095009977e-06 0 -0.016074605086475565 5.2877320095009977e-06 0 -0.016034127708252566 4.8273118261184227e-07 0 -0.016110892292572933 -7.9948690249259525e-05 0 -0.01604806509535367 8.4432948353760421e-06 0 -0.016074605086475565 5.2877320095009977e-06 0 -0.016034127708252566 4.8273118261184227e-07 0 -0.016037667596103915 -9.0150437524216505e-05 0 -0.016034127708252566 4.8273118261184227e-07 0 -0.016110892292572933 -7.9948690249259525e-05 0 -0.016706829152153397 -0.00031413994680576797 0 -0.016002441041553225 -1.6109545396406593e-05 0 -0.016616477472364062 0.00044551861333292362 0 -0.016362409265512579 -0.00019977386360036528 0 -0.016467222814437486 0.00027778974646847787 0 -0.016074605086475565 5.2877320095009977e-06 0 -0.016110892292572933 -7.9948690249259525e-05 0 -0.016153485190826943 -3.3813283979026881e-05 0 -0.016153485190826943 -3.3813283979026881e-05 0 -0.016224504289630102 -3.954158016320502e-05 0 -0.016198645639756488 -0.00010727291203452368 0 -0.016110892292572933 -7.9948690249259525e-05 0 -0.016153485190826943 -3.3813283979026881e-05 0 -0.016198645639756488 -0.00010727291203452368 0 -0.016224504289630102 -3.954158016320502e-05 0 -0.016287347275850822 -7.156896554545494e-05 0 -0.016198645639756488 -0.00010727291203452368 0 -0.016224504289630102 -3.954158016320502e-05 0 -0.016279745869767128 -2.2439023322858371e-05 0 -0.016287347275850822 -7.156896554545494e-05 0 -0.015796207573005133 9.626477547467262e-05 0 -0.01570180875697607 9.9599743514648375e-05 0 -0.016153485190826943 -3.3813283979026881e-05 0 -0.016234775444250723 1.6445323689692708e-05 0 -0.016154304749374605 4.8588812183393147e-05 0 -0.016234775444250723 1.6445323689692708e-05 0 -0.016154304749374605 4.8588812183393147e-05 0 -0.016296159516715959 2.7045596778315495e-05 0 -0.016153485190826943 -3.3813283979026881e-05 0 -0.016224504289630102 -3.954158016320502e-05 0 -0.016234775444250723 1.6445323689692708e-05 0 -0.016224504289630102 -3.954158016320502e-05 0 -0.016234775444250723 1.6445323689692708e-05 0 -0.016279745869767128 -2.2439023322858371e-05 0 -0.016074605086475565 5.2877320095009977e-06 0 -0.016153485190826943 -3.3813283979026881e-05 0 -0.016154304749374605 4.8588812183393147e-05 0 -0.015990916925691236 -2.5077308019406697e-05 0 -0.015461954884603273 0.00013956187371638851 0 -0.015490510826613287 -0.00017296027587644555 0 -0.015461954884603273 0.00013956187371638851 0 -0.015137411494136216 -6.4701714280625758e-06 0 -0.014967258482883867 0.00027533742229064246 0 -0.015461954884603273 0.00013956187371638851 0 -0.015137411494136216 -6.4701714280625758e-06 0 -0.015490510826613287 -0.00017296027587644555 0 -0.015200587520977957 -0.00026949313269001955 0 -0.015490510826613287 -0.00017296027587644555 0 -0.015420956649942188 -0.00057384497841150785 0 -0.015137411494136216 -6.4701714280625758e-06 0 -0.015200587520977957 -0.00026949313269001955 0 -0.015490510826613287 -0.00017296027587644555 0 -0.015832352758134476 -0.00027581400610191849 0 -0.015490510826613287 -0.00017296027587644555 0 -0.015420956649942188 -0.00057384497841150785 0 -0.014625337403697668 -0.00029311640260414957 0 -0.014909742753467304 -0.00023968489476403534 0 -0.014853786413295059 -0.00051560859153576631 0 -0.014625337403697668 -0.00029311640260414957 0 -0.014909742753467304 -0.00023968489476403534 0 -0.01468308638890177 -7.8337781944593283e-05 0 -0.014909742753467304 -0.00023968489476403534 0 -0.01489819783686027 -2.7124806757557355e-05 0 -0.01468308638890177 -7.8337781944593283e-05 0 -0.014625337403697668 -0.00029311640260414957 0 -0.01468308638890177 -7.8337781944593283e-05 0 -0.014488782008169734 -4.2911322501568598e-05 0 -0.015137411494136216 -6.4701714280625758e-06 0 -0.015200587520977957 -0.00026949313269001955 0 -0.014909742753467304 -0.00023968489476403534 0 -0.015200587520977957 -0.00026949313269001955 0 -0.014909742753467304 -0.00023968489476403534 0 -0.015100275661858792 -0.0005276187958314256 0 -0.015137411494136216 -6.4701714280625758e-06 0 -0.014909742753467304 -0.00023968489476403534 0 -0.01489819783686027 -2.7124806757557355e-05 0 -0.01489819783686027 -2.7124806757557355e-05 0 -0.014728129003893789 8.0840402367870907e-05 0 -0.014967258482883867 0.00027533742229064246 0 -0.015137411494136216 -6.4701714280625758e-06 0 -0.01489819783686027 -2.7124806757557355e-05 0 -0.014967258482883867 0.00027533742229064246 0 -0.01489819783686027 -2.7124806757557355e-05 0 -0.014728129003893789 8.0840402367870907e-05 0 -0.01468308638890177 -7.8337781944593283e-05 0 -0.014728129003893789 8.0840402367870907e-05 0 -0.01468308638890177 -7.8337781944593283e-05 0 -0.014566925258046834 7.8422265592633012e-05 0 -0.01570180875697607 9.9599743514648375e-05 0 -0.01616588480717273 -2.1854155065988341e-05 0 -0.01570180875697607 9.9599743514648375e-05 0 -0.015207842107679477 4.1500690454560672e-05 0 -0.015742331051224218 5.9238570096195645e-05 0 -0.015664097019450821 8.6228033216545171e-05 0 -0.015645809118411548 5.3725224983128046e-05 0 -0.016302138709075712 2.2941800551110191e-05 0 -0.016343377091421831 -3.3709457588716517e-05 0 -0.016403979458877015 -1.5908874380751977e-05 0 -0.014728129003893789 8.0840402367870907e-05 0 -0.014967258482883867 0.00027533742229064246 0 -0.014491691161560492 0.00020289614959058484 0 -0.016371591878603597 4.7137612184898768e-05 0 -0.01570180875697607 9.9599743514648375e-05 0 -0.016302138709075712 2.2941800551110191e-05 0 -0.016279745869767128 -2.2439023322858371e-05 0 -0.016343377091421831 -3.3709457588716517e-05 0 -0.016234775444250723 1.6445323689692708e-05 0 -0.016302138709075712 2.2941800551110191e-05 0 -0.016279745869767128 -2.2439023322858371e-05 0 -0.016287347275850822 -7.156896554545494e-05 0 -0.016343377091421831 -3.3709457588716517e-05 0 -0.016367414004484972 -9.8740402615393735e-05 0 -0.016279745869767128 -2.2439023322858371e-05 0 -0.016287347275850822 -7.156896554545494e-05 0 -0.016343377091421831 -3.3709457588716517e-05 0 -0.016343377091421831 -3.3709457588716517e-05 0 -0.016367414004484972 -9.8740402615393735e-05 0 -0.016403979458877015 -1.5908874380751977e-05 0 -0.016498995982422944 -2.2925926445094572e-05 0 -0.016524455881814129 -3.2571689163993888e-05 0 -0.016577292514008714 -0.00010574561626627565 0 -0.016471267131163248 -6.4158117164702099e-05 0 -0.01616588480717273 -2.1854155065988341e-05 0 -0.016471267131163248 -6.4158117164702099e-05 0 -0.016364635269149674 -0.00016846090518429619 0 -0.016498995982422944 -2.2925926445094572e-05 0 -0.016520316898805582 -0.00013990546935963773 0 -0.016371918320895566 -0.00016701981839838597 0 -0.016287347275850822 -7.156896554545494e-05 0 -0.016367414004484972 -9.8740402615393735e-05 0 -0.016299078292982619 -0.00012392934579813413 0 -0.016367414004484972 -9.8740402615393735e-05 0 -0.016371918320895566 -0.00016701981839838597 0 -0.016299078292982619 -0.00012392934579813413 0 -0.016287347275850822 -7.156896554545494e-05 0 -0.016299078292982619 -0.00012392934579813413 0 -0.016198645639756488 -0.00010727291203452368 0 -0.016299078292982619 -0.00012392934579813413 0 -0.016198645639756488 -0.00010727291203452368 0 -0.016230081558696055 -0.00019825356494788214 0 -0.016110892292572933 -7.9948690249259525e-05 0 -0.016198645639756488 -0.00010727291203452368 0 -0.0161416604042743 -0.00017340477856801626 0 -0.016198645639756488 -0.00010727291203452368 0 -0.0161416604042743 -0.00017340477856801626 0 -0.016230081558696055 -0.00019825356494788214 0 -0.016138855050906967 -0.0002719605796015032 0 -0.0161416604042743 -0.00017340477856801626 0 -0.016230081558696055 -0.00019825356494788214 0 -0.016371918320895566 -0.00016701981839838597 0 -0.016299078292982619 -0.00012392934579813413 0 -0.016230081558696055 -0.00019825356494788214 0 -0.016371918320895566 -0.00016701981839838597 0 -0.016230081558696055 -0.00019825356494788214 0 -0.016256830329049628 -0.00031438332074825207 0 -0.016138855050906967 -0.0002719605796015032 0 -0.016230081558696055 -0.00019825356494788214 0 -0.016256830329049628 -0.00031438332074825207 0 -0.016138855050906967 -0.0002719605796015032 0 -0.016256830329049628 -0.00031438332074825207 0 -0.01616189080947553 -0.00039050759334020846 0 -0.01628553823482139 -0.00049856658940543059 0 -0.016256830329049628 -0.00031438332074825207 0 -0.01616189080947553 -0.00039050759334020846 0 -0.01628553823482139 -0.00049856658940543059 0 -0.016256830329049628 -0.00031438332074825207 0 -0.016389669846093007 -0.00036723468090645603 0 -0.016389669846093007 -0.00036723468090645603 0 -0.01657533606287032 -0.00026188548564936811 0 -0.016645921212264662 -0.00039846487987780566 0 -0.016371918320895566 -0.00016701981839838597 0 -0.016389669846093007 -0.00036723468090645603 0 -0.01657533606287032 -0.00026188548564936811 0 -0.016520316898805582 -0.00013990546935963773 0 -0.016371918320895566 -0.00016701981839838597 0 -0.01657533606287032 -0.00026188548564936811 0 -0.016371918320895566 -0.00016701981839838597 0 -0.016256830329049628 -0.00031438332074825207 0 -0.016389669846093007 -0.00036723468090645603 0 -0.016746333985891721 -0.00030036155934144449 0 -0.016806711752487245 -0.00021296795255422991 0 -0.016594581446002222 -7.1744575373956172e-05 0 -0.01657533606287032 -0.00026188548564936811 0 -0.016746333985891721 -0.00030036155934144449 0 -0.016594581446002222 -7.1744575373956172e-05 0 -0.01657533606287032 -0.00026188548564936811 0 -0.016645921212264662 -0.00039846487987780566 0 -0.016746333985891721 -0.00030036155934144449 0 -0.016894920106402308 -0.00042940661777652678 0 -0.016645921212264662 -0.00039846487987780566 0 -0.016746333985891721 -0.00030036155934144449 0 -0.016894920106402308 -0.00042940661777652678 0 -0.016746333985891721 -0.00030036155934144449 0 -0.016985384032341531 -0.00046061047553698145 0 -0.016746333985891721 -0.00030036155934144449 0 -0.016985384032341531 -0.00046061047553698145 0 -0.016806711752487245 -0.00021296795255422991 0 -0.016985384032341531 -0.00046061047553698145 0 -0.016806711752487245 -0.00021296795255422991 0 -0.016961727314243908 -0.00022328370568202677 0 -0.017312538839879332 -0.0002860221051292911 0 -0.018365196936173833 -7.0363247963512316e-05 0 -0.016985384032341531 -0.00046061047553698145 0 -0.017154463762899971 -0.00032431736719987312 0 -0.016961727314243908 -0.00022328370568202677 0 -0.016985384032341531 -0.00046061047553698145 0 -0.017154463762899971 -0.00032431736719987312 0 -0.017488653473175447 -0.00034304517003300329 0 -0.016985384032341531 -0.00046061047553698145 0 -0.017488653473175447 -0.00034304517003300329 0 -0.017639865838422048 -0.00039312641965647118 0 -0.017154463762899971 -0.00032431736719987312 0 -0.017086978098265898 -0.00023826127373562805 0 -0.016961727314243908 -0.00022328370568202677 0 -0.017154463762899971 -0.00032431736719987312 0 -0.017161838905064862 -0.0002444340204603182 0 -0.017086978098265898 -0.00023826127373562805 0 -0.017154463762899971 -0.00032431736719987312 0 -0.017232189056940902 -0.00024526573357765163 0 -0.017488653473175447 -0.00034304517003300329 0 -0.017175111265989102 -0.00016093005375872235 0 -0.017232189056940902 -0.00024526573357765163 0 -0.017488653473175447 -0.00034304517003300329 0 -0.017154463762899971 -0.00032431736719987312 0 -0.017232189056940902 -0.00024526573357765163 0 -0.017161838905064862 -0.0002444340204603182 0 -0.017175111265989102 -0.00016093005375872235 0 -0.016961727314243908 -0.00022328370568202677 0 -0.016853846820874555 -3.060902431729368e-05 0 -0.017175111265989102 -0.00016093005375872235 0 -0.017232189056940902 -0.00024526573357765163 0 -0.017161838905064862 -0.0002444340204603182 0 -0.017175111265989102 -0.00016093005375872235 0 -0.017161838905064862 -0.0002444340204603182 0 -0.017086978098265898 -0.00023826127373562805 0 -0.017175111265989102 -0.00016093005375872235 0 -0.017086978098265898 -0.00023826127373562805 0 -0.016961727314243908 -0.00022328370568202677 0 -0.016806711752487245 -0.00021296795255422991 0 -0.016961727314243908 -0.00022328370568202677 0 -0.016853846820874555 -3.060902431729368e-05 0 -0.016806711752487245 -0.00021296795255422991 0 -0.016853846820874555 -3.060902431729368e-05 0 -0.016646922827574337 -3.4567950517749433e-05 0 -0.01483527792043962 0.00067580514161251276 0 -0.015022873186291256 0.00045386513334315858 0 -0.014751253372849084 0.00038307761997635791 0 -0.016236983262775388 0.0001724539489891471 0 -0.015918594355061665 0.00022631199326697687 0 -0.015022873186291256 0.00045386513334315858 0 -0.01490477179083481 0.00021481499353078734 0 -0.014751253372849084 0.00038307761997635791 0 -0.015022873186291256 0.00045386513334315858 0 -0.015395697208789262 0.00025585391108743049 0 -0.01490477179083481 0.00021481499353078734 0 -0.016853846820874555 -3.060902431729368e-05 0 -0.016646922827574337 -3.4567950517749433e-05 0 -0.01653027186668541 1.1364055244334094e-05 0 -0.015918594355061665 0.00022631199326697687 0 -0.015983718480384289 7.7344396469299675e-05 0 -0.016646922827574337 -3.4567950517749433e-05 0 -0.016447761281317325 -2.5711695583228547e-05 0 -0.01653027186668541 1.1364055244334094e-05 0 -0.016646922827574337 -3.4567950517749433e-05 0 -0.016594581446002222 -7.1744575373956172e-05 0 -0.016447761281317325 -2.5711695583228547e-05 0 -0.016806711752487245 -0.00021296795255422991 0 -0.016646922827574337 -3.4567950517749433e-05 0 -0.016594581446002222 -7.1744575373956172e-05 0 -0.016498995982422944 -2.2925926445094572e-05 0 -0.016520316898805582 -0.00013990546935963773 0 -0.016594581446002222 -7.1744575373956172e-05 0 -0.016520316898805582 -0.00013990546935963773 0 -0.01657533606287032 -0.00026188548564936811 0 -0.016594581446002222 -7.1744575373956172e-05 0 -0.016498995982422944 -2.2925926445094572e-05 0 -0.016594581446002222 -7.1744575373956172e-05 0 -0.016524455881814129 -3.2571689163993888e-05 0 -0.016594581446002222 -7.1744575373956172e-05 0 -0.016524455881814129 -3.2571689163993888e-05 0 -0.016447761281317325 -2.5711695583228547e-05 0 -0.016447761281317325 -2.5711695583228547e-05 0 -0.016577292514008714 -0.00010574561626627565 0 -0.016429194031356037 -0.00015437986126684916 0 -0.016524455881814129 -3.2571689163993888e-05 0 -0.016447761281317325 -2.5711695583228547e-05 0 -0.016577292514008714 -0.00010574561626627565 0 -0.016447761281317325 -2.5711695583228547e-05 0 -0.016079049751196801 -0.0002826099388232892 0 -0.01653027186668541 1.1364055244334094e-05 0 -0.016104047842368855 -0.00028374261811623861 0 -0.015983718480384289 7.7344396469299675e-05 0 -0.016079049751196801 -0.0002826099388232892 0 -0.016614670814479694 -0.00032818085726562867 0 -0.015721875583224434 -0.00037218636128956987 0 -0.014506136657793151 4.5239115042617365e-05 0 -0.014416939800770825 -2.8417831470286115e-06 0 -0.014337354910225171 3.8937708281332161e-05 0 -0.016447761281317325 -2.5711695583228547e-05 0 -0.016079049751196801 -0.0002826099388232892 0 -0.016429194031356037 -0.00015437986126684916 0 -0.016079049751196801 -0.0002826099388232892 0 -0.015721875583224434 -0.00037218636128956987 0 -0.015395697208789262 0.00025585391108743049 0 -0.015207842107679477 4.1500690454560672e-05 0 -0.015107326371523377 -0.00017807588669292983 0 -0.016079049751196801 -0.0002826099388232892 0 -0.016429194031356037 -0.00015437986126684916 0 -0.016614670814479694 -0.00032818085726562867 0 -0.01616588480717273 -2.1854155065988341e-05 0 -0.015207842107679477 4.1500690454560672e-05 0 -0.016577292514008714 -0.00010574561626627565 0 -0.016429194031356037 -0.00015437986126684916 0 -0.016614670814479694 -0.00032818085726562867 0 -0.014728129003893789 8.0840402367870907e-05 0 -0.014491691161560492 0.00020289614959058484 0 -0.014566925258046834 7.8422265592633012e-05 0 -0.015207842107679477 4.1500690454560672e-05 0 -0.014263572577956685 -0.00010083687922520862 0 -0.014491691161560492 0.00020289614959058484 0 -0.014566925258046834 7.8422265592633012e-05 0 -0.014488782008169734 -4.2911322501568598e-05 0 -0.014491691161560492 0.00020289614959058484 0 -0.014488782008169734 -4.2911322501568598e-05 0 -0.014418535628647765 -8.7754885430909026e-05 0 -0.014506136657793151 4.5239115042617365e-05 0 -0.014416939800770825 -2.8417831470286115e-06 0 -0.014418535628647765 -8.7754885430909026e-05 0 -0.01468308638890177 -7.8337781944593283e-05 0 -0.014566925258046834 7.8422265592633012e-05 0 -0.014488782008169734 -4.2911322501568598e-05 0 -0.014416939800770825 -2.8417831470286115e-06 0 -0.014364389190065109 -8.0824344717523543e-06 0 -0.014337354910225171 3.8937708281332161e-05 0 -0.014416939800770825 -2.8417831470286115e-06 0 -0.014364389190065109 -8.0824344717523543e-06 0 -0.01438547178684502 -5.0566936480337914e-05 0 -0.014364389190065109 -8.0824344717523543e-06 0 -0.014345578524199544 -5.1932045095877875e-05 0 -0.01438547178684502 -5.0566936480337914e-05 0 -0.014345578524199544 -5.1932045095877875e-05 0 -0.01438547178684502 -5.0566936480337914e-05 0 -0.0143772936375901 -9.9454341598039948e-05 0 -0.014416939800770825 -2.8417831470286115e-06 0 -0.01438547178684502 -5.0566936480337914e-05 0 -0.014418535628647765 -8.7754885430909026e-05 0 -0.01438547178684502 -5.0566936480337914e-05 0 -0.014418535628647765 -8.7754885430909026e-05 0 -0.0143772936375901 -9.9454341598039948e-05 0 -0.014418535628647765 -8.7754885430909026e-05 0 -0.0143772936375901 -9.9454341598039948e-05 0 -0.014420484909798191 -0.00015907547050831862 0 -0.014345578524199544 -5.1932045095877875e-05 0 -0.0143772936375901 -9.9454341598039948e-05 0 -0.014318677141227282 -0.00010377244671366775 0 -0.0143772936375901 -9.9454341598039948e-05 0 -0.014358325368516509 -0.0001678613838911177 0 -0.014318677141227282 -0.00010377244671366775 0 -0.014358325368516509 -0.0001678613838911177 0 -0.014420484909798191 -0.00015907547050831862 0 -0.014386713854740898 -0.00024604159036667732 0 -0.0143772936375901 -9.9454341598039948e-05 0 -0.014358325368516509 -0.0001678613838911177 0 -0.014420484909798191 -0.00015907547050831862 0 -0.014476790520088337 -7.1954804508336884e-05 0 -0.014392321440946036 -0.00031594334908867518 0 -0.014488782008169734 -4.2911322501568598e-05 0 -0.014420484909798191 -0.00015907547050831862 0 -0.014479903571180562 -0.00023188308811883929 0 -0.014625337403697668 -0.00029311640260414957 0 -0.014488782008169734 -4.2911322501568598e-05 0 -0.014305652422515693 -0.00040277902750677103 0 -0.014488782008169734 -4.2911322501568598e-05 0 -0.014418535628647765 -8.7754885430909026e-05 0 -0.014420484909798191 -0.00015907547050831862 0 -0.014179679790923907 -0.00014964365160374766 0 -0.014250280000194243 -0.00010994679292720975 0 -0.014191865550193881 -4.5522545555020554e-05 0 -0.014179679790923907 -0.00014964365160374766 0 -0.014191865550193881 -4.5522545555020554e-05 0 -0.014118174750073178 -1.2800225518167028e-05 0 -0.014179679790923907 -0.00014964365160374766 0 -0.014250280000194243 -0.00010994679292720975 0 -0.014253740983169325 -0.00021282603616456348 0 -0.014302249703089423 -0.00016671875442404515 0 -0.014250280000194243 -0.00010994679292720975 0 -0.014253740983169325 -0.00021282603616456348 0 -0.014358325368516509 -0.0001678613838911177 0 -0.014302249703089423 -0.00016671875442404515 0 -0.014318677141227282 -0.00010377244671366775 0 -0.014358325368516509 -0.0001678613838911177 0 -0.014302249703089423 -0.00016671875442404515 0 -0.014324798592674499 -0.00024980370223813379 0 -0.014302249703089423 -0.00016671875442404515 0 -0.014318677141227282 -0.00010377244671366775 0 -0.014250280000194243 -0.00010994679292720975 0 -0.014318677141227282 -0.00010377244671366775 0 -0.014250280000194243 -0.00010994679292720975 0 -0.014279844192979514 -3.5245565959892929e-05 0 -0.014279844192979514 -3.5245565959892929e-05 0 -0.01417225514735336 9.81186604032493e-06 0 -0.014337354910225171 3.8937708281332161e-05 0 -0.014345578524199544 -5.1932045095877875e-05 0 -0.014318677141227282 -0.00010377244671366775 0 -0.014279844192979514 -3.5245565959892929e-05 0 -0.014364389190065109 -8.0824344717523543e-06 0 -0.014279844192979514 -3.5245565959892929e-05 0 -0.014337354910225171 3.8937708281332161e-05 0 -0.014364389190065109 -8.0824344717523543e-06 0 -0.014345578524199544 -5.1932045095877875e-05 0 -0.014279844192979514 -3.5245565959892929e-05 0 -0.014279844192979514 -3.5245565959892929e-05 0 -0.014191865550193881 -4.5522545555020554e-05 0 -0.01417225514735336 9.81186604032493e-06 0 -0.014191865550193881 -4.5522545555020554e-05 0 -0.01417225514735336 9.81186604032493e-06 0 -0.014118174750073178 -1.2800225518167028e-05 0 -0.014250280000194243 -0.00010994679292720975 0 -0.014279844192979514 -3.5245565959892929e-05 0 -0.014191865550193881 -4.5522545555020554e-05 0 -0.014486355908293561 -0.00011028757333357354 0 -0.015107326371523377 -0.00017807588669292983 0 -0.014797595731981025 -0.00024623311333758503 0 -0.015721875583224434 -0.00037218636128956987 0 -0.015175459399414433 -4.8223355085171763e-06 0 -0.015175459399414433 -4.8223355085171763e-06 0 -0.015395697208789262 0.00025585391108743049 0 -0.01490477179083481 0.00021481499353078734 0 -0.015721875583224434 -0.00037218636128956987 0 -0.015175459399414433 -4.8223355085171763e-06 0 -0.015395697208789262 0.00025585391108743049 0 -0.014797595731981025 -0.00024623311333758503 0 -0.015175459399414433 -4.8223355085171763e-06 0 -0.01490477179083481 0.00021481499353078734 0 -0.014797595731981025 -0.00024623311333758503 0 -0.01490477179083481 0.00021481499353078734 0 -0.01444100177858133 0.00014254574955107588 0 -0.01444100177858133 0.00014254574955107588 0 -0.014232371575601444 -1.7784983982919167e-05 0 -0.014307973665814731 0.00010818448713722602 0 -0.014486355908293561 -0.00011028757333357354 0 -0.014266234438198442 -3.9356710090407238e-05 0 -0.014797595731981025 -0.00024623311333758503 0 -0.01444100177858133 0.00014254574955107588 0 -0.014232371575601444 -1.7784983982919167e-05 0 -0.01417225514735336 9.81186604032493e-06 0 -0.014232371575601444 -1.7784983982919167e-05 0 -0.014118174750073178 -1.2800225518167028e-05 0 -0.014232371575601444 -1.7784983982919167e-05 0 -0.013956225785859045 3.4893685103462005e-05 0 -0.014118174750073178 -1.2800225518167028e-05 0 -0.014232371575601444 -1.7784983982919167e-05 0 -0.013956225785859045 3.4893685103462005e-05 0 -0.013978709356507291 8.866839661955061e-05 0 -0.013956225785859045 3.4893685103462005e-05 0 -0.013513771575908372 2.8645377897999268e-05 0 -0.014013680430343485 -0.0002854026592653516 0 -0.013956225785859045 3.4893685103462005e-05 0 -0.014118174750073178 -1.2800225518167028e-05 0 -0.014013680430343485 -0.0002854026592653516 0 -0.014179679790923907 -0.00014964365160374766 0 -0.014118174750073178 -1.2800225518167028e-05 0 -0.014013680430343485 -0.0002854026592653516 0 -0.013513771575908372 2.8645377897999268e-05 0 -0.01331234263397247 8.4770585244582044e-07 0 -0.012731260773963356 1.8945117432291653e-05 0 -0.013956225785859045 3.4893685103462005e-05 0 -0.013513771575908372 2.8645377897999268e-05 0 -0.013978709356507291 8.866839661955061e-05 0 -0.013513771575908372 2.8645377897999268e-05 0 -0.013978709356507291 8.866839661955061e-05 0 -0.01331234263397247 8.4770585244582044e-07 0 -0.013978709356507291 8.866839661955061e-05 0 -0.01331234263397247 8.4770585244582044e-07 0 -0.014210294063369938 0.00011631523712763742 0 -0.01331234263397247 8.4770585244582044e-07 0 -0.014210294063369938 0.00011631523712763742 0 -0.014686961936906304 1.0117906177287333e-07 0 -0.014210294063369938 0.00011631523712763742 0 -0.014686961936906304 1.0117906177287333e-07 0 -0.014641422846512462 0.00010734925077113973 0 -0.014232371575601444 -1.7784983982919167e-05 0 -0.013978709356507291 8.866839661955061e-05 0 -0.014307973665814731 0.00010818448713722602 0 -0.013978709356507291 8.866839661955061e-05 0 -0.014210294063369938 0.00011631523712763742 0 -0.014307973665814731 0.00010818448713722602 0 -0.014210294063369938 0.00011631523712763742 0 -0.014307973665814731 0.00010818448713722602 0 -0.014641422846512462 0.00010734925077113973 0 -0.01444100177858133 0.00014254574955107588 0 -0.014307973665814731 0.00010818448713722602 0 -0.014521262356024682 7.4129115077759585e-05 0 -0.014307973665814731 0.00010818448713722602 0 -0.014521262356024682 7.4129115077759585e-05 0 -0.014641422846512462 0.00010734925077113973 0 -0.014521262356024682 7.4129115077759585e-05 0 -0.015498559866293823 -8.4813513179274414e-05 0 -0.014641422846512462 0.00010734925077113973 0 -0.014686961936906304 1.0117906177287333e-07 0 -0.015498559866293823 -8.4813513179274414e-05 0 -0.01606153264344775 -5.302010985568639e-07 0 -0.014686961936906304 1.0117906177287333e-07 0 -0.015498559866293823 -8.4813513179274414e-05 0 -0.014641422846512462 0.00010734925077113973 0 -0.01606153264344775 -5.302010985568639e-07 0 -0.017161723546630911 4.3725251509225981e-05 0 -0.017526881457980342 -0.00018231943733154244 0 -0.015498559866293823 -8.4813513179274414e-05 0 -0.01606153264344775 -5.302010985568639e-07 0 -0.017526881457980342 -0.00018231943733154244 0 -0.015646842704892635 -6.0170679692691414e-05 0 -0.015993905301731438 -2.7299938424683939e-05 0 -0.01606153264344775 -5.302010985568639e-07 0 -0.017161723546630911 4.3725251509225981e-05 0 -0.017436674369272501 3.0245617678214802e-07 0 -0.017161723546630911 4.3725251509225981e-05 0 -0.017857366211302218 7.2967932009998035e-05 0 -0.017436674369272501 3.0245617678214802e-07 0 -0.017161723546630911 4.3725251509225981e-05 0 -0.017857366211302218 7.2967932009998035e-05 0 -0.017526881457980342 -0.00018231943733154244 0 -0.01444100177858133 0.00014254574955107588 0 -0.014521262356024682 7.4129115077759585e-05 0 -0.014430503657583292 -7.5238486005033146e-06 0 -0.014521262356024682 7.4129115077759585e-05 0 -0.015498559866293823 -8.4813513179274414e-05 0 -0.014430503657583292 -7.5238486005033146e-06 0 -0.01444100177858133 0.00014254574955107588 0 -0.014430503657583292 -7.5238486005033146e-06 0 -0.014554859924809547 0.00040989007270102212 0 -0.01490477179083481 0.00021481499353078734 0 -0.01444100177858133 0.00014254574955107588 0 -0.014751253372849084 0.00038307761997635791 0 -0.01444100177858133 0.00014254574955107588 0 -0.014751253372849084 0.00038307761997635791 0 -0.014554859924809547 0.00040989007270102212 0 -0.01483527792043962 0.00067580514161251276 0 -0.014751253372849084 0.00038307761997635791 0 -0.014554859924809547 0.00040989007270102212 0 -0.015993905301731438 -2.7299938424683939e-05 0 -0.016200287261783606 0.00025018834554673585 0 -0.017857366211302218 7.2967932009998035e-05 0 -0.017526881457980342 -0.00018231943733154244 0 -0.017880441743714851 8.6057058232111617e-05 0 -0.017857366211302218 7.2967932009998035e-05 0 -0.017859918480635711 -5.0806562880420674e-05 0 -0.018421464356007371 -4.5297841531232716e-05 0 -0.017857366211302218 7.2967932009998035e-05 0 -0.017880441743714851 8.6057058232111617e-05 0 -0.017859918480635711 -5.0806562880420674e-05 0 -0.01745608000186203 -2.1466674726241869e-06 0 -0.017880441743714851 8.6057058232111617e-05 0 -0.017627291308886271 -7.345327785022158e-05 0 -0.017880441743714851 8.6057058232111617e-05 0 -0.017859918480635711 -5.0806562880420674e-05 0 -0.017627291308886271 -7.345327785022158e-05 0 -0.016236983262775388 0.0001724539489891471 0 -0.016200287261783606 0.00025018834554673585 0 -0.017859918480635711 -5.0806562880420674e-05 0 -0.017627291308886271 -7.345327785022158e-05 0 -0.017708057165584722 -0.0001852560560813497 0 -0.01745608000186203 -2.1466674726241869e-06 0 -0.017627291308886271 -7.345327785022158e-05 0 -0.017565050648530096 -0.00017779699554421971 0 -0.017627291308886271 -7.345327785022158e-05 0 -0.017565050648530096 -0.00017779699554421971 0 -0.017708057165584722 -0.0001852560560813497 0 -0.016236983262775388 0.0001724539489891471 0 -0.017496820703939164 -0.00056521483510139198 0 -0.01745608000186203 -2.1466674726241869e-06 0 -0.017565050648530096 -0.00017779699554421971 0 -0.017488653473175447 -0.00034304517003300329 0 -0.017565050648530096 -0.00017779699554421971 0 -0.017571388319259147 -0.0002932900425659264 0 -0.017708057165584722 -0.0001852560560813497 0 -0.017488653473175447 -0.00034304517003300329 0 -0.017571388319259147 -0.0002932900425659264 0 -0.017639865838422048 -0.00039312641965647118 0 -0.017565050648530096 -0.00017779699554421971 0 -0.017488653473175447 -0.00034304517003300329 0 -0.017571388319259147 -0.0002932900425659264 0 -0.017859918480635711 -5.0806562880420674e-05 0 -0.017708057165584722 -0.0001852560560813497 0 -0.017682377716630285 -0.00038123027618431178 0 -0.017651940065689067 -0.00031650945536835492 0 -0.017708057165584722 -0.0001852560560813497 0 -0.017682377716630285 -0.00038123027618431178 0 -0.017571388319259147 -0.0002932900425659264 0 -0.017651940065689067 -0.00031650945536835492 0 -0.017708057165584722 -0.0001852560560813497 0 -0.017571388319259147 -0.0002932900425659264 0 -0.017651940065689067 -0.00031650945536835492 0 -0.017639865838422048 -0.00039312641965647118 0 -0.018330657436942288 -8.4870331821073459e-05 0 -0.018365196936173833 -7.0363247963512316e-05 0 -0.017859918480635711 -5.0806562880420674e-05 0 -0.017682377716630285 -0.00038123027618431178 0 -0.018421464356007371 -4.5297841531232716e-05 0 -0.018365196936173833 -7.0363247963512316e-05 0 -0.018490263403629512 -9.7968154324900618e-05 0 -0.019079106049894417 0.00012696536038754965 0 -0.019330396708172552 -2.3328162793840336e-05 0 -0.018421464356007371 -4.5297841531232716e-05 0 -0.018810252984309921 1.7271597638855253e-07 0 -0.019079106049894417 0.00012696536038754965 0 -0.018421464356007371 -4.5297841531232716e-05 0 -0.018810252984309921 1.7271597638855253e-07 0 -0.018421464356007371 -4.5297841531232716e-05 0 -0.017436674369272501 3.0245617678214802e-07 0 -0.017857366211302218 7.2967932009998035e-05 0 -0.018421464356007371 -4.5297841531232716e-05 0 -0.017436674369272501 3.0245617678214802e-07 0 -0.0079888214934293877 4.7604908802882226e-05 0 -0.0077257087544771764 -0.0004183421612112924 0 -0.0083510510649499291 3.8949542743608387e-05 0 -0.0079888214934293877 4.7604908802882226e-05 0 -0.0083510510649499291 3.8949542743608387e-05 0 -0.0083622566374392058 0.00014904197423222019 0 -0.0079888214934293877 4.7604908802882226e-05 0 -0.0068427525480418711 -1.0041137913097261e-06 0 -0.0078712207265088131 4.6951583414890396e-07 0 -0.0079888214934293877 4.7604908802882226e-05 0 -0.0068427525480418711 -1.0041137913097261e-06 0 -0.0077257087544771764 -0.0004183421612112924 0 -0.0068406949129879938 -1.6218411269175955e-07 0 -0.0068149341628904632 -0.00035494236976790343 0 -0.0068386926028545176 -2.1824442200097521e-08 0 -0.0061806802565706502 -4.6569646776624107e-05 0 -0.0062299876116042761 4.7019642847048195e-05 0 -0.0068149341628904632 -0.00035494236976790343 0 -0.0062983583192529075 -0.00013678265471665747 0 -0.0068149341628904632 -0.00035494236976790343 0 -0.0075816836665199049 -0.00033112492136605639 0 -0.0068149341628904632 -0.00035494236976790343 0 -0.0054537597931416442 -0.00062815168792734906 0 -0.0065913801258923 -0.00077851707472652157 0 -0.0065973380388375403 -0.00078327386585451961 0 -0.0066127532590940412 -0.00077099063970071085 0 -0.0062255946461151858 3.2014501446947329e-05 0 -0.0062347026497686737 2.2957818478287591e-05 0 -0.0062198558599767745 1.0220341414424122e-05 0 -0.0054537597931416442 -0.00062815168792734906 0 -0.0060926929081859711 -0.0010581008070442205 0 -0.0065973380388375403 -0.00078327386585451961 0 -0.0066126001391835021 -0.00077824395013316244 0 -0.0066127532590940412 -0.00077099063970071085 0 -0.0055104932000415528 -0.0013462711889835278 0 -0.0053817379209987618 -0.0014481292418609014 0 -0.0052796209431387455 -0.0012731883572281322 0 -0.0049606181664645444 -0.0021949719521111529 0 -0.0044206664374617181 -0.0016256833395155079 0 -0.0053817379209987618 -0.0014481292418609014 0 -0.005267545948989899 -0.0014110118266877577 0 -0.0052796209431387455 -0.0012731883572281322 0 -0.0046838915873779812 -0.0027144603682496219 0 -0.0046651206014452287 -0.0027058826831620397 0 -0.00468876207425934 -0.0026836657406295395 0 -0.0053817379209987618 -0.0014481292418609014 0 -0.005267545948989899 -0.0014110118266877577 0 -0.0052558327629244773 -0.0015474773883350915 0 -0.0046838915873779812 -0.0027144603682496219 0 -0.0046799837512807021 -0.0027323807157869527 0 -0.0046533475855471216 -0.0027332236483592477 0 -0.0049606181664645444 -0.0021949719521111529 0 -0.0058877236734632323 -0.0017127289148204069 0 -0.0060926929081859711 -0.0010581008070442205 0 -0.0058877236734632323 -0.0017127289148204069 0 -0.0066239953517233897 -0.00077481080534595747 0 -0.0066127532590940412 -0.00077099063970071085 0 -0.0066292599587528611 -0.00076507223644857784 0 -0.0066126001391835021 -0.00077824395013316244 0 -0.0066239953517233897 -0.00077481080534595747 0 -0.0066127532590940412 -0.00077099063970071085 0 -0.0083510510649499291 3.8949542743608387e-05 0 -0.0083540480165979151 8.4480572223104476e-05 0 -0.0083328220317829601 7.4398128670179439e-05 0 -0.0083510510649499291 3.8949542743608387e-05 0 -0.0083540480165979151 8.4480572223104476e-05 0 -0.0083622566374392058 0.00014904197423222019 0 -0.0075816836665199049 -0.00033112492136605639 0 -0.0072554806156864184 -0.0006836573748634601 0 -0.0058877236734632323 -0.0017127289148204069 0 -0.0072554806156864184 -0.0006836573748634601 0 -0.0083540480165979151 8.4480572223104476e-05 0 -0.0083175862557179434 3.7056862712460056e-05 0 -0.0083670531295229455 6.3161474943455074e-06 0 -0.0087912587569337706 -0.00057132294950292613 0 -0.0092854989042119498 8.4731670151158588e-06 0 -0.010047680485243224 -3.0183383126248075e-05 0 -0.0100855304347299 -3.4722382125784341e-05 0 -0.010049491341111695 -4.1248454172875627e-05 0 -0.0083540480165979151 8.4480572223104476e-05 0 -0.0083328220317829601 7.4398128670179439e-05 0 -0.0083175862557179434 3.7056862712460056e-05 0 -0.0072554806156864184 -0.0006836573748634601 0 -0.0087912587569337706 -0.00057132294950292613 0 -0.0069427780266870243 -0.0013782832358363098 0 -0.0069565599244993904 -0.001238692357221691 0 -0.0070091111756374926 -0.0013282674975015484 0 -0.0087912587569337706 -0.00057132294950292613 0 -0.010304201302494587 -0.0003629801320879899 0 -0.0083540480165979151 8.4480572223104476e-05 0 -0.0083670531295229455 6.3161474943455074e-06 0 -0.0083622566374392058 0.00014904197423222019 0 -0.0083670531295229455 6.3161474943455074e-06 0 -0.0083622566374392058 0.00014904197423222019 0 -0.0086950749945362577 -0.00010056369953212953 0 -0.0079888214934293877 4.7604908802882226e-05 0 -0.0083622566374392058 0.00014904197423222019 0 -0.0078712207265088131 4.6951583414890396e-07 0 -0.0083622566374392058 0.00014904197423222019 0 -0.0078712207265088131 4.6951583414890396e-07 0 -0.0089027704207845816 5.6946954683763329e-07 0 -0.0083622566374392058 0.00014904197423222019 0 -0.0089027704207845816 5.6946954683763329e-07 0 -0.0086950749945362577 -0.00010056369953212953 0 -0.0099363167015935356 1.3817250597046305e-07 0 -0.010073692767611919 -3.7720309343892907e-05 0 -0.01008130063548382 2.1698330043134207e-06 0 -0.0089027704207845816 5.6946954683763329e-07 0 -0.0099310299282852153 -1.1060498731448234e-06 0 -0.0086950749945362577 -0.00010056369953212953 0 -0.0099330224699969109 -4.6852440935181651e-08 0 -0.0093783224422406865 -4.0345970934676132e-05 0 -0.0092854989042119498 8.4731670151158588e-06 0 -0.0093783224422406865 -4.0345970934676132e-05 0 -0.010073692767611919 -3.7720309343892907e-05 0 -0.01008130063548382 2.1698330043134207e-06 0 -0.010089904241345721 -3.7995199427188784e-05 0 -0.010599470901059171 -4.1160467583166927e-05 0 -0.01071561293833736 -8.1150186068934505e-05 0 -0.011163049250189908 -9.5645758737463466e-05 0 -0.011112502502856366 1.9974014165401879e-05 0 -0.011193619143711087 -7.5426746639239644e-05 0 -0.011163049250189908 -9.5645758737463466e-05 0 -0.010566838384911133 -2.281331015409737e-07 0 -0.0112495930390223 8.610751476650318e-05 0 -0.010599470901059171 -4.1160467583166927e-05 0 -0.01056372834336218 -5.82777283974729e-10 0 -0.0099363167015935356 1.3817250597046305e-07 0 -0.01008130063548382 2.1698330043134207e-06 0 -0.010560680522881751 -1.4571209842598913e-07 0 -0.010566838384911133 -2.281331015409737e-07 0 -0.0112495930390223 8.610751476650318e-05 0 -0.011895074733405724 1.8799357612592043e-07 0 -0.012292620706713411 -0.00026278222452554576 0 -0.011900291585005458 -3.1750199754540016e-05 0 -0.0112495930390223 8.610751476650318e-05 0 -0.011112502502856366 1.9974014165401879e-05 0 -0.011895074733405724 1.8799357612592043e-07 0 -0.011163049250189908 -9.5645758737463466e-05 0 -0.0112495930390223 8.610751476650318e-05 0 -0.011112502502856366 1.9974014165401879e-05 0 -0.013513771575908372 2.8645377897999268e-05 0 -0.013489900165449599 -0.0006039966484626231 0 -0.012731260773963356 1.8945117432291653e-05 0 -0.013489900165449599 -0.0006039966484626231 0 -0.012731260773963356 1.8945117432291653e-05 0 -0.011901029012593288 -1.7218343754196255e-06 0 -0.01331234263397247 8.4770585244582044e-07 0 -0.012731260773963356 1.8945117432291653e-05 0 -0.011901029012593288 -1.7218343754196255e-06 0 -0.014013680430343485 -0.0002854026592653516 0 -0.014144249112480132 -0.00042205058180501252 0 -0.01419751485474418 -0.00029181176000942004 0 -0.013513771575908372 2.8645377897999268e-05 0 -0.013489900165449599 -0.0006039966484626231 0 -0.014013680430343485 -0.0002854026592653516 0 -0.011112502502856366 1.9974014165401879e-05 0 -0.011266744937114919 -4.0847352108651518e-05 0 -0.011193619143711087 -7.5426746639239644e-05 0 -0.013489900165449599 -0.0006039966484626231 0 -0.014013680430343485 -0.0002854026592653516 0 -0.013963493481095143 -0.00059863547394060771 0 -0.012292620706713411 -0.00026278222452554576 0 -0.01258817455928259 -0.00032247067577225927 0 -0.013963493481095143 -0.00059863547394060771 0 -0.014158063380571776 -0.00051372723334596653 0 -0.014144249112480132 -0.00042205058180501252 0 -0.014013680430343485 -0.0002854026592653516 0 -0.013963493481095143 -0.00059863547394060771 0 -0.014144249112480132 -0.00042205058180501252 0 -0.011266744937114919 -4.0847352108651518e-05 0 -0.011325729263286939 -0.00010830563711868267 0 -0.011375778192285236 -0.00010173215590679951 0 -0.01258817455928259 -0.00032247067577225927 0 -0.012863418608033158 -0.00031654889105907211 0 -0.011266744937114919 -4.0847352108651518e-05 0 -0.011263440537866865 -0.0001107927546718576 0 -0.011325729263286939 -0.00010830563711868267 0 -0.011163049250189908 -9.5645758737463466e-05 0 -0.011193619143711087 -7.5426746639239644e-05 0 -0.011219374461126799 -0.00013982622467826079 0 -0.011266744937114919 -4.0847352108651518e-05 0 -0.011263440537866865 -0.0001107927546718576 0 -0.011193619143711087 -7.5426746639239644e-05 0 -0.011263440537866865 -0.0001107927546718576 0 -0.011193619143711087 -7.5426746639239644e-05 0 -0.011219374461126799 -0.00013982622467826079 0 -0.0100855304347299 -3.4722382125784341e-05 0 -0.010073692767611919 -3.7720309343892907e-05 0 -0.010089904241345721 -3.7995199427188784e-05 0 -0.0100855304347299 -3.4722382125784341e-05 0 -0.010089904241345721 -3.7995199427188784e-05 0 -0.010049491341111695 -4.1248454172875627e-05 0 -0.01071561293833736 -8.1150186068934505e-05 0 -0.010304201302494587 -0.0003629801320879899 0 -0.011263440537866865 -0.0001107927546718576 0 -0.011305299579118824 -0.0001797304859191959 0 -0.011325729263286939 -0.00010830563711868267 0 -0.011263440537866865 -0.0001107927546718576 0 -0.011219374461126799 -0.00013982622467826079 0 -0.011305299579118824 -0.0001797304859191959 0 -0.011282312065776668 -0.00025668402976782061 0 -0.011360260543381316 -0.00018835357162568455 0 -0.011325729263286939 -0.00010830563711868267 0 -0.011282312065776668 -0.00025668402976782061 0 -0.011360260543381316 -0.00018835357162568455 0 -0.011387037481046889 -0.00029920589226624709 0 -0.010304201302494587 -0.0003629801320879899 0 -0.011390989181235904 -3.1365659205904892e-05 0 -0.011360260543381316 -0.00018835357162568455 0 -0.011428631554332033 -0.00020285422608400664 0 -0.011387037481046889 -0.00029920589226624709 0 -0.011360260543381316 -0.00018835357162568455 0 -0.011428631554332033 -0.00020285422608400664 0 -0.011375778192285236 -0.00010173215590679951 0 -0.011428631554332033 -0.00020285422608400664 0 -0.011375778192285236 -0.00010173215590679951 0 -0.011557535742674426 -0.00018269048842706689 0 -0.011461806071711308 -0.00025620931883286221 0 -0.011557535742674426 -0.00018269048842706689 0 -0.011483608570230723 -0.00034238610946301404 0 -0.011461806071711308 -0.00025620931883286221 0 -0.011428631554332033 -0.00020285422608400664 0 -0.011557535742674426 -0.00018269048842706689 0 -0.011461806071711308 -0.00025620931883286221 0 -0.011428631554332033 -0.00020285422608400664 0 -0.011387037481046889 -0.00029920589226624709 0 -0.014247910674470886 -0.0005237716640431639 0 -0.01419086539619073 -0.0005751753538486814 0 -0.014370698734853736 -0.0006400518622608673 0 -0.014247910674470886 -0.0005237716640431639 0 -0.014322780680065605 -0.00052804249271564882 0 -0.014370698734853736 -0.0006400518622608673 0 -0.012863418608033158 -0.00031654889105907211 0 -0.012528766489239191 -0.00069515029008156409 0 -0.014247910674470886 -0.0005237716640431639 0 -0.014322780680065605 -0.00052804249271564882 0 -0.01428269527350863 -0.00045057963710883465 0 -0.013963493481095143 -0.00059863547394060771 0 -0.01419086539619073 -0.0005751753538486814 0 -0.014158063380571776 -0.00051372723334596653 0 -0.011360260543381316 -0.00018835357162568455 0 -0.011325729263286939 -0.00010830563711868267 0 -0.011375778192285236 -0.00010173215590679951 0 -0.014247910674470886 -0.0005237716640431639 0 -0.01419086539619073 -0.0005751753538486814 0 -0.014158063380571776 -0.00051372723334596653 0 -0.014158063380571776 -0.00051372723334596653 0 -0.014144249112480132 -0.00042205058180501252 0 -0.014210810412196222 -0.00045866957635220374 0 -0.014144249112480132 -0.00042205058180501252 0 -0.014242216163524462 -0.00037936461351413059 0 -0.01419751485474418 -0.00029181176000942004 0 -0.014144249112480132 -0.00042205058180501252 0 -0.014210810412196222 -0.00045866957635220374 0 -0.014242216163524462 -0.00037936461351413059 0 -0.014247910674470886 -0.0005237716640431639 0 -0.014158063380571776 -0.00051372723334596653 0 -0.014210810412196222 -0.00045866957635220374 0 -0.014247910674470886 -0.0005237716640431639 0 -0.014210810412196222 -0.00045866957635220374 0 -0.01428269527350863 -0.00045057963710883465 0 -0.014210810412196222 -0.00045866957635220374 0 -0.01428269527350863 -0.00045057963710883465 0 -0.014242216163524462 -0.00037936461351413059 0 -0.01428269527350863 -0.00045057963710883465 0 -0.014344511001512392 -0.00045568394120272326 0 -0.014305688226054174 -0.00037400144476804656 0 -0.014322780680065605 -0.00052804249271564882 0 -0.01428269527350863 -0.00045057963710883465 0 -0.014344511001512392 -0.00045568394120272326 0 -0.014344511001512392 -0.00045568394120272326 0 -0.014305688226054174 -0.00037400144476804656 0 -0.014358433910331193 -0.00038034427912064832 0 -0.014305688226054174 -0.00037400144476804656 0 -0.01434891310515655 -0.00031816740911049603 0 -0.014358433910331193 -0.00038034427912064832 0 -0.01428269527350863 -0.00045057963710883465 0 -0.014305688226054174 -0.00037400144476804656 0 -0.014242216163524462 -0.00037936461351413059 0 -0.014305688226054174 -0.00037400144476804656 0 -0.014268300201139157 -0.00029938545738899316 0 -0.014311844913710476 -0.00031005546814755799 0 -0.014305688226054174 -0.00037400144476804656 0 -0.014242216163524462 -0.00037936461351413059 0 -0.014268300201139157 -0.00029938545738899316 0 -0.014268300201139157 -0.00029938545738899316 0 -0.014311844913710476 -0.00031005546814755799 0 -0.014324798592674499 -0.00024980370223813379 0 -0.014305688226054174 -0.00037400144476804656 0 -0.01434891310515655 -0.00031816740911049603 0 -0.014311844913710476 -0.00031005546814755799 0 -0.01434891310515655 -0.00031816740911049603 0 -0.014311844913710476 -0.00031005546814755799 0 -0.014324798592674499 -0.00024980370223813379 0 -0.014302249703089423 -0.00016671875442404515 0 -0.014324798592674499 -0.00024980370223813379 0 -0.014253740983169325 -0.00021282603616456348 0 -0.014268300201139157 -0.00029938545738899316 0 -0.014324798592674499 -0.00024980370223813379 0 -0.014253740983169325 -0.00021282603616456348 0 -0.014268300201139157 -0.00029938545738899316 0 -0.014253740983169325 -0.00021282603616456348 0 -0.01419751485474418 -0.00029181176000942004 0 -0.014179679790923907 -0.00014964365160374766 0 -0.014253740983169325 -0.00021282603616456348 0 -0.01419751485474418 -0.00029181176000942004 0 -0.014179679790923907 -0.00014964365160374766 0 -0.014013680430343485 -0.0002854026592653516 0 -0.01419751485474418 -0.00029181176000942004 0 -0.014242216163524462 -0.00037936461351413059 0 -0.014268300201139157 -0.00029938545738899316 0 -0.01419751485474418 -0.00029181176000942004 0 -0.014625337403697668 -0.00029311640260414957 0 -0.014305652422515693 -0.00040277902750677103 0 -0.014592615980887232 -0.00068784890016636323 0 -0.014305652422515693 -0.00040277902750677103 0 -0.014360587885084104 -0.0007372879802194104 0 -0.014592615980887232 -0.00068784890016636323 0 -0.014479903571180562 -0.00023188308811883929 0 -0.01440393245317066 -0.00033301034437183645 0 -0.014448908699966411 -0.00042989951631543021 0 -0.014420484909798191 -0.00015907547050831862 0 -0.014479903571180562 -0.00023188308811883929 0 -0.014386713854740898 -0.00024604159036667732 0 -0.014392321440946036 -0.00031594334908867518 0 -0.014320057646793958 -0.00063100878487008696 0 -0.014479903571180562 -0.00023188308811883929 0 -0.014386713854740898 -0.00024604159036667732 0 -0.01440393245317066 -0.00033301034437183645 0 -0.014358325368516509 -0.0001678613838911177 0 -0.014324798592674499 -0.00024980370223813379 0 -0.014386713854740898 -0.00024604159036667732 0 -0.01434891310515655 -0.00031816740911049603 0 -0.014324798592674499 -0.00024980370223813379 0 -0.014386713854740898 -0.00024604159036667732 0 -0.01434891310515655 -0.00031816740911049603 0 -0.014386713854740898 -0.00024604159036667732 0 -0.01440393245317066 -0.00033301034437183645 0 -0.01434891310515655 -0.00031816740911049603 0 -0.01440393245317066 -0.00033301034437183645 0 -0.014358433910331193 -0.00038034427912064832 0 -0.014405365307731314 -0.00039777501874962333 0 -0.014448908699966411 -0.00042989951631543021 0 -0.014365678323640991 -0.00065577598477911984 0 -0.014344511001512392 -0.00045568394120272326 0 -0.014405365307731314 -0.00039777501874962333 0 -0.014378149305881053 -0.00059896989303451827 0 -0.01440393245317066 -0.00033301034437183645 0 -0.014405365307731314 -0.00039777501874962333 0 -0.014448908699966411 -0.00042989951631543021 0 -0.014344511001512392 -0.00045568394120272326 0 -0.014358433910331193 -0.00038034427912064832 0 -0.014405365307731314 -0.00039777501874962333 0 -0.01440393245317066 -0.00033301034437183645 0 -0.014358433910331193 -0.00038034427912064832 0 -0.014405365307731314 -0.00039777501874962333 0 -0.014148844823398459 -0.00078638499279500246 0 -0.014288797476362346 -0.00091519544378472733 0 -0.014179486127648213 -0.0010452064241803273 0 -0.014305652422515693 -0.00040277902750677103 0 -0.014148844823398459 -0.00078638499279500246 0 -0.014360587885084104 -0.0007372879802194104 0 -0.014148844823398459 -0.00078638499279500246 0 -0.014288797476362346 -0.00091519544378472733 0 -0.014360587885084104 -0.0007372879802194104 0 -0.014288797476362346 -0.00091519544378472733 0 -0.014360587885084104 -0.0007372879802194104 0 -0.014428455191058096 -0.00089950072532588509 0 -0.014360587885084104 -0.0007372879802194104 0 -0.014428455191058096 -0.00089950072532588509 0 -0.014592615980887232 -0.00068784890016636323 0 -0.014326093692042215 -0.0011079112248969371 0 -0.014276680668613109 -0.0013989935091172372 0 -0.014670747768885217 -0.0011165454097534662 0 -0.014428455191058096 -0.00089950072532588509 0 -0.014326093692042215 -0.0011079112248969371 0 -0.014670747768885217 -0.0011165454097534662 0 -0.014288797476362346 -0.00091519544378472733 0 -0.014326093692042215 -0.0011079112248969371 0 -0.014179486127648213 -0.0010452064241803273 0 -0.014288797476362346 -0.00091519544378472733 0 -0.014428455191058096 -0.00089950072532588509 0 -0.014326093692042215 -0.0011079112248969371 0 -0.014326093692042215 -0.0011079112248969371 0 -0.014179486127648213 -0.0010452064241803273 0 -0.014171392759643816 -0.001234644788010189 0 -0.014511137479043828 -0.00035644138407954604 0 -0.013810195158603036 -0.00074240371553861511 0 -0.014322780680065605 -0.00052804249271564882 0 -0.014344511001512392 -0.00045568394120272326 0 -0.014378149305881053 -0.00059896989303451827 0 -0.014148844823398459 -0.00078638499279500246 0 -0.014179486127648213 -0.0010452064241803273 0 -0.014005244399091191 -0.0011771960545653836 0 -0.014320057646793958 -0.00063100878487008696 0 -0.013810195158603036 -0.00074240371553861511 0 -0.014179486127648213 -0.0010452064241803273 0 -0.014005244399091191 -0.0011771960545653836 0 -0.014171392759643816 -0.001234644788010189 0 -0.014322780680065605 -0.00052804249271564882 0 -0.014378149305881053 -0.00059896989303451827 0 -0.014370698734853736 -0.0006400518622608673 0 -0.012528766489239191 -0.00069515029008156409 0 -0.0091658220783563515 -0.0010011078898892127 0 -0.010840057600728729 -0.0008659010502972171 0 -0.011373097898101198 -0.0010781859881554882 0 -0.01078219266547821 -0.0015144042865342952 0 -0.012528766489239191 -0.00069515029008156409 0 -0.0092518360463114662 -0.0014747087094784542 0 -0.014005244399091191 -0.0011771960545653836 0 -0.013993243927118641 -0.0012816269561207703 0 -0.014171392759643816 -0.001234644788010189 0 -0.013810195158603036 -0.00074240371553861511 0 -0.012528766489239191 -0.00069515029008156409 0 -0.013993243927118641 -0.0012816269561207703 0 -0.014171392759643816 -0.001234644788010189 0 -0.014276680668613109 -0.0013989935091172372 0 -0.012528766489239191 -0.00069515029008156409 0 -0.011305132561905783 -0.0012779358978903838 0 -0.011305132561905783 -0.0012779358978903838 0 -0.012724169840403704 -0.0011043886501487328 0 -0.011305132561905783 -0.0012779358978903838 0 -0.0099424529038015207 -0.001542213300536495 0 -0.014326093692042215 -0.0011079112248969371 0 -0.014171392759643816 -0.001234644788010189 0 -0.014276680668613109 -0.0013989935091172372 0 -0.0091784762272057712 -0.0012071893451678685 0 -0.0090079965792453018 -0.0019709089574101281 0 -0.009689528364898576 -0.0020332735897318119 0 -0.0091784762272057712 -0.0012071893451678685 0 -0.009689528364898576 -0.0020332735897318119 0 -0.010001903109520609 -0.0015403340462956723 0 -0.0090079965792453018 -0.0019709089574101281 0 -0.009689528364898576 -0.0020332735897318119 0 -0.0092943940710361345 -0.002496471973560063 0 -0.004631451593874898 -0.0026605956628498253 0 -0.0045994541983661137 -0.0026862949015437963 0 -0.0045935472775590356 -0.0027165642794771583 0 -0.0045994541983661137 -0.0026862949015437963 0 -0.0045947870980833066 -0.0026629699306386081 0 -0.0045830724442134253 -0.002703708295617435 0 -0.0069620302240587396 -0.0025820398972465799 0 -0.0066130440465207146 -0.0023523264508535239 0 -0.004631451593874898 -0.0026605956628498253 0 -0.0045994541983661137 -0.0026862949015437963 0 -0.0045947870980833066 -0.0026629699306386081 0 -0.0066130440465207146 -0.0023523264508535239 0 -0.0046074435769894433 -0.0028033521721400737 0 -0.0090079965792453018 -0.0019709089574101281 0 -0.0092943940710361345 -0.002496471973560063 0 -0.0083566516663917557 -0.0022324624804200017 0 -0.010753594953452945 -0.00036191268318396306 0 -0.010651286271409309 -0.0014606713842499422 0 -0.010262839772842342 -0.0016637641348570553 0 -0.0083231073924091813 -0.0017083984772629751 0 -0.0082969833442097882 -0.0016262323255578899 0 -0.0083397729608321539 -0.0015451373785043713 0 -0.0083231073924091813 -0.0017083984772629751 0 -0.0082969833442097882 -0.0016262323255578899 0 -0.0082601043719204206 -0.0016504208614179312 0 -0.0091784762272057712 -0.0012071893451678685 0 -0.0090079965792453018 -0.0019709089574101281 0 -0.0083965246690231501 -0.0017801550413123191 0 -0.0066130440465207146 -0.0023523264508535239 0 -0.0092518360463114662 -0.0014747087094784542 0 -0.0090079965792453018 -0.0019709089574101281 0 -0.0083566516663917557 -0.0022324624804200017 0 -0.0083965246690231501 -0.0017801550413123191 0 -0.011305132561905783 -0.0012779358978903838 0 -0.0092518360463114662 -0.0014747087094784542 0 -0.0082969833442097882 -0.0016262323255578899 0 -0.0083397729608321539 -0.0015451373785043713 0 -0.0082354671554153817 -0.0016015970453679674 0 -0.0091658220783563515 -0.0010011078898892127 0 -0.010223044036736257 -0.00070816602720488514 0 -0.011461806071711308 -0.00025620931883286221 0 -0.011483608570230723 -0.00034238610946301404 0 -0.011387037481046889 -0.00029920589226624709 0 -0.0084515544901229128 -0.00068668458836013255 0 -0.0083327585129576737 -0.00082688690269545472 0 -0.0088711968748596288 -0.0010188321417138363 0 -0.0069486346684679403 -0.0021006828143995599 0 -0.008101354128710922 -0.0014467159279619977 0 -0.0073938710194528922 -0.0019473973408141287 0 -0.0073102978317241222 -0.0019234632148568943 0 -0.0072784934585385973 -0.0020329656796490851 0 -0.0070525970721978092 -0.0018729752332463324 0 -0.008101354128710922 -0.0014467159279619977 0 -0.0070525970721978092 -0.0018729752332463324 0 -0.0069486346684679403 -0.0021006828143995599 0 -0.0083231073924091813 -0.0017083984772629751 0 -0.0082070637531547579 -0.0016758971177736962 0 -0.0082601043719204206 -0.0016504208614179312 0 -0.0066130440465207146 -0.0023523264508535239 0 -0.0069486346684679403 -0.0021006828143995599 0 -0.0082070637531547579 -0.0016758971177736962 0 -0.0082601043719204206 -0.0016504208614179312 0 -0.0082213161252481029 -0.0016315126660078141 0 -0.0082969833442097882 -0.0016262323255578899 0 -0.0082601043719204206 -0.0016504208614179312 0 -0.0082309204342749867 -0.0016011777371120347 0 -0.0082601043719204206 -0.0016504208614179312 0 -0.0082213161252481029 -0.0016315126660078141 0 -0.0082309204342749867 -0.0016011777371120347 0 -0.0092518360463114662 -0.0014747087094784542 0 -0.0091658220783563515 -0.0010011078898892127 0 -0.0088409660664099596 -0.0010285796655734457 0 -0.0091658220783563515 -0.0010011078898892127 0 -0.008101354128710922 -0.0014467159279619977 0 -0.0091658220783563515 -0.0010011078898892127 0 -0.0084515544901229128 -0.00068668458836013255 0 -0.0083511336311461962 -0.00076199247311982768 0 -0.0083327585129576737 -0.00082688690269545472 0 -0.0069565599244993904 -0.001238692357221691 0 -0.0072120786039828666 -0.0013169481613062865 0 -0.0070091111756374926 -0.0013282674975015484 0 -0.0094384143470801606 -0.00095304767864383281 0 -0.0084515544901229128 -0.00068668458836013255 0 -0.0088711968748596288 -0.0010188321417138363 0 -0.0087912587569337706 -0.00057132294950292613 0 -0.0070525970721978092 -0.0018729752332463324 0 -0.010304201302494587 -0.0003629801320879899 0 -0.010223044036736257 -0.00070816602720488514 0 -0.0094384143470801606 -0.00095304767864383281 0 -0.0094086185828351921 -0.0012099635232300687 0 -0.0088711968748596288 -0.0010188321417138363 0 -0.0072120786039828666 -0.0013169481613062865 0 -0.0070091111756374926 -0.0013282674975015484 0 -0.0070604848054962128 -0.0014380887259949399 0 -0.0072554806156864184 -0.0006836573748634601 0 -0.0068462209877239869 -0.0012734405260394729 0 -0.0069036936728449939 -0.0013980990316928915 0 -0.0070091111756374926 -0.0013282674975015484 0 -0.0070604848054962128 -0.0014380887259949399 0 -0.0058877236734632323 -0.0017127289148204069 0 -0.0056667969583831532 -0.0022241987225622103 0 -0.0068722365930127373 -0.0015810373034816632 0 -0.0069036936728449939 -0.0013980990316928915 0 -0.0070604848054962128 -0.0014380887259949399 0 -0.0046827235052201033 -0.0027256923981743924 0 -0.004669502037800497 -0.0027307099905413842 0 -0.0046487999433484622 -0.002739578023154532 0 -0.0046827235052201033 -0.0027256923981743924 0 -0.0046784981155489529 -0.0027227758714859743 0 -0.004669502037800497 -0.0027307099905413842 0 -0.0046769231405681261 -0.0027188449549613689 0 -0.0046815519615661565 -0.0027191769806097113 0 -0.004669502037800497 -0.0027307099905413842 0 -0.0069486346684679403 -0.0021006828143995599 0 -0.0059015916680674498 -0.002921831485937932 0 -0.0046769231405681261 -0.0027188449549613689 0 -0.0046613958224946475 -0.0027387625674463604 0 -0.004669502037800497 -0.0027307099905413842 0 -0.0070525970721978092 -0.0018729752332463324 0 -0.0056667969583831532 -0.0022241987225622103 0 -0.0046613958224946475 -0.0027387625674463604 0 -0.004669502037800497 -0.0027307099905413842 0 -0.0046525815603922181 -0.002740700355622972 0 -0.004669502037800497 -0.0027307099905413842 0 -0.0046525815603922181 -0.002740700355622972 0 -0.0046487999433484622 -0.002739578023154532 0 -0.0046525815603922181 -0.002740700355622972 0 -0.0046533475855471216 -0.0027332236483592477 0 -0.0045961091566611937 -0.0027403419332284172 0 -0.0046525815603922181 -0.002740700355622972 0 -0.0045961091566611937 -0.0027403419332284172 0 -0.0046487999433484622 -0.002739578023154532 0 -0.0046799837512807021 -0.0027323807157869527 0 -0.0046613958224946475 -0.0027387625674463604 0 -0.0046533475855471216 -0.0027332236483592477 0 -0.0046613958224946475 -0.0027387625674463604 0 -0.0046525815603922181 -0.002740700355622972 0 -0.0046533475855471216 -0.0027332236483592477 0 -0.0046838915873779812 -0.0027144603682496219 0 -0.0046533475855471216 -0.0027332236483592477 0 -0.0046651206014452287 -0.0027058826831620397 0 -0.0046533475855471216 -0.0027332236483592477 0 -0.0046651206014452287 -0.0027058826831620397 0 -0.0046354331072793551 -0.0027129082545811886 0 -0.0046533475855471216 -0.0027332236483592477 0 -0.0045961091566611937 -0.0027403419332284172 0 -0.0046354331072793551 -0.0027129082545811886 0 -0.0045961091566611937 -0.0027403419332284172 0 -0.0046354331072793551 -0.0027129082545811886 0 -0.0045997802849391698 -0.0027218720685618972 0 -0.0045961091566611937 -0.0027403419332284172 0 -0.0045679396163281595 -0.0027460953064597075 0 -0.0045585645023599802 -0.0027394250452365816 0 -0.0045961091566611937 -0.0027403419332284172 0 -0.0045585645023599802 -0.0027394250452365816 0 -0.0045997802849391698 -0.0027218720685618972 0 -0.0045961091566611937 -0.0027403419332284172 0 -0.0045679396163281595 -0.0027460953064597075 0 -0.0045935472775590356 -0.0027165642794771583 0 -0.0045679396163281595 -0.0027460953064597075 0 -0.0045213466205328411 -0.0027620282707892228 0 -0.0045585645023599802 -0.0027394250452365816 0 -0.0045679396163281595 -0.0027460953064597075 0 -0.0045644677111237745 -0.0027553373474255723 0 -0.0045213466205328411 -0.0027620282707892228 0 -0.0045644677111237745 -0.0027553373474255723 0 -0.0045668233219894796 -0.0027708175149120519 0 -0.0045213466205328411 -0.0027620282707892228 0 -0.0045644677111237745 -0.0027553373474255723 0 -0.0046396184548401775 -0.0027701030237792241 0 -0.0045668233219894796 -0.0027708175149120519 0 -0.0045644677111237745 -0.0027553373474255723 0 -0.0046009478848991169 -0.0027396283814618149 0 -0.0046396184548401775 -0.0027701030237792241 0 -0.0045679396163281595 -0.0027460953064597075 0 -0.0046009478848991169 -0.0027396283814618149 0 -0.0045935472775590356 -0.0027165642794771583 0 -0.0045679396163281595 -0.0027460953064597075 0 -0.0045644677111237745 -0.0027553373474255723 0 -0.0046009478848991169 -0.0027396283814618149 0 -0.004631451593874898 -0.0026605956628498253 0 -0.0045935472775590356 -0.0027165642794771583 0 -0.0046443195365483917 -0.002703536830402367 0 -0.0046009478848991169 -0.0027396283814618149 0 -0.0045935472775590356 -0.0027165642794771583 0 -0.0046443195365483917 -0.002703536830402367 0 -0.0046048228880879874 -0.0027046504711558598 0 -0.0046074435769894433 -0.0028033521721400737 0 -0.0045961091566611937 -0.0027403419332284172 0 -0.0045935472775590356 -0.0027165642794771583 0 -0.0045830724442134253 -0.002703708295617435 0 -0.0045994541983661137 -0.0026862949015437963 0 -0.0045935472775590356 -0.0027165642794771583 0 -0.0045830724442134253 -0.002703708295617435 0 -0.004751530342901762 -0.0027104851961763719 0 -0.0049120615348078982 -0.0027885845701266943 0 -0.0048848501061203977 -0.0026590114800862166 0 -0.004751530342901762 -0.0027104851961763719 0 -0.0048848501061203977 -0.0026590114800862166 0 -0.004718457521026123 -0.0026423033582175554 0 -0.004751530342901762 -0.0027104851961763719 0 -0.0046443195365483917 -0.002703536830402367 0 -0.0046396184548401775 -0.0027701030237792241 0 -0.004751530342901762 -0.0027104851961763719 0 -0.0046443195365483917 -0.002703536830402367 0 -0.004718457521026123 -0.0026423033582175554 0 -0.0046009478848991169 -0.0027396283814618149 0 -0.0046443195365483917 -0.002703536830402367 0 -0.0046396184548401775 -0.0027701030237792241 0 -0.0046396184548401775 -0.0027701030237792241 0 -0.0046510724665574871 -0.0028012088967534379 0 -0.0045668233219894796 -0.0027708175149120519 0 -0.0046396184548401775 -0.0027701030237792241 0 -0.0046604963748355351 -0.0027906186968493529 0 -0.0046510724665574871 -0.0028012088967534379 0 -0.004751530342901762 -0.0027104851961763719 0 -0.0046396184548401775 -0.0027701030237792241 0 -0.0049120615348078982 -0.0027885845701266943 0 -0.004375646700799647 -0.0026646978438680064 0 -0.0054405008238049505 -0.0032185952237395688 0 -0.0046396184548401775 -0.0027701030237792241 0 -0.0046604963748355351 -0.0027906186968493529 0 -0.0046728533695687777 -0.0027889437380507996 0 -0.0046604963748355351 -0.0027906186968493529 0 -0.004669279194360644 -0.0027961182615345525 0 -0.0046510724665574871 -0.0028012088967534379 0 -0.0046604963748355351 -0.0027906186968493529 0 -0.004669279194360644 -0.0027961182615345525 0 -0.0046728533695687777 -0.0027889437380507996 0 -0.0051698153144340217 -0.0036269885986566562 0 -0.0044635597413771521 -0.0033894031891816508 0 -0.0054922307912492196 -0.003226280962111075 0 -0.0046463303757571829 -0.0041464482209972054 0 -0.0051698153144340217 -0.0036269885986566562 0 -0.0044635597413771521 -0.0033894031891816508 0 -0.0035886579056640076 -0.0033945482412656319 0 -0.0054405008238049505 -0.0032185952237395688 0 -0.0020579119039563594 -0.003680193810365039 0 -0.001328346168469592 -0.0038507290741598352 0 -0.0016237063520495951 -0.0034556520049545485 0 -0.0060776011193493136 -0.0037461146059128694 0 -0.0054922307912492196 -0.003226280962111075 0 -0.0065283906787998863 -0.0030577459308395462 0 -0.0046463303757571829 -0.0041464482209972054 0 -0.0051698153144340217 -0.0036269885986566562 0 -0.0060776011193493136 -0.0037461146059128694 0 -0.0035886579056640076 -0.0033945482412656319 0 -0.0031108470150089901 -0.0039548305689974424 0 -0.0051698153144340217 -0.0036269885986566562 0 -0.0060776011193493136 -0.0037461146059128694 0 -0.0054922307912492196 -0.003226280962111075 0 -0.0068243215593804469 -0.0033168447802520646 0 -0.010365821434931257 -0.0030733297726944268 0 -0.0085282201707951536 -0.0027891578331254332 0 -0.0086603907525856869 -0.0033282078207048267 0 -0.0098103502383540299 -0.0031390209910189151 0 -0.011613311988202835 -0.0028779068381794485 0 -0.01198661278518556 -0.0026691304306363109 0 -0.012145465499213446 -0.0030240611918658559 0 -0.010267549332408275 -0.0028823237913123134 0 -0.010365821434931257 -0.0030733297726944268 0 -0.0075276525308298576 -0.0035068715442083047 0 -0.0085282201707951536 -0.0027891578331254332 0 -0.0086603907525856869 -0.0033282078207048267 0 -0.0075276525308298576 -0.0035068715442083047 0 -0.0085282201707951536 -0.0027891578331254332 0 -0.0072711037588321101 -0.0024384411809963056 0 -0.0054405008238049505 -0.0032185952237395688 0 -0.0068243215593804469 -0.0033168447802520646 0 -0.010267549332408275 -0.0028823237913123134 0 -0.0085918471952584289 -0.0025737612911124956 0 -0.0054405008238049505 -0.0032185952237395688 0 -0.0085918471952584289 -0.0025737612911124956 0 -0.011075733008331628 -0.0027301372328479927 0 -0.011387212548258262 -0.0023058636560736468 0 -0.010954912973668929 -0.0022274283127787578 0 -0.011613311988202835 -0.0028779068381794485 0 -0.011075733008331628 -0.0027301372328479927 0 -0.011387212548258262 -0.0023058636560736468 0 -0.011613311988202835 -0.0028779068381794485 0 -0.011387212548258262 -0.0023058636560736468 0 -0.011807193498895752 -0.0023227410318893932 0 -0.011613311988202835 -0.0028779068381794485 0 -0.01198661278518556 -0.0026691304306363109 0 -0.011807193498895752 -0.0023227410318893932 0 -0.01198661278518556 -0.0026691304306363109 0 -0.011807193498895752 -0.0023227410318893932 0 -0.012106783698000997 -0.00238953514990406 0 -0.011387212548258262 -0.0023058636560736468 0 -0.011807193498895752 -0.0023227410318893932 0 -0.011727549120799981 -0.0020321325170335335 0 -0.011807193498895752 -0.0023227410318893932 0 -0.012071247807608878 -0.0020453318565114976 0 -0.012106783698000997 -0.00238953514990406 0 -0.011807193498895752 -0.0023227410318893932 0 -0.011727549120799981 -0.0020321325170335335 0 -0.012071247807608878 -0.0020453318565114976 0 -0.011727549120799981 -0.0020321325170335335 0 -0.011454409555485158 -0.0018479771509284978 0 -0.011908896263559059 -0.0016468840255559848 0 -0.011727549120799981 -0.0020321325170335335 0 -0.011908896263559059 -0.0016468840255559848 0 -0.012071247807608878 -0.0020453318565114976 0 -0.011387212548258262 -0.0023058636560736468 0 -0.011150534162833535 -0.0019784014593721552 0 -0.010954912973668929 -0.0022274283127787578 0 -0.011387212548258262 -0.0023058636560736468 0 -0.011727549120799981 -0.0020321325170335335 0 -0.011454409555485158 -0.0018479771509284978 0 -0.011387212548258262 -0.0023058636560736468 0 -0.011150534162833535 -0.0019784014593721552 0 -0.011454409555485158 -0.0018479771509284978 0 -0.011150534162833535 -0.0019784014593721552 0 -0.011454409555485158 -0.0018479771509284978 0 -0.011109867405084866 -0.0016671017049637955 0 -0.010847836327763481 -0.0019102361334572588 0 -0.010780208198508235 -0.0015477553122711935 0 -0.011109867405084866 -0.0016671017049637955 0 -0.011150534162833535 -0.0019784014593721552 0 -0.010847836327763481 -0.0019102361334572588 0 -0.011109867405084866 -0.0016671017049637955 0 -0.010847836327763481 -0.0019102361334572588 0 -0.010439920222658756 -0.0017043879696624633 0 -0.010780208198508235 -0.0015477553122711935 0 -0.010847836327763481 -0.0019102361334572588 0 -0.010954912973668929 -0.0022274283127787578 0 -0.010420750085463459 -0.0022181003578855413 0 -0.011150534162833535 -0.0019784014593721552 0 -0.010847836327763481 -0.0019102361334572588 0 -0.010954912973668929 -0.0022274283127787578 0 -0.0085918471952584289 -0.0025737612911124956 0 -0.011054253870077652 -0.0025790686455164501 0 -0.0085918471952584289 -0.0025737612911124956 0 -0.0073795826344128538 -0.0026929620975086437 0 -0.010954912973668929 -0.0022274283127787578 0 -0.010233922847621566 -0.0027483223965273254 0 -0.010420750085463459 -0.0022181003578855413 0 -0.011117334750036767 -0.0029813606194397922 0 -0.010954912973668929 -0.0022274283127787578 0 -0.010233922847621566 -0.0027483223965273254 0 -0.004631451593874898 -0.0026605956628498253 0 -0.0046443195365483917 -0.002703536830402367 0 -0.004718457521026123 -0.0026423033582175554 0 -0.009689528364898576 -0.0020332735897318119 0 -0.010233922847621566 -0.0027483223965273254 0 -0.010420750085463459 -0.0022181003578855413 0 -0.0069620302240587396 -0.0025820398972465799 0 -0.0073795826344128538 -0.0026929620975086437 0 -0.009689528364898576 -0.0020332735897318119 0 -0.0092943940710361345 -0.002496471973560063 0 -0.010233922847621566 -0.0027483223965273254 0 -0.010847836327763481 -0.0019102361334572588 0 -0.010001903109520609 -0.0015403340462956723 0 -0.010420750085463459 -0.0022181003578855413 0 -0.010890784260411785 -0.0019134398453863231 0 -0.0099424529038015207 -0.001542213300536495 0 -0.009689528364898576 -0.0020332735897318119 0 -0.010001903109520609 -0.0015403340462956723 0 -0.010420750085463459 -0.0022181003578855413 0 -0.010439920222658756 -0.0017043879696624633 0 -0.010780208198508235 -0.0015477553122711935 0 -0.010496863759678845 -0.0011328238477074518 0 -0.010006687033837567 -0.0015204653950464291 0 -0.010439920222658756 -0.0017043879696624633 0 -0.010496863759678845 -0.0011328238477074518 0 -0.010780208198508235 -0.0015477553122711935 0 -0.011101995620509411 -0.0012473252717479838 0 -0.010496863759678845 -0.0011328238477074518 0 -0.010780208198508235 -0.0015477553122711935 0 -0.011101995620509411 -0.0012473252717479838 0 -0.011109867405084866 -0.0016671017049637955 0 -0.012724169840403704 -0.0011043886501487328 0 -0.013025242622434296 -0.0007767000362323 0 -0.011101995620509411 -0.0012473252717479838 0 -0.010496863759678845 -0.0011328238477074518 0 -0.011052521353175209 -0.00069177094434262729 0 -0.014428455191058096 -0.00089950072532588509 0 -0.014670747768885217 -0.0011165454097534662 0 -0.014592615980887232 -0.00068784890016636323 0 -0.014670747768885217 -0.0011165454097534662 0 -0.014592615980887232 -0.00068784890016636323 0 -0.015046421616736284 -0.00084008322297175774 0 -0.014592615980887232 -0.00068784890016636323 0 -0.015046421616736284 -0.00084008322297175774 0 -0.014853786413295059 -0.00051560859153576631 0 -0.015046421616736284 -0.00084008322297175774 0 -0.015100275661858792 -0.0005276187958314256 0 -0.014853786413295059 -0.00051560859153576631 0 -0.014909742753467304 -0.00023968489476403534 0 -0.015100275661858792 -0.0005276187958314256 0 -0.014853786413295059 -0.00051560859153576631 0 -0.014625337403697668 -0.00029311640260414957 0 -0.014592615980887232 -0.00068784890016636323 0 -0.014853786413295059 -0.00051560859153576631 0 -0.014023605089530966 -3.3244281404839815e-05 0 -0.013541816345197241 -0.00041057281075627272 0 -0.015200587520977957 -0.00026949313269001955 0 -0.015100275661858792 -0.0005276187958314256 0 -0.015420956649942188 -0.00057384497841150785 0 -0.011052521353175209 -0.00069177094434262729 0 -0.01164768477268917 -0.00025115165733021372 0 -0.011710722505045432 -0.00098864662848699067 0 -0.013025242622434296 -0.0007767000362323 0 -0.013541816345197241 -0.00041057281075627272 0 -0.015046421616736284 -0.00084008322297175774 0 -0.015100275661858792 -0.0005276187958314256 0 -0.015420956649942188 -0.00057384497841150785 0 -0.01164768477268917 -0.00025115165733021372 0 -0.011710722505045432 -0.00098864662848699067 0 -0.012290911388460198 -0.00055537967718292567 0 -0.011710722505045432 -0.00098864662848699067 0 -0.011908896263559059 -0.0016468840255559848 0 -0.012260499617691998 -0.0011774052071380832 0 -0.011101995620509411 -0.0012473252717479838 0 -0.011710722505045432 -0.00098864662848699067 0 -0.011476413486514601 -0.0014648550615534808 0 -0.011101995620509411 -0.0012473252717479838 0 -0.011052521353175209 -0.00069177094434262729 0 -0.011710722505045432 -0.00098864662848699067 0 -0.011101995620509411 -0.0012473252717479838 0 -0.011476413486514601 -0.0014648550615534808 0 -0.011109867405084866 -0.0016671017049637955 0 -0.011454409555485158 -0.0018479771509284978 0 -0.011476413486514601 -0.0014648550615534808 0 -0.011109867405084866 -0.0016671017049637955 0 -0.011710722505045432 -0.00098864662848699067 0 -0.011476413486514601 -0.0014648550615534808 0 -0.011908896263559059 -0.0016468840255559848 0 -0.011454409555485158 -0.0018479771509284978 0 -0.011476413486514601 -0.0014648550615534808 0 -0.011908896263559059 -0.0016468840255559848 0 -0.011908896263559059 -0.0016468840255559848 0 -0.012456187286309517 -0.0017342505574802303 0 -0.012260499617691998 -0.0011774052071380832 0 -0.012456187286309517 -0.0017342505574802303 0 -0.012938701822322384 -0.00096435631727437028 0 -0.012260499617691998 -0.0011774052071380832 0 -0.012456187286309517 -0.0017342505574802303 0 -0.012938701822322384 -0.00096435631727437028 0 -0.012994666467736646 -0.0017678633776918389 0 -0.012938701822322384 -0.00096435631727437028 0 -0.012260499617691998 -0.0011774052071380832 0 -0.012290911388460198 -0.00055537967718292567 0 -0.011710722505045432 -0.00098864662848699067 0 -0.012260499617691998 -0.0011774052071380832 0 -0.012290911388460198 -0.00055537967718292567 0 -0.012938701822322384 -0.00096435631727437028 0 -0.012290911388460198 -0.00055537967718292567 0 -0.012888935637930742 -0.00017478525309343006 0 -0.013096676389370654 -0.0012965846716493799 0 -0.012895055049765538 -0.00071497884290217125 0 -0.01224655680408974 0.0001824946457136934 0 -0.01164768477268917 -0.00025115165733021372 0 -0.012290911388460198 -0.00055537967718292567 0 -0.01224655680408974 0.0001824946457136934 0 -0.012290911388460198 -0.00055537967718292567 0 -0.012888935637930742 -0.00017478525309343006 0 -0.014129029633969085 -0.0010058482194884061 0 -0.01367992933833111 -0.00090559669688575998 0 -0.013704572402491328 -0.001364245329632174 0 -0.01367992933833111 -0.00090559669688575998 0 -0.013276483968613216 -0.0011728153717207859 0 -0.013704572402491328 -0.001364245329632174 0 -0.013208934893353815 -0.0016339409073368256 0 -0.013276483968613216 -0.0011728153717207859 0 -0.013704572402491328 -0.001364245329632174 0 -0.013704572402491328 -0.001364245329632174 0 -0.013539332205966651 -0.0017899733384120289 0 -0.013993845994353859 -0.001717638219840685 0 -0.013208934893353815 -0.0016339409073368256 0 -0.013704572402491328 -0.001364245329632174 0 -0.013539332205966651 -0.0017899733384120289 0 -0.013208934893353815 -0.0016339409073368256 0 -0.013539332205966651 -0.0017899733384120289 0 -0.013110207877220103 -0.0021354080613323299 0 -0.013096676389370654 -0.0012965846716493799 0 -0.013047167726582444 -0.0019663440503015395 0 -0.013539332205966651 -0.0017899733384120289 0 -0.013681509165530284 -0.0021276239230948683 0 -0.013110207877220103 -0.0021354080613323299 0 -0.013539332205966651 -0.0017899733384120289 0 -0.013681509165530284 -0.0021276239230948683 0 -0.013993845994353859 -0.001717638219840685 0 -0.013681509165530284 -0.0021276239230948683 0 -0.013321765364141083 -0.0024440934619936118 0 -0.013717819438813277 -0.0024286998274325095 0 -0.013681509165530284 -0.0021276239230948683 0 -0.013321765364141083 -0.0024440934619936118 0 -0.013110207877220103 -0.0021354080613323299 0 -0.013321765364141083 -0.0024440934619936118 0 -0.013364391828526063 -0.0026525225270279109 0 -0.013717819438813277 -0.0024286998274325095 0 -0.013364391828526063 -0.0026525225270279109 0 -0.013160078503886237 -0.0026917618540373048 0 -0.013109755949881771 -0.0028677143141619234 0 -0.013321765364141083 -0.0024440934619936118 0 -0.013364391828526063 -0.0026525225270279109 0 -0.013160078503886237 -0.0026917618540373048 0 -0.013364391828526063 -0.0026525225270279109 0 -0.013109755949881771 -0.0028677143141619234 0 -0.013685468954175311 -0.0027404521016979703 0 -0.013321765364141083 -0.0024440934619936118 0 -0.013013900504058496 -0.0026122954844579943 0 -0.013160078503886237 -0.0026917618540373048 0 -0.013028538876626417 -0.0025787043389743714 0 -0.013047167726582444 -0.0019663440503015395 0 -0.013321765364141083 -0.0024440934619936118 0 -0.013013900504058496 -0.0026122954844579943 0 -0.013110207877220103 -0.0021354080613323299 0 -0.012456187286309517 -0.0017342505574802303 0 -0.012994666467736646 -0.0017678633776918389 0 -0.012704661118310761 -0.002193276897792066 0 -0.012456187286309517 -0.0017342505574802303 0 -0.012704661118310761 -0.002193276897792066 0 -0.012407738054403677 -0.0022761868531590325 0 -0.013013900504058496 -0.0026122954844579943 0 -0.012994666467736646 -0.0017678633776918389 0 -0.012704661118310761 -0.002193276897792066 0 -0.012456187286309517 -0.0017342505574802303 0 -0.012071247807608878 -0.0020453318565114976 0 -0.012407738054403677 -0.0022761868531590325 0 -0.011908896263559059 -0.0016468840255559848 0 -0.012456187286309517 -0.0017342505574802303 0 -0.012071247807608878 -0.0020453318565114976 0 -0.012106783698000997 -0.00238953514990406 0 -0.012407738054403677 -0.0022761868531590325 0 -0.012373322789435068 -0.0027450364602165001 0 -0.012071247807608878 -0.0020453318565114976 0 -0.012106783698000997 -0.00238953514990406 0 -0.012407738054403677 -0.0022761868531590325 0 -0.01198661278518556 -0.0026691304306363109 0 -0.012106783698000997 -0.00238953514990406 0 -0.012373322789435068 -0.0027450364602165001 0 -0.012407738054403677 -0.0022761868531590325 0 -0.012655543609086979 -0.002558520585978366 0 -0.012373322789435068 -0.0027450364602165001 0 -0.013013900504058496 -0.0026122954844579943 0 -0.012704661118310761 -0.002193276897792066 0 -0.012655543609086979 -0.002558520585978366 0 -0.012704661118310761 -0.002193276897792066 0 -0.012407738054403677 -0.0022761868531590325 0 -0.012655543609086979 -0.002558520585978366 0 -0.013013900504058496 -0.0026122954844579943 0 -0.012655543609086979 -0.002558520585978366 0 -0.012824776655206102 -0.0027273221632018118 0 -0.012655543609086979 -0.002558520585978366 0 -0.012824776655206102 -0.0027273221632018118 0 -0.01265108061754934 -0.0027400928384487405 0 -0.012824776655206102 -0.0027273221632018118 0 -0.012673091083112714 -0.0029211715816075418 0 -0.01307180654839169 -0.0027728611329243414 0 -0.012929905992071529 -0.0028238274375593361 0 -0.013008696951139905 -0.0027402665466288701 0 -0.013053159084550132 -0.0026944026263000576 0 -0.013116358643155126 -0.0027509405746929021 0 -0.012916906592315362 -0.0027920266519980402 0 -0.012929649559311257 -0.0026766888042516687 0 -0.013008696951139905 -0.0027402665466288701 0 -0.01307180654839169 -0.0027728611329243414 0 -0.012824776655206102 -0.0027273221632018118 0 -0.01265108061754934 -0.0027400928384487405 0 -0.012673091083112714 -0.0029211715816075418 0 -0.012655543609086979 -0.002558520585978366 0 -0.01265108061754934 -0.0027400928384487405 0 -0.012373322789435068 -0.0027450364602165001 0 -0.01265108061754934 -0.0027400928384487405 0 -0.012673091083112714 -0.0029211715816075418 0 -0.012373322789435068 -0.0027450364602165001 0 -0.012929649559311257 -0.0026766888042516687 0 -0.012929905992071529 -0.0028238274375593361 0 -0.012864337373523521 -0.002852054499818288 0 -0.012929649559311257 -0.0026766888042516687 0 -0.012929905992071529 -0.0028238274375593361 0 -0.013008696951139905 -0.0027402665466288701 0 -0.013116358643155126 -0.0027509405746929021 0 -0.010365821434931257 -0.0030733297726944268 0 -0.012929649559311257 -0.0026766888042516687 0 -0.012362035911217576 -0.0027403041272176069 0 -0.012864337373523521 -0.002852054499818288 0 -0.012673091083112714 -0.0029211715816075418 0 -0.012373322789435068 -0.0027450364602165001 0 -0.012145465499213446 -0.0030240611918658559 0 -0.01198661278518556 -0.0026691304306363109 0 -0.012373322789435068 -0.0027450364602165001 0 -0.012145465499213446 -0.0030240611918658559 0 -0.010365821434931257 -0.0030733297726944268 0 -0.0068465812548408082 -0.0033832400448331862 0 -0.0031108470150089901 -0.0039548305689974424 0 -0.0068465812548408082 -0.0033832400448331862 0 -0.001328346168469592 -0.0038507290741598352 0 -0.00063764091309916602 -0.0039369400727630914 0 -0.00069631671924323961 -0.0033989084498580605 0 -0.0060776011193493136 -0.0037461146059128694 0 -0.0065283906787998863 -0.0030577459308395462 0 -0.0075164592046264725 -0.0033321437325892563 0 -0.00063764091309916602 -0.0039369400727630914 0 -0.00011930826203053491 -0.003377648774196581 0 -0.00069631671924323961 -0.0033989084498580605 0 -0.012929905992071529 -0.0028238274375593361 0 -0.012920171196104495 -0.0028403980434559368 0 -0.013053674523598719 -0.0025427328274752799 0 -0.0075526920798970791 -0.003220579736680483 0 -0.0068465812548408082 -0.0033832400448331862 0 -0.00063764091309916602 -0.0039369400727630914 0 -7.9178699741233442e-05 -0.0035430738850506772 0 -0.00011930826203053491 -0.003377648774196581 0 -0.012929905992071529 -0.0028238274375593361 0 -0.013053674523598719 -0.0025427328274752799 0 -0.013053159084550132 -0.0026944026263000576 0 -0.0068465812548408082 -0.0033832400448331862 0 -0.0069820503791104497 -0.0030899617533784564 0 -7.9178699741233442e-05 -0.0035430738850506772 0 -0.0001813213047880224 -0.0035800200377736485 0 -0.00048949806468309405 -0.0034809345397883891 0 -0.013053674523598719 -0.0025427328274752799 0 -0.013109755949881771 -0.0028677143141619234 0 -0.012482341902870193 -0.0026878675344510594 0 -0.013109755949881771 -0.0028677143141619234 0 -0.01256167190153001 -0.0032458924411699272 0 -0.012482341902870193 -0.0026878675344510594 0 -0.013145304912547106 -0.0028937195719851631 0 -0.01307315935194321 -0.0029961815182819019 0 -0.013053674523598719 -0.0025427328274752799 0 -0.013109755949881771 -0.0028677143141619234 0 -0.013053159084550132 -0.0026944026263000576 0 -0.013013900504058496 -0.0026122954844579943 0 -0.013160078503886237 -0.0026917618540373048 0 -0.01307180654839169 -0.0027728611329243414 0 -0.013160078503886237 -0.0026917618540373048 0 -0.013109755949881771 -0.0028677143141619234 0 -0.01307180654839169 -0.0027728611329243414 0 -0.013013900504058496 -0.0026122954844579943 0 -0.012824776655206102 -0.0027273221632018118 0 -0.01307180654839169 -0.0027728611329243414 0 -0.013008696951139905 -0.0027402665466288701 0 -0.01307180654839169 -0.0027728611329243414 0 -0.013053159084550132 -0.0026944026263000576 0 -0.013109755949881771 -0.0028677143141619234 0 -0.01307180654839169 -0.0027728611329243414 0 -0.013053159084550132 -0.0026944026263000576 0 3.8710798936315644e-05 -0.0030039241990012038 0 0.00030730927166451453 -0.0028732696792650027 0 0.00024937868927098748 -0.0030852046767584889 0 3.8710798936315644e-05 -0.0030039241990012038 0 0.00022956151377412828 -0.0027256795338878063 0 0.00030730927166451453 -0.0028732696792650027 0 3.8710798936315644e-05 -0.0030039241990012038 0 -0.00010185407060832448 -0.0027488526335959869 0 -0.00030828617795724498 -0.0030750808541305202 0 3.8710798936315644e-05 -0.0030039241990012038 0 -0.00010185407060832448 -0.0027488526335959869 0 0.00022956151377412828 -0.0027256795338878063 0 0.00022956151377412828 -0.0027256795338878063 0 0.00030730927166451453 -0.0028732696792650027 0 0.00041108525824450629 -0.002641162459779349 0 0.00030730927166451453 -0.0028732696792650027 0 0.00041108525824450629 -0.002641162459779349 0 0.0004995726973700752 -0.0029432794488730538 0 0.00041108525824450629 -0.002641162459779349 0 0.0004995726973700752 -0.0029432794488730538 0 0.00057198309784623077 -0.0026781194532218698 0 0.00030730927166451453 -0.0028732696792650027 0 0.00024937868927098748 -0.0030852046767584889 0 0.0004995726973700752 -0.0029432794488730538 0 0.00024937868927098748 -0.0030852046767584889 0 0.00041204763557549314 -0.0032159812027637421 0 -0.00011930826203053491 -0.003377648774196581 0 0.00094463806911142451 -0.0034877839874632257 0 -0.00044213228710195872 -0.0033372495691339462 0 -7.9178699741233442e-05 -0.0035430738850506772 0 -0.0001813213047880224 -0.0035800200377736485 0 -0.00011930826203053491 -0.003377648774196581 0 0.00024937868927098748 -0.0030852046767584889 0 0.00041204763557549314 -0.0032159812027637421 0 0.0004995726973700752 -0.0029432794488730538 0 3.8710798936315644e-05 -0.0030039241990012038 0 0.00024937868927098748 -0.0030852046767584889 0 -0.00011930826203053491 -0.003377648774196581 0 3.8710798936315644e-05 -0.0030039241990012038 0 -0.00011930826203053491 -0.003377648774196581 0 -0.00030828617795724498 -0.0030750808541305202 0 -0.00011930826203053491 -0.003377648774196581 0 -0.00069631671924323961 -0.0033989084498580605 0 -0.00030828617795724498 -0.0030750808541305202 0 -0.001328346168469592 -0.0038507290741598352 0 -0.00069631671924323961 -0.0033989084498580605 0 -0.0012663352085458567 -0.003193298675601767 0 -0.00069631671924323961 -0.0033989084498580605 0 -0.0007060827054798614 -0.0028039067141332869 0 -0.0012663352085458567 -0.003193298675601767 0 -0.0007060827054798614 -0.0028039067141332869 0 -0.0013405674820445306 -0.0026212734697673343 0 -0.0012663352085458567 -0.003193298675601767 0 -0.00010185407060832448 -0.0027488526335959869 0 -0.0007060827054798614 -0.0028039067141332869 0 -0.00030828617795724498 -0.0030750808541305202 0 -0.00069631671924323961 -0.0033989084498580605 0 -0.0007060827054798614 -0.0028039067141332869 0 -0.00030828617795724498 -0.0030750808541305202 0 -0.0007060827054798614 -0.0028039067141332869 0 -0.00023771573850903341 -0.0022967789847117919 0 -0.00097499174442804474 -0.0019435573729717833 0 -0.00010185407060832448 -0.0027488526335959869 0 -0.0007060827054798614 -0.0028039067141332869 0 -0.00023771573850903341 -0.0022967789847117919 0 -0.0007060827054798614 -0.0028039067141332869 0 -0.00097499174442804474 -0.0019435573729717833 0 -0.0013405674820445306 -0.0026212734697673343 0 -0.00097499174442804474 -0.0019435573729717833 0 -0.0001970670248494891 -0.0015883919962235782 0 -0.00077247681409761053 -0.0011427630236145903 0 -0.00097499174442804474 -0.0019435573729717833 0 -0.00077247681409761053 -0.0011427630236145903 0 -0.0016871597123568143 -0.00095232783749126383 0 -0.00023771573850903341 -0.0022967789847117919 0 -0.00097499174442804474 -0.0019435573729717833 0 -0.0001970670248494891 -0.0015883919962235782 0 -0.00023771573850903341 -0.0022967789847117919 0 -0.0001970670248494891 -0.0015883919962235782 0 0.00029211339607196585 -0.0019274660480668776 0 0.00074793210945027868 -0.0017275707349896248 0 0.00029211339607196585 -0.0019274660480668776 0 0.00054805474108894549 -0.0012732585424945627 0 -0.0001970670248494891 -0.0015883919962235782 0 0.00029211339607196585 -0.0019274660480668776 0 0.00054805474108894549 -0.0012732585424945627 0 0.00074793210945027868 -0.0017275707349896248 0 0.0012876332092694488 -0.0015578531406380382 0 0.00054805474108894549 -0.0012732585424945627 0 0.00074793210945027868 -0.0017275707349896248 0 0.00073237176836759253 -0.0020584826048197506 0 0.00029211339607196585 -0.0019274660480668776 0 0.00073237176836759253 -0.0020584826048197506 0 0.00037585636797249778 -0.0024676008439396672 0 0.0012482663635666345 -0.0021446634052426149 0 0.00073237176836759253 -0.0020584826048197506 0 0.00029211339607196585 -0.0019274660480668776 0 0.00037585636797249778 -0.0024676008439396672 0 0.00074793210945027868 -0.0017275707349896248 0 0.00073237176836759253 -0.0020584826048197506 0 0.0010672688895646979 -0.0020158737734695988 0 -0.00010185407060832448 -0.0027488526335959869 0 -0.00023771573850903341 -0.0022967789847117919 0 0.00037585636797249778 -0.0024676008439396672 0 -0.00023771573850903341 -0.0022967789847117919 0 0.00029211339607196585 -0.0019274660480668776 0 0.00037585636797249778 -0.0024676008439396672 0 0.00040342767416480849 -0.0024354316842409469 0 0.00081635229296734353 -0.0017823216608447723 0 0.00022956151377412828 -0.0027256795338878063 0 0.00037585636797249778 -0.0024676008439396672 0 0.00041108525824450629 -0.002641162459779349 0 -0.00010185407060832448 -0.0027488526335959869 0 0.00022956151377412828 -0.0027256795338878063 0 0.00037585636797249778 -0.0024676008439396672 0 0.00041108525824450629 -0.002641162459779349 0 0.00040460148980729714 -0.0024661310438001448 0 0.00057198309784623077 -0.0026781194532218698 0 0.00081635229296734353 -0.0017823216608447723 0 0.00031417829903346376 -0.0016772298354414692 0 0.00037585636797249778 -0.0024676008439396672 0 0.00041108525824450629 -0.002641162459779349 0 0.00040460148980729714 -0.0024661310438001448 0 0.00081635229296734353 -0.0017823216608447723 0 0.0017892817144875162 -0.0013371146071953558 0 0.0013166110225303052 -0.0022071862679009131 0 0.0012876332092694488 -0.0015578531406380382 0 0.0017412354708398249 -0.001248096424255064 0 0.0013166110225303052 -0.0022071862679009131 0 0.0017412354708398249 -0.001248096424255064 0 0.0029482664151754372 -0.0013266730764235721 0 0.0013166110225303052 -0.0022071862679009131 0 0.0010672688895646979 -0.0020158737734695988 0 0.0012876332092694488 -0.0015578531406380382 0 0.00073237176836759253 -0.0020584826048197506 0 0.0012482663635666345 -0.0021446634052426149 0 0.0010672688895646979 -0.0020158737734695988 0 0.00081635229296734353 -0.0017823216608447723 0 0.00096479215797033334 -0.0018997539113271658 0 0.00074793210945027868 -0.0017275707349896248 0 0.0010672688895646979 -0.0020158737734695988 0 0.0012876332092694488 -0.0015578531406380382 0 0.0017412354708398249 -0.001248096424255064 0 0.0020421252198850786 -0.0003292709893936357 0 0.0029482664151754372 -0.0013266730764235721 0 0.0012876332092694488 -0.0015578531406380382 0 0.0017412354708398249 -0.001248096424255064 0 0.0012113717443680376 -0.00082950915466664362 0 0.0017412354708398249 -0.001248096424255064 0 0.0012113717443680376 -0.00082950915466664362 0 0.0020421252198850786 -0.0003292709893936357 0 0.0012876332092694488 -0.0015578531406380382 0 0.0012113717443680376 -0.00082950915466664362 0 0.00054805474108894549 -0.0012732585424945627 0 0.0012113717443680376 -0.00082950915466664362 0 0.00062346140456297097 -0.00041148584644603263 0 0.001256545345565778 -0.00017722466065427767 0 0.0012113717443680376 -0.00082950915466664362 0 0.00054805474108894549 -0.0012732585424945627 0 0.00062346140456297097 -0.00041148584644603263 0 0.00054805474108894549 -0.0012732585424945627 0 0.00062346140456297097 -0.00041148584644603263 0 -0.00013390658825499605 -0.00079468563306800757 0 0.00062346140456297097 -0.00041148584644603263 0 0.00076567728793092973 0.00033337143314408148 0 -3.3809461944143772e-05 7.8029627436349683e-05 0 0.00062346140456297097 -0.00041148584644603263 0 0.00076567728793092973 0.00033337143314408148 0 0.001256545345565778 -0.00017722466065427767 0 0.00076567728793092973 0.00033337143314408148 0 0.001256545345565778 -0.00017722466065427767 0 0.0015657057679847089 0.00045479405934042467 0 0.0020421252198850786 -0.0003292709893936357 0 0.0015657057679847089 0.00045479405934042467 0 0.0025545103471029452 0.00081910960602725295 0 0.0012113717443680376 -0.00082950915466664362 0 0.0020421252198850786 -0.0003292709893936357 0 0.001256545345565778 -0.00017722466065427767 0 0.0020421252198850786 -0.0003292709893936357 0 0.001256545345565778 -0.00017722466065427767 0 0.0015657057679847089 0.00045479405934042467 0 0.0015657057679847089 0.00045479405934042467 0 0.0016408056072548562 0.0012671260880179559 0 0.0025545103471029452 0.00081910960602725295 0 0.0016408056072548562 0.0012671260880179559 0 0.0016235286659888261 0.0016793870234182511 0 0.0025545103471029452 0.00081910960602725295 0 0.0015657057679847089 0.00045479405934042467 0 0.0016408056072548562 0.0012671260880179559 0 0.0010103281741051984 0.00080860389795919796 0 0.0016408056072548562 0.0012671260880179559 0 0.0016235286659888261 0.0016793870234182511 0 0.0010489328746353863 0.0014666385838599141 0 0.00076567728793092973 0.00033337143314408148 0 9.8539337510936205e-05 0.0011521291450717528 0 -3.3809461944143772e-05 7.8029627436349683e-05 0 0.0015837873471048858 0.0012605335908085903 0 0.000616108242175581 0.0013036936710988569 0 0.00076567728793092973 0.00033337143314408148 0 0.0015657057679847089 0.00045479405934042467 0 0.0010103281741051984 0.00080860389795919796 0 0.0016408056072548562 0.0012671260880179559 0 0.0010103281741051984 0.00080860389795919796 0 9.8539337510936205e-05 0.0011521291450717528 0 0.00076567728793092973 0.00033337143314408148 0 0.0010103281741051984 0.00080860389795919796 0 9.8539337510936205e-05 0.0011521291450717528 0 0.0032925119993658727 0.0019876370527756788 0 0.0037275750129709025 0.002022732884743003 0 0.0035200474993366858 0.0018647013281070041 0 0.0024800280100323959 0.0018080855589063577 0 0.0020879621440388226 0.0020513550030924733 0 0.0032925119993658727 0.0019876370527756788 0 0.0030451957716787605 0.0020742666335064391 0 0.0037275750129709025 0.002022732884743003 0 0.0016235286659888261 0.0016793870234182511 0 0.0010157350241188246 0.0017741027558953227 0 0.0010489328746353863 0.0014666385838599141 0 0.0032925119993658727 0.0019876370527756788 0 0.0031378208200903814 0.002015945117386769 0 0.0032591898182234387 0.0019140234858552108 0 0.0031378208200903814 0.002015945117386769 0 0.0029910714184347934 0.0019645406886611315 0 0.0032591898182234387 0.0019140234858552108 0 0.0032925119993658727 0.0019876370527756788 0 0.0031270424928147075 0.0020405253845765339 0 0.0030451957716787605 0.0020742666335064391 0 0.0032925119993658727 0.0019876370527756788 0 0.0031270424928147075 0.0020405253845765339 0 0.0031378208200903814 0.002015945117386769 0 0.0031270424928147075 0.0020405253845765339 0 0.0031378208200903814 0.002015945117386769 0 0.003133134470852169 0.0020697119230573451 0 0.0034640589262771144 0.0022044152607655315 0 0.0051760531588880268 0.002787465817758909 0 0.0031378208200903814 0.002015945117386769 0 0.0031437505152205579 0.0021499428236027404 0 0.003133134470852169 0.0020697119230573451 0 0.0031437505152205579 0.0021499428236027404 0 0.003133134470852169 0.0020697119230573451 0 0.0032746315301614664 0.0020375098085929832 0 0.003133134470852169 0.0020697119230573451 0 0.0030451957716787605 0.0020742666335064391 0 0.0032746315301614664 0.0020375098085929832 0 0.0031270424928147075 0.0020405253845765339 0 0.003133134470852169 0.0020697119230573451 0 0.0030451957716787605 0.0020742666335064391 0 0.0010157350241188246 0.0017741027558953227 0 0.00072178866395438139 0.0015348789065102527 0 0.0006736311058831273 0.0018829586627003825 0 0.0010157350241188246 0.0017741027558953227 0 0.0010489328746353863 0.0014666385838599141 0 0.00072178866395438139 0.0015348789065102527 0 9.8539337510936205e-05 0.0011521291450717528 0 -0.0010873196805518315 0.0010562465270557045 0 -0.0007345020079288988 0.00040012224724487165 0 9.8539337510936205e-05 0.0011521291450717528 0 -0.0007345020079288988 0.00040012224724487165 0 -3.3809461944143772e-05 7.8029627436349683e-05 0 0.000616108242175581 0.0013036936710988569 0 -0.00016805225695069404 0.0012923385272109863 0 -0.0010873196805518315 0.0010562465270557045 0 -0.0007345020079288988 0.00040012224724487165 0 -0.0016752987494740477 0.00013653642476047647 0 -0.0007345020079288988 0.00040012224724487165 0 -0.00084453869697270593 -0.00038557808738487492 0 -0.0016752987494740477 0.00013653642476047647 0 -0.0007345020079288988 0.00040012224724487165 0 -0.00084453869697270593 -0.00038557808738487492 0 -3.3809461944143772e-05 7.8029627436349683e-05 0 -0.00084453869697270593 -0.00038557808738487492 0 -3.3809461944143772e-05 7.8029627436349683e-05 0 -0.00013390658825499605 -0.00079468563306800757 0 0.00062346140456297097 -0.00041148584644603263 0 -3.3809461944143772e-05 7.8029627436349683e-05 0 -0.00013390658825499605 -0.00079468563306800757 0 -0.00084453869697270593 -0.00038557808738487492 0 -0.00013390658825499605 -0.00079468563306800757 0 -0.00077247681409761053 -0.0011427630236145903 0 -0.0001970670248494891 -0.0015883919962235782 0 -0.00013390658825499605 -0.00079468563306800757 0 -0.00077247681409761053 -0.0011427630236145903 0 -0.0001970670248494891 -0.0015883919962235782 0 0.00054805474108894549 -0.0012732585424945627 0 -0.00013390658825499605 -0.00079468563306800757 0 -0.00084453869697270593 -0.00038557808738487492 0 -0.00077247681409761053 -0.0011427630236145903 0 -0.0016871597123568143 -0.00095232783749126383 0 -0.0016871597123568143 -0.00095232783749126383 0 -0.0024619826812403429 -0.00050223864121506532 0 -0.0016752987494740477 0.00013653642476047647 0 -0.0016871597123568143 -0.00095232783749126383 0 -0.0024619826812403429 -0.00050223864121506532 0 -0.0023972868938580902 -0.0010988941307813443 0 -0.0024619826812403429 -0.00050223864121506532 0 -0.003095071193218469 -0.00097730624827819211 0 -0.0023972868938580902 -0.0010988941307813443 0 -0.0024619826812403429 -0.00050223864121506532 0 -0.0026821830189158878 0.00022826479948460018 0 -0.0016752987494740477 0.00013653642476047647 0 -0.00084453869697270593 -0.00038557808738487492 0 -0.0016871597123568143 -0.00095232783749126383 0 -0.0016752987494740477 0.00013653642476047647 0 -0.00016805225695069404 0.0012923385272109863 0 -0.00088088165049048062 0.0013496155828571362 0 -0.0010873196805518315 0.0010562465270557045 0 -0.0016752987494740477 0.00013653642476047647 0 -0.0021170191575274116 0.0010349863513014386 0 -0.0026821830189158878 0.00022826479948460018 0 -0.0016752987494740477 0.00013653642476047647 0 -0.0021170191575274116 0.0010349863513014386 0 -0.0026821830189158878 0.00022826479948460018 0 -0.0021170191575274116 0.0010349863513014386 0 -0.0030793503689820821 0.0010711951676784161 0 0.0034115149928706265 -0.00015208479646422726 0 0.0038827029611843878 4.3084418791384963e-05 0 0.0035780265184831286 0.00010337521659573841 0 0.00041936059270901454 0.0015563768824832487 0 0.00015155081125306459 0.001655638994098835 0 0.00041577086485802784 0.0017691281789945521 0 0.001731365358444447 0.00048546989026978111 0 0.0019606499422874218 0.00086837371755241557 0 -0.00088088165049048062 0.0013496155828571362 0 -0.0013422473445720404 0.0007593427587801304 0 0.00072178866395438139 0.0015348789065102527 0 0.00041936059270901454 0.0015563768824832487 0 0.00041577086485802784 0.0017691281789945521 0 0.00072178866395438139 0.0015348789065102527 0 0.00041577086485802784 0.0017691281789945521 0 0.0006736311058831273 0.0018829586627003825 0 0.0001772675554429122 0.00030246401604254138 0 -0.0014425609720577002 -0.00020303602756371731 0 0.0010021094170782725 0.00037756337629062559 0 0.00022295405387016425 0.00044552537662311215 0 -0.00051211197164054752 -0.00025708317080465429 0 -0.0032205307773346243 0.00097563115935779261 0 -0.0028413121665450572 0.00093822497959238527 0 -0.0034662544982202413 0.00054857461199970257 0 0.0037442360303197716 -0.00015370562879603127 0 0.0041964712055701644 -0.00019893335145614998 0 0.003733411856730436 -0.00067562993070328979 0 0.0001772675554429122 0.00030246401604254138 0 0.0024080474833991015 -2.5636859584545727e-05 0 0.0042860588983721949 -0.00014378746284822089 0 0.0044449013937654545 -0.00069106483172146256 0 0.0047397540328045565 -0.00018691809926556783 0 0.0024080474833991015 -2.5636859584545727e-05 0 -0.0014425609720577002 -0.00020303602756371731 0 0.0016700939352290202 -4.8850586001068804e-05 0 0.0010128038899169141 -0.00066896093312051816 0 0.0012499008831132875 -8.8363651699789207e-05 0 0.0016700939352290202 -4.8850586001068804e-05 0 0.0010687487660422793 4.1494820184756713e-06 0 0.0012499008831132875 -8.8363651699789207e-05 0 0.0024080474833991015 -2.5636859584545727e-05 0 0.0026888813259523803 -0.00023555724822639509 0 0.0042860588983721949 -0.00014378746284822089 0 0.0044449013937654545 -0.00069106483172146256 0 0.003733411856730436 -0.00067562993070328979 0 0.0024080474833991015 -2.5636859584545727e-05 0 0.0037784233933491292 -0.00015962687474616502 0 0.0037442360303197716 -0.00015370562879603127 0 0.003733411856730436 -0.00067562993070328979 0 0.0030404772240854873 -0.00043066318652083661 0 0.003733411856730436 -0.00067562993070328979 0 0.0030404772240854873 -0.00043066318652083661 0 0.0033858176675137614 -0.0010685341138047246 0 0.00041936059270901454 0.0015563768824832487 0 0.00015155081125306459 0.001655638994098835 0 9.8271249999861207e-05 0.0015716647249192567 0 0.001731365358444447 0.00048546989026978111 0 0.0044456765705817355 -0.00064582304763031789 0 0.001731365358444447 0.00048546989026978111 0 -0.0013422473445720404 0.0007593427587801304 0 -0.00014448196653965795 0.00016853699996161129 0 0.00061562109162900018 0.00048608422940863181 0 0.00039340252010485263 0.00012151241780359157 0 0.0001772675554429122 0.00030246401604254138 0 -0.0013422473445720404 0.0007593427587801304 0 0.0001772675554429122 0.00030246401604254138 0 0.001731365358444447 0.00048546989026978111 0 -0.0013422473445720404 0.0007593427587801304 0 -0.0036945111662897235 8.2623031080870474e-05 0 -0.0026821830189158878 0.00022826479948460018 0 -0.0030793503689820821 0.0010711951676784161 0 -0.0035756908994390743 0.00017520374430583371 0 -0.0028413121665450572 0.00093822497959238527 0 -0.0034662544982202413 0.00054857461199970257 0 -0.0034147646135265709 8.1407986044777677e-05 0 -0.0032205307773346243 0.00097563115935779261 0 -0.0034662544982202413 0.00054857461199970257 0 -0.0039194102209382997 0.00067961026106905145 0 -0.0034662544982202413 0.00054857461199970257 0 -0.0034147646135265709 8.1407986044777677e-05 0 -0.0040198215741597343 4.6673782950300224e-06 0 -0.0034147646135265709 8.1407986044777677e-05 0 -0.0039940849893565118 -0.00067898955240722084 0 -0.0040198215741597343 4.6673782950300224e-06 0 -0.0035756908994390743 0.00017520374430583371 0 -0.0031391149953241835 -0.0003174741497677931 0 -0.0039940849893565118 -0.00067898955240722084 0 -0.0036945111662897235 8.2623031080870474e-05 0 -0.0039014663924314586 -0.00058334195149680054 0 -0.0024619826812403429 -0.00050223864121506532 0 -0.0026821830189158878 0.00022826479948460018 0 -0.0031391149953241835 -0.0003174741497677931 0 -0.0026821830189158878 0.00022826479948460018 0 -0.0035756908994390743 0.00017520374430583371 0 -0.0031391149953241835 -0.0003174741497677931 0 -0.0024619826812403429 -0.00050223864121506532 0 -0.0031391149953241835 -0.0003174741497677931 0 -0.003095071193218469 -0.00097730624827819211 0 -0.003095071193218469 -0.00097730624827819211 0 -0.0037655606138366437 -0.0013073018998774595 0 -0.0039940849893565118 -0.00067898955240722084 0 -0.0031391149953241835 -0.0003174741497677931 0 -0.003095071193218469 -0.00097730624827819211 0 -0.0039940849893565118 -0.00067898955240722084 0 -0.0037655606138366437 -0.0013073018998774595 0 -0.0032867910929581432 -0.0019131376267163794 0 -0.0032351973655870172 -0.0014355526955526872 0 -0.003095071193218469 -0.00097730624827819211 0 -0.0037655606138366437 -0.0013073018998774595 0 -0.0032351973655870172 -0.0014355526955526872 0 -0.0032867910929581432 -0.0019131376267163794 0 -0.0036438706262772766 -0.0023886775938906576 0 -0.0039321429164010952 -0.0019465501387203484 0 -0.0037655606138366437 -0.0013073018998774595 0 -0.0032867910929581432 -0.0019131376267163794 0 -0.0039321429164010952 -0.0019465501387203484 0 -0.0032867910929581432 -0.0019131376267163794 0 -0.0027823195887305531 -0.001541650739299673 0 -0.0032351973655870172 -0.0014355526955526872 0 -0.0032867910929581432 -0.0019131376267163794 0 -0.0027823195887305531 -0.001541650739299673 0 -0.0027075107189275249 -0.0021064017204288858 0 -0.003095071193218469 -0.00097730624827819211 0 -0.0027823195887305531 -0.001541650739299673 0 -0.0023972868938580902 -0.0010988941307813443 0 -0.003095071193218469 -0.00097730624827819211 0 -0.0027823195887305531 -0.001541650739299673 0 -0.0032351973655870172 -0.0014355526955526872 0 -0.0027823195887305531 -0.001541650739299673 0 -0.0023972868938580902 -0.0010988941307813443 0 -0.0020097206658294705 -0.0017314337814672762 0 -0.0016941624048378359 -0.0010023034496961982 0 -0.0019152729903357704 -0.0018957474489295614 0 -0.00097499174442804474 -0.0019435573729717833 0 -0.0016871597123568143 -0.00095232783749126383 0 -0.0018144795215909292 -0.0021102964905388303 0 -0.0016871597123568143 -0.00095232783749126383 0 -0.0023972868938580902 -0.0010988941307813443 0 -0.0020097206658294705 -0.0017314337814672762 0 -0.0018144795215909292 -0.0021102964905388303 0 -0.0018955258359622752 -0.0029414254965996482 0 -0.0013405674820445306 -0.0026212734697673343 0 -0.0019152729903357704 -0.0018957474489295614 0 -0.0019496851997849894 -0.0027421391692158859 0 -0.00097499174442804474 -0.0019435573729717833 0 -0.0018144795215909292 -0.0021102964905388303 0 -0.0013405674820445306 -0.0026212734697673343 0 -0.0020097206658294705 -0.0017314337814672762 0 -0.0027075107189275249 -0.0021064017204288858 0 -0.0022559138012125308 -0.0025566396501919973 0 -0.0027823195887305531 -0.001541650739299673 0 -0.0020097206658294705 -0.0017314337814672762 0 -0.0027075107189275249 -0.0021064017204288858 0 -0.0027075107189275249 -0.0021064017204288858 0 -0.0022559138012125308 -0.0025566396501919973 0 -0.0029643909618339423 -0.0025875014439063187 0 -0.0018955258359622752 -0.0029414254965996482 0 -0.0013405674820445306 -0.0026212734697673343 0 -0.0012663352085458567 -0.003193298675601767 0 -0.0018955258359622752 -0.0029414254965996482 0 -0.0012663352085458567 -0.003193298675601767 0 -0.0016237063520495951 -0.0034556520049545485 0 -0.001328346168469592 -0.0038507290741598352 0 -0.0012663352085458567 -0.003193298675601767 0 -0.0016237063520495951 -0.0034556520049545485 0 -0.0020579119039563594 -0.003680193810365039 0 -0.0018955258359622752 -0.0029414254965996482 0 -0.0016237063520495951 -0.0034556520049545485 0 -0.0035886579056640076 -0.0033945482412656319 0 -0.0019496851997849894 -0.0027421391692158859 0 -0.0024841180500045604 -0.0034215184577406905 0 -0.0022559138012125308 -0.0025566396501919973 0 -0.0029643909618339423 -0.0025875014439063187 0 -0.0024841180500045604 -0.0034215184577406905 0 -0.0034366967027623214 -0.0031503942552275192 0 -0.0029643909618339423 -0.0025875014439063187 0 -0.0035886579056640076 -0.0033945482412656319 0 -0.0040521694505190236 -0.0029314358065359787 0 -0.0034366967027623214 -0.0031503942552275192 0 -0.0036438706262772766 -0.0023886775938906576 0 -0.0040876759061566331 -0.0025988122517883066 0 -0.0040521694505190236 -0.0029314358065359787 0 -0.0044432587137898686 -0.0028164211558698448 0 -0.0034366967027623214 -0.0031503942552275192 0 -0.0036438706262772766 -0.0023886775938906576 0 -0.0029643909618339423 -0.0025875014439063187 0 -0.0036438706262772766 -0.0023886775938906576 0 -0.0041190545119050518 -0.0022682399545904137 0 -0.0040876759061566331 -0.0025988122517883066 0 -0.0036438706262772766 -0.0023886775938906576 0 -0.0041190545119050518 -0.0022682399545904137 0 -0.0039321429164010952 -0.0019465501387203484 0 -0.0032867910929581432 -0.0019131376267163794 0 -0.0027075107189275249 -0.0021064017204288858 0 -0.0029643909618339423 -0.0025875014439063187 0 -0.0032867910929581432 -0.0019131376267163794 0 -0.0036438706262772766 -0.0023886775938906576 0 -0.0029643909618339423 -0.0025875014439063187 0 -0.0045335272422279546 -0.0026690489625793008 0 -0.0043975714588708305 -0.0026661166213877941 0 -0.0046284945768476412 -0.0026229151028214046 0 -0.0046793449250760889 -0.0023635689196007544 0 -0.0043975714588708305 -0.0026661166213877941 0 -0.0049531798036044098 -0.0023242631530992425 0 -0.0043875343532046376 -0.0026432246016856323 0 -0.0048586306709511107 -0.0025482907644007349 0 -0.0046793449250760889 -0.0023635689196007544 0 -0.0043776951059084157 -0.0023911855700708049 0 -0.0048952182850548025 -0.0021762259739170715 0 -0.0043967552348451126 -0.0023692647199327491 0 -0.0050042819455504029 -0.0021398194917947979 0 -0.0043776951059084157 -0.0023911855700708049 0 -0.0045862212422003723 -0.0019989936517981802 0 -0.005004962214093669 -0.0020391078199197888 0 -0.0045335272422279546 -0.0026690489625793008 0 -0.0043975714588708305 -0.0026661166213877941 0 -0.0044811362654282542 -0.0026939452567141852 0 -0.0045335272422279546 -0.0026690489625793008 0 -0.004569223559003196 -0.0026840559537771097 0 -0.0045941603448508006 -0.002655714815202141 0 -0.0045335272422279546 -0.0026690489625793008 0 -0.0045941603448508006 -0.002655714815202141 0 -0.0046284945768476412 -0.0026229151028214046 0 -0.004569223559003196 -0.0026840559537771097 0 -0.0045978035753889849 -0.0026737639892658307 0 -0.0045941603448508006 -0.002655714815202141 0 -0.0046793449250760889 -0.0023635689196007544 0 -0.0049531798036044098 -0.0023242631530992425 0 -0.0048952182850548025 -0.0021762259739170715 0 -0.0043776951059084157 -0.0023911855700708049 0 -0.0041190545119050518 -0.0022682399545904137 0 -0.0043017273137629271 -0.0020077962683719497 0 -0.0043776951059084157 -0.0023911855700708049 0 -0.0045862212422003723 -0.0019989936517981802 0 -0.0043017273137629271 -0.0020077962683719497 0 -0.0043776951059084157 -0.0023911855700708049 0 -0.0041190545119050518 -0.0022682399545904137 0 -0.0040876759061566331 -0.0025988122517883066 0 -0.0046793449250760889 -0.0023635689196007544 0 -0.0043776951059084157 -0.0023911855700708049 0 -0.0043975714588708305 -0.0026661166213877941 0 -0.0043776951059084157 -0.0023911855700708049 0 -0.0040876759061566331 -0.0025988122517883066 0 -0.0043975714588708305 -0.0026661166213877941 0 -0.0044688798379906303 -0.0027872498590845226 0 -0.0045213466205328411 -0.0027620282707892228 0 -0.0044935208476794119 -0.0027513544853871659 0 -0.0044665103933656889 -0.0027307518055588514 0 -0.0043975714588708305 -0.0026661166213877941 0 -0.0044688798379906303 -0.0027872498590845226 0 -0.0034366967027623214 -0.0031503942552275192 0 -0.0040876759061566331 -0.0025988122517883066 0 -0.0044688798379906303 -0.0027872498590845226 0 -0.0044665103933656889 -0.0027307518055588514 0 -0.0043975714588708305 -0.0026661166213877941 0 -0.0044811362654282542 -0.0026939452567141852 0 -0.0046510724665574871 -0.0028012088967534379 0 -0.0044688798379906303 -0.0027872498590845226 0 -0.0045668233219894796 -0.0027708175149120519 0 -0.0040876759061566331 -0.0025988122517883066 0 -0.0043975714588708305 -0.0026661166213877941 0 -0.0044688798379906303 -0.0027872498590845226 0 -0.0044665103933656889 -0.0027307518055588514 0 -0.0044688798379906303 -0.0027872498590845226 0 -0.0044935208476794119 -0.0027513544853871659 0 -0.0044688798379906303 -0.0027872498590845226 0 -0.0045668233219894796 -0.0027708175149120519 0 -0.0045213466205328411 -0.0027620282707892228 0 -0.0045215245228806909 -0.0027469268153330266 0 -0.0045391574926089365 -0.0027190367662228245 0 -0.0045585645023599802 -0.0027394250452365816 0 -0.0045213466205328411 -0.0027620282707892228 0 -0.0045215245228806909 -0.0027469268153330266 0 -0.0045585645023599802 -0.0027394250452365816 0 -0.0045213466205328411 -0.0027620282707892228 0 -0.0045215245228806909 -0.0027469268153330266 0 -0.0044935208476794119 -0.0027513544853871659 0 -0.0045215245228806909 -0.0027469268153330266 0 -0.0044935208476794119 -0.0027513544853871659 0 -0.0045391574926089365 -0.0027190367662228245 0 -0.0045335272422279546 -0.0026690489625793008 0 -0.0045391574926089365 -0.0027190367662228245 0 -0.0044811362654282542 -0.0026939452567141852 0 -0.0044665103933656889 -0.0027307518055588514 0 -0.0044935208476794119 -0.0027513544853871659 0 -0.0044811362654282542 -0.0026939452567141852 0 -0.0044935208476794119 -0.0027513544853871659 0 -0.0045391574926089365 -0.0027190367662228245 0 -0.0044811362654282542 -0.0026939452567141852 0 -0.0045391574926089365 -0.0027190367662228245 0 -0.004569223559003196 -0.0026840559537771097 0 -0.004584075385471926 -0.0027042632912310256 0 -0.004569223559003196 -0.0026840559537771097 0 -0.004584075385471926 -0.0027042632912310256 0 -0.0045978035753889849 -0.0026737639892658307 0 -0.0045335272422279546 -0.0026690489625793008 0 -0.0045391574926089365 -0.0027190367662228245 0 -0.004569223559003196 -0.0026840559537771097 0 -0.0045391574926089365 -0.0027190367662228245 0 -0.004584075385471926 -0.0027042632912310256 0 -0.0045585645023599802 -0.0027394250452365816 0 -0.004584075385471926 -0.0027042632912310256 0 -0.0045585645023599802 -0.0027394250452365816 0 -0.0045997802849391698 -0.0027218720685618972 0 -0.004620375302971335 -0.0026892517624071189 0 -0.0046617443691887705 -0.0026753892388836687 0 -0.0046187693879128494 -0.0026349034876728978 0 -0.004584075385471926 -0.0027042632912310256 0 -0.0045997802849391698 -0.0027218720685618972 0 -0.004620375302971335 -0.0026892517624071189 0 -0.0046354331072793551 -0.0027129082545811886 0 -0.0045997802849391698 -0.0027218720685618972 0 -0.004620375302971335 -0.0026892517624071189 0 -0.0046354331072793551 -0.0027129082545811886 0 -0.004620375302971335 -0.0026892517624071189 0 -0.0046617443691887705 -0.0026753892388836687 0 -0.004584075385471926 -0.0027042632912310256 0 -0.004620375302971335 -0.0026892517624071189 0 -0.0045978035753889849 -0.0026737639892658307 0 -0.004620375302971335 -0.0026892517624071189 0 -0.0045978035753889849 -0.0026737639892658307 0 -0.0046187693879128494 -0.0026349034876728978 0 -0.0046651206014452287 -0.0027058826831620397 0 -0.0046617443691887705 -0.0026753892388836687 0 -0.00468876207425934 -0.0026836657406295395 0 -0.0046651206014452287 -0.0027058826831620397 0 -0.0046354331072793551 -0.0027129082545811886 0 -0.0046617443691887705 -0.0026753892388836687 0 -0.0045815737483838968 -0.0026220610794529943 0 -0.0046284945768476412 -0.0026229151028214046 0 -0.0045495115145086137 -0.0026561007763695335 0 -0.0045605372849189633 -0.002566195217989111 0 -0.0045815737483838968 -0.0026220610794529943 0 -0.0046187693879128494 -0.0026349034876728978 0 -0.0045605372849189633 -0.002566195217989111 0 -0.0045284293300504761 -0.0025973423267238991 0 -0.0045815737483838968 -0.0026220610794529943 0 -0.0045284293300504761 -0.0025973423267238991 0 -0.0045815737483838968 -0.0026220610794529943 0 -0.0045495115145086137 -0.0026561007763695335 0 -0.0046863268754045936 -0.0026685111933640454 0 -0.0045843648275393977 -0.0026181623949594062 0 -0.0048586306709511107 -0.0025482907644007349 0 -0.0044279966166235734 -0.0017077880973583779 0 -0.0046187693879128494 -0.0026349034876728978 0 -0.0045941603448508006 -0.002655714815202141 0 -0.0046284945768476412 -0.0026229151028214046 0 -0.0045978035753889849 -0.0026737639892658307 0 -0.0046187693879128494 -0.0026349034876728978 0 -0.0045941603448508006 -0.002655714815202141 0 -0.0045815737483838968 -0.0026220610794529943 0 -0.0046187693879128494 -0.0026349034876728978 0 -0.0046284945768476412 -0.0026229151028214046 0 -0.0049531798036044098 -0.0023242631530992425 0 -0.0051162975063950549 -0.0021576721169671315 0 -0.0048952182850548025 -0.0021762259739170715 0 -0.0049531798036044098 -0.0023242631530992425 0 -0.0051162975063950549 -0.0021576721169671315 0 -0.0053635619678837022 -0.0021152015920795123 0 -0.0049652571764455533 -0.0013304494213520466 0 -0.0050042819455504029 -0.0021398194917947979 0 -0.0052428757415910274 -0.0017034087459084273 0 -0.0056977618400799179 -0.0017183550143315685 0 -0.005004962214093669 -0.0020391078199197888 0 -0.0051162975063950549 -0.0021576721169671315 0 -0.0052486554824025802 -0.0020143842437611928 0 -0.0048952182850548025 -0.0021762259739170715 0 -0.0052428757415910274 -0.0017034087459084273 0 -0.0049963312472720064 -0.0017371505042021046 0 -0.005004962214093669 -0.0020391078199197888 0 -0.0052428757415910274 -0.0017034087459084273 0 -0.0056977618400799179 -0.0017183550143315685 0 -0.0052935073295724095 -0.0013382322424177625 0 -0.0052428757415910274 -0.0017034087459084273 0 -0.0050594750459381863 -0.0015415586148260316 0 -0.0049963312472720064 -0.0017371505042021046 0 -0.0051162975063950549 -0.0021576721169671315 0 -0.0053635619678837022 -0.0021152015920795123 0 -0.0052486554824025802 -0.0020143842437611928 0 -0.0044279966166235734 -0.0017077880973583779 0 -0.0049652571764455533 -0.0013304494213520466 0 -0.0037207850161725992 -0.00065928291481637876 0 -0.0039401492086347809 -0.00085670380324535207 0 -0.003645716860334023 -0.00098601159745273807 0 -0.0049652571764455533 -0.0013304494213520466 0 -0.0025594176648906786 -0.00098529697023393256 0 -0.0048715327096747578 -0.00090299019373073404 0 -0.0048572536132672414 -0.00090388226309174235 0 -0.0048816938576079216 -0.00090428311919996563 0 -0.00053413411426929142 -0.001252679901031839 0 -0.00036873049533865513 -0.0010544131506459852 0 -0.00060560432048273609 -0.00097128794647515393 0 -0.0025594176648906786 -0.00098529697023393256 0 -0.0026427699384260323 -0.0010176307257894735 0 -0.0048715327096747578 -0.00090299019373073404 0 -0.0048816938576079216 -0.00090428311919996563 0 -0.0048774889043500837 -0.0009079842212335673 0 -0.0052428757415910274 -0.0017034087459084273 0 -0.0050594750459381863 -0.0015415586148260316 0 -0.0052935073295724095 -0.0013382322424177625 0 -0.0050594750459381863 -0.0015415586148260316 0 -0.0052935073295724095 -0.0013382322424177625 0 -0.0049234939783558565 -0.0013391646871816969 0 -0.0049652571764455533 -0.0013304494213520466 0 -0.0050944686378433628 -0.0011480086669135965 0 -0.0048816938576079216 -0.00090428311919996563 0 -0.0048774889043500837 -0.0009079842212335673 0 -0.0048707820427315125 -0.00088922633767470776 0 -0.0050944686378433628 -0.0011480086669135965 0 -0.0048555494204919735 -0.00093718400286113882 0 -0.0048774889043500837 -0.0009079842212335673 0 -0.0048265030671109568 -0.00092275101590418354 0 -0.0048707820427315125 -0.00088922633767470776 0 -0.0052935073295724095 -0.0013382322424177625 0 -0.0049234939783558565 -0.0013391646871816969 0 -0.0048265030671109568 -0.00092275101590418354 0 -0.0045982401173027066 -0.001318708243186103 0 -0.0049234939783558565 -0.0013391646871816969 0 -0.0048265030671109568 -0.00092275101590418354 0 -0.0045982401173027066 -0.001318708243186103 0 -0.0042423769713959376 -0.001209650490509623 0 -0.0045085291872188323 -0.00093119419979770571 0 -0.0045982401173027066 -0.001318708243186103 0 -0.0048265030671109568 -0.00092275101590418354 0 -0.0045085291872188323 -0.00093119419979770571 0 -0.0045982401173027066 -0.001318708243186103 0 -0.0048446404523320918 -0.0015800733470889355 0 -0.0045651876116793314 -0.0017216038828067263 0 -0.0045982401173027066 -0.001318708243186103 0 -0.0045651876116793314 -0.0017216038828067263 0 -0.0042421701214734268 -0.001588030840117357 0 -0.0045982401173027066 -0.001318708243186103 0 -0.0049234939783558565 -0.0013391646871816969 0 -0.0048446404523320918 -0.0015800733470889355 0 -0.0050594750459381863 -0.0015415586148260316 0 -0.0049234939783558565 -0.0013391646871816969 0 -0.0048446404523320918 -0.0015800733470889355 0 -0.0050594750459381863 -0.0015415586148260316 0 -0.0049963312472720064 -0.0017371505042021046 0 -0.0048446404523320918 -0.0015800733470889355 0 -0.0048446404523320918 -0.0015800733470889355 0 -0.0045651876116793314 -0.0017216038828067263 0 -0.0048147880820319433 -0.0018295245676885038 0 -0.0049963312472720064 -0.0017371505042021046 0 -0.0048446404523320918 -0.0015800733470889355 0 -0.0048147880820319433 -0.0018295245676885038 0 -0.0045651876116793314 -0.0017216038828067263 0 -0.0045862212422003723 -0.0019989936517981802 0 -0.0048147880820319433 -0.0018295245676885038 0 -0.0045651876116793314 -0.0017216038828067263 0 -0.0045862212422003723 -0.0019989936517981802 0 -0.0043017273137629271 -0.0020077962683719497 0 -0.0045862212422003723 -0.0019989936517981802 0 -0.005004962214093669 -0.0020391078199197888 0 -0.0048147880820319433 -0.0018295245676885038 0 -0.0049963312472720064 -0.0017371505042021046 0 -0.005004962214093669 -0.0020391078199197888 0 -0.0048147880820319433 -0.0018295245676885038 0 -0.0037655606138366437 -0.0013073018998774595 0 -0.0039321429164010952 -0.0019465501387203484 0 -0.0042421701214734268 -0.001588030840117357 0 -0.0039321429164010952 -0.0019465501387203484 0 -0.0043017273137629271 -0.0020077962683719497 0 -0.0042421701214734268 -0.001588030840117357 0 -0.0041190545119050518 -0.0022682399545904137 0 -0.0039321429164010952 -0.0019465501387203484 0 -0.0043017273137629271 -0.0020077962683719497 0 -0.0045651876116793314 -0.0017216038828067263 0 -0.0043017273137629271 -0.0020077962683719497 0 -0.0042421701214734268 -0.001588030840117357 0 -0.0037655606138366437 -0.0013073018998774595 0 -0.0042421701214734268 -0.001588030840117357 0 -0.0042423769713959376 -0.001209650490509623 0 -0.0037655606138366437 -0.0013073018998774595 0 -0.0042423769713959376 -0.001209650490509623 0 -0.0039940849893565118 -0.00067898955240722084 0 -0.0045982401173027066 -0.001318708243186103 0 -0.0042421701214734268 -0.001588030840117357 0 -0.0042423769713959376 -0.001209650490509623 0 -0.0042423769713959376 -0.001209650490509623 0 -0.0039940849893565118 -0.00067898955240722084 0 -0.0045085291872188323 -0.00093119419979770571 0 -0.0039940849893565118 -0.00067898955240722084 0 -0.0045085291872188323 -0.00093119419979770571 0 -0.0044347462461894523 -0.00049984793206279607 0 -0.0047993512118411586 -0.0007998906023571837 0 -0.0047598423958304199 -0.00067413279737292651 0 -0.0048858835278852344 -0.00082515263192324453 0 -0.0047993512118411586 -0.0007998906023571837 0 -0.0044347462461894523 -0.00049984793206279607 0 -0.0047091870783524887 -9.0876275061418021e-05 0 -0.0048265030671109568 -0.00092275101590418354 0 -0.0047993512118411586 -0.0007998906023571837 0 -0.0045085291872188323 -0.00093119419979770571 0 -0.0048265030671109568 -0.00092275101590418354 0 -0.0047993512118411586 -0.0007998906023571837 0 -0.0048707820427315125 -0.00088922633767470776 0 -0.0047993512118411586 -0.0007998906023571837 0 -0.0045085291872188323 -0.00093119419979770571 0 -0.0044347462461894523 -0.00049984793206279607 0 -5.7995675596210882e-05 -0.00065011282373864099 0 5.3240507261537982e-05 -0.00049378493843197713 0 -0.0001602332926296371 -0.00053407937727534044 0 -0.0048456198420128637 -0.00074680172565437855 0 -0.003507441746709257 -0.0005970528286677124 0 -0.003507441746709257 -0.0005970528286677124 0 -0.0010594102927192874 -0.00058910801941895936 0 -0.0019866858370749677 -0.00074099529540647743 0 -0.0018770316243018879 -0.00067798995783190335 0 -0.0018559168709672282 -0.00056901046321933648 0 -0.00097350960882813982 -0.00058402598027648602 0 -0.0010594102927192874 -0.00058910801941895936 0 -0.0044347462461894523 -0.00049984793206279607 0 -0.0047091870783524887 -9.0876275061418021e-05 0 -0.0040198215741597343 4.6673782950300224e-06 0 -0.0039940849893565118 -0.00067898955240722084 0 -0.0044347462461894523 -0.00049984793206279607 0 -0.0040198215741597343 4.6673782950300224e-06 0 -0.0022228867441575926 -0.00077478899297441536 0 -0.0014060351317965107 -3.4219918013759389e-06 0 -0.002002140331825625 -0.00024919570297345187 0 -0.0047091870783524887 -9.0876275061418021e-05 0 -0.0040198215741597343 4.6673782950300224e-06 0 -0.0039194102209382997 0.00067961026106905145 0 -0.0034662544982202413 0.00054857461199970257 0 -0.0040198215741597343 4.6673782950300224e-06 0 -0.0039194102209382997 0.00067961026106905145 0 -0.003507441746709257 -0.0005970528286677124 0 -0.0014425609720577002 -0.00020303602756371731 0 0.0010128038899169141 -0.00066896093312051816 0 -0.00018639263805455048 -0.0011614247009760202 0 0.00073905496834445025 3.4058174627368133e-05 0 0.00089639767507917599 -0.0008467854125525187 0 0.0009042182341769203 -0.00026311762869776669 0 0.0014413434763660168 -0.00014633845541613534 0 -0.0014425609720577002 -0.00020303602756371731 0 -0.00038612915292195903 -0.00062630182580860456 0 -0.00038612915292195903 -0.00062630182580860456 0 0.0017267634926926715 -0.00025585366959295428 0 -0.00019614394792595563 -0.00057184059143953537 0 -1.7225422558108684e-05 -0.00047891764980620438 0 0.00017273064515098305 -0.00042126077521219252 0 -9.1417931704263666e-06 -0.0003712442768828861 0 -0.0001602332926296371 -0.00053407937727534044 0 -0.0022228867441575926 -0.00077478899297441536 0 -0.0021607968808229159 -0.00045197421575395637 0 -0.002002140331825625 -0.00024919570297345187 0 5.3240507261537982e-05 -0.00049378493843197713 0 6.0906761045568005e-05 -0.00045126284512667135 0 -0.0001602332926296371 -0.00053407937727534044 0 -0.0010594102927192874 -0.00058910801941895936 0 -0.00019614394792595563 -0.00057184059143953537 0 -0.00072216878946449749 -0.00061888036609713789 0 -0.00069097906390749853 -0.00045005332598600382 0 -0.00054387652863032354 -0.00038925600363542257 0 -0.0010594102927192874 -0.00058910801941895936 0 -0.00038612915292195903 -0.00062630182580860456 0 -0.00019614394792595563 -0.00057184059143953537 0 -0.00038612915292195903 -0.00062630182580860456 0 0.00017273064515098305 -0.00042126077521219252 0 0.00012085816731907109 -0.0002739136889567059 0 -9.1417931704263666e-06 -0.0003712442768828861 0 0.00012085816731907109 -0.0002739136889567059 0 -2.5943747492277377e-05 -0.00025496602543745523 0 -9.1417931704263666e-06 -0.0003712442768828861 0 0.00074223659895123145 -0.00090975781940926556 0 0.0009042182341769203 -0.00026311762869776669 0 0.00088285199558979358 -0.00018529937991008981 0 0.00074223659895123145 -0.00090975781940926556 0 0.00089639767507917599 -0.0008467854125525187 0 0.0009042182341769203 -0.00026311762869776669 0 0.00017273064515098305 -0.00042126077521219252 0 0.00012085816731907109 -0.0002739136889567059 0 0.00022491122265307198 -0.00016680971381539898 0 -0.00019614394792595563 -0.00057184059143953537 0 0.0016775499164267452 -0.00034969675479088087 0 0.00012085816731907109 -0.0002739136889567059 0 0.00023131722307575983 -0.00013585719697413055 0 0.00022491122265307198 -0.00016680971381539898 0 0.0016488595631201975 -0.00032239565198095984 0 0.0016775499164267452 -0.00034969675479088087 0 0.0009042182341769203 -0.00026311762869776669 0 0.00089953490675915356 -9.6937182224435598e-05 0 0.00088282300566184906 -0.00018537737994754456 0 0.0021573554145726862 -0.00038351489115795602 0 0.0016775499164267452 -0.00034969675479088087 0 0.00012085816731907109 -0.0002739136889567059 0 0.00023131722307575983 -0.00013585719697413055 0 -2.5943747492277377e-05 -0.00025496602543745523 0 0.0026125745949094879 -0.000586882138179366 0 0.0028242624640908657 -0.0011178872246139916 0 0.0035843505675948926 -0.0010967475516359538 0 0.0021573554145726862 -0.00038351489115795602 0 0.0040997467549499372 -0.0011546946942120292 0 0.0031319953580007586 -0.00043075611912210825 0 0.0034444121199364223 -0.0012136985982956975 0 0.003031618732823716 -0.0010021026218874332 0 0.0021573554145726862 -0.00038351489115795602 0 0.004167311790298717 -0.00077283337084597806 0 0.0040997467549499372 -0.0011546946942120292 0 0.004167311790298717 -0.00077283337084597806 0 0.0031271386668660361 -0.00025509888223890486 0 0.0030825210283661249 -0.00051453848426649153 0 0.0026293938885304543 -0.00020625177476140329 0 0.004167311790298717 -0.00077283337084597806 0 0.0026888813259523803 -0.00023555724822639509 0 0.0056168595607479638 -0.00063669422602634579 0 0.0050030909015688439 -0.00080964766764171929 0 0.0047397540328045565 -0.00018691809926556783 0 0.0044449013937654545 -0.00069106483172146256 0 0.0050030909015688439 -0.00080964766764171929 0 0.0047397540328045565 -0.00018691809926556783 0 0.0017267634926926715 -0.00025585366959295428 0 0.0026888813259523803 -0.00023555724822639509 0 0.0010128038899169141 -0.00066896093312051816 0 0.0010668589461458255 4.7053084929815515e-06 0 0.0012499008831132875 -8.8363651699789207e-05 0 0.0010128038899169141 -0.00066896093312051816 0 0.00073905496834445025 3.4058174627368133e-05 0 0.0010668589461458255 4.7053084929815515e-06 0 0.0026888813259523803 -0.00023555724822639509 0 0.0024065319947331348 -0.0001259623931941416 0 0.0021573554145726862 -0.00038351489115795602 0 0.0017267634926926715 -0.00025585366959295428 0 0.0030825210283661249 -0.00051453848426649153 0 0.0026293938885304543 -0.00020625177476140329 0 0.0024540349279592467 -0.000189067298893162 0 0.0009042182341769203 -0.00026311762869776669 0 0.00089953490675915356 -9.6937182224435598e-05 0 0.0014413434763660168 -0.00014633845541613534 0 0.0021043787652252825 -0.00041817571576388172 0 0.0019322600828166319 -0.00064854882307343795 0 -0.00022059685811527617 -0.00011247399524007704 0 -0.00030213260160922184 -0.00033642591349415017 0 -0.00052874922552346092 -0.00029078756302215698 0 -0.00022059685811527617 -0.00011247399524007704 0 -0.00052874922552346092 -0.00029078756302215698 0 -0.0005828986622665723 -9.5190632531701348e-05 0 0.0044003340586546147 -0.0007542287139607292 0 0.0061253487367012955 -0.00094851880552677438 0 0.00524434283885336 -0.0016311040503257724 0 0.0021573554145726862 -0.00038351489115795602 0 0.0021043787652252825 -0.00041817571576388172 0 0.0026125745949094879 -0.000586882138179366 0 0.0044003340586546147 -0.0007542287139607292 0 0.0035843505675948926 -0.0010967475516359538 0 -0.00022059685811527617 -0.00011247399524007704 0 -0.00014828415725861297 -0.0003596467708008063 0 -2.5943747492277377e-05 -0.00025496602543745523 0 0.00023131722307575983 -0.00013585719697413055 0 -0.00022059685811527617 -0.00011247399524007704 0 -2.5943747492277377e-05 -0.00025496602543745523 0 -0.00022059685811527617 -0.00011247399524007704 0 -0.00014828415725861297 -0.0003596467708008063 0 -0.00030213260160922184 -0.00033642591349415017 0 -0.00014828415725861297 -0.0003596467708008063 0 -2.5943747492277377e-05 -0.00025496602543745523 0 -9.1417931704263666e-06 -0.0003712442768828861 0 -0.00014828415725861297 -0.0003596467708008063 0 -9.1417931704263666e-06 -0.0003712442768828861 0 -0.0001602332926296371 -0.00053407937727534044 0 -0.00014828415725861297 -0.0003596467708008063 0 -0.00030213260160922184 -0.00033642591349415017 0 -0.0001602332926296371 -0.00053407937727534044 0 -0.00030213260160922184 -0.00033642591349415017 0 -0.00031303209808945418 -0.0005482189671806053 0 -0.0001602332926296371 -0.00053407937727534044 0 -0.00030213260160922184 -0.00033642591349415017 0 -0.00048978787273086229 -0.00049421023608864345 0 -0.00031303209808945418 -0.0005482189671806053 0 -0.00030213260160922184 -0.00033642591349415017 0 -0.00048978787273086229 -0.00049421023608864345 0 -0.00052874922552346092 -0.00029078756302215698 0 -0.00048978787273086229 -0.00049421023608864345 0 -0.00031303209808945418 -0.0005482189671806053 0 -0.0003917244042023357 -0.00069526715569566682 0 -0.0003917244042023357 -0.00069526715569566682 0 -0.00022780875509496054 -0.00068178871085421329 0 -0.00030421641653642693 -0.00079214392530881723 0 -0.00031303209808945418 -0.0005482189671806053 0 -0.0003917244042023357 -0.00069526715569566682 0 -0.00022780875509496054 -0.00068178871085421329 0 -0.00048978787273086229 -0.00049421023608864345 0 -0.0003917244042023357 -0.00069526715569566682 0 -0.00059302441359522138 -0.00073241790930304526 0 -0.003507441746709257 -0.0005970528286677124 0 -0.0021929034869951807 -0.00091053630512501085 0 -0.0019866858370749677 -0.00074099529540647743 0 -0.0018770316243018879 -0.00067798995783190335 0 -0.0021161781898700904 -0.00091342975893006072 0 -0.00031303209808945418 -0.0005482189671806053 0 -0.0001602332926296371 -0.00053407937727534044 0 -0.00022780875509496054 -0.00068178871085421329 0 -5.7995675596210882e-05 -0.00065011282373864099 0 -0.0001602332926296371 -0.00053407937727534044 0 -0.00022780875509496054 -0.00068178871085421329 0 -5.7995675596210882e-05 -0.00065011282373864099 0 -0.00022780875509496054 -0.00068178871085421329 0 -0.00020437515274002703 -0.00085070213927981614 0 -0.00097350960882813982 -0.00058402598027648602 0 -0.0021929034869951807 -0.00091053630512501085 0 -0.00022780875509496054 -0.00068178871085421329 0 -0.00020437515274002703 -0.00085070213927981614 0 -0.00030421641653642693 -0.00079214392530881723 0 -0.00020437515274002703 -0.00085070213927981614 0 -0.00026000639157049778 -0.00090186503780728124 0 -0.00030421641653642693 -0.00079214392530881723 0 -0.0048816938576079216 -0.00090428311919996563 0 -0.0048858835278852344 -0.00082515263192324453 0 -0.0048707820427315125 -0.00088922633767470776 0 -0.0026427699384260323 -0.0010176307257894735 0 -0.0021929034869951807 -0.00091053630512501085 0 -0.00036873049533865513 -0.0010544131506459852 0 -0.00020983997754435576 -0.000854188932152908 0 -0.00026000639157049778 -0.00090186503780728124 0 -0.00026000639157049778 -0.00090186503780728124 0 -0.00030421641653642693 -0.00079214392530881723 0 -0.00034662178454352566 -0.0008801838241020521 0 -0.0021929034869951807 -0.00091053630512501085 0 -0.0015364746830067841 -0.00058301336142624804 0 -0.0047993512118411586 -0.0007998906023571837 0 -0.0048858835278852344 -0.00082515263192324453 0 -0.0048707820427315125 -0.00088922633767470776 0 -0.0003917244042023357 -0.00069526715569566682 0 -0.00044001589494300299 -0.00088569466677282599 0 -0.00059302441359522138 -0.00073241790930304526 0 -0.0003917244042023357 -0.00069526715569566682 0 -0.00030421641653642693 -0.00079214392530881723 0 -0.00044001589494300299 -0.00088569466677282599 0 -0.00030421641653642693 -0.00079214392530881723 0 -0.00034662178454352566 -0.0008801838241020521 0 -0.00044001589494300299 -0.00088569466677282599 0 -0.00036873049533865513 -0.0010544131506459852 0 -0.00026000639157049778 -0.00090186503780728124 0 -0.00034662178454352566 -0.0008801838241020521 0 -0.00036873049533865513 -0.0010544131506459852 0 -0.00034662178454352566 -0.0008801838241020521 0 -0.00044001589494300299 -0.00088569466677282599 0 -0.00044001589494300299 -0.00088569466677282599 0 -0.00060560432048273609 -0.00097128794647515393 0 -0.00059302441359522138 -0.00073241790930304526 0 -0.00036873049533865513 -0.0010544131506459852 0 -0.00044001589494300299 -0.00088569466677282599 0 -0.00060560432048273609 -0.00097128794647515393 0 -0.00060560432048273609 -0.00097128794647515393 0 -0.00085757294114091631 -0.00077186056408793042 0 -0.00082355845329401577 -0.0011169137359252801 0 -0.00060560432048273609 -0.00097128794647515393 0 -0.00059302441359522138 -0.00073241790930304526 0 -0.00085757294114091631 -0.00077186056408793042 0 -0.00066406271140853233 -0.00061320170713723458 0 -0.002144574449158883 -0.00073918135481939283 0 -0.00066181312627616089 -0.00029163535024109215 0 -0.0012168828206521761 -0.00064840963917738113 0 -0.00059860808497379432 -0.00089536984293808752 0 -0.00085757294114091631 -0.00077186056408793042 0 -0.00069802044036109442 -0.00053118989901060776 0 -0.00090230445034933751 -0.00039331103768587203 0 -0.00066181312627616089 -0.00029163535024109215 0 -0.00082686775410357202 0.00013145988018846796 0 -0.001076075319271173 1.8719929586397018e-06 0 -0.00066406271140853233 -0.00061320170713723458 0 -0.00086732096950518087 -0.00013232134157110831 0 -0.00059302441359522138 -0.00073241790930304526 0 -0.00085757294114091631 -0.00077186056408793042 0 -0.00069802044036109442 -0.00053118989901060776 0 -0.00048978787273086229 -0.00049421023608864345 0 -0.00059302441359522138 -0.00073241790930304526 0 -0.00069802044036109442 -0.00053118989901060776 0 -0.00059978594323661265 -0.00022869547575276827 0 -0.00090230445034933751 -0.00039331103768587203 0 -0.00078564487727765314 -0.00016087897028397473 0 -0.000465736294097995 -0.00052118540095446209 0 -0.00055508957365699933 -2.6346139376472476e-05 0 -0.00048978787273086229 -0.00049421023608864345 0 -0.00069802044036109442 -0.00053118989901060776 0 -0.00059978594323661265 -0.00022869547575276827 0 -0.00069802044036109442 -0.00053118989901060776 0 -0.00059978594323661265 -0.00022869547575276827 0 -0.00090230445034933751 -0.00039331103768587203 0 -0.00090230445034933751 -0.00039331103768587203 0 -0.00090277564648184893 -4.8767653361303627e-05 0 -0.00078564487727765314 -0.00016087897028397473 0 -0.00082686775410357202 0.00013145988018846796 0 -0.00086350341036921024 6.801062507108885e-05 0 -0.00089890611207906184 0.00013991711568160718 0 -0.00086732096950518087 -0.00013232134157110831 0 -0.00089352062156522862 -6.5107220455518097e-05 0 -0.00082686775410357202 0.00013145988018846796 0 -0.00086350341036921024 6.801062507108885e-05 0 -0.00090277564648184893 -4.8767653361303627e-05 0 -3.6617495822247624e-05 -0.00018965842956205842 0 0.0019322600828166319 -0.00064854882307343795 0 -0.00094510317476170194 -0.00010476151407963641 0 -0.00090277564648184893 -4.8767653361303627e-05 0 -0.00072969190955838215 4.459555529468507e-06 0 -0.00086350341036921024 6.801062507108885e-05 0 -0.00094510317476170194 -0.00010476151407963641 0 -0.00090277564648184893 -4.8767653361303627e-05 0 -0.00055508957365699933 -2.6346139376472476e-05 0 0.0019322600828166319 -0.00064854882307343795 0 -0.00059978594323661265 -0.00022869547575276827 0 -0.00072969190955838215 4.459555529468507e-06 0 -0.00078564487727765314 -0.00016087897028397473 0 -0.00090277564648184893 -4.8767653361303627e-05 0 -0.00072969190955838215 4.459555529468507e-06 0 -0.00078564487727765314 -0.00016087897028397473 0 -0.00055257091454214216 3.0915634208178783e-05 0 0.00011065608260490171 -0.00013809795201209457 0 0.00024734511988046916 -4.7287020548377982e-07 0 -0.00055257091454214216 3.0915634208178783e-05 0 -0.0011109691984299488 6.9521401494058588e-07 0 0.00024734511988046916 -4.7287020548377982e-07 0 -0.00055257091454214216 3.0915634208178783e-05 0 0.00011065608260490171 -0.00013809795201209457 0 -0.00061195587631155052 5.8748471431969119e-05 0 -3.6617495822247624e-05 -0.00018965842956205842 0 0.0002326176028615464 -0.00018357387382227585 0 -0.00094510317476170194 -0.00010476151407963641 0 0.00011065608260490171 -0.00013809795201209457 0 -0.00061195587631155052 5.8748471431969119e-05 0 -0.00086350341036921024 6.801062507108885e-05 0 -0.00094510317476170194 -0.00010476151407963641 0 -0.00061195587631155052 5.8748471431969119e-05 0 -0.00086350341036921024 6.801062507108885e-05 0 -0.00061195587631155052 5.8748471431969119e-05 0 -0.00089890611207906184 0.00013991711568160718 0 -0.00055257091454214216 3.0915634208178783e-05 0 -0.00061195587631155052 5.8748471431969119e-05 0 -0.00089890611207906184 0.00013991711568160718 0 -0.00055257091454214216 3.0915634208178783e-05 0 -0.00089890611207906184 0.00013991711568160718 0 -0.0011779321307953934 0.00011152314703197834 0 -0.00089890611207906184 0.00013991711568160718 0 -0.0011779321307953934 0.00011152314703197834 0 -0.001076075319271173 1.8719929586397018e-06 0 -0.00082686775410357202 0.00013145988018846796 0 -0.00089890611207906184 0.00013991711568160718 0 -0.001076075319271173 1.8719929586397018e-06 0 -0.00055257091454214216 3.0915634208178783e-05 0 -0.0011779321307953934 0.00011152314703197834 0 -0.0011109691984299488 6.9521401494058588e-07 0 -0.0011779321307953934 0.00011152314703197834 0 -0.001076075319271173 1.8719929586397018e-06 0 -0.0024656960333722697 -1.1691254901678117e-06 0 -0.0011779321307953934 0.00011152314703197834 0 -0.0011109691984299488 6.9521401494058588e-07 0 -0.0024656960333722697 -1.1691254901678117e-06 0 -0.001076075319271173 1.8719929586397018e-06 0 -0.0012168828206521761 -0.00064840963917738113 0 -0.0024656960333722697 -1.1691254901678117e-06 0 -0.00066181312627616089 -0.00029163535024109215 0 -0.001076075319271173 1.8719929586397018e-06 0 -0.0012168828206521761 -0.00064840963917738113 0 -0.0026663466463420615 -0.00029831874532725 0 -0.0024682764507307771 -1.7410439038592904e-07 0 -0.0039697539216781673 -0.00014595675419276676 0 -0.0024699987913521814 -1.0492168917758424e-06 0 -0.0037810289373655906 5.6788238289374851e-05 0 -0.0024699987913521814 -1.0492168917758424e-06 0 -0.0038413697045463508 8.1672838532495e-05 0 -0.0037810289373655906 5.6788238289374851e-05 0 -0.0024699987913521814 -1.0492168917758424e-06 0 -0.0038413697045463508 8.1672838532495e-05 0 -0.0039568759548912489 1.0402472195835457e-06 0 -0.0038413697045463508 8.1672838532495e-05 0 -0.0040644156473270496 0.00014392947052168704 0 -0.0037810289373655906 5.6788238289374851e-05 0 -0.0038413697045463508 8.1672838532495e-05 0 -0.0039568759548912489 1.0402472195835457e-06 0 -0.0043448540308319147 9.9048891528816637e-05 0 -0.0039568759548912489 1.0402472195835457e-06 0 -0.0043448540308319147 9.9048891528816637e-05 0 -0.0054435845498935166 -1.0925507845408448e-06 0 -0.0038413697045463508 8.1672838532495e-05 0 -0.0043448540308319147 9.9048891528816637e-05 0 -0.0040644156473270496 0.00014392947052168704 0 -0.0040644156473270496 0.00014392947052168704 0 -0.0040669183752264568 0.00011220542849775201 0 -0.0041992334314014858 2.2009825313226356e-05 0 -0.0040669183752264568 0.00011220542849775201 0 -0.0039706610247355646 2.6555574358787428e-06 0 -0.0041992334314014858 2.2009825313226356e-05 0 -0.0043448540308319147 9.9048891528816637e-05 0 -0.0040644156473270496 0.00014392947052168704 0 -0.0041992334314014858 2.2009825313226356e-05 0 -0.0040644156473270496 0.00014392947052168704 0 -0.0040669183752264568 0.00011220542849775201 0 -0.0040591795118503308 0.00014339028734071564 0 -0.0039697539216781673 -0.00014595675419276676 0 -0.0037810289373655906 5.6788238289374851e-05 0 -0.0041021135991525176 0.00010775438973847237 0 -0.0040644156473270496 0.00014392947052168704 0 -0.0037810289373655906 5.6788238289374851e-05 0 -0.0040591795118503308 0.00014339028734071564 0 -0.0037919735846642781 4.1308827797117865e-05 0 -0.0041426017001663607 0.00016940713805659705 0 -0.0026663466463420615 -0.00029831874532725 0 -0.002144574449158883 -0.00073918135481939283 0 -0.0039697539216781673 -0.00014595675419276676 0 -0.0041021135991525176 0.00010775438973847237 0 -0.0043070489644486789 5.6412349734908617e-05 0 -0.0041021135991525176 0.00010775438973847237 0 -0.0043070489644486789 5.6412349734908617e-05 0 -0.0043200277972630079 0.00019260360723660173 0 -0.0041426017001663607 0.00016940713805659705 0 -0.0037173575207592462 -0.00040063847966689126 0 -0.003645716860334023 -0.00098601159745273807 0 -0.0030460713808777083 -0.0012517528339999128 0 -0.0030917346694050597 -0.00092277594611165801 0 -0.00053413411426929142 -0.001252679901031839 0 -0.00060560432048273609 -0.00097128794647515393 0 -0.00082355845329401577 -0.0011169137359252801 0 -0.0025594176648906786 -0.00098529697023393256 0 -0.002144574449158883 -0.00073918135481939283 0 -0.002144574449158883 -0.00073918135481939283 0 -0.0037173575207592462 -0.00040063847966689126 0 -0.0037207850161725992 -0.00065928291481637876 0 -0.003645716860334023 -0.00098601159745273807 0 -0.0030917346694050597 -0.00092277594611165801 0 -0.0044279966166235734 -0.0017077880973583779 0 -0.0037173575207592462 -0.00040063847966689126 0 -0.0037173575207592462 -0.00040063847966689126 0 -0.0041047263228405429 -0.0010645970588161111 0 -0.0041007292275644334 -0.0010566237561182646 0 -0.0040844847196437389 -0.0010576544763490057 0 -0.0040878017726329709 -0.0010441283375828203 0 -0.0040591795118503308 0.00014339028734071564 0 -0.003877128634480398 0.00015458484677846845 0 -0.0039980507553628031 0.0001141801186016136 0 -0.003877128634480398 0.00015458484677846845 0 -0.0039706610247355646 2.6555574358787428e-06 0 -0.0037672277598040597 -0.00015607255303439483 0 -0.0040669183752264568 0.00011220542849775201 0 -0.0040591795118503308 0.00014339028734071564 0 -0.0039980507553628031 0.0001141801186016136 0 -0.003877128634480398 0.00015458484677846845 0 -0.0039980507553628031 0.0001141801186016136 0 -0.0039706610247355646 2.6555574358787428e-06 0 -0.0040669183752264568 0.00011220542849775201 0 -0.0039980507553628031 0.0001141801186016136 0 -0.0039706610247355646 2.6555574358787428e-06 0 -0.0039706610247355646 2.6555574358787428e-06 0 -0.0040249507184802833 -0.00016632527946934628 0 -0.0037672277598040597 -0.00015607255303439483 0 -0.0040249507184802833 -0.00016632527946934628 0 -0.0037672277598040597 -0.00015607255303439483 0 -0.0039734333563584143 -0.0004338131011454848 0 -0.0039706610247355646 2.6555574358787428e-06 0 -0.0040249507184802833 -0.00016632527946934628 0 -0.0041992334314014858 2.2009825313226356e-05 0 -0.0044279966166235734 -0.0017077880973583779 0 -0.0041047263228405429 -0.0010645970588161111 0 -0.0045284293300504761 -0.0025973423267238991 0 -0.0045495115145086137 -0.0026561007763695335 0 -0.0044677513771907472 -0.0025888221897327197 0 -0.0045284293300504761 -0.0025973423267238991 0 -0.0044677513771907472 -0.0025888221897327197 0 -0.0044759636854292389 -0.0025198876039553724 0 -0.0045605372849189633 -0.002566195217989111 0 -0.0045284293300504761 -0.0025973423267238991 0 -0.0044759636854292389 -0.0025198876039553724 0 -0.0046863268754045936 -0.0026685111933640454 0 -0.0044206664374617181 -0.0016256833395155079 0 -0.003662390736720591 -0.00016100634346301969 0 -0.0036170857469520986 -0.00046891042006117086 0 -0.0039734333563584143 -0.0004338131011454848 0 -0.0041047263228405429 -0.0010645970588161111 0 -0.0044206664374617181 -0.0016256833395155079 0 -0.0054537597931416442 -0.00062815168792734906 0 -0.0044206664374617181 -0.0016256833395155079 0 -0.0042633937562565095 -0.0007491548282731671 0 -0.0036170857469520986 -0.00046891042006117086 0 -0.0039734333563584143 -0.0004338131011454848 0 -0.0040249507184802833 -0.00016632527946934628 0 -0.0039734333563584143 -0.0004338131011454848 0 -0.0042560142369523109 -0.00031283678156159424 0 -0.0041047263228405429 -0.0010645970588161111 0 -0.0037346597346077561 -0.00018398508278315688 0 -0.0042633937562565095 -0.0007491548282731671 0 -0.0042560142369523109 -0.00031283678156159424 0 -0.0046389252028829929 -0.00056240482985538771 0 -0.0042633937562565095 -0.0007491548282731671 0 -0.0039734333563584143 -0.0004338131011454848 0 -0.0042560142369523109 -0.00031283678156159424 0 -0.0042560142369523109 -0.00031283678156159424 0 -0.0046389252028829929 -0.00056240482985538771 0 -0.0045257501801825271 -8.8960405672260855e-05 0 -0.0054537597931416442 -0.00062815168792734906 0 -0.0054293223186631916 -0.00023119225675538561 0 -0.0068386926028545176 -2.1824442200097521e-08 0 -0.0062299876116042761 4.7019642847048195e-05 0 -0.0054474433256182795 8.7465979225159139e-09 0 -0.0062255946461151858 3.2014501446947329e-05 0 -0.0062198558599767745 1.0220341414424122e-05 0 -0.0062299876116042761 4.7019642847048195e-05 0 -0.0062198558599767745 1.0220341414424122e-05 0 -0.0062299876116042761 4.7019642847048195e-05 0 -0.0054474433256182795 8.7465979225159139e-09 0 -0.0054293223186631916 -0.00023119225675538561 0 -0.0054455849044538216 -7.774131889077714e-08 0 -0.0046389252028829929 -0.00056240482985538771 0 -0.0045257501801825271 -8.8960405672260855e-05 0 -0.0054435845498935166 -1.0925507845408448e-06 0 -0.0043448540308319147 9.9048891528816637e-05 0 -0.0045257501801825271 -8.8960405672260855e-05 0 -0.0054435845498935166 -1.0925507845408448e-06 0 -0.0043448540308319147 9.9048891528816637e-05 0 -0.0045257501801825271 -8.8960405672260855e-05 0 -0.0041992334314014858 2.2009825313226356e-05 0 -0.0040249507184802833 -0.00016632527946934628 0 -0.0042560142369523109 -0.00031283678156159424 0 -0.0041992334314014858 2.2009825313226356e-05 0 -0.0042560142369523109 -0.00031283678156159424 0 -0.0045257501801825271 -8.8960405672260855e-05 0 -0.0041992334314014858 2.2009825313226356e-05 0 -0.018327560932483368 3.3997359616440508e-05 0 -0.01877946922013897 0.00020596620288931223 0 -0.018163978212460723 0.00048530414057865618 0 -0.018327560932483368 3.3997359616440508e-05 0 -0.018678472896043158 -9.80996166914979e-05 0 -0.01877946922013897 0.00020596620288931223 0 -0.018327560932483368 3.3997359616440508e-05 0 -0.017723509122791456 0.00019066249730735485 0 -0.018163978212460723 0.00048530414057865618 0 -0.018327560932483368 3.3997359616440508e-05 0 -0.017723509122791456 0.00019066249730735485 0 -0.017992622590267397 -0.00033718925986594918 0 -0.019259389830456528 -0.00014203811701554711 0 -0.018536811359499857 -0.00068036936590704826 0 -0.018493131661141606 -0.0002929490971755664 0 -0.018804145386190765 -0.00033557534493783411 0 -0.018530483542911796 -0.00070551653367181897 0 -0.017992622590267397 -0.00033718925986594918 0 -0.018493131661141606 -0.0002929490971755664 0 -0.018530483542911796 -0.00070551653367181897 0 -0.018327560932483368 3.3997359616440508e-05 0 -0.017992622590267397 -0.00033718925986594918 0 -0.018493131661141606 -0.0002929490971755664 0 -0.018327560932483368 3.3997359616440508e-05 0 -0.018493131661141606 -0.0002929490971755664 0 -0.018678472896043158 -9.80996166914979e-05 0 -0.018493131661141606 -0.0002929490971755664 0 -0.018804145386190765 -0.00033557534493783411 0 -0.018678472896043158 -9.80996166914979e-05 0 -0.019539261660304636 -5.8081569902413389e-05 0 -0.020384417201513166 0.00051299375938702776 0 -0.019902872831372466 -0.00063679242375329326 0 -0.018804145386190765 -0.00033557534493783411 0 -0.019254174369967146 -3.4007590938398578e-05 0 -0.01891708542421584 -3.2749137232610686e-05 0 -0.019259389830456528 -0.00014203811701554711 0 -0.019375170849111504 -0.00024106884503562653 0 -0.018804145386190765 -0.00033557534493783411 0 -0.018678472896043158 -9.80996166914979e-05 0 -0.01891708542421584 -3.2749137232610686e-05 0 -0.020467841780223373 -0.00050403158358492165 0 -0.020689158797560288 -0.00096063730876691934 0 -0.020237075697580886 -0.00100839234145202 0 -0.020486187690275784 -0.00045797634482366362 0 -0.020467841780223373 -0.00050403158358492165 0 -0.020689158797560288 -0.00096063730876691934 0 -0.020178547961633483 -0.00058729043434035358 0 -0.020311611581449219 -0.00062956053485137395 0 -0.020229968293517558 -0.00082670780185927059 0 -0.019375170849111504 -0.00024106884503562653 0 -0.020176241752188517 -0.00075133320077331537 0 -0.018470060132433689 -0.0011509890338162847 0 -0.02059542076474169 -0.00089195643852432304 0 -0.018470060132433689 -0.0011509890338162847 0 -0.017834842945525231 -0.0010514557158543176 0 -0.019278287525420185 1.5905194497658665e-05 0 -0.019069584166040328 7.9017471634087544e-05 0 -0.01906699837867807 0.00058249222940326114 0 -0.018470060132433689 -0.0011509890338162847 0 -0.017653191979296108 -0.0021120098284843538 0 -0.020178547961633483 -0.00058729043434035358 0 -0.020311611581449219 -0.00062956053485137395 0 -0.019676619969347098 -0.00081198721067327767 0 -0.019254174369967146 -3.4007590938398578e-05 0 -0.01891708542421584 -3.2749137232610686e-05 0 -0.019069584166040328 7.9017471634087544e-05 0 -0.019278287525420185 1.5905194497658665e-05 0 -0.019254174369967146 -3.4007590938398578e-05 0 -0.019069584166040328 7.9017471634087544e-05 0 -0.018470060132433689 -0.0011509890338162847 0 -0.019375170849111504 -0.00024106884503562653 0 -0.019069584166040328 7.9017471634087544e-05 0 -0.01877946922013897 0.00020596620288931223 0 -0.01906699837867807 0.00058249222940326114 0 -0.018678472896043158 -9.80996166914979e-05 0 -0.01891708542421584 -3.2749137232610686e-05 0 -0.01877946922013897 0.00020596620288931223 0 -0.01891708542421584 -3.2749137232610686e-05 0 -0.019069584166040328 7.9017471634087544e-05 0 -0.01877946922013897 0.00020596620288931223 0 -0.01906699837867807 0.00058249222940326114 0 -0.018631431959696798 0.0007696354766416546 0 -0.018832594098181991 0.0011873492552655772 0 -0.01877946922013897 0.00020596620288931223 0 -0.01906699837867807 0.00058249222940326114 0 -0.018631431959696798 0.0007696354766416546 0 -0.017834842945525231 -0.0010514557158543176 0 -0.017593055567722678 -0.00053986921582404571 0 -0.016484762335734631 -0.002194625612496125 0 -0.016626510041327466 -0.0026270117525737731 0 -0.016223567336673513 -0.0028413409644767033 0 -0.016483193260985615 -0.0023575668327454075 0 -0.016224796244762023 -0.0026489041371138529 0 -0.016223567336673513 -0.0028413409644767033 0 -0.016626510041327466 -0.0026270117525737731 0 -0.016495534388297668 -0.002893111760811484 0 -0.016223567336673513 -0.0028413409644767033 0 -0.018470060132433689 -0.0011509890338162847 0 -0.015569403969774916 -0.0033943622217442824 0 -0.016495534388297668 -0.002893111760811484 0 -0.01636414504855779 -0.0031044388202324008 0 -0.016744939422418614 -0.0030012602310978413 0 -0.012234996773972117 -0.00084671977060816084 0 -0.017593055567722678 -0.00053986921582404571 0 -0.016495534388297668 -0.002893111760811484 0 -0.01636414504855779 -0.0031044388202324008 0 -0.016223567336673513 -0.0028413409644767033 0 -0.01647457646384479 0.00078281797190510641 0 -0.016487786142997982 0.00074674980913872846 0 -0.016966302793077172 0.00082295946190487953 0 -0.016626510041327466 -0.0026270117525737731 0 -0.016495534388297668 -0.002893111760811484 0 -0.016744939422418614 -0.0030012602310978413 0 -0.015951794421887017 0.00063439019687962597 0 -0.016487786142997982 0.00074674980913872846 0 -0.016477836695923728 0.00056720196919134115 0 -0.018631431959696798 0.0007696354766416546 0 -0.018832594098181991 0.0011873492552655772 0 -0.018217483482114976 0.0010397178544108733 0 -0.015951794421887017 0.00063439019687962597 0 -0.016471683707658041 0.00078714365675988695 0 -0.016487786142997982 0.00074674980913872846 0 -0.017593055567722678 -0.00053986921582404571 0 -0.017526903819798819 -0.00040498377535705182 0 -0.016487786142997982 0.00074674980913872846 0 -0.016808350554620054 0.00057047510074664668 0 -0.016477836695923728 0.00056720196919134115 0 -0.017593055567722678 -0.00053986921582404571 0 -0.017653374737407534 0.00098519477174622877 0 -0.016487786142997982 0.00074674980913872846 0 -0.016966302793077172 0.00082295946190487953 0 -0.016808350554620054 0.00057047510074664668 0 -0.016966302793077172 0.00082295946190487953 0 -0.017195128953002015 0.00050706089679326838 0 -0.016808350554620054 0.00057047510074664668 0 -0.018631431959696798 0.0007696354766416546 0 -0.018217483482114976 0.0010397178544108733 0 -0.018163978212460723 0.00048530414057865618 0 -0.01877946922013897 0.00020596620288931223 0 -0.018631431959696798 0.0007696354766416546 0 -0.018163978212460723 0.00048530414057865618 0 -0.017723509122791456 0.00019066249730735485 0 -0.018163978212460723 0.00048530414057865618 0 -0.017478814757062013 0.00078832019254672272 0 -0.018217483482114976 0.0010397178544108733 0 -0.018163978212460723 0.00048530414057865618 0 -0.017478814757062013 0.00078832019254672272 0 -0.016966302793077172 0.00082295946190487953 0 -0.017478814757062013 0.00078832019254672272 0 -0.017195128953002015 0.00050706089679326838 0 -0.017653374737407534 0.00098519477174622877 0 -0.017448533906477316 0.00081024587885127823 0 -0.017478814757062013 0.00078832019254672272 0 -0.017469508810356763 0.00068021134750968553 0 -0.017195128953002015 0.00050706089679326838 0 -0.015315347677733574 -0.00047628071948164775 0 -0.016416081830247974 -0.00035416260775926353 0 -0.013960667022168059 -0.00041149271245564261 0 -0.013165359290896118 -0.0010336231974421113 0 -0.014028086221841774 -0.001367586361819382 0 -0.015972364103352218 9.9431121394153848e-05 0 -0.016416081830247974 -0.00035416260775926353 0 -0.017723509122791456 0.00019066249730735485 0 -0.017478814757062013 0.00078832019254672272 0 -0.017297446458565208 0.00050876964072198757 0 -0.017478814757062013 0.00078832019254672272 0 -0.017469508810356763 0.00068021134750968553 0 -0.017297446458565208 0.00050876964072198757 0 -0.012325156986041861 -0.00069240780810107794 0 -0.012792661462010623 -0.00043465227661767457 0 -0.01258087535771279 2.5254329091658217e-05 0 -0.012325156986041861 -0.00069240780810107794 0 -0.012792661462010623 -0.00043465227661767457 0 -0.013165359290896118 -0.0010336231974421113 0 -0.012792661462010623 -0.00043465227661767457 0 -0.013242246470914543 -0.00029892813384552121 0 -0.013165359290896118 -0.0010336231974421113 0 -0.013960667022168059 -0.00041149271245564261 0 -0.013242246470914543 -0.00029892813384552121 0 -0.013165359290896118 -0.0010336231974421113 0 -0.016256571155504679 0.00078755342853043214 0 -0.017544217420129824 0.00018580313387450654 0 -0.016696237360053549 -1.5940819131664211e-05 0 -0.014162094464236909 3.3229093444682239e-05 0 -0.015315347677733574 -0.00047628071948164775 0 -0.017544217420129824 0.00018580313387450654 0 -0.016696237360053549 -1.5940819131664211e-05 0 -0.017140229327236266 -0.00026309314390644231 0 -0.016696237360053549 -1.5940819131664211e-05 0 -0.017140229327236266 -0.00026309314390644231 0 -0.016553376820046994 -0.00090000198652390444 0 -0.01710837631282822 -0.00068457600005183711 0 -0.017664591625814064 -0.00043769002844187566 0 -0.017140229327236266 -0.00026309314390644231 0 -0.016553376820046994 -0.00090000198652390444 0 -0.01771614888817976 -0.00039591588380011696 0 -0.017598002624662112 -0.00051957523426283264 0 -0.01771614888817976 -0.00039591588380011696 0 -0.017698761157091188 -0.00058560145517043318 0 -0.017544217420129824 0.00018580313387450654 0 -0.01771614888817976 -0.00039591588380011696 0 -0.018179976417630327 -0.00026088414151966444 0 -0.017544217420129824 0.00018580313387450654 0 -0.017140229327236266 -0.00026309314390644231 0 -0.01771614888817976 -0.00039591588380011696 0 -0.01771614888817976 -0.00039591588380011696 0 -0.017871650104859284 -0.00060585463663932575 0 -0.017698761157091188 -0.00058560145517043318 0 -0.017871650104859284 -0.00060585463663932575 0 -0.017698761157091188 -0.00058560145517043318 0 -0.017765478336517638 -0.00074235607891749104 0 -0.017553153217525767 -0.0006856400150932944 0 -0.017698761157091188 -0.00058560145517043318 0 -0.017765478336517638 -0.00074235607891749104 0 -0.017553153217525767 -0.0006856400150932944 0 -0.017598002624662112 -0.00051957523426283264 0 -0.017698761157091188 -0.00058560145517043318 0 -0.017882044639634834 0.00032562604003046552 0 -0.016416081830247974 -0.00035416260775926353 0 -0.017723509122791456 0.00019066249730735485 0 -0.016944991465271939 0.00050076666939114054 0 -0.016969096930966675 -0.0003669331901677154 0 -0.01771614888817976 -0.00039591588380011696 0 -0.017871650104859284 -0.00060585463663932575 0 -0.018179976417630327 -0.00026088414151966444 0 -0.016416081830247974 -0.00035416260775926353 0 -0.017663754526793921 -0.00038712907067692427 0 -0.017871650104859284 -0.00060585463663932575 0 -0.018179976417630327 -0.00026088414151966444 0 -0.018120367715451245 -0.00063264653166152562 0 -0.017871650104859284 -0.00060585463663932575 0 -0.018120367715451245 -0.00063264653166152562 0 -0.017958030419164741 -0.00080855095643653295 0 -0.017992622590267397 -0.00033718925986594918 0 -0.016969096930966675 -0.0003669331901677154 0 -0.017708834882088284 -0.00098096413486222617 0 -0.017723509122791456 0.00019066249730735485 0 -0.017992622590267397 -0.00033718925986594918 0 -0.016969096930966675 -0.0003669331901677154 0 -0.016969096930966675 -0.0003669331901677154 0 -0.016954377343232234 -0.0013928979493592556 0 -0.017708834882088284 -0.00098096413486222617 0 -0.017663754526793921 -0.00038712907067692427 0 -0.017416782291565507 -0.0012372884508965562 0 -0.018120367715451245 -0.00063264653166152562 0 -0.017958030419164741 -0.00080855095643653295 0 -0.018116365353167442 -0.00088370056802550138 0 -0.018116365353167442 -0.00088370056802550138 0 -0.018129899709980465 -0.0010886183712890507 0 -0.01802471480103621 -0.0010055193465715046 0 -0.017958030419164741 -0.00080855095643653295 0 -0.018116365353167442 -0.00088370056802550138 0 -0.01802471480103621 -0.0010055193465715046 0 -0.017416782291565507 -0.0012372884508965562 0 -0.018735849183604904 -0.00142576090878132 0 -0.017568169035151508 -0.0017613049786911197 0 -0.016954377343232234 -0.0013928979493592556 0 -0.017708834882088284 -0.00098096413486222617 0 -0.017568169035151508 -0.0017613049786911197 0 -0.016954377343232234 -0.0013928979493592556 0 -0.016982953030202086 -0.0025276557010684149 0 -0.017553153217525767 -0.0006856400150932944 0 -0.017765478336517638 -0.00074235607891749104 0 -0.017635348438420413 -0.00087851232160579443 0 -0.017958030419164741 -0.00080855095643653295 0 -0.017765478336517638 -0.00074235607891749104 0 -0.017879670648659512 -0.00092890490592518278 0 -0.017871650104859284 -0.00060585463663932575 0 -0.017958030419164741 -0.00080855095643653295 0 -0.017765478336517638 -0.00074235607891749104 0 -0.017958030419164741 -0.00080855095643653295 0 -0.017879670648659512 -0.00092890490592518278 0 -0.01802471480103621 -0.0010055193465715046 0 -0.017765478336517638 -0.00074235607891749104 0 -0.017879670648659512 -0.00092890490592518278 0 -0.017635348438420413 -0.00087851232160579443 0 -0.017879670648659512 -0.00092890490592518278 0 -0.017635348438420413 -0.00087851232160579443 0 -0.017756697887178444 -0.0010240376712402014 0 -0.017756697887178444 -0.0010240376712402014 0 -0.017844056788965536 -0.00125340897194032 0 -0.0176683381272996 -0.001166626741728128 0 -0.017879670648659512 -0.00092890490592518278 0 -0.018003598392679714 -0.0011308504893749473 0 -0.01802471480103621 -0.0010055193465715046 0 -0.017879670648659512 -0.00092890490592518278 0 -0.017756697887178444 -0.0010240376712402014 0 -0.018003598392679714 -0.0011308504893749473 0 -0.017756697887178444 -0.0010240376712402014 0 -0.018003598392679714 -0.0011308504893749473 0 -0.017844056788965536 -0.00125340897194032 0 -0.018109427512135547 -0.0013723576170583305 0 -0.018003598392679714 -0.0011308504893749473 0 -0.017844056788965536 -0.00125340897194032 0 -0.017659956094940869 -0.0013470319758788693 0 -0.017844056788965536 -0.00125340897194032 0 -0.0176683381272996 -0.001166626741728128 0 -0.018735849183604904 -0.00142576090878132 0 -0.019745998847560391 -0.002204595376483349 0 -0.021411330990798335 -0.0018849155524455266 0 -0.021440667028802499 -0.001890362312625961 0 -0.021424727468177144 -0.0019517532358484012 0 -0.017568169035151508 -0.0017613049786911197 0 -0.016982953030202086 -0.0025276557010684149 0 -0.017944350849576716 -0.0023638722397365105 0 -0.017856027421372413 -0.0011046733827525181 0 -0.018735849183604904 -0.00142576090878132 0 -0.018003598392679714 -0.0011308504893749473 0 -0.018129899709980465 -0.0010886183712890507 0 -0.01802471480103621 -0.0010055193465715046 0 -0.018109427512135547 -0.0013723576170583305 0 -0.018003598392679714 -0.0011308504893749473 0 -0.018354903266790193 -0.0010563437224313692 0 -0.018399916187026799 -0.0014960824453644395 0 -0.018109427512135547 -0.0013723576170583305 0 -0.018354903266790193 -0.0010563437224313692 0 -0.021409299476404405 -0.001960505145875847 0 -0.021411330990798335 -0.0018849155524455266 0 -0.021440667028802499 -0.001890362312625961 0 -0.020061867482926266 -0.001746018910432114 0 -0.018735849183604904 -0.00142576090878132 0 -0.021440667028802499 -0.001890362312625961 0 -0.021383347463087992 -0.0018398186521538396 0 -0.021424727468177144 -0.0019517532358484012 0 -0.021515030802936711 -0.0019562838391044566 0 -0.021440667028802499 -0.001890362312625961 0 -0.021383347463087992 -0.0018398186521538396 0 -0.020880379566069543 -0.0017668541189189968 0 -0.021383347463087992 -0.0018398186521538396 0 -0.02102273223572193 -0.0018762356041923799 0 -0.021343949452882378 -0.0019082002546720062 0 -0.021390693803122217 -0.0018621290585044531 0 -0.021242815405545332 -0.0019447815529827005 0 -0.02108187853757525 -0.0020744722902980273 0 -0.021424727468177144 -0.0019517532358484012 0 -0.020074842906496818 -0.0021229986498480795 0 -0.019745998847560391 -0.002204595376483349 0 -0.02102273223572193 -0.0018762356041923799 0 -0.021242815405545332 -0.0019447815529827005 0 -0.02108187853757525 -0.0020744722902980273 0 -0.021383347463087992 -0.0018398186521538396 0 -0.02102273223572193 -0.0018762356041923799 0 -0.021242815405545332 -0.0019447815529827005 0 -0.021383347463087992 -0.0018398186521538396 0 -0.021242815405545332 -0.0019447815529827005 0 -0.021424727468177144 -0.0019517532358484012 0 -0.017568169035151508 -0.0017613049786911197 0 -0.018285677052412807 -0.00154892251278315 0 -0.017708834882088284 -0.00098096413486222617 0 -0.017568169035151508 -0.0017613049786911197 0 -0.017944350849576716 -0.0023638722397365105 0 -0.018285677052412807 -0.00154892251278315 0 -0.018285677052412807 -0.00154892251278315 0 -0.018925305941264573 -0.0015073338485430867 0 -0.018530483542911796 -0.00070551653367181897 0 -0.019058325247585727 -0.002248554382080571 0 -0.017944350849576716 -0.0023638722397365105 0 -0.018285677052412807 -0.00154892251278315 0 -0.019058325247585727 -0.002248554382080571 0 -0.018285677052412807 -0.00154892251278315 0 -0.018925305941264573 -0.0015073338485430867 0 -0.019058325247585727 -0.002248554382080571 0 -0.018925305941264573 -0.0015073338485430867 0 -0.019585858614218809 -0.0017830584757513772 0 -0.018925305941264573 -0.0015073338485430867 0 -0.019274302451113234 -0.0010627229910872213 0 -0.019585858614218809 -0.0017830584757513772 0 -0.019539261660304636 -5.8081569902413389e-05 0 -0.018530483542911796 -0.00070551653367181897 0 -0.019329315787692737 -0.0006215012115386476 0 -0.018925305941264573 -0.0015073338485430867 0 -0.018530483542911796 -0.00070551653367181897 0 -0.019274302451113234 -0.0010627229910872213 0 -0.018530483542911796 -0.00070551653367181897 0 -0.019329315787692737 -0.0006215012115386476 0 -0.019274302451113234 -0.0010627229910872213 0 -0.017992622590267397 -0.00033718925986594918 0 -0.018530483542911796 -0.00070551653367181897 0 -0.017708834882088284 -0.00098096413486222617 0 -0.018285677052412807 -0.00154892251278315 0 -0.018530483542911796 -0.00070551653367181897 0 -0.017708834882088284 -0.00098096413486222617 0 -0.020689158797560288 -0.00096063730876691934 0 -0.020237075697580886 -0.00100839234145202 0 -0.020525531603904947 -0.0013883648332264917 0 -0.020689158797560288 -0.00096063730876691934 0 -0.020525531603904947 -0.0013883648332264917 0 -0.020754382871112888 -0.0014840516169494112 0 -0.020237075697580886 -0.00100839234145202 0 -0.020231600017303151 -0.0014988556678914616 0 -0.020525531603904947 -0.0013883648332264917 0 -0.020176241752188517 -0.00075133320077331537 0 -0.019584157196524628 -0.0017914501749095085 0 -0.019902872831372466 -0.00063679242375329326 0 -0.019274302451113234 -0.0010627229910872213 0 -0.019585858614218809 -0.0017830584757513772 0 -0.019902872831372466 -0.00063679242375329326 0 -0.019329315787692737 -0.0006215012115386476 0 -0.019274302451113234 -0.0010627229910872213 0 -0.019539261660304636 -5.8081569902413389e-05 0 -0.019902872831372466 -0.00063679242375329326 0 -0.019329315787692737 -0.0006215012115386476 0 -0.020237075697580886 -0.00100839234145202 0 -0.020231600017303151 -0.0014988556678914616 0 -0.019585858614218809 -0.0017830584757513772 0 -0.019058325247585727 -0.002248554382080571 0 -0.019585858614218809 -0.0017830584757513772 0 -0.020521757279961351 -0.0019041179298118342 0 -0.020231600017303151 -0.0014988556678914616 0 -0.019585858614218809 -0.0017830584757513772 0 -0.020521757279961351 -0.0019041179298118342 0 -0.020231600017303151 -0.0014988556678914616 0 -0.020521757279961351 -0.0019041179298118342 0 -0.020525531603904947 -0.0013883648332264917 0 -0.020521757279961351 -0.0019041179298118342 0 -0.020525531603904947 -0.0013883648332264917 0 -0.02066062602703372 -0.0016534606176661886 0 -0.020525531603904947 -0.0013883648332264917 0 -0.02066062602703372 -0.0016534606176661886 0 -0.020754382871112888 -0.0014840516169494112 0 -0.020521757279961351 -0.0019041179298118342 0 -0.02066062602703372 -0.0016534606176661886 0 -0.020766546445321402 -0.0017860834426701637 0 -0.020521757279961351 -0.0019041179298118342 0 -0.020766546445321402 -0.0017860834426701637 0 -0.020714077409859404 -0.0018605234698752737 0 -0.020766546445321402 -0.0017860834426701637 0 -0.020714077409859404 -0.0018605234698752737 0 -0.020822680348240002 -0.0018528930668268188 0 -0.02108187853757525 -0.0020744722902980273 0 -0.020521757279961351 -0.0019041179298118342 0 -0.020810082525572281 -0.0018969974634858626 0 -0.020074842906496818 -0.0021229986498480795 0 -0.02050902405756546 -0.0019518140165553565 0 -0.020521757279961351 -0.0019041179298118342 0 -0.020714077409859404 -0.0018605234698752737 0 -0.020810082525572281 -0.0018969974634858626 0 -0.020714077409859404 -0.0018605234698752737 0 -0.020810082525572281 -0.0018969974634858626 0 -0.02082589944355235 -0.0018368874293358862 0 -0.02102273223572193 -0.0018762356041923799 0 -0.02108187853757525 -0.0020744722902980273 0 -0.020810082525572281 -0.0018969974634858626 0 -0.02102273223572193 -0.0018762356041923799 0 -0.020810082525572281 -0.0018969974634858626 0 -0.02082589944355235 -0.0018368874293358862 0 -0.020899876383394904 -0.0018617934324912523 0 -0.020880379566069543 -0.0017668541189189968 0 -0.02082589944355235 -0.0018368874293358862 0 -0.020880379566069543 -0.0017668541189189968 0 -0.02102273223572193 -0.0018762356041923799 0 -0.02082589944355235 -0.0018368874293358862 0 -0.020714077409859404 -0.0018605234698752737 0 -0.02082589944355235 -0.0018368874293358862 0 -0.020822680348240002 -0.0018528930668268188 0 -0.020899876383394904 -0.0018617934324912523 0 -0.02082589944355235 -0.0018368874293358862 0 -0.020822680348240002 -0.0018528930668268188 0 -0.020899876383394904 -0.0018617934324912523 0 -0.020822680348240002 -0.0018528930668268188 0 -0.020980254982630082 -0.0018881467927449507 0 -0.020980254982630082 -0.0018881467927449507 0 -0.02095032054641096 -0.0018376621597841311 0 -0.02109733750229701 -0.0019119477062949938 0 -0.020822680348240002 -0.0018528930668268188 0 -0.020980254982630082 -0.0018881467927449507 0 -0.02095032054641096 -0.0018376621597841311 0 -0.020766546445321402 -0.0017860834426701637 0 -0.02095032054641096 -0.0018376621597841311 0 -0.020990049732046951 -0.0016858238472305487 0 -0.020766546445321402 -0.0017860834426701637 0 -0.020822680348240002 -0.0018528930668268188 0 -0.02095032054641096 -0.0018376621597841311 0 -0.020990049732046951 -0.0016858238472305487 0 -0.021098900983277182 -0.0018259903998859418 0 -0.021265724020941918 -0.0016975742470162996 0 -0.02095032054641096 -0.0018376621597841311 0 -0.020990049732046951 -0.0016858238472305487 0 -0.021098900983277182 -0.0018259903998859418 0 -0.02095032054641096 -0.0018376621597841311 0 -0.021098900983277182 -0.0018259903998859418 0 -0.02109733750229701 -0.0019119477062949938 0 -0.021098900983277182 -0.0018259903998859418 0 -0.02109733750229701 -0.0019119477062949938 0 -0.021202092424260372 -0.0019327460059351364 0 -0.021098900983277182 -0.0018259903998859418 0 -0.021202092424260372 -0.0019327460059351364 0 -0.021265724020941918 -0.0016975742470162996 0 -0.020752642310867417 -0.0023238727714943175 0 -0.020810097379899688 -0.0022456641490444388 0 -0.020739873554548795 -0.0021372451965155025 0 -0.021174572630497608 -0.0021698770627464206 0 -0.019442033007641739 -0.0016673652185432623 0 -0.020752642310867417 -0.0023238727714943175 0 -0.020810097379899688 -0.0022456641490444388 0 -0.020820358637791574 -0.0023196534674345486 0 -0.018379109900704144 -0.0016274735429388464 0 -0.016156359347200087 -0.0013074751447021637 0 -0.015107752422171071 -0.0009890607292476043 0 -0.015067528138288711 -0.0013247042553693341 0 -0.01475782294179971 -0.0012530590887450872 0 -0.017509883513388304 -0.0012214863715771798 0 -0.017586532943908492 -0.0013682772342930218 0 -0.01746750012127567 -0.0014205295490528082 0 -0.018379109900704144 -0.0016274735429388464 0 -0.019239517612249707 -0.0018870071852335878 0 -0.020834944121274446 -0.0023292172270864939 0 -0.020810097379899688 -0.0022456641490444388 0 -0.020820358637791574 -0.0023196534674345486 0 -0.016156359347200087 -0.0013074751447021637 0 -0.016250764296348089 -0.0016911409410187619 0 -0.017586532943908492 -0.0013682772342930218 0 -0.01746750012127567 -0.0014205295490528082 0 -0.017543946668005767 -0.0015512026986390635 0 -0.01746750012127567 -0.0014205295490528082 0 -0.017543946668005767 -0.0015512026986390635 0 -0.017409531442919353 -0.0016514768093800092 0 -0.017586532943908492 -0.0013682772342930218 0 -0.017543946668005767 -0.0015512026986390635 0 -0.017684120179602452 -0.0015311535244519022 0 -0.019239517612249707 -0.0018870071852335878 0 -0.019442033007641739 -0.0016673652185432623 0 -0.019442033007641739 -0.0016673652185432623 0 -0.017772494365333045 -0.0016684452840062512 0 -0.017796022957420363 -0.0012975824586955195 0 -0.017753116962623369 -0.0016210877490735998 0 -0.018054738278753913 -0.0017941531316003967 0 -0.017543946668005767 -0.0015512026986390635 0 -0.017684120179602452 -0.0015311535244519022 0 -0.01767772065258397 -0.0017116500188611907 0 -0.019442033007641739 -0.0016673652185432623 0 -0.019638849962510075 -0.001501425946528861 0 -0.017543946668005767 -0.0015512026986390635 0 -0.01767772065258397 -0.0017116500188611907 0 -0.017531168742559056 -0.0017061370804201817 0 -0.01767772065258397 -0.0017116500188611907 0 -0.017531168742559056 -0.0017061370804201817 0 -0.017498654273980098 -0.001843902343151825 0 -0.017543946668005767 -0.0015512026986390635 0 -0.017409531442919353 -0.0016514768093800092 0 -0.017531168742559056 -0.0017061370804201817 0 -0.017409531442919353 -0.0016514768093800092 0 -0.017531168742559056 -0.0017061370804201817 0 -0.017498654273980098 -0.001843902343151825 0 -0.016250764296348089 -0.0016911409410187619 0 -0.015658180942055479 -0.0019020477674459998 0 -0.017409531442919353 -0.0016514768093800092 0 -0.017498654273980098 -0.001843902343151825 0 -0.017350673756176722 -0.0019203207775567847 0 -0.017498654273980098 -0.001843902343151825 0 -0.01769727957911511 -0.0019574781232710343 0 -0.017471983855754946 -0.0021492959132532342 0 -0.017498654273980098 -0.001843902343151825 0 -0.01725384071055984 -0.0019549958730945734 0 -0.017471983855754946 -0.0021492959132532342 0 -0.017592782525889365 -0.0015409292922880188 0 -0.015658180942055479 -0.0019020477674459998 0 -0.01767772065258397 -0.0017116500188611907 0 -0.017498654273980098 -0.001843902343151825 0 -0.01769727957911511 -0.0019574781232710343 0 -0.017753116962623369 -0.0016210877490735998 0 -0.01769727957911511 -0.0019574781232710343 0 -0.018054738278753913 -0.0017941531316003967 0 -0.017772494365333045 -0.0016684452840062512 0 -0.017700572525924503 -0.001927314618214268 0 -0.01769727957911511 -0.0019574781232710343 0 -0.018054738278753913 -0.0017941531316003967 0 -0.017962358067223311 -0.0021084238907879849 0 -0.021127025371777061 -0.0012597348903249197 0 -0.020712693881363469 -0.0010663722388153194 0 -0.020690576680383599 -0.00046358315189840276 0 -0.020229968293517558 -0.00082670780185927059 0 -0.020712693881363469 -0.0010663722388153194 0 -0.020754382871112888 -0.0014840516169494112 0 -0.021127025371777061 -0.0012597348903249197 0 -0.020712693881363469 -0.0010663722388153194 0 -0.020754382871112888 -0.0014840516169494112 0 -0.02059542076474169 -0.00089195643852432304 0 -0.020688993900114389 -0.0013916021302477933 0 -0.020229968293517558 -0.00082670780185927059 0 -0.020712693881363469 -0.0010663722388153194 0 -0.0204397095509978 -0.00073490074009674076 0 -0.020766546445321402 -0.0017860834426701637 0 -0.020990049732046951 -0.0016858238472305487 0 -0.020754382871112888 -0.0014840516169494112 0 -0.02066062602703372 -0.0016534606176661886 0 -0.020766546445321402 -0.0017860834426701637 0 -0.020754382871112888 -0.0014840516169494112 0 -0.020990049732046951 -0.0016858238472305487 0 -0.021127025371777061 -0.0012597348903249197 0 -0.020754382871112888 -0.0014840516169494112 0 -0.020990049732046951 -0.0016858238472305487 0 -0.021265724020941918 -0.0016975742470162996 0 -0.021127025371777061 -0.0012597348903249197 0 -0.013704572402491328 -0.001364245329632174 0 -0.014136439144429063 -0.0013546908415133314 0 -0.013993845994353859 -0.001717638219840685 0 -0.014129029633969085 -0.0010058482194884061 0 -0.013704572402491328 -0.001364245329632174 0 -0.014136439144429063 -0.0013546908415133314 0 -0.014129029633969085 -0.0010058482194884061 0 -0.014136439144429063 -0.0013546908415133314 0 -0.014448345939433367 -0.0011313212287024502 0 -0.014136439144429063 -0.0013546908415133314 0 -0.014472067979609902 -0.0014647557832679595 0 -0.014448345939433367 -0.0011313212287024502 0 -0.014136439144429063 -0.0013546908415133314 0 -0.014472067979609902 -0.0014647557832679595 0 -0.013993845994353859 -0.001717638219840685 0 -0.014472067979609902 -0.0014647557832679595 0 -0.01475782294179971 -0.0012530590887450872 0 -0.014729962060278335 -0.0016279454978906664 0 -0.014472067979609902 -0.0014647557832679595 0 -0.014448345939433367 -0.0011313212287024502 0 -0.01475782294179971 -0.0012530590887450872 0 -0.014724470828263624 -0.00095109010349237019 0 -0.014448345939433367 -0.0011313212287024502 0 -0.01475782294179971 -0.0012530590887450872 0 -0.014724470828263624 -0.00095109010349237019 0 -0.015107752422171071 -0.0009890607292476043 0 -0.01475782294179971 -0.0012530590887450872 0 -0.015067528138288711 -0.0013247042553693341 0 -0.01475782294179971 -0.0012530590887450872 0 -0.014729962060278335 -0.0016279454978906664 0 -0.015067528138288711 -0.0013247042553693341 0 -0.015027235309714474 -0.0016848344298290906 0 -0.014729962060278335 -0.0016279454978906664 0 -0.015027235309714474 -0.0016848344298290906 0 -0.014984455026095427 -0.0020649275134382757 0 -0.014729962060278335 -0.0016279454978906664 0 -0.014984455026095427 -0.0020649275134382757 0 -0.014478570251703328 -0.0018671412930674151 0 -0.014545553145598808 -0.0023049176321936226 0 -0.014984455026095427 -0.0020649275134382757 0 -0.014729962060278335 -0.0016279454978906664 0 -0.014478570251703328 -0.0018671412930674151 0 -0.014478570251703328 -0.0018671412930674151 0 -0.014150377836478142 -0.0020589107521574198 0 -0.014545553145598808 -0.0023049176321936226 0 -0.014472067979609902 -0.0014647557832679595 0 -0.014729962060278335 -0.0016279454978906664 0 -0.014478570251703328 -0.0018671412930674151 0 -0.014472067979609902 -0.0014647557832679595 0 -0.014478570251703328 -0.0018671412930674151 0 -0.013993845994353859 -0.001717638219840685 0 -0.014478570251703328 -0.0018671412930674151 0 -0.014150377836478142 -0.0020589107521574198 0 -0.013993845994353859 -0.001717638219840685 0 -0.013681509165530284 -0.0021276239230948683 0 -0.014150377836478142 -0.0020589107521574198 0 -0.013993845994353859 -0.001717638219840685 0 -0.01256167190153001 -0.0032458924411699272 0 -0.012041560206630251 -0.003542619307194943 0 -0.012044141689774057 -0.0029578074651945654 0 -0.013364391828526063 -0.0026525225270279109 0 -0.013685468954175311 -0.0027404521016979703 0 -0.013717819438813277 -0.0024286998274325095 0 -0.01307315935194321 -0.0029961815182819019 0 -0.013037764594376434 -0.0024484291070096613 0 -0.013685468954175311 -0.0027404521016979703 0 -0.013906846045356074 -0.002467641386347824 0 -0.014059388343483796 -0.0025620503511885385 0 -0.013685468954175311 -0.0027404521016979703 0 -0.013906846045356074 -0.002467641386347824 0 -0.013717819438813277 -0.0024286998274325095 0 -0.013681509165530284 -0.0021276239230948683 0 -0.013717819438813277 -0.0024286998274325095 0 -0.014020717202655611 -0.0023516854244986264 0 -0.013681509165530284 -0.0021276239230948683 0 -0.014150377836478142 -0.0020589107521574198 0 -0.014020717202655611 -0.0023516854244986264 0 -0.013906846045356074 -0.002467641386347824 0 -0.013717819438813277 -0.0024286998274325095 0 -0.014020717202655611 -0.0023516854244986264 0 -0.013037764594376434 -0.0024484291070096613 0 -0.013861602765330236 -0.0020648989071100259 0 -0.014020717202655611 -0.0023516854244986264 0 -0.014059388343483796 -0.0025620503511885385 0 -0.014545553145598808 -0.0023049176321936226 0 -0.014150377836478142 -0.0020589107521574198 0 -0.014020717202655611 -0.0023516854244986264 0 -0.014545553145598808 -0.0023049176321936226 0 -0.013037764594376434 -0.0024484291070096613 0 -0.012521726990412206 -0.0027963143364779846 0 -0.012996013916362792 -0.0020885168368082016 0 -0.013345707186161553 -0.0021281824499566437 0 -0.013347095019439738 -0.0023831965366140134 0 -0.013906846045356074 -0.002467641386347824 0 -0.014020717202655611 -0.0023516854244986264 0 -0.014059388343483796 -0.0025620503511885385 0 -0.012996013916362792 -0.0020885168368082016 0 -0.013345707186161553 -0.0021281824499566437 0 -0.013410290259493043 -0.0018318930440940687 0 -0.013464025975771007 -0.002226355239573589 0 -0.013514119262104841 -0.0020720078610078196 0 -0.013345707186161553 -0.0021281824499566437 0 -0.013464025975771007 -0.002226355239573589 0 -0.013345707186161553 -0.0021281824499566437 0 -0.013347095019439738 -0.0023831965366140134 0 -0.013514119262104841 -0.0020720078610078196 0 -0.013345707186161553 -0.0021281824499566437 0 -0.013410290259493043 -0.0018318930440940687 0 -0.013514119262104841 -0.0020720078610078196 0 -0.013410290259493043 -0.0018318930440940687 0 -0.013694159127111137 -0.001869924071253829 0 -0.015658180942055479 -0.0019020477674459998 0 -0.013861602765330236 -0.0020648989071100259 0 -0.015658180942055479 -0.0019020477674459998 0 -0.015111912169488933 -0.0019073491994703467 0 -0.013966719255757244 -0.0015132003878802541 0 -0.013694159127111137 -0.001869924071253829 0 -0.013894605212138261 -0.0020576838657788187 0 -0.013966719255757244 -0.0015132003878802541 0 -0.013410290259493043 -0.0018318930440940687 0 -0.013694159127111137 -0.001869924071253829 0 -0.014500821509897751 -0.00065594853405556307 0 -0.014294510537052874 -0.0022738474500616241 0 -0.015133732115237537 -0.001659305944344838 0 -0.015111912169488933 -0.0019073491994703467 0 -0.013195325270402621 -0.0023608269203795112 0 -0.013735198007293893 -0.0020551445514992552 0 -0.01360639603351492 -0.0021931685102459619 0 -0.013683879348100558 -0.0023708020322971042 0 -0.013514119262104841 -0.0020720078610078196 0 -0.013735198007293893 -0.0020551445514992552 0 -0.01360639603351492 -0.0021931685102459619 0 -0.013514119262104841 -0.0020720078610078196 0 -0.013694159127111137 -0.001869924071253829 0 -0.013894605212138261 -0.0020576838657788187 0 -0.013201567007309158 -0.002101906206248894 0 -0.015111912169488933 -0.0019073491994703467 0 -0.013464025975771007 -0.002226355239573589 0 -0.01360639603351492 -0.0021931685102459619 0 -0.013600980668728942 -0.0023147315089268295 0 -0.013464025975771007 -0.002226355239573589 0 -0.013514119262104841 -0.0020720078610078196 0 -0.01360639603351492 -0.0021931685102459619 0 -0.013195325270402621 -0.0023608269203795112 0 -0.010760074710110991 -0.0022860862995338475 0 -0.013600980668728942 -0.0023147315089268295 0 -0.013613967982133129 -0.0026299769942235585 0 -0.013347095019439738 -0.0023831965366140134 0 -0.011584897242891414 -0.0023593024852877021 0 -0.011580412184852942 -0.0022309099970137807 0 -0.011538234835391448 -0.0023281048969128553 0 -0.013665721542711576 -0.0023673197965123354 0 -0.013600980668728942 -0.0023147315089268295 0 -0.013613967982133129 -0.0026299769942235585 0 -0.01360639603351492 -0.0021931685102459619 0 -0.013683879348100558 -0.0023708020322971042 0 -0.013600980668728942 -0.0023147315089268295 0 -0.013195325270402621 -0.0023608269203795112 0 -0.01344418753555569 -0.0024390087314461566 0 -0.013195325270402621 -0.0023608269203795112 0 -0.013168733422506167 -0.0023767646811466568 0 -0.009033467872238023 -0.0016905488598913899 0 -0.013168733422506167 -0.0023767646811466568 0 -0.011580412184852942 -0.0022309099970137807 0 -0.01155023754727354 -0.0022059210392514519 0 -0.011538234835391448 -0.0023281048969128553 0 -0.0074554754244739703 -0.0016818980690510843 0 -0.0059298866320708615 -0.0018785582976783594 0 -0.0074148017605928295 -0.0019845077074136883 0 -0.01067663440483862 -0.0023396960215560235 0 -0.010686496510786337 -0.0022438058183060073 0 -0.011417486859501464 -0.0021595307845116828 0 -0.009950083084407535 -0.0017499109903937509 0 -0.0099735705907621191 -0.0015464764720476273 0 -0.0096710682255753983 -0.0014918146577338183 0 -0.010760074710110991 -0.0022860862995338475 0 -0.0091945129688963106 -0.0017916982879053792 0 -0.010760074710110991 -0.0022860862995338475 0 -0.009033467872238023 -0.0016905488598913899 0 -0.0082894809282240724 -0.0013865461652697408 0 -0.0083940460658493161 -0.0014727323111670191 0 -0.0082660157135131217 -0.0015683159243742464 0 -0.0091945129688963106 -0.0017916982879053792 0 -0.009033467872238023 -0.0016905488598913899 0 -0.0082894809282240724 -0.0013865461652697408 0 -0.0083940460658493161 -0.0014727323111670191 0 -0.0084677011882400826 -0.0014175317131832296 0 -0.0091945129688963106 -0.0017916982879053792 0 -0.007697011661270581 -0.0014823673336256261 0 -0.0078492673997464565 -0.0015916651384980738 0 -0.007697011661270581 -0.0014823673336256261 0 -0.0078492673997464565 -0.0015916651384980738 0 -0.009033467872238023 -0.0016905488598913899 0 -0.0091945129688963106 -0.0017916982879053792 0 -0.0094091971660964346 -0.0019284521702550201 0 -0.01067663440483862 -0.0023396960215560235 0 -0.011417486859501464 -0.0021595307845116828 0 -0.011363158285506655 -0.0029515851107015188 0 -0.010760074710110991 -0.0022860862995338475 0 -0.012521726990412206 -0.0027963143364779846 0 -0.011417486859501464 -0.0021595307845116828 0 -0.011363158285506655 -0.0029515851107015188 0 -0.011855576566984993 -0.0025174294167617326 0 -0.013464025975771007 -0.002226355239573589 0 -0.013600980668728942 -0.0023147315089268295 0 -0.013347095019439738 -0.0023831965366140134 0 -0.012044141689774057 -0.0029578074651945654 0 -0.011855576566984993 -0.0025174294167617326 0 -0.012482341902870193 -0.0026878675344510594 0 -0.012041560206630251 -0.003542619307194943 0 -0.011363158285506655 -0.0029515851107015188 0 -0.012044141689774057 -0.0029578074651945654 0 -0.011363158285506655 -0.0029515851107015188 0 -0.012044141689774057 -0.0029578074651945654 0 -0.011855576566984993 -0.0025174294167617326 0 -0.0094091971660964346 -0.0019284521702550201 0 -0.0042763537664243564 -0.0027940981088705194 0 -0.011417486859501464 -0.0021595307845116828 0 -0.011855576566984993 -0.0025174294167617326 0 -0.012133091792226647 -0.002104689372303807 0 -0.013053674523598719 -0.0025427328274752799 0 -0.012482341902870193 -0.0026878675344510594 0 -0.012133091792226647 -0.002104689372303807 0 -0.011855576566984993 -0.0025174294167617326 0 -0.012482341902870193 -0.0026878675344510594 0 -0.012133091792226647 -0.002104689372303807 0 -0.0069820503791104497 -0.0030899617533784564 0 -0.0042763537664243564 -0.0027940981088705194 0 -0.01256167190153001 -0.0032458924411699272 0 -0.012044141689774057 -0.0029578074651945654 0 -0.012482341902870193 -0.0026878675344510594 0 -0.017883511304798351 -0.0011869482627522015 0 -0.019011415407742066 -0.00032468220731837115 0 -0.016676460905679476 -0.00045121781560953825 0 -0.017883511304798351 -0.0011869482627522015 0 -0.01888263656524812 -0.00086603473067304172 0 -0.019011415407742066 -0.00032468220731837115 0 -0.017883511304798351 -0.0011869482627522015 0 -0.019316040847463248 -0.0015741424436308245 0 -0.01888263656524812 -0.00086603473067304172 0 -0.020311611581449219 -0.00062956053485137395 0 -0.019316040847463248 -0.0015741424436308245 0 -0.019676619969347098 -0.00081198721067327767 0 -0.016483193260985615 -0.0023575668327454075 0 -0.016129796349611106 -0.0025615969183961453 0 -0.016224796244762023 -0.0026489041371138529 0 -0.019316040847463248 -0.0015741424436308245 0 -0.019676619969347098 -0.00081198721067327767 0 -0.019225613316952588 -0.00091285689316927137 0 -0.019316040847463248 -0.0015741424436308245 0 -0.01888263656524812 -0.00086603473067304172 0 -0.019225613316952588 -0.00091285689316927137 0 -0.019676619969347098 -0.00081198721067327767 0 -0.019225613316952588 -0.00091285689316927137 0 -0.019011415407742066 -0.00032468220731837115 0 -0.01888263656524812 -0.00086603473067304172 0 -0.019225613316952588 -0.00091285689316927137 0 -0.019011415407742066 -0.00032468220731837115 0 -0.020712693881363469 -0.0010663722388153194 0 -0.020690576680383599 -0.00046358315189840276 0 -0.0204397095509978 -0.00073490074009674076 0 -0.020284860251602553 -0.00064263605085607058 0 -0.019180990072447449 -0.0014047581518974671 0 -0.020178547961633483 -0.00058729043434035358 0 -0.020690576680383599 -0.00046358315189840276 0 -0.0204397095509978 -0.00073490074009674076 0 -0.020178547961633483 -0.00058729043434035358 0 -0.019676619969347098 -0.00081198721067327767 0 -0.019011415407742066 -0.00032468220731837115 0 -0.020178547961633483 -0.00058729043434035358 0 -0.020229968293517558 -0.00082670780185927059 0 -0.0204397095509978 -0.00073490074009674076 0 -0.018341977164670325 -0.0023122508238299939 0 -0.017962358067223311 -0.0021084238907879849 0 -0.017755319411630124 -0.0023684790862618663 0 -0.019180990072447449 -0.0014047581518974671 0 -0.017266501514559888 -0.0013583422895749708 0 -0.018054738278753913 -0.0017941531316003967 0 -0.018341977164670325 -0.0023122508238299939 0 -0.017962358067223311 -0.0021084238907879849 0 -0.019638849962510075 -0.001501425946528861 0 -0.019180990072447449 -0.0014047581518974671 0 -0.01769727957911511 -0.0019574781232710343 0 -0.017471983855754946 -0.0021492959132532342 0 -0.017755319411630124 -0.0023684790862618663 0 -0.01769727957911511 -0.0019574781232710343 0 -0.017962358067223311 -0.0021084238907879849 0 -0.017755319411630124 -0.0023684790862618663 0 -0.017177311705327193 -0.0024172478557477743 0 -0.017471983855754946 -0.0021492959132532342 0 -0.017755319411630124 -0.0023684790862618663 0 -0.01725384071055984 -0.0019549958730945734 0 -0.017177311705327193 -0.0024172478557477743 0 -0.017471983855754946 -0.0021492959132532342 0 -0.015111912169488933 -0.0019073491994703467 0 -0.017266501514559888 -0.0013583422895749708 0 -0.014500821509897751 -0.00065594853405556307 0 -0.016676460905679476 -0.00045121781560953825 0 -0.016131567353063762 -0.0015137759094131895 0 -0.014500821509897751 -0.00065594853405556307 0 -0.015133732115237537 -0.001659305944344838 0 -0.016131567353063762 -0.0015137759094131895 0 -0.017883511304798351 -0.0011869482627522015 0 -0.016676460905679476 -0.00045121781560953825 0 -0.017028478752678624 -0.0016006542395064496 0 -0.016676460905679476 -0.00045121781560953825 0 -0.016131567353063762 -0.0015137759094131895 0 -0.017028478752678624 -0.0016006542395064496 0 -0.017028478752678624 -0.0016006542395064496 0 -0.016781722563218679 -0.0022589884075662871 0 -0.017615229099851321 -0.0025001964962871465 0 -0.016452730262540398 -0.002723558283913281 0 -0.016821301610907707 -0.0026170661811196053 0 -0.016131567353063762 -0.0015137759094131895 0 -0.017028478752678624 -0.0016006542395064496 0 -0.016781722563218679 -0.0022589884075662871 0 -0.016781722563218679 -0.0022589884075662871 0 -0.016379065865345134 -0.0027075051951811735 0 -0.017615229099851321 -0.0025001964962871465 0 -0.016131567353063762 -0.0015137759094131895 0 -0.016781722563218679 -0.0022589884075662871 0 -0.015676631717813805 -0.0022436426491409746 0 -0.01740266339418477 -0.0018810913585998804 0 -0.012552096046125375 -0.0024796929893372227 0 -0.016781722563218679 -0.0022589884075662871 0 -0.015676631717813805 -0.0022436426491409746 0 -0.015553435420153187 -0.0031768598970344391 0 -0.016781722563218679 -0.0022589884075662871 0 -0.016287596910621618 -0.0027173095914573902 0 -0.016379065865345134 -0.0027075051951811735 0 -0.014711520659891083 -0.0016679705047514474 0 -0.013168733422506167 -0.0023767646811466568 0 -0.015133732115237537 -0.001659305944344838 0 -0.015676631717813805 -0.0022436426491409746 0 -0.014789716477800091 -0.002623419111510236 0 -0.014294510537052874 -0.0022738474500616241 0 -0.015133732115237537 -0.001659305944344838 0 -0.014792617769610217 -0.0026325351433090631 0 -0.015133732115237537 -0.001659305944344838 0 -0.016131567353063762 -0.0015137759094131895 0 -0.015676631717813805 -0.0022436426491409746 0 -0.015676631717813805 -0.0022436426491409746 0 -0.014789716477800091 -0.002623419111510236 0 -0.015553435420153187 -0.0031768598970344391 0 -0.013168733422506167 -0.0023767646811466568 0 -0.012552096046125375 -0.0024796929893372227 0 -0.011181989003362564 -0.0025867761602795924 0 -0.01142102578739977 -0.0017571157059536092 0 -0.011874692833901662 -0.0020832972648272018 0 -0.00903639305081173 -0.0018126048123729139 0 -0.0078653732339578671 -0.002701088882936967 0 -0.0076536564734364957 -0.0017238270209857705 0 -0.009033467872238023 -0.0016905488598913899 0 -0.012552096046125375 -0.0024796929893372227 0 -0.016131285149510632 -0.0027119747022977714 0 -0.016379065865345134 -0.0027075051951811735 0 -0.015925283244241206 -0.0028642618667920295 0 -0.016131285149510632 -0.0027119747022977714 0 -0.016379065865345134 -0.0027075051951811735 0 -0.016349234847219913 -0.0026052070479771483 0 -0.012552096046125375 -0.0024796929893372227 0 -0.011719377182244145 -0.0023850737290776408 0 -0.016287596910621618 -0.0027173095914573902 0 -0.016379065865345134 -0.0027075051951811735 0 -0.016349234847219913 -0.0026052070479771483 0 -0.0078653732339578671 -0.002701088882936967 0 -0.0076536564734364957 -0.0017238270209857705 0 -0.0066761288185608423 -0.0018510634892339266 0 -0.016131285149510632 -0.0027119747022977714 0 -0.016349234847219913 -0.0026052070479771483 0 -0.016130416849751864 -0.002588443594304512 0 -0.015806943221226485 -0.0025959103792373736 0 -0.015419332102669206 -0.0026896868881505294 0 -0.015906150672784343 -0.0021799197495532812 0 -0.015969349678761156 -0.0025196441834069668 0 -0.016130416849751864 -0.002588443594304512 0 -0.015906150672784343 -0.0021799197495532812 0 -0.016349234847219913 -0.0026052070479771483 0 -0.016130416849751864 -0.002588443594304512 0 -0.015906150672784343 -0.0021799197495532812 0 -0.015969349678761156 -0.0025196441834069668 0 -0.015806943221226485 -0.0025959103792373736 0 -0.015998712411329417 -0.002668716379741312 0 -0.015969349678761156 -0.0025196441834069668 0 -0.016130416849751864 -0.002588443594304512 0 -0.015998712411329417 -0.002668716379741312 0 -0.015969349678761156 -0.0025196441834069668 0 -0.015806943221226485 -0.0025959103792373736 0 -0.015906150672784343 -0.0021799197495532812 0 -0.015806943221226485 -0.0025959103792373736 0 -0.015856890699654538 -0.0027281487849978043 0 -0.015419332102669206 -0.0026896868881505294 0 -0.015856890699654538 -0.0027281487849978043 0 -0.015927437172995253 -0.0028608830775829 0 -0.015419332102669206 -0.0026896868881505294 0 -0.015806943221226485 -0.0025959103792373736 0 -0.015856890699654538 -0.0027281487849978043 0 -0.015998712411329417 -0.002668716379741312 0 -0.015856890699654538 -0.0027281487849978043 0 -0.015981380941453804 -0.0027770139481500707 0 -0.015927437172995253 -0.0028608830775829 0 -0.016131285149510632 -0.0027119747022977714 0 -0.016130416849751864 -0.002588443594304512 0 -0.015998712411329417 -0.002668716379741312 0 -0.015856890699654538 -0.0027281487849978043 0 -0.015998712411329417 -0.002668716379741312 0 -0.015981380941453804 -0.0027770139481500707 0 -0.016131285149510632 -0.0027119747022977714 0 -0.015998712411329417 -0.002668716379741312 0 -0.015981380941453804 -0.0027770139481500707 0 -0.017653191979296108 -0.0021120098284843538 0 -0.016821301610907707 -0.0026170661811196053 0 -0.017883511304798351 -0.0011869482627522015 0 -0.017028478752678624 -0.0016006542395064496 0 -0.017615229099851321 -0.0025001964962871465 0 -0.016131285149510632 -0.0027119747022977714 0 -0.015981380941453804 -0.0027770139481500707 0 -0.015925283244241206 -0.0028642618667920295 0 -0.017883511304798351 -0.0011869482627522015 0 -0.019316040847463248 -0.0015741424436308245 0 -0.017615229099851321 -0.0025001964962871465 0 -0.016129796349611106 -0.0025615969183961453 0 -0.015925283244241206 -0.0028642618667920295 0 -0.015927437172995253 -0.0028608830775829 0 -0.015981380941453804 -0.0027770139481500707 0 -0.015925283244241206 -0.0028642618667920295 0 -0.015927437172995253 -0.0028608830775829 0 -0.016129796349611106 -0.0025615969183961453 0 -0.016224796244762023 -0.0026489041371138529 0 -0.016076777054106307 -0.0028378350135281642 0 -0.016129796349611106 -0.0025615969183961453 0 -0.015927437172995253 -0.0028608830775829 0 -0.016076777054106307 -0.0028378350135281642 0 -0.015927437172995253 -0.0028608830775829 0 -0.016076777054106307 -0.0028378350135281642 0 -0.016134274867006748 -0.0029578777426943711 0 -0.016224796244762023 -0.0026489041371138529 0 -0.016076777054106307 -0.0028378350135281642 0 -0.016223567336673513 -0.0028413409644767033 0 -0.016076777054106307 -0.0028378350135281642 0 -0.016223567336673513 -0.0028413409644767033 0 -0.016134274867006748 -0.0029578777426943711 0 -0.014969471919504087 -0.0023976356316531529 0 -0.015419332102669206 -0.0026896868881505294 0 -0.015906150672784343 -0.0021799197495532812 0 -0.01636414504855779 -0.0031044388202324008 0 -0.016223567336673513 -0.0028413409644767033 0 -0.016134274867006748 -0.0029578777426943711 0 -0.015738264794885593 -0.0027601743653325041 0 -0.016271518696012843 -0.0031571438676712372 0 -0.012234996773972117 -0.00084671977060816084 0 -0.016271518696012843 -0.0031571438676712372 0 -0.012234996773972117 -0.00084671977060816084 0 -0.0085163679531401349 -0.0011986572386643347 0 -0.0046320119753936271 -5.8931704347942474e-05 0 -0.0046699352551428461 -5.0585073693122382e-05 0 -0.0048247511650569182 -0.00013164456125788347 0 -0.0045200619111087107 -7.2288186439642191e-05 0 -0.0046320119753936271 -5.8931704347942474e-05 0 -0.0048247511650569182 -0.00013164456125788347 0 -0.0046320119753936271 -5.8931704347942474e-05 0 -0.0046699352551428461 -5.0585073693122382e-05 0 -0.0044812463462543988 4.0890407279877158e-05 0 -0.0046699352551428461 -5.0585073693122382e-05 0 -0.0043492691138441609 0.00029503716513381662 0 -0.0044812463462543988 4.0890407279877158e-05 0 -0.0046699352551428461 -5.0585073693122382e-05 0 -0.005246933154156328 0.00043373840155569801 0 -0.0043492691138441609 0.00029503716513381662 0 -0.0046008461417378866 0.00043703197221984803 0 -0.0043752068852381202 0.00035521857870436457 0 -0.0046008461417378866 0.00043703197221984803 0 -0.0047245105181803427 0.00022679804591750093 0 -0.0037974181361520309 0.00051328982485844348 0 -0.0033833744689475806 0.00060358089587283505 0 -0.0035054674544265692 0.00049718211056902668 0 -0.005246933154156328 0.00043373840155569801 0 -0.0057065145498096858 -0.00017368095349552264 0 -0.0066905444966505172 0.00022684510908695834 0 -0.0046699352551428461 -5.0585073693122382e-05 0 -0.005246933154156328 0.00043373840155569801 0 -0.0057065145498096858 -0.00017368095349552264 0 -0.0037974181361520309 0.00051328982485844348 0 -0.0035054674544265692 0.00049718211056902668 0 -0.0036486622270678801 0.00032428476986211675 0 -0.0046699352551428461 -5.0585073693122382e-05 0 -0.0057065145498096858 -0.00017368095349552264 0 -0.0055794654849418658 -0.0009015830067049959 0 -0.0057065145498096858 -0.00017368095349552264 0 -0.0055794654849418658 -0.0009015830067049959 0 -0.0063815952879518936 -0.00076438545606766608 0 -0.003878602471316842 0.00047395636273012191 0 -0.0085163679531401349 -0.0011986572386643347 0 -0.011719377182244145 -0.0023850737290776408 0 -0.0085163679531401349 -0.0011986572386643347 0 -0.0085163679531401349 -0.0011986572386643347 0 -0.005908389569997792 -0.0012302588955906582 0 -0.0063815952879518936 -0.00076438545606766608 0 -0.0078692453209991704 -0.00076333256572870632 0 -0.0066905444966505172 0.00022684510908695834 0 -0.0066761288185608423 -0.0018510634892339266 0 -0.0055249148097696295 -0.0010057158144809594 0 -0.0063815952879518936 -0.00076438545606766608 0 -0.0076536564734364957 -0.0017238270209857705 0 -0.0063815952879518936 -0.00076438545606766608 0 -0.0078692453209991704 -0.00076333256572870632 0 -0.0076536564734364957 -0.0017238270209857705 0 -0.0066761288185608423 -0.0018510634892339266 0 -0.0063815952879518936 -0.00076438545606766608 0 -0.0066282189396561905 -0.00064334288375270706 0 -0.0047245105181803427 0.00022679804591750093 0 -0.0057065145498096858 -0.00017368095349552264 0 -0.0063815952879518936 -0.00076438545606766608 0 -0.0066905444966505172 0.00022684510908695834 0 -0.0054789313197590121 -0.00059121784429131384 0 -0.0056418093474247802 -0.00019486460697859688 0 -0.0047878018807138234 5.2246385570286827e-05 0 -0.00903639305081173 -0.0018126048123729139 0 -0.0076536564734364957 -0.0017238270209857705 0 -0.0078692453209991704 -0.00076333256572870632 0 -0.0061721503800331754 -0.0012284571072905615 0 -0.00600670929715865 -0.00072331288232182665 0 -0.0054789313197590121 -0.00059121784429131384 0 -0.009033467872238023 -0.0016905488598913899 0 -0.0066282189396561905 -0.00064334288375270706 0 -0.00600670929715865 -0.00072331288232182665 0 -0.0054789313197590121 -0.00059121784429131384 0 -0.0056418093474247802 -0.00019486460697859688 0 -0.004348938550939957 0.00022945656337177261 0 -0.0047245105181803427 0.00022679804591750093 0 -0.003065988170575136 0.00065884501918328921 0 -0.0032591867768408667 0.00039272269548600963 0 -0.0029494903031257302 0.00037615653526926223 0 -0.003065988170575136 0.00065884501918328921 0 -0.0033898031823613966 0.0005898384627880546 0 -0.0032591867768408667 0.00039272269548600963 0 -0.0032591867768408667 0.00039272269548600963 0 -0.0035054674544265692 0.00049718211056902668 0 -0.0034625202299708216 0.00029781757311214029 0 -0.0033898031823613966 0.0005898384627880546 0 -0.0032591867768408667 0.00039272269548600963 0 -0.0035054674544265692 0.00049718211056902668 0 -0.0047245105181803427 0.00022679804591750093 0 -0.0037996697954905696 0.00072841053868161101 0 -0.0035054674544265692 0.00049718211056902668 0 -0.0034625202299708216 0.00029781757311214029 0 -0.0036486622270678801 0.00032428476986211675 0 -0.0032591867768408667 0.00039272269548600963 0 -0.0034625202299708216 0.00029781757311214029 0 -0.0033197527547982682 0.00018117360379196892 0 -0.0033197527547982682 0.00018117360379196892 0 -0.0031100857975992235 0.00013659701102304884 0 -0.0033380816024968269 6.5007536829608267e-06 0 -0.0032591867768408667 0.00039272269548600963 0 -0.0033197527547982682 0.00018117360379196892 0 -0.0031100857975992235 0.00013659701102304884 0 -0.0033197527547982682 0.00018117360379196892 0 -0.0033380816024968269 6.5007536829608267e-06 0 -0.0035986805040555273 0.0001177187557302735 0 -0.0034625202299708216 0.00029781757311214029 0 -0.0033197527547982682 0.00018117360379196892 0 -0.0035986805040555273 0.0001177187557302735 0 -0.0032591867768408667 0.00039272269548600963 0 -0.0029494903031257302 0.00037615653526926223 0 -0.0031100857975992235 0.00013659701102304884 0 -0.0029494903031257302 0.00037615653526926223 0 -0.0031100857975992235 0.00013659701102304884 0 -0.0027817246148037831 -5.2496914729821418e-06 0 -0.0031100857975992235 0.00013659701102304884 0 -0.0030969883967374252 -0.00011627254580925573 0 -0.0027817246148037831 -5.2496914729821418e-06 0 -0.0031100857975992235 0.00013659701102304884 0 -0.0030969883967374252 -0.00011627254580925573 0 -0.0033380816024968269 6.5007536829608267e-06 0 -0.0033380816024968269 6.5007536829608267e-06 0 -0.0036306542575851915 -0.00012677472403316805 0 -0.0035986805040555273 0.0001177187557302735 0 -0.0030969883967374252 -0.00011627254580925573 0 -0.0033380816024968269 6.5007536829608267e-06 0 -0.0033848610407002781 -0.0001856328773819275 0 -0.0033380816024968269 6.5007536829608267e-06 0 -0.0036306542575851915 -0.00012677472403316805 0 -0.0033848610407002781 -0.0001856328773819275 0 -0.0036306542575851915 -0.00012677472403316805 0 -0.0038941726737493337 -3.7658746754267984e-05 0 -0.0035986805040555273 0.0001177187557302735 0 -0.0036306542575851915 -0.00012677472403316805 0 -0.0038941726737493337 -3.7658746754267984e-05 0 -0.003857842748485192 -0.00028001025952015452 0 -0.0040895970071785455 -0.00016500781282664876 0 -0.0038941726737493337 -3.7658746754267984e-05 0 -0.003857842748485192 -0.00028001025952015452 0 -0.0040895970071785455 -0.00016500781282664876 0 -0.0038941726737493337 -3.7658746754267984e-05 0 -0.0042124531263791213 6.0290345642908799e-05 0 -0.0038941726737493337 -3.7658746754267984e-05 0 -0.0042124531263791213 6.0290345642908799e-05 0 -0.0039140525448901646 0.00020025727846281668 0 -0.0037974181361520309 0.00051328982485844348 0 -0.0043492691138441609 0.00029503716513381662 0 -0.0039140525448901646 0.00020025727846281668 0 -0.0042124531263791213 6.0290345642908799e-05 0 -0.0043492691138441609 0.00029503716513381662 0 -0.0039140525448901646 0.00020025727846281668 0 -0.0037974181361520309 0.00051328982485844348 0 -0.0039140525448901646 0.00020025727846281668 0 -0.0036486622270678801 0.00032428476986211675 0 -0.0034625202299708216 0.00029781757311214029 0 -0.0036486622270678801 0.00032428476986211675 0 -0.0035986805040555273 0.0001177187557302735 0 -0.0039140525448901646 0.00020025727846281668 0 -0.0036486622270678801 0.00032428476986211675 0 -0.0035986805040555273 0.0001177187557302735 0 -0.0038941726737493337 -3.7658746754267984e-05 0 -0.0039140525448901646 0.00020025727846281668 0 -0.0035986805040555273 0.0001177187557302735 0 0.0004995726973700752 -0.0029432794488730538 0 0.00071266527849159645 -0.0029045032244494674 0 0.00057198309784623077 -0.0026781194532218698 0 0.00094463806911142451 -0.0034877839874632257 0 -0.0042763537664243564 -0.0027940981088705194 0 0.0004995726973700752 -0.0029432794488730538 0 0.00060845700022088643 -0.0031363820515096187 0 0.00071266527849159645 -0.0029045032244494674 0 0.00041204763557549314 -0.0032159812027637421 0 0.0004995726973700752 -0.0029432794488730538 0 0.00060845700022088643 -0.0031363820515096187 0 0.00060845700022088643 -0.0031363820515096187 0 0.00071266527849159645 -0.0029045032244494674 0 0.00080202570715160761 -0.0030113165124559878 0 -0.0042763537664243564 -0.0027940981088705194 0 -0.0023560917277917837 -0.0019963345685271028 0 -0.0059298866320708615 -0.0018785582976783594 0 -0.0044126735501722426 -0.0020774730170299029 0 -0.0065142928587222006 -0.0026510408924913199 0 -0.00010722108343083036 -0.00049260426975348691 0 -0.00043263485049460285 -0.00049303654996554302 0 -0.00014022613366519791 -0.00088724250321973834 0 0.00068642849775682241 -0.0017990992813175382 0 0.00031417829903346376 -0.0016772298354414692 0 -0.00043263485049460285 -0.00049303654996554302 0 -0.00076831158332096568 -0.00025586672998773334 0 -0.00055504675108095265 -0.0007706387079964138 0 0.00068642849775682241 -0.0017990992813175382 0 -0.0023560917277917837 -0.0019963345685271028 0 -0.00010722108343083036 -0.00049260426975348691 0 -0.00043263485049460285 -0.00049303654996554302 0 -0.00053341376995535094 -0.00019191934089170831 0 -0.0059298866320708615 -0.0018785582976783594 0 -0.0065142928587222006 -0.0026510408924913199 0 -0.0074148017605928295 -0.0019845077074136883 0 -0.00043263485049460285 -0.00049303654996554302 0 -0.00053341376995535094 -0.00019191934089170831 0 -0.00076831158332096568 -0.00025586672998773334 0 -0.0039981491785159575 -0.0021291848095228195 0 -0.0056591523091208268 -0.0025908804376563667 0 -0.0058333563551747425 -0.0018321212090975164 0 -0.0023560917277917837 -0.0019963345685271028 0 -0.0038095509756095537 -0.00050069029221472717 0 -0.004348938550939957 0.00022945656337177261 0 -0.0038095509756095537 -0.00050069029221472717 0 -0.00600670929715865 -0.00072331288232182665 0 -0.0056418093474247802 -0.00019486460697859688 0 -0.0064839652667263784 -0.00043923881848475453 0 -0.0023560917277917837 -0.0019963345685271028 0 -0.007697011661270581 -0.0014823673336256261 0 -0.0039981491785159575 -0.0021291848095228195 0 -0.0058333563551747425 -0.0018321212090975164 0 -0.0059811317262898796 -0.00066079631411756514 0 -0.0078492673997464565 -0.0015916651384980738 0 -0.0038095509756095537 -0.00050069029221472717 0 -0.0062557274404271392 -0.0011640119522651718 0 -0.00600670929715865 -0.00072331288232182665 0 -0.0064839652667263784 -0.00043923881848475453 0 -0.0062557274404271392 -0.0011640119522651718 0 -0.0061721503800331754 -0.0012284571072905615 0 -0.00600670929715865 -0.00072331288232182665 0 -0.0064557243852964444 -0.00032223803112344445 0 -0.0058333563551747425 -0.0018321212090975164 0 -0.0059865933600881062 -0.00066961986964387177 0 -0.0064557243852964444 -0.00032223803112344445 0 -0.0056591523091208268 -0.0025908804376563667 0 -0.0058333563551747425 -0.0018321212090975164 0 -0.0069868243984497289 -0.0015543951434038748 0 -0.007697011661270581 -0.0014823673336256261 0 -0.003065988170575136 0.00065884501918328921 0 -0.0029494903031257302 0.00037615653526926223 0 -0.0027585852151755246 0.00073212157521554096 0 -0.0038095509756095537 -0.00050069029221472717 0 -0.001329260380623415 -0.00016753381175118047 0 -0.0029494903031257302 0.00037615653526926223 0 -0.0027585852151755246 0.00073212157521554096 0 -0.0026012179907959638 0.00028444970751462061 0 -0.0029494903031257302 0.00037615653526926223 0 -0.0027817246148037831 -5.2496914729821418e-06 0 -0.0026012179907959638 0.00028444970751462061 0 -0.0027817246148037831 -5.2496914729821418e-06 0 -0.002505615322028692 -0.00012012666820513973 0 -0.002612481084858754 -0.00031179857524618951 0 -0.0017591025266356242 -0.00069250415302587738 0 -0.001329260380623415 -0.00016753381175118047 0 -0.0027817246148037831 -5.2496914729821418e-06 0 -0.002505615322028692 -0.00012012666820513973 0 -0.0026012179907959638 0.00028444970751462061 0 -0.00043263485049460285 -0.00049303654996554302 0 -0.00055504675108095265 -0.0007706387079964138 0 -0.00014022613366519791 -0.00088724250321973834 0 -0.00035194070391693968 -0.001263329944583479 0 -0.00055504675108095265 -0.0007706387079964138 0 -0.00014022613366519791 -0.00088724250321973834 0 -0.00010722108343083036 -0.00049260426975348691 0 -0.00014022613366519791 -0.00088724250321973834 0 0.00028842176032338132 -0.00078521418236783839 0 -0.00035194070391693968 -0.001263329944583479 0 -0.00014022613366519791 -0.00088724250321973834 0 0.00025018198143967869 -0.0014114512932653332 0 0.00067313317928422648 -0.0010709204846631936 0 0.00028842176032338132 -0.00078521418236783839 0 0.00025018198143967869 -0.0014114512932653332 0 -0.00014022613366519791 -0.00088724250321973834 0 0.00028842176032338132 -0.00078521418236783839 0 0.00025018198143967869 -0.0014114512932653332 0 0.0020421252198850786 -0.0003292709893936357 0 0.0034319045726092109 9.0627523460241764e-06 0 0.0025545103471029452 0.00081910960602725295 0 0.0034319045726092109 9.0627523460241764e-06 0 0.0039335961401793761 0.0005145979691808521 0 0.003396948090884944 0.00064260979047109563 0 0.0034319045726092109 9.0627523460241764e-06 0 0.003396948090884944 0.00064260979047109563 0 0.0025545103471029452 0.00081910960602725295 0 0.0020421252198850786 -0.0003292709893936357 0 0.0034319045726092109 9.0627523460241764e-06 0 0.0029482664151754372 -0.0013266730764235721 0 -0.00035194070391693968 -0.001263329944583479 0 0.00025018198143967869 -0.0014114512932653332 0 -0.00016296880623659625 -0.0017408155131591028 0 0.0017892817144875162 -0.0013371146071953558 0 0.0013705422205830796 -0.00060911482950215372 0 0.0034319045726092109 9.0627523460241764e-06 0 0.0046907412071144532 -0.0002552423038774779 0 0.0046161673909760658 2.9410932240823309e-05 0 0.0034319045726092109 9.0627523460241764e-06 0 0.0029482664151754372 -0.0013266730764235721 0 0.0046907412071144532 -0.0002552423038774779 0 0.0013705422205830796 -0.00060911482950215372 0 0.001900483674479599 -0.00068634433571128795 0 0.0034319045726092109 9.0627523460241764e-06 0 0.0039335961401793761 0.0005145979691808521 0 0.0046161673909760658 2.9410932240823309e-05 0 0.0039335961401793761 0.0005145979691808521 0 0.0046161673909760658 2.9410932240823309e-05 0 0.0047397393797662217 0.00082065107803272865 0 0.0047155564849304674 -0.00028584532724896345 0 0.0046161673909760658 2.9410932240823309e-05 0 0.0063316841179308029 0.00082653913026833328 0 0.0013705422205830796 -0.00060911482950215372 0 0.0018081994902626613 0.00028377121902242904 0 -0.0024947097959661137 -0.00034612834280474386 0 -0.002612481084858754 -0.00031179857524618951 0 -0.0026415567663217701 -0.00031482447625304628 0 -0.0017591025266356242 -0.00069250415302587738 0 0.0013705422205830796 -0.00060911482950215372 0 -0.002505615322028692 -0.00012012666820513973 0 -0.0024947097959661137 -0.00034612834280474386 0 -0.002612481084858754 -0.00031179857524618951 0 -0.0027817246148037831 -5.2496914729821418e-06 0 -0.002612481084858754 -0.00031179857524618951 0 -0.0027626050546187861 -0.0003619974059590039 0 -0.002612481084858754 -0.00031179857524618951 0 -0.0027626050546187861 -0.0003619974059590039 0 -0.0026362555330939896 -0.00034298630470444688 0 -0.002612481084858754 -0.00031179857524618951 0 -0.0026362555330939896 -0.00034298630470444688 0 -0.0026415567663217701 -0.00031482447625304628 0 0.0063316841179308029 0.00082653913026833328 0 0.006322531398677533 0.0021477059464118835 0 0.0079217381984490066 0.0020093635105321406 0 0.0018081994902626613 0.00028377121902242904 0 0.0028762355687227291 0.0010367975608937289 0 -0.0026362555330939896 -0.00034298630470444688 0 -0.0026415567663217701 -0.00031482447625304628 0 -0.0025073262685591444 -4.7846331710890712e-05 0 0.006322531398677533 0.0021477059464118835 0 0.0079217381984490066 0.0020093635105321406 0 0.0072205858141502271 0.0030470397223418886 0 0.006322531398677533 0.0021477059464118835 0 0.0060542077373796832 0.0031707423624102327 0 0.0072205858141502271 0.0030470397223418886 0 0.006322531398677533 0.0021477059464118835 0 0.0052808483767480723 0.0023484935488731012 0 0.0060542077373796832 0.0031707423624102327 0 0.006322531398677533 0.0021477059464118835 0 0.0052808483767480723 0.0023484935488731012 0 0.0051408745046733388 0.0014946108903613154 0 0.0063316841179308029 0.00082653913026833328 0 0.006322531398677533 0.0021477059464118835 0 0.0051408745046733388 0.0014946108903613154 0 0.0063316841179308029 0.00082653913026833328 0 0.0051408745046733388 0.0014946108903613154 0 0.0047397393797662217 0.00082065107803272865 0 0.0046161673909760658 2.9410932240823309e-05 0 0.0063316841179308029 0.00082653913026833328 0 0.0047397393797662217 0.00082065107803272865 0 0.0051408745046733388 0.0014946108903613154 0 0.0036863009418177882 0.0012526913028778543 0 0.0043393469628526908 0.0020988187364470666 0 0.0051408745046733388 0.0014946108903613154 0 0.0047397393797662217 0.00082065107803272865 0 0.0036863009418177882 0.0012526913028778543 0 0.0039335961401793761 0.0005145979691808521 0 0.0036863009418177882 0.0012526913028778543 0 0.003396948090884944 0.00064260979047109563 0 0.0039335961401793761 0.0005145979691808521 0 0.0047397393797662217 0.00082065107803272865 0 0.0036863009418177882 0.0012526913028778543 0 0.0052808483767480723 0.0023484935488731012 0 0.0043393469628526908 0.0020988187364470666 0 0.0040624765892129256 0.0034897175226219503 0 0.0052808483767480723 0.0023484935488731012 0 0.0051408745046733388 0.0014946108903613154 0 0.0043393469628526908 0.0020988187364470666 0 0.0043393469628526908 0.0020988187364470666 0 0.0035852328377634162 0.0020845514878171092 0 0.0040624765892129256 0.0034897175226219503 0 0.0036863009418177882 0.0012526913028778543 0 0.0043393469628526908 0.0020988187364470666 0 0.0035852328377634162 0.0020845514878171092 0 0.0051760531588880268 0.002787465817758909 0 0.002844211827269006 0.0023772344370856418 0 0.0030451957716787605 0.0020742666335064391 0 0.0036863009418177882 0.0012526913028778543 0 0.0032746315301614664 0.0020375098085929832 0 0.0022997912160586604 0.002856025283908509 0 0.0035852328377634162 0.0020845514878171092 0 0.0040624765892129256 0.0034897175226219503 0 0.0036863009418177882 0.0012526913028778543 0 0.0035852328377634162 0.0020845514878171092 0 0.0032746315301614664 0.0020375098085929832 0 0.0031437505152205579 0.0021499428236027404 0 0.0035852328377634162 0.0020845514878171092 0 0.0032746315301614664 0.0020375098085929832 0 0.0024800280100323959 0.0018080855589063577 0 0.0036177238652499184 0.0012935041827877023 0 0.0016235286659888261 0.0016793870234182511 0 0.0036863009418177882 0.0012526913028778543 0 0.0025545103471029452 0.00081910960602725295 0 0.0036863009418177882 0.0012526913028778543 0 0.003396948090884944 0.00064260979047109563 0 0.0025545103471029452 0.00081910960602725295 0 -0.0036534800734494255 -0.00067789510576152375 0 -0.0034993551670035187 -0.00051975850507389248 0 -0.0033805616023792318 -0.00071859156057473602 0 -0.0037571347432099572 -0.00049326542500851818 0 -0.0036534800734494255 -0.00067789510576152375 0 -0.0034993551670035187 -0.00051975850507389248 0 -0.0037571347432099572 -0.00049326542500851818 0 -0.0036534800734494255 -0.00067789510576152375 0 -0.0038959482055052411 -0.00064250547740438255 0 -0.0037571347432099572 -0.00049326542500851818 0 -0.0038959482055052411 -0.00064250547740438255 0 -0.0039918081000243927 -0.00042304926502623273 0 -0.0040895970071785455 -0.00016500781282664876 0 -0.0039918081000243927 -0.00042304926502623273 0 -0.003857842748485192 -0.00028001025952015452 0 -0.0037571347432099572 -0.00049326542500851818 0 -0.0039918081000243927 -0.00042304926502623273 0 -0.003857842748485192 -0.00028001025952015452 0 -0.0036306542575851915 -0.00012677472403316805 0 -0.003857842748485192 -0.00028001025952015452 0 -0.0035723477374442476 -0.00033076161264038807 0 -0.0037571347432099572 -0.00049326542500851818 0 -0.003857842748485192 -0.00028001025952015452 0 -0.0035723477374442476 -0.00033076161264038807 0 -0.0037571347432099572 -0.00049326542500851818 0 -0.0035723477374442476 -0.00033076161264038807 0 -0.0034993551670035187 -0.00051975850507389248 0 -0.0036306542575851915 -0.00012677472403316805 0 -0.0035723477374442476 -0.00033076161264038807 0 -0.0033848610407002781 -0.0001856328773819275 0 -0.0035723477374442476 -0.00033076161264038807 0 -0.0033848610407002781 -0.0001856328773819275 0 -0.0032744953785630352 -0.00035162877070125877 0 -0.0030969883967374252 -0.00011627254580925573 0 -0.0033848610407002781 -0.0001856328773819275 0 -0.0032744953785630352 -0.00035162877070125877 0 -0.0035723477374442476 -0.00033076161264038807 0 -0.0032744953785630352 -0.00035162877070125877 0 -0.0034993551670035187 -0.00051975850507389248 0 -0.0030969883967374252 -0.00011627254580925573 0 -0.0027626050546187861 -0.0003619974059590039 0 -0.0032744953785630352 -0.00035162877070125877 0 -0.0030969883967374252 -0.00011627254580925573 0 -0.0027817246148037831 -5.2496914729821418e-06 0 -0.0027626050546187861 -0.0003619974059590039 0 -0.0027626050546187861 -0.0003619974059590039 0 -0.003220169466441102 -0.00055009616020787358 0 -0.0030827082554974738 -0.00074645673465769757 0 -0.0027207212684404172 -0.0003539641795718677 0 -0.0028286574143304845 -0.0005430955162685874 0 -0.0027626050546187861 -0.0003619974059590039 0 -0.0026362555330939896 -0.00034298630470444688 0 -0.0024424124605106033 -0.00032228774304885957 0 -0.0027626050546187861 -0.0003619974059590039 0 -0.0032744953785630352 -0.00035162877070125877 0 -0.003220169466441102 -0.00055009616020787358 0 -0.0032744953785630352 -0.00035162877070125877 0 -0.0034993551670035187 -0.00051975850507389248 0 -0.003220169466441102 -0.00055009616020787358 0 -0.003220169466441102 -0.00055009616020787358 0 -0.0033805616023792318 -0.00071859156057473602 0 -0.0030827082554974738 -0.00074645673465769757 0 -0.0034993551670035187 -0.00051975850507389248 0 -0.003220169466441102 -0.00055009616020787358 0 -0.0033805616023792318 -0.00071859156057473602 0 -0.003402564121626398 -0.00081710725382195442 0 -0.0020233046088674852 -0.00069542715007117725 0 -0.0033805616023792318 -0.00071859156057473602 0 -0.0030827082554974738 -0.00074645673465769757 0 -0.0033387461207355254 -0.0011102170421443593 0 -0.0033805616023792318 -0.00071859156057473602 0 -0.0034067486765963647 -0.00089546179536501935 0 -0.0035583862619924644 -0.00081723428544648309 0 -0.0028286574143304845 -0.0005430955162685874 0 -0.0020233046088674852 -0.00069542715007117725 0 -0.0026362555330939896 -0.00034298630470444688 0 -0.0024424124605106033 -0.00032228774304885957 0 -0.0025073262685591444 -4.7846331710890712e-05 0 -0.0024424124605106033 -0.00032228774304885957 0 -0.0025073262685591444 -4.7846331710890712e-05 0 -0.0021497724057339255 -5.1113526890634824e-05 0 0.0028762355687227291 0.0010367975608937289 0 0.0026028875338072505 0.0018058202579704793 0 0.0079217381984490066 0.0020093635105321406 0 0.0093713471720323106 0.0032293253574285242 0 0.0081969279254607025 0.003140537830554335 0 -0.0025073262685591444 -4.7846331710890712e-05 0 -0.0021497724057339255 -5.1113526890634824e-05 0 -0.0021294357936946662 0.00029124727282034006 0 0.0079217381984490066 0.0020093635105321406 0 0.0081969279254607025 0.003140537830554335 0 0.0072205858141502271 0.0030470397223418886 0 -0.0034067486765963647 -0.00089546179536501935 0 -0.0036006024390325582 -0.00092831481020724284 0 -0.0035268117050066758 -0.0010488591439208115 0 -0.0020233046088674852 -0.00069542715007117725 0 0.0026028875338072505 0.0018058202579704793 0 0.00019700667167952486 -0.00047269430430113113 0 0.00079378315366749458 0.00039829840392746326 0 0.0001506315996223927 0.00042448212651932779 0 -0.0020233046088674852 -0.00069542715007117725 0 -0.0014792982657985941 -0.00043119903731074358 0 -0.0034067486765963647 -0.00089546179536501935 0 -0.0036006024390325582 -0.00092831481020724284 0 -0.0035583862619924644 -0.00081723428544648309 0 -0.0036006024390325582 -0.00092831481020724284 0 -0.0037397382220309685 -0.001037389225997705 0 -0.0035268117050066758 -0.0010488591439208115 0 -0.0036534800734494255 -0.00067789510576152375 0 -0.0035583862619924644 -0.00081723428544648309 0 -0.0037831240672778987 -0.00082704182201137437 0 -0.0036534800734494255 -0.00067789510576152375 0 -0.0033805616023792318 -0.00071859156057473602 0 -0.0035583862619924644 -0.00081723428544648309 0 -0.0036006024390325582 -0.00092831481020724284 0 -0.0035583862619924644 -0.00081723428544648309 0 -0.0037831240672778987 -0.00082704182201137437 0 -0.0037831240672778987 -0.00082704182201137437 0 -0.0039293971702836217 -0.0008998344601023068 0 -0.0040160616712554519 -0.00074947482577165014 0 -0.0038959482055052411 -0.00064250547740438255 0 -0.0037831240672778987 -0.00082704182201137437 0 -0.0040160616712554519 -0.00074947482577165014 0 -0.0036534800734494255 -0.00067789510576152375 0 -0.0038959482055052411 -0.00064250547740438255 0 -0.0037831240672778987 -0.00082704182201137437 0 -0.0036006024390325582 -0.00092831481020724284 0 -0.0037831240672778987 -0.00082704182201137437 0 -0.0037397382220309685 -0.001037389225997705 0 -0.0039293971702836217 -0.0008998344601023068 0 -0.0039476273381652983 -0.0010662873745613424 0 -0.0037397382220309685 -0.001037389225997705 0 -0.0037831240672778987 -0.00082704182201137437 0 -0.0039293971702836217 -0.0008998344601023068 0 -0.0037397382220309685 -0.001037389225997705 0 -0.0039293971702836217 -0.0008998344601023068 0 -0.0041142372195092924 -0.00087835784215519938 0 -0.0039476273381652983 -0.0010662873745613424 0 -0.0039293971702836217 -0.0008998344601023068 0 -0.0040255066339127269 -0.00082677973383384041 0 -0.0041142372195092924 -0.00087835784215519938 0 0.00024711975507840656 0.00075166566385737206 0 -0.00061370654104899174 0.00053333549302445613 0 0.0009063481747400889 0.00047152358144944339 0 0.00090437235003540449 0.00046760756694907616 0 0.00089753738432202202 0.00048657321379057288 0 0.0009063481747400889 0.00047152358144944339 0 0.00090437235003540449 0.00046760756694907616 0 0.00091001924895748156 0.00046703526588969094 0 -0.0040255066339127269 -0.00082677973383384041 0 -0.0041142372195092924 -0.00087835784215519938 0 -0.0041359838704244046 -0.00073489055089056502 0 -0.0041359838704244046 -0.00073489055089056502 0 -0.0041937334313691564 -0.00068603553126350117 0 -0.0041469744195117243 -0.00058726717307411259 0 -0.0041142372195092924 -0.00087835784215519938 0 -0.0041359838704244046 -0.00073489055089056502 0 -0.0041937334313691564 -0.00068603553126350117 0 0.00024711975507840656 0.00075166566385737206 0 -0.0018204947176923192 -9.5621365519526022e-05 0 -0.0041359838704244046 -0.00073489055089056502 0 -0.0040160616712554519 -0.00074947482577165014 0 -0.0041469744195117243 -0.00058726717307411259 0 -0.0039293971702836217 -0.0008998344601023068 0 -0.0040255066339127269 -0.00082677973383384041 0 -0.0040160616712554519 -0.00074947482577165014 0 -0.0040255066339127269 -0.00082677973383384041 0 -0.0041359838704244046 -0.00073489055089056502 0 -0.0040160616712554519 -0.00074947482577165014 0 0.00090076459475309256 0.0004638486745941395 0 0.00088507875510768967 0.00048523647478850669 0 0.00087431516046533944 0.00046813250536041032 0 0.00090076459475309256 0.0004638486745941395 0 0.00087431516046533944 0.00046813250536041032 0 0.00091642189416146086 0.00044977268538189455 0 0.00090076459475309256 0.0004638486745941395 0 0.00090437235003540449 0.00046760756694907616 0 0.00092549701140395716 0.0004549836033012468 0 0.00090076459475309256 0.0004638486745941395 0 0.00090437235003540449 0.00046760756694907616 0 0.00088507875510768967 0.00048523647478850669 0 0.00089753738432202202 0.00048657321379057288 0 0.00088507875510768967 0.00048523647478850669 0 0.00087292144240399953 0.00052578325218343607 0 0.00090437235003540449 0.00046760756694907616 0 0.00089753738432202202 0.00048657321379057288 0 0.00088507875510768967 0.00048523647478850669 0 0.00088507875510768967 0.00048523647478850669 0 0.00087292144240399953 0.00052578325218343607 0 0.00085140474457619882 0.00049666871325072988 0 0.00088507875510768967 0.00048523647478850669 0 0.00085140474457619882 0.00049666871325072988 0 0.00087431516046533944 0.00046813250536041032 0 0.00087292144240399953 0.00052578325218343607 0 0.00081394512434263195 0.00053879283639568477 0 0.00085140474457619882 0.00049666871325072988 0 -0.0041937334313691564 -0.00068603553126350117 0 -0.0041727736550635193 -0.00063207000782836023 0 -0.0041841321537967689 -0.00062615233747209187 0 -0.0018204947176923192 -9.5621365519526022e-05 0 -0.0014779452139775822 -0.00012388111944368059 0 -0.0041727736550635193 -0.00063207000782836023 0 -0.0041841321537967689 -0.00062615233747209187 0 -0.0041366262337247141 -0.00064687627449996378 0 -0.004603765514278089 -0.00038798267334837276 0 -0.0046953877700144347 -0.00021053577137780471 0 -0.0048241838739343304 -0.00023352628811862449 0 -0.004603765514278089 -0.00038798267334837276 0 -0.0045652462694249704 -0.00019489348551975121 0 -0.0046953877700144347 -0.00021053577137780471 0 -0.0014779452139775822 -0.00012388111944368059 0 -0.0031417389798303152 -0.00033154679450378931 0 0.00087292144240399953 0.00052578325218343607 0 0.00081750766067394023 0.00058441016956638301 0 0.00081394512434263195 0.00053879283639568477 0 -0.0046688254092698668 -0.0004726347278149634 0 -0.0031417389798303152 -0.00033154679450378931 0 -0.0038959482055052411 -0.00064250547740438255 0 -0.0040160616712554519 -0.00074947482577165014 0 -0.0041469744195117243 -0.00058726717307411259 0 -0.0038959482055052411 -0.00064250547740438255 0 -0.0039918081000243927 -0.00042304926502623273 0 -0.0041469744195117243 -0.00058726717307411259 0 -0.0041937334313691564 -0.00068603553126350117 0 -0.0041841321537967689 -0.00062615233747209187 0 -0.0041469744195117243 -0.00058726717307411259 0 -0.0046688254092698668 -0.0004726347278149634 0 -0.0040433241942315797 -0.00061155478181134032 0 -0.004603765514278089 -0.00038798267334837276 0 -0.0041469744195117243 -0.00058726717307411259 0 -0.0043977737514662675 -0.00030811539724826274 0 -0.0045652462694249704 -0.00019489348551975121 0 -0.0043977737514662675 -0.00030811539724826274 0 -0.0044179274865631824 -0.00016751175143142808 0 -0.004603765514278089 -0.00038798267334837276 0 -0.0045652462694249704 -0.00019489348551975121 0 -0.0043977737514662675 -0.00030811539724826274 0 -0.0043977737514662675 -0.00030811539724826274 0 -0.0042265472919334563 -0.00026132006877683053 0 -0.0044179274865631824 -0.00016751175143142808 0 -0.0040895970071785455 -0.00016500781282664876 0 -0.0039918081000243927 -0.00042304926502623273 0 -0.0042265472919334563 -0.00026132006877683053 0 -0.0041469744195117243 -0.00058726717307411259 0 -0.0043977737514662675 -0.00030811539724826274 0 -0.0042265472919334563 -0.00026132006877683053 0 -0.0039918081000243927 -0.00042304926502623273 0 -0.0041469744195117243 -0.00058726717307411259 0 -0.0042265472919334563 -0.00026132006877683053 0 -0.0040895970071785455 -0.00016500781282664876 0 -0.0042265472919334563 -0.00026132006877683053 0 -0.00432474206228739 -4.845191064315868e-05 0 -0.0042265472919334563 -0.00026132006877683053 0 -0.00432474206228739 -4.845191064315868e-05 0 -0.0044179274865631824 -0.00016751175143142808 0 -0.0040895970071785455 -0.00016500781282664876 0 -0.0042124531263791213 6.0290345642908799e-05 0 -0.00432474206228739 -4.845191064315868e-05 0 -0.0042124531263791213 6.0290345642908799e-05 0 -0.0043492691138441609 0.00029503716513381662 0 -0.0044290035596393513 0.00010897875312560448 0 -0.0043492691138441609 0.00029503716513381662 0 -0.0044290035596393513 0.00010897875312560448 0 -0.0044519120400517915 0.00011957202462641587 0 -0.0042124531263791213 6.0290345642908799e-05 0 -0.00432474206228739 -4.845191064315868e-05 0 -0.0044290035596393513 0.00010897875312560448 0 -0.0044915134318792406 0.00011256740998871763 0 -0.0043525205812129991 6.0688204824200297e-05 0 -0.0044290035596393513 0.00010897875312560448 0 -0.004480091771510231 0.00010736453762259886 0 -0.0044911001983295121 9.8659497795379453e-05 0 -0.0044290035596393513 0.00010897875312560448 0 -0.0045266254870916763 -2.661328690659955e-05 0 -0.0045573384428747093 0.00010108023218817452 0 -0.00432474206228739 -4.845191064315868e-05 0 -0.0044290035596393513 0.00010897875312560448 0 -0.0045266254870916763 -2.661328690659955e-05 0 -0.00432474206228739 -4.845191064315868e-05 0 -0.0045266254870916763 -2.661328690659955e-05 0 -0.0044179274865631824 -0.00016751175143142808 0 -0.0045652462694249704 -0.00019489348551975121 0 -0.0045266254870916763 -2.661328690659955e-05 0 -0.0044179274865631824 -0.00016751175143142808 0 -0.0045652462694249704 -0.00019489348551975121 0 -0.0045266254870916763 -2.661328690659955e-05 0 -0.004672706307176715 -9.4793619029056488e-05 0 -0.0045652462694249704 -0.00019489348551975121 0 -0.0046953877700144347 -0.00021053577137780471 0 -0.004672706307176715 -9.4793619029056488e-05 0 -0.004672706307176715 -9.4793619029056488e-05 0 -0.0047407030066540148 -1.3364915440374912e-05 0 -0.0046430005749624626 1.6876552742015877e-05 0 -0.0045266254870916763 -2.661328690659955e-05 0 -0.004672706307176715 -9.4793619029056488e-05 0 -0.0046430005749624626 1.6876552742015877e-05 0 -0.0047856831095483597 -0.00011510860522755241 0 -0.0048691954853519294 -4.961732826703342e-06 0 -0.0048686703235179055 -0.00015095045634093857 0 -0.0048241838739343304 -0.00023352628811862449 0 -0.0047856831095483597 -0.00011510860522755241 0 -0.0048686703235179055 -0.00015095045634093857 0 -0.0046953877700144347 -0.00021053577137780471 0 -0.004672706307176715 -9.4793619029056488e-05 0 -0.0047856831095483597 -0.00011510860522755241 0 -0.0046953877700144347 -0.00021053577137780471 0 -0.0048241838739343304 -0.00023352628811862449 0 -0.0047856831095483597 -0.00011510860522755241 0 -0.004672706307176715 -9.4793619029056488e-05 0 -0.0047856831095483597 -0.00011510860522755241 0 -0.0047407030066540148 -1.3364915440374912e-05 0 -0.0047856831095483597 -0.00011510860522755241 0 -0.0047407030066540148 -1.3364915440374912e-05 0 -0.0048691954853519294 -4.961732826703342e-06 0 -0.0047407030066540148 -1.3364915440374912e-05 0 -0.0047165325047835872 0.00011465590781060336 0 -0.0048691954853519294 -4.961732826703342e-06 0 -0.0087030067217658477 -0.00061671038837735883 0 -0.0082361314146421321 -0.00070812052890664333 0 -0.0074119125469997264 0.00018341333528745622 0 -0.0056737196602056842 -0.00020069148828423866 0 -0.0064502703574035149 -4.3984576224821037e-05 0 -0.011706420071183088 -2.0060760548426844e-05 0 -0.008815909412555974 0.00037400607443984391 0 -0.0082361314146421321 -0.00070812052890664333 0 -0.0074119125469997264 0.00018341333528745622 0 -0.0071769415533918315 -3.0138297451034067e-06 0 -0.0047165325047835872 0.00011465590781060336 0 -0.0046430005749624626 1.6876552742015877e-05 0 -0.0045573384428747093 0.00010108023218817452 0 -0.0056737196602056842 -0.00020069148828423866 0 -0.0043525205812129991 6.0688204824200297e-05 0 -0.0044334596826390077 0.00010623874752822592 0 -0.004480091771510231 0.00010736453762259886 0 -0.0044911001983295121 9.8659497795379453e-05 0 -0.0045266254870916763 -2.661328690659955e-05 0 -0.0046430005749624626 1.6876552742015877e-05 0 -0.0045573384428747093 0.00010108023218817452 0 -0.0047407030066540148 -1.3364915440374912e-05 0 -0.0047165325047835872 0.00011465590781060336 0 -0.0046430005749624626 1.6876552742015877e-05 0 -0.0052946547102508817 -0.00039975544357813387 0 -0.0046871295346175481 9.3474513686090429e-05 0 -0.0045282136838071165 5.0449196022879716e-05 0 -0.0056737196602056842 -0.00020069148828423866 0 -0.0042149540569446937 0.00011675538841350178 0 -0.0052946547102508817 -0.00039975544357813387 0 -0.005522546133354146 -0.00034777101605185665 0 -0.0046871295346175481 9.3474513686090429e-05 0 -0.017098910387969162 0.0001107530886439283 0 -0.017195128953002015 0.00050706089679326838 0 -0.016634782782385771 0.00030694921013981179 0 -0.0044334596826390077 0.00010623874752822592 0 -0.0044911001983295121 9.8659497795379453e-05 0 -0.0045282136838071165 5.0449196022879716e-05 0 -0.011706420071183088 -2.0060760548426844e-05 0 -0.010164151908306057 0.0004460111096166465 0 -0.0056737196602056842 -0.00020069148828423866 0 -0.011706420071183088 -2.0060760548426844e-05 0 -0.017195128953002015 0.00050706089679326838 0 -0.016808350554620054 0.00057047510074664668 0 -0.016634782782385771 0.00030694921013981179 0 -0.015951794421887017 0.00063439019687962597 0 -0.016634782782385771 0.00030694921013981179 0 -0.016477836695923728 0.00056720196919134115 0 -0.012234996773972117 -0.00084671977060816084 0 -0.010164151908306057 0.0004460111096166465 0 -0.0045200619111087107 -7.2288186439642191e-05 0 -0.0046871295346175481 9.3474513686090429e-05 0 -0.0045282136838071165 5.0449196022879716e-05 0 -0.016808350554620054 0.00057047510074664668 0 -0.016634782782385771 0.00030694921013981179 0 -0.016477836695923728 0.00056720196919134115 0 -0.0045200619111087107 -7.2288186439642191e-05 0 -0.0044979768384200971 3.0249902786794151e-05 0 -0.0044812463462543988 4.0890407279877158e-05 0 -0.0045200619111087107 -7.2288186439642191e-05 0 -0.0044979768384200971 3.0249902786794151e-05 0 -0.0045282136838071165 5.0449196022879716e-05 0 -0.0045200619111087107 -7.2288186439642191e-05 0 -0.0046320119753936271 -5.8931704347942474e-05 0 -0.0044812463462543988 4.0890407279877158e-05 0 -0.0044979768384200971 3.0249902786794151e-05 0 -0.0044812463462543988 4.0890407279877158e-05 0 -0.0044519120400517915 0.00011957202462641587 0 -0.0043492691138441609 0.00029503716513381662 0 -0.0044812463462543988 4.0890407279877158e-05 0 -0.0044519120400517915 0.00011957202462641587 0 -0.0044290035596393513 0.00010897875312560448 0 -0.0044519120400517915 0.00011957202462641587 0 -0.0044911001983295121 9.8659497795379453e-05 0 -0.0044979768384200971 3.0249902786794151e-05 0 -0.0044519120400517915 0.00011957202462641587 0 -0.0045282136838071165 5.0449196022879716e-05 0 -0.0044519120400517915 0.00011957202462641587 0 -0.0044911001983295121 9.8659497795379453e-05 0 -0.0045282136838071165 5.0449196022879716e-05 0 -0.0071665167050973394 0.00037512311189119574 0 -0.0066373776513458443 -0.00017294004948266876 0 -0.006765918420716872 0.00074494378777886707 0 -0.013376686091900484 0.00043406445955717265 0 -0.01285688728332934 0.00032891148520119534 0 -0.012968648618442238 1.0287358708678429e-05 0 -0.010227309252518711 0.00019521679633574494 0 -0.0086327304648629952 0.00017923135641036326 0 -0.0073315511294191659 1.1981900725369087e-05 0 -0.0071665167050973394 0.00037512311189119574 0 -0.0075500877000125675 0.00052081734498365419 0 -0.006771826630079204 -6.0434488855364254e-05 0 -0.0086327304648629952 0.00017923135641036326 0 -0.0073315511294191659 1.1981900725369087e-05 0 -0.0071665167050973394 0.00037512311189119574 0 -0.0067654849464105025 -9.08296369125452e-05 0 -0.0063876758192820248 -0.00022145141743108439 0 -0.0066373776513458443 -0.00017294004948266876 0 -0.006765918420716872 0.00074494378777886707 0 -0.0053742394048500661 -0.00035214197996896469 0 -0.0034827125691407525 0.00073589933791511205 0 -0.0053742394048500661 -0.00035214197996896469 0 -0.0086327304648629952 0.00017923135641036326 0 -0.0086327304648629952 0.00017923135641036326 0 -0.0089443939386470959 -0.00020175907777137921 0 -0.0079098788785905306 -0.00053562162087613828 0 -0.0076419403657382702 -0.0005904755806944974 0 -0.0080630931101415716 -0.00014046936658460433 0 -0.01285688728332934 0.00032891148520119534 0 -0.012968648618442238 1.0287358708678429e-05 0 -0.01258087535771279 2.5254329091658217e-05 0 -0.0053742394048500661 -0.00035214197996896469 0 -0.0089443939386470959 -0.00020175907777137921 0 -0.012792661462010623 -0.00043465227661767457 0 -0.012968648618442238 1.0287358708678429e-05 0 -0.01258087535771279 2.5254329091658217e-05 0 -0.013242246470914543 -0.00029892813384552121 0 -0.013376686091900484 0.00043406445955717265 0 -0.012968648618442238 1.0287358708678429e-05 0 -0.012792661462010623 -0.00043465227661767457 0 -0.013242246470914543 -0.00029892813384552121 0 -0.012968648618442238 1.0287358708678429e-05 0 -0.013960667022168059 -0.00041149271245564261 0 -0.013242246470914543 -0.00029892813384552121 0 -0.013376686091900484 0.00043406445955717265 0 -0.013960667022168059 -0.00041149271245564261 0 -0.013376686091900484 0.00043406445955717265 0 -0.013893385532076559 0.00053673546967321589 0 -0.015972364103352218 9.9431121394153848e-05 0 -0.012995361031579529 0.00038813142089822095 0 -0.017469508810356763 0.00068021134750968553 0 -0.017195128953002015 0.00050706089679326838 0 -0.017469404049322661 0.00024686182449038652 0 -0.011706420071183088 -2.0060760548426844e-05 0 -0.012995361031579529 0.00038813142089822095 0 -0.017098910387969162 0.0001107530886439283 0 -0.017195128953002015 0.00050706089679326838 0 -0.017469404049322661 0.00024686182449038652 0 -0.010227309252518711 0.00019521679633574494 0 -0.012995361031579529 0.00038813142089822095 0 -0.0073315511294191659 1.1981900725369087e-05 0 -0.0079934587319040133 0.0001261706079936063 0 -0.0075500877000125675 0.00052081734498365419 0 -0.012995361031579529 0.00038813142089822095 0 -0.0063320615824840713 0.00072868286495880697 0 -0.0079934587319040133 0.0001261706079936063 0 -0.0075500877000125675 0.00052081734498365419 0 -0.0079222449348706411 0.0011548322680923076 0 -0.0075500877000125675 0.00052081734498365419 0 -0.0079222449348706411 0.0011548322680923076 0 -0.0073429609326166097 0.00095807547277513866 0 -0.011372259016151392 0.0001471104172825557 0 -0.0097732924467751458 -0.00016924278020829939 0 -0.010537116759094755 0.00069836487204720076 0 -0.0097732924467751458 -0.00016924278020829939 0 -0.010537116759094755 0.00069836487204720076 0 -0.0096895653411570842 0.001250390207270329 0 -0.0074119125469997264 0.00018341333528745622 0 -0.0071769415533918315 -3.0138297451034067e-06 0 -0.006079197429644966 0.00071509490959973841 0 -0.008815909412555974 0.00037400607443984391 0 -0.0063320615824840713 0.00072868286495880697 0 -0.004808793113799106 -0.00021650950583024874 0 -0.0048686703235179055 -0.00015095045634093857 0 -0.0049816988567482692 -0.00014343231307846016 0 -0.0064502703574035149 -4.3984576224821037e-05 0 -0.0045711907313185163 0.00056662950190089229 0 -0.0048691954853519294 -4.961732826703342e-06 0 -0.0048686703235179055 -0.00015095045634093857 0 -0.0049847502036121615 -9.5252836098611124e-05 0 -0.0074119125469997264 0.00018341333528745622 0 -0.006079197429644966 0.00071509490959973841 0 -0.0060670729280433346 0.00099596781754717075 0 -0.0048686703235179055 -0.00015095045634093857 0 -0.0049847502036121615 -9.5252836098611124e-05 0 -0.0049816988567482692 -0.00014343231307846016 0 -0.0079222449348706411 0.0011548322680923076 0 -0.0071042508527080417 0.0016766895494172954 0 -0.0073429609326166097 0.00095807547277513866 0 -0.0063320615824840713 0.00072868286495880697 0 -0.0028719860792039771 0.00086760857569217293 0 -0.0024942535151641653 0.00065015978441736926 0 -0.0025485069101038285 0.00057878340307626445 0 -0.002625592357706649 0.00055069708828651401 0 -0.0024942535151641653 0.00065015978441736926 0 -0.0024949051283425961 0.0006221498293398596 0 -0.0025485069101038285 0.00057878340307626445 0 -0.0063320615824840713 0.00072868286495880697 0 -0.0045711907313185163 0.00056662950190089229 0 -0.0020561128701688069 0.00073870128924032486 0 -0.0023309323606783314 0.00074715696902053386 0 -0.0045711907313185163 0.00056662950190089229 0 -0.0020561128701688069 0.00073870128924032486 0 -0.0024433042080070602 0.00065008552057906402 0 -0.0024442519904741234 0.00056922967014894684 0 -0.0025131939204750824 0.00059227226345099639 0 -0.0024433042080070602 0.00065008552057906402 0 -0.0025131939204750824 0.00059227226345099639 0 -0.0025485069101038285 0.00057878340307626445 0 -0.0045711907313185163 0.00056662950190089229 0 -0.0025768040780394727 0.0010343856253562358 0 -0.0025101877680042831 0.00054057229128221201 0 -0.0025131939204750824 0.00059227226345099639 0 -0.0025485069101038285 0.00057878340307626445 0 -0.0025101877680042831 0.00054057229128221201 0 -0.0025485069101038285 0.00057878340307626445 0 -0.0025425421072131139 0.00049515246891333785 0 -0.002436487030765423 0.00057213486757378231 0 -0.0025101877680042831 0.00054057229128221201 0 -0.0025131939204750824 0.00059227226345099639 0 -0.00033493469492786428 0.00048097679894163869 0 -0.00038426435726339936 0.00053360810738976795 0 -0.00036728430222396808 0.00049061788485187628 0 -0.0025485069101038285 0.00057878340307626445 0 -0.002625592357706649 0.00055069708828651401 0 -0.0025425421072131139 0.00049515246891333785 0 -0.0028719860792039771 0.00086760857569217293 0 -0.0034827125691407525 0.00073589933791511205 0 -0.0071042508527080417 0.0016766895494172954 0 -0.0073429609326166097 0.00095807547277513866 0 -0.006765918420716872 0.00074494378777886707 0 -0.0071665167050973394 0.00037512311189119574 0 -0.0073429609326166097 0.00095807547277513866 0 -0.006765918420716872 0.00074494378777886707 0 -0.0071665167050973394 0.00037512311189119574 0 -0.0075500877000125675 0.00052081734498365419 0 -0.0073429609326166097 0.00095807547277513866 0 -0.00043968830506927012 0.00058293928600086089 0 -0.00038426435726339936 0.00053360810738976795 0 -0.00041438207862021069 0.00052982949762976031 0 -0.00038426435726339936 0.00053360810738976795 0 -0.00041438207862021069 0.00052982949762976031 0 -0.00036728430222396808 0.00049061788485187628 0 -0.0004099870413701219 0.0004944768584859144 0 -0.00041438207862021069 0.00052982949762976031 0 -0.00036728430222396808 0.00049061788485187628 0 -0.0004099870413701219 0.0004944768584859144 0 -0.00036728430222396808 0.00049061788485187628 0 -0.00037844674321128397 0.00044781814600055729 0 -0.00038065549637658478 0.0004031800797896863 0 -0.00031638739391259222 0.00045527426692803337 0 -0.00022360066456365613 0.00027873367105244498 0 -0.00036728430222396808 0.00049061788485187628 0 -0.00037844674321128397 0.00044781814600055729 0 -0.00031638739391259222 0.00045527426692803337 0 -0.00033493469492786428 0.00048097679894163869 0 -0.00036728430222396808 0.00049061788485187628 0 -0.00031638739391259222 0.00045527426692803337 0 -0.00037844674321128397 0.00044781814600055729 0 -0.00038065549637658478 0.0004031800797896863 0 -0.00031638739391259222 0.00045527426692803337 0 0.0011222690407592568 0.00057357474937332195 0 0.0019109625669879418 0.00016037622414386639 0 -0.0028719860792039771 0.00086760857569217293 0 -0.0012070697404636924 0.00019937389822007265 0 -0.00016773652939392091 0.00056699263167930434 0 -0.00031638739391259222 0.00045527426692803337 0 -3.6023115377319647e-05 0.00031475659106929287 0 -0.0028719860792039771 0.00086760857569217293 0 7.2798382068737979e-05 0.00092471899202024161 0 -0.002625592357706649 0.00055069708828651401 0 -0.0025425421072131139 0.00049515246891333785 0 -0.002521420410952453 0.00029922904538264835 0 -0.00031638739391259222 0.00045527426692803337 0 -0.00022360066456365613 0.00027873367105244498 0 -3.6023115377319647e-05 0.00031475659106929287 0 -0.00022360066456365613 0.00027873367105244498 0 -3.6023115377319647e-05 0.00031475659106929287 0 8.9701869976426741e-05 7.6927196698086683e-05 0 0.0019109625669879418 0.00016037622414386639 0 0.0039670687222742793 -0.00033568159359694628 0 -0.00038065549637658478 0.0004031800797896863 0 -0.00022360066456365613 0.00027873367105244498 0 -0.00024991731107303251 9.9190231202217409e-05 0 0.0039918657645757437 -0.0005207102007900008 0 0.0040111118032835139 -0.0004396095507562004 0 0.0040578186925026554 -0.00056170113297123239 0 0.0033032262525183494 0.00038972290121129565 0 0.0035325121460034097 6.9676118312856003e-06 0 0.0034680065391618489 3.5338139384034912e-05 0 0.0019109625669879418 0.00016037622414386639 0 0.0015712334970879416 0.0001113603467996909 0 -0.0031417389798303152 -0.00033154679450378931 0 -0.0020561128701688069 0.00073870128924032486 0 0.00072757253788854437 0.00061612276190637315 0 0.00076269922566276401 0.00053807239472079837 0 0.00081394512434263195 0.00053879283639568477 0 0.00081750766067394023 0.00058441016956638301 0 0.00072757253788854437 0.00061612276190637315 0 0.00081394512434263195 0.00053879283639568477 0 -0.0031417389798303152 -0.00033154679450378931 0 -0.0046338008128080765 0.00021620189776813705 0 -0.0025425421072131139 0.00049515246891333785 0 -0.0024817545937451408 0.00044518534176144528 0 -0.002521420410952453 0.00029922904538264835 0 -0.0020561128701688069 0.00073870128924032486 0 -0.00077231298849851204 0.00040693696492930122 0 -0.002436487030765423 0.00057213486757378231 0 -0.0024817545937451408 0.00044518534176144528 0 -0.0024020937103602516 0.00031353245595441121 0 -0.002436487030765423 0.00057213486757378231 0 -0.0025101877680042831 0.00054057229128221201 0 -0.0024817545937451408 0.00044518534176144528 0 -0.0025101877680042831 0.00054057229128221201 0 -0.0025425421072131139 0.00049515246891333785 0 -0.0024817545937451408 0.00044518534176144528 0 -0.00077231298849851204 0.00040693696492930122 0 -0.00017594287581255673 0.00020724123990378034 0 -0.002521420410952453 0.00029922904538264835 0 -0.0024020937103602516 0.00031353245595441121 0 -0.0023658059425216839 1.3128464117762348e-05 0 -0.0024817545937451408 0.00044518534176144528 0 -0.002521420410952453 0.00029922904538264835 0 -0.0024020937103602516 0.00031353245595441121 0 0.00076269922566276401 0.00053807239472079837 0 0.00081394512434263195 0.00053879283639568477 0 0.00085140474457619882 0.00049666871325072988 0 0.00085140474457619882 0.00049666871325072988 0 0.00080803760310905505 0.0004807773304449958 0 0.00087431516046533944 0.00046813250536041032 0 0.00076269922566276401 0.00053807239472079837 0 0.00085140474457619882 0.00049666871325072988 0 0.00080803760310905505 0.0004807773304449958 0 -0.0012070697404636924 0.00019937389822007265 0 -0.00017594287581255673 0.00020724123990378034 0 -0.00017594287581255673 0.00020724123990378034 0 0.001034950247193374 0.00034989226156615445 0 8.9701869976426741e-05 7.6927196698086683e-05 0 -1.0695929111747517e-05 -6.1113988277279751e-05 0 0.00010827313869105996 -0.00020283900405360095 0 -0.00017594287581255673 0.00020724123990378034 0 0.00071676265124346738 5.1583243706827766e-05 0 0.0010696595625988633 0.00018220599047968382 0 0.001041547582729269 0.00030633978240260433 0 0.0011029838221044406 0.00035687420818382242 0 0.00080803760310905505 0.0004807773304449958 0 0.00087997201945719283 0.00044859639761549061 0 0.00087431516046533944 0.00046813250536041032 0 0.00087997201945719283 0.00044859639761549061 0 0.00087431516046533944 0.00046813250536041032 0 0.00091642189416146086 0.00044977268538189455 0 0.0040431744376708822 -0.00059205259023128976 0 0.0040578186925026554 -0.00056170113297123239 0 0.0040492341968568464 -0.00062048759264311771 0 0.0040268451079046048 -0.00058952489122524553 0 0.0040431744376708822 -0.00059205259023128976 0 0.0040385623866792649 -0.00061268008745881493 0 0.0040268451079046048 -0.00058952489122524553 0 0.0040431744376708822 -0.00059205259023128976 0 0.0040368527605242639 -0.00057279605830289255 0 0.0040268451079046048 -0.00058952489122524553 0 0.0040185566847585783 -0.00055615300395789585 0 0.0040368527605242639 -0.00057279605830289255 0 0.0040431744376708822 -0.00059205259023128976 0 0.0040368527605242639 -0.00057279605830289255 0 0.0040578186925026554 -0.00056170113297123239 0 0.0040185566847585783 -0.00055615300395789585 0 0.0040368527605242639 -0.00057279605830289255 0 0.0040578186925026554 -0.00056170113297123239 0 0.0039918657645757437 -0.0005207102007900008 0 0.0040185566847585783 -0.00055615300395789585 0 0.0040578186925026554 -0.00056170113297123239 0 8.9701869976426741e-05 7.6927196698086683e-05 0 -0.00024991731107303251 9.9190231202217409e-05 0 -1.0695929111747517e-05 -6.1113988277279751e-05 0 -0.00022360066456365613 0.00027873367105244498 0 8.9701869976426741e-05 7.6927196698086683e-05 0 -0.00024991731107303251 9.9190231202217409e-05 0 0.0015712334970879416 0.0001113603467996909 0 0.0018297158567021643 -0.00026913360717416822 0 -0.00024991731107303251 9.9190231202217409e-05 0 -1.0695929111747517e-05 -6.1113988277279751e-05 0 -9.4437535101161071e-05 -0.00019247294554314845 0 0.0035325121460034097 6.9676118312856003e-06 0 0.0034680065391618489 3.5338139384034912e-05 0 0.0036212117778033578 -0.00029763548458902947 0 0.0040508988414380423 -0.00064952032100336809 0 0.0040444124684853311 -0.00066450813261211656 0 0.0040659685756858381 -0.00066668392278716878 0 0.0039670687222742793 -0.00033568159359694628 0 0.0038151318659078435 -0.00045495235651814959 0 0.0035325121460034097 6.9676118312856003e-06 0 0.0036212117778033578 -0.00029763548458902947 0 0.0037342984155760471 -0.00034776073012782535 0 0.0040492341968568464 -0.00062048759264311771 0 0.0040508988414380423 -0.00064952032100336809 0 0.0040659685756858381 -0.00066668392278716878 0 0.0040578186925026554 -0.00056170113297123239 0 0.0040492341968568464 -0.00062048759264311771 0 0.0040659685756858381 -0.00066668392278716878 0 0.0040268451079046048 -0.00058952489122524553 0 0.0040261306415625073 -0.00062051820385130305 0 0.0040385623866792649 -0.00061268008745881493 0 0.0040431744376708822 -0.00059205259023128976 0 0.0040385623866792649 -0.00061268008745881493 0 0.0040492341968568464 -0.00062048759264311771 0 0.0040385623866792649 -0.00061268008745881493 0 0.0040492341968568464 -0.00062048759264311771 0 0.0040406404236012407 -0.00063802539490169735 0 0.0040261306415625073 -0.00062051820385130305 0 0.0040385623866792649 -0.00061268008745881493 0 0.0040406404236012407 -0.00063802539490169735 0 0.0040269630933237625 -0.00064740572697577015 0 0.0040406404236012407 -0.00063802539490169735 0 0.0040444124684853311 -0.00066450813261211656 0 0.0040492341968568464 -0.00062048759264311771 0 0.0040406404236012407 -0.00063802539490169735 0 0.0040508988414380423 -0.00064952032100336809 0 0.0040406404236012407 -0.00063802539490169735 0 0.0040508988414380423 -0.00064952032100336809 0 0.0040444124684853311 -0.00066450813261211656 0 0.0038151318659078435 -0.00045495235651814959 0 0.0038965633456869162 -0.00063077801208952884 0 0.0040269630933237625 -0.00064740572697577015 0 0.0040444124684853311 -0.00066450813261211656 0 0.004034250932295925 -0.00067647763444471409 0 0.0040444124684853311 -0.00066450813261211656 0 0.0040457744743463524 -0.00068643537534927347 0 0.004034250932295925 -0.00067647763444471409 0 0.0040457744743463524 -0.00068643537534927347 0 0.0040659685756858381 -0.00066668392278716878 0 0.0040188515191775052 -0.00071866847168484754 0 0.0040457744743463524 -0.00068643537534927347 0 0.0040369649096531042 -0.00070060252203746364 0 0.004034250932295925 -0.00067647763444471409 0 0.0040457744743463524 -0.00068643537534927347 0 0.0040369649096531042 -0.00070060252203746364 0 0.0040348913977774799 -0.00070202972738835382 0 0.0040444124684853311 -0.00066450813261211656 0 0.0040457744743463524 -0.00068643537534927347 0 0.0040659685756858381 -0.00066668392278716878 0 0.0036212117778033578 -0.00029763548458902947 0 0.0037342984155760471 -0.00034776073012782535 0 0.0037702337356648637 -0.00055793635421639458 0 -9.4437535101161071e-05 -0.00019247294554314845 0 0.00010827313869105996 -0.00020283900405360095 0 4.6383548144659782e-05 -0.00044588559747777855 0 -1.0695929111747517e-05 -6.1113988277279751e-05 0 -9.4437535101161071e-05 -0.00019247294554314845 0 0.00010827313869105996 -0.00020283900405360095 0 0.0037342984155760471 -0.00034776073012782535 0 0.0037702337356648637 -0.00055793635421639458 0 0.003881402997261293 -0.00060471579673077632 0 0.0018297158567021643 -0.00026913360717416822 0 0.0019555225862331847 -0.00059555384452760634 0 0.0040457744743463524 -0.00068643537534927347 0 0.0040188515191775052 -0.00071866847168484754 0 0.0040348913977774799 -0.00070202972738835382 0 0.0040188515191775052 -0.00071866847168484754 0 0.0040305947847528488 -0.00070922883202130429 0 0.0040168323689204789 -0.00070108054438875779 0 0.0040305947847528488 -0.00070922883202130429 0 0.0040168323689204789 -0.00070108054438875779 0 0.0040413806956399231 -0.00070757024046848912 0 0.0040305947847528488 -0.00070922883202130429 0 0.0040369649096531042 -0.00070060252203746364 0 0.0040413806956399231 -0.00070757024046848912 0 0.0040305947847528488 -0.00070922883202130429 0 0.0040369649096531042 -0.00070060252203746364 0 0.0040348913977774799 -0.00070202972738835382 0 0.0040188515191775052 -0.00071866847168484754 0 0.0040305947847528488 -0.00070922883202130429 0 0.0040348913977774799 -0.00070202972738835382 0 0.00087997201945719283 0.00044859639761549061 0 0.00091642189416146086 0.00044977268538189455 0 0.00099609954366126972 0.00044467657762835229 0 0.001041547582729269 0.00030633978240260433 0 0.0011029838221044406 0.00035687420818382242 0 0.00099609954366126972 0.00044467657762835229 0 0.001034950247193374 0.00034989226156615445 0 0.00096756861550524793 0.00045930803916953081 0 0.0011029838221044406 0.00035687420818382242 0 0.00099609954366126972 0.00044467657762835229 0 0.0011526306673564728 0.00052333701526728334 0 0.00071676265124346738 5.1583243706827766e-05 0 0.00046894798726441041 9.5807888928494181e-05 0 0.00010827313869105996 -0.00020283900405360095 0 0.00013767638115272778 -0.00044914014908265041 0 4.6383548144659782e-05 -0.00044588559747777855 0 0.0010541584648101642 0.00058867090405984263 0 0.0011526306673564728 0.00052333701526728334 0 0.0012441306808620108 0.00063351236943655928 0 0.00099609954366126972 0.00044467657762835229 0 0.0010541584648101642 0.00058867090405984263 0 0.0011526306673564728 0.00052333701526728334 0 0.00013767638115272778 -0.00044914014908265041 0 0.0001805616696320737 -0.00066954749541843224 0 4.6383548144659782e-05 -0.00044588559747777855 0 0.00046894798726441041 9.5807888928494181e-05 0 0.002129476690322948 -0.00028971590778196479 0 0.002129476690322948 -0.00028971590778196479 0 0.0019555225862331847 -0.00059555384452760634 0 0.0011526306673564728 0.00052333701526728334 0 0.001257577747446898 0.00062685373384578928 0 0.0012441306808620108 0.00063351236943655928 0 0.0038973863403080648 -0.0006318981568766152 0 0.003899052203326113 -0.00063888590069130198 0 0.0039212029934745443 -0.0006520011639955149 0 0.0031404092440455748 -2.9196444003790097e-05 0 0.002129476690322948 -0.00028971590778196479 0 0.0012596179120258136 0.00063184812095499251 0 0.001257577747446898 0.00062685373384578928 0 0.0012441306808620108 0.00063351236943655928 0 0.0010879909313500633 0.00066039223890310584 0 0.0012441306808620108 0.00063351236943655928 0 0.0012798874603315773 0.00062009754134495379 0 0.0031404092440455748 -2.9196444003790097e-05 0 0.0017915955894926465 -3.0575367434547873e-05 0 0.0010541584648101642 0.00058867090405984263 0 0.0012441306808620108 0.00063351236943655928 0 0.0012798874603315773 0.00062009754134495379 0 0.0014643121771935931 0.00088714543238773412 0 0.001274767080378182 0.00062864735887391352 0 0.0018632599574421032 0.0011945506099514821 0 0.0012798874603315773 0.00062009754134495379 0 0.0019691222419403191 0.00060144693652203879 0 0.0040168323689204789 -0.00070108054438875779 0 0.0039212029934745443 -0.0006520011639955149 0 0.0039947777500547914 -0.00066180653628458263 0 0.0040168323689204789 -0.00070108054438875779 0 0.0039947777500547914 -0.00066180653628458263 0 0.0040423424123027709 -0.00069016017798588785 0 0.0040168323689204789 -0.00070108054438875779 0 0.0040413806956399231 -0.00070757024046848912 0 0.0040423424123027709 -0.00069016017798588785 0 0.0040188515191775052 -0.00071866847168484754 0 0.0040168323689204789 -0.00070108054438875779 0 0.0039212029934745443 -0.0006520011639955149 0 0.0038965633456869162 -0.00063077801208952884 0 0.0039136282088233481 -0.00064057667826117272 0 0.0037702337356648637 -0.00055793635421639458 0 0.003881402997261293 -0.00060471579673077632 0 0.0039212029934745443 -0.0006520011639955149 0 0.0039212029934745443 -0.0006520011639955149 0 0.0039947777500547914 -0.00066180653628458263 0 0.0039633976157786932 -0.00059344274852955866 0 0.003899052203326113 -0.00063888590069130198 0 0.003881402997261293 -0.00060471579673077632 0 0.0039212029934745443 -0.0006520011639955149 0 0.0038973863403080648 -0.0006318981568766152 0 0.0039212029934745443 -0.0006520011639955149 0 0.0039633976157786932 -0.00059344274852955866 0 0.0039947777500547914 -0.00066180653628458263 0 0.0040313675930041069 -0.00063909312826590796 0 0.0039633976157786932 -0.00059344274852955866 0 0.0039947777500547914 -0.00066180653628458263 0 0.0040313675930041069 -0.00063909312826590796 0 0.0040423424123027709 -0.00069016017798588785 0 0.0040313675930041069 -0.00063909312826590796 0 0.0039633976157786932 -0.00059344274852955866 0 0.0040813500535516233 -0.00057291798014895868 0 0.0045875601074706366 -0.00056503726763847573 0 0.0045744801266050291 -0.00049725132951277578 0 0.0044918998760959767 -0.00051506089791138155 0 0.0044803565211685081 -0.00056026518325410048 0 0.0042418785255940398 -0.00055421441821984138 0 0.0045875601074706366 -0.00056503726763847573 0 0.0045276147679914475 -0.00060018411268695224 0 0.0044918998760959767 -0.00051506089791138155 0 0.0045875601074706366 -0.00056503726763847573 0 0.0046474277408102326 -0.00055183700854548844 0 0.0046486860740929097 -0.00062591018841319111 0 0.0045875601074706366 -0.00056503726763847573 0 0.0046124964390860217 -0.00052202991907456214 0 0.0046474277408102326 -0.00055183700854548844 0 0.0046388301113533866 -0.00047622654431942656 0 0.0045744801266050291 -0.00049725132951277578 0 0.0046124964390860217 -0.00052202991907456214 0 0.0031404092440455748 -2.9196444003790097e-05 0 0.0044803565211685081 -0.00056026518325410048 0 0.0045875601074706366 -0.00056503726763847573 0 0.0045744801266050291 -0.00049725132951277578 0 0.0046124964390860217 -0.00052202991907456214 0 0.0031404092440455748 -2.9196444003790097e-05 0 0.003025224292537499 0.00010875565706588325 0 0.0031404092440455748 -2.9196444003790097e-05 0 0.0048765907160168726 -0.00035582639298493036 0 0.0048325256462319671 0.00018419402600458636 0 0.0048558823444557891 -0.00014107697178908775 0 0.0049652625312483645 -8.473371112399399e-05 0 0.0010879909313500633 0.00066039223890310584 0 0.0012798874603315773 0.00062009754134495379 0 0.0013265009457638357 7.4641700402303503e-05 0 0.0046388301113533866 -0.00047622654431942656 0 0.0046124964390860217 -0.00052202991907456214 0 0.0046474277408102326 -0.00055183700854548844 0 0.0012798874603315773 0.00062009754134495379 0 0.0016864230183646993 0.00016165156735080651 0 0.0019691222419403191 0.00060144693652203879 0 0.0012798874603315773 0.00062009754134495379 0 0.0016864230183646993 0.00016165156735080651 0 0.0013265009457638357 7.4641700402303503e-05 0 0.0089424444920432784 -0.0011739227438053159 0 0.0084932440779151228 -0.0011486267408237143 0 0.0093812099522743459 -0.00051351550671831301 0 0.0046806184072289226 -0.00037295544579034611 0 0.0058688999521453421 -0.00029360288505879742 0 0.0016864230183646993 0.00016165156735080651 0 0.0013265009457638357 7.4641700402303503e-05 0 0.0015673239253243502 -0.00054904689666211053 0 0.003025224292537499 0.00010875565706588325 0 0.0046806184072289226 -0.00037295544579034611 0 0.0016864230183646993 0.00016165156735080651 0 0.0015673239253243502 -0.00054904689666211053 0 0.0022711238596393297 6.0239463034611721e-05 0 0.0049652625312483645 -8.473371112399399e-05 0 0.0049395373314817786 -0.00031141781230812834 0 0.0050714590158156218 -0.00035324444470532504 0 0.0048558823444557891 -0.00014107697178908775 0 0.0049652625312483645 -8.473371112399399e-05 0 0.0049395373314817786 -0.00031141781230812834 0 0.0048558823444557891 -0.00014107697178908775 0 0.0049395373314817786 -0.00031141781230812834 0 0.0048749117914808496 -0.00046034542730350754 0 0.0048765907160168726 -0.00035582639298493036 0 0.0046563895642730896 -0.00056480200084465105 0 0.0049395373314817786 -0.00031141781230812834 0 0.004949373040464034 -0.00047958048489322064 0 0.0050714590158156218 -0.00035324444470532504 0 0.0050092356136775826 -0.00036591551272619735 0 0.0046806184072289226 -0.00037295544579034611 0 0.0049395373314817786 -0.00031141781230812834 0 0.004949373040464034 -0.00047958048489322064 0 0.0048749117914808496 -0.00046034542730350754 0 0.0046806184072289226 -0.00037295544579034611 0 0.0075136338424721047 -0.0013949164228117693 0 0.004949373040464034 -0.00047958048489322064 0 0.0051438509994200625 -0.00032092572565747493 0 0.0052078994181410246 -0.00050738338185735686 0 0.0089424444920432784 -0.0011739227438053159 0 0.0084932440779151228 -0.0011486267408237143 0 0.0086224010689039746 -0.0015536365450217692 0 0.0089424444920432784 -0.0011739227438053159 0 0.0086405020469683125 -0.0015369648007266953 0 0.0089778079980419347 -0.0016598875078463065 0 0.0087606534321964837 -0.0010035732775081677 0 0.0075136338424721047 -0.0013949164228117693 0 0.0096486980156947934 -0.0013104659709385466 0 0.0096587591852033521 -0.0013095683939190654 0 0.0096528694089135225 -0.0012983937353459943 0 0.0096486980156947934 -0.0013104659709385466 0 0.0096587591852033521 -0.0013095683939190654 0 0.0096555788476449054 -0.0013242868977481773 0 0.0086626921005326808 -0.0016033642656279646 0 0.0081282097498265801 -0.0021361222091737437 0 0.0089778079980419347 -0.0016598875078463065 0 0.0086405340775980149 -0.0015364992176912988 0 0.0086626921005326808 -0.0016033642656279646 0 0.0081282097498265801 -0.0021361222091737437 0 0.01027294538532956 -0.00098006779607351553 0 0.0096555788476449054 -0.0013242868977481773 0 0.010115075751726281 -0.0012166604445811116 0 0.0074578184578378568 -0.0011794061387174271 0 0.0095764843527425068 -0.0014669370340411672 0 0.0075136338424721047 -0.0013949164228117693 0 0.0074578184578378568 -0.0011794061387174271 0 0.0099592152963996084 -0.0011577939524567268 0 0.0096764756221842593 -0.001306016208641992 0 0.0086405020469683125 -0.0015369648007266953 0 0.0086626921005326808 -0.0016033642656279646 0 0.0089778079980419347 -0.0016598875078463065 0 0.0075136338424721047 -0.0013949164228117693 0 0.0075662986827233075 -0.0014469527931018687 0 0.01027294538532956 -0.00098006779607351553 0 0.010402847881427105 -0.0011100157878482909 0 0.010115075751726281 -0.0012166604445811116 0 0.0046486860740929097 -0.00062591018841319111 0 0.0046184577590660057 -0.00065878931969297469 0 0.0046459182979596081 -0.00068180736219209444 0 0.004949373040464034 -0.00047958048489322064 0 0.0048749117914808496 -0.00046034542730350754 0 0.0049812331559363106 -0.00078517930827287185 0 0.004949373040464034 -0.00047958048489322064 0 0.0052078994181410246 -0.00050738338185735686 0 0.0049812331559363106 -0.00078517930827287185 0 0.0048749117914808496 -0.00046034542730350754 0 0.0049812331559363106 -0.00078517930827287185 0 0.0048817351069510009 -0.00084679611739596798 0 0.0046563895642730896 -0.00056480200084465105 0 0.0060461066928332854 -0.00066985021877182828 0 0.0046184577590660057 -0.00065878931969297469 0 0.004613870520658204 -0.00067461905944495926 0 0.0046459182979596081 -0.00068180736219209444 0 0.0046486860740929097 -0.00062591018841319111 0 0.0046184577590660057 -0.00065878931969297469 0 0.0045843730522276728 -0.0006312235021204369 0 0.0046184577590660057 -0.00065878931969297469 0 0.0045912978261252613 -0.00066874150372370428 0 0.0045843730522276728 -0.0006312235021204369 0 0.0046184577590660057 -0.00065878931969297469 0 0.0045912978261252613 -0.00066874150372370428 0 0.004613870520658204 -0.00067461905944495926 0 0.0045912978261252613 -0.00066874150372370428 0 0.0045678547996634185 -0.00068385948960234845 0 0.0045275704254163105 -0.00064883950641994538 0 0.0045912978261252613 -0.00066874150372370428 0 0.0045843730522276728 -0.0006312235021204369 0 0.0045275704254163105 -0.00064883950641994538 0 0.0045843730522276728 -0.0006312235021204369 0 0.0045276147679914475 -0.00060018411268695224 0 0.0045275704254163105 -0.00064883950641994538 0 0.0045875601074706366 -0.00056503726763847573 0 0.0045843730522276728 -0.0006312235021204369 0 0.0045276147679914475 -0.00060018411268695224 0 0.0045875601074706366 -0.00056503726763847573 0 0.0046486860740929097 -0.00062591018841319111 0 0.0045843730522276728 -0.0006312235021204369 0 0.011087251089025141 -0.00078306667683599547 0 0.011166725540551889 -0.00092665541283966227 0 0.011076443314080996 -0.00095905478418460634 0 0.011087251089025141 -0.00078306667683599547 0 0.011076443314080996 -0.00095905478418460634 0 0.010976860072308291 -0.0009175550375560104 0 0.011087251089025141 -0.00078306667683599547 0 0.011174881295997202 -0.00083669031808809066 0 0.011166725540551889 -0.00092665541283966227 0 0.011087251089025141 -0.00078306667683599547 0 0.011174881295997202 -0.00083669031808809066 0 0.011087664028584437 -0.00067691724712281567 0 0.011174881295997202 -0.00083669031808809066 0 0.011166725540551889 -0.00092665541283966227 0 0.011322193689325218 -0.0010250956131598573 0 0.011166725540551889 -0.00092665541283966227 0 0.011322193689325218 -0.0010250956131598573 0 0.011202093617144826 -0.0010844925692828861 0 0.011166725540551889 -0.00092665541283966227 0 0.011076443314080996 -0.00095905478418460634 0 0.011202093617144826 -0.0010844925692828861 0 0.011076443314080996 -0.00095905478418460634 0 0.010994463915949463 -0.0011113257681612749 0 0.011202093617144826 -0.0010844925692828861 0 0.011076443314080996 -0.00095905478418460634 0 0.010976860072308291 -0.0009175550375560104 0 0.010994463915949463 -0.0011113257681612749 0 0.01082023258992598 -0.00098115635186333335 0 0.010976860072308291 -0.0009175550375560104 0 0.010994463915949463 -0.0011113257681612749 0 0.01082023258992598 -0.00098115635186333335 0 0.010976860072308291 -0.0009175550375560104 0 0.010854830558107377 -0.00081373621428846915 0 0.0096486980156947934 -0.0013104659709385466 0 0.0096528694089135225 -0.0012983937353459943 0 0.0097838318045938618 -0.0012733819334890164 0 0.0099592152963996084 -0.0011577939524567268 0 0.01031805850875364 -0.0010462195933833929 0 0.01027294538532956 -0.00098006779607351553 0 0.010593825761086929 -0.0010011947528345499 0 0.010854830558107377 -0.00081373621428846915 0 0.01027294538532956 -0.00098006779607351553 0 0.010402847881427105 -0.0011100157878482909 0 0.010593825761086929 -0.0010011947528345499 0 0.010402847881427105 -0.0011100157878482909 0 0.010593825761086929 -0.0010011947528345499 0 0.010508196280207858 -0.0012226487014871531 0 0.01082023258992598 -0.00098115635186333335 0 0.010593825761086929 -0.0010011947528345499 0 0.010508196280207858 -0.0012226487014871531 0 0.01082023258992598 -0.00098115635186333335 0 0.010593825761086929 -0.0010011947528345499 0 0.010854830558107377 -0.00081373621428846915 0 0.0089778079980419347 -0.0016598875078463065 0 0.0098309256978179188 -0.0011357155901719023 0 0.0093884142504894342 -0.00095465724336161453 0 0.0089424444920432784 -0.0011739227438053159 0 0.0089778079980419347 -0.0016598875078463065 0 0.0093884142504894342 -0.00095465724336161453 0 0.0095764843527425068 -0.0014669370340411672 0 0.0097108817935423995 -0.0011841466211476818 0 0.0096528694089135225 -0.0012983937353459943 0 0.0097838318045938618 -0.0012733819334890164 0 0.0098309256978179188 -0.0011357155901719023 0 0.011087251089025141 -0.00078306667683599547 0 0.010976860072308291 -0.0009175550375560104 0 0.010854830558107377 -0.00081373621428846915 0 0.010716793099524511 -0.00091549086586816127 0 0.01031805850875364 -0.0010462195933833929 0 0.010343557970131338 -0.00108814294060021 0 0.0097838318045938618 -0.0012733819334890164 0 0.0098309256978179188 -0.0011357155901719023 0 0.0098309256978179188 -0.0011357155901719023 0 0.010035596813042464 -0.0005763544924157198 0 0.0096632351078072883 -0.00079204916135749894 0 0.010343557970131338 -0.00108814294060021 0 0.0098309256978179188 -0.0011357155901719023 0 0.010035596813042464 -0.0005763544924157198 0 0.010035596813042464 -0.0005763544924157198 0 0.0096632351078072883 -0.00079204916135749894 0 0.0093812099522743459 -0.00051351550671831301 0 0.0098309256978179188 -0.0011357155901719023 0 0.0096632351078072883 -0.00079204916135749894 0 0.0093884142504894342 -0.00095465724336161453 0 0.0089424444920432784 -0.0011739227438053159 0 0.0093884142504894342 -0.00095465724336161453 0 0.0093812099522743459 -0.00051351550671831301 0 0.0096632351078072883 -0.00079204916135749894 0 0.0093884142504894342 -0.00095465724336161453 0 0.0093812099522743459 -0.00051351550671831301 0 0.0022711238596393297 6.0239463034611721e-05 0 0.0019691222419403191 0.00060144693652203879 0 0.0023889598262017424 0.00099033870517210875 0 0.0016864230183646993 0.00016165156735080651 0 0.0022711238596393297 6.0239463034611721e-05 0 0.0019691222419403191 0.00060144693652203879 0 0.0058688999521453421 -0.00029360288505879742 0 0.0064869761826339732 0.00029505826450594499 0 0.010035596813042464 -0.0005763544924157198 0 0.0093812099522743459 -0.00051351550671831301 0 0.01013196374745525 -3.1099301129491739e-05 0 0.0022711238596393297 6.0239463034611721e-05 0 0.0029223968932001439 0.0006451102443456654 0 0.0023889598262017424 0.00099033870517210875 0 0.01013196374745525 -3.1099301129491739e-05 0 0.01050152438697375 -0.00048533971567957707 0 0.010890210973528712 -0.00016009399848345251 0 0.010035596813042464 -0.0005763544924157198 0 0.01013196374745525 -3.1099301129491739e-05 0 0.01050152438697375 -0.00048533971567957707 0 0.010343557970131338 -0.00108814294060021 0 0.010035596813042464 -0.0005763544924157198 0 0.01050152438697375 -0.00048533971567957707 0 0.010343557970131338 -0.00108814294060021 0 0.01050152438697375 -0.00048533971567957707 0 0.011087664028584437 -0.00067691724712281567 0 0.010716793099524511 -0.00091549086586816127 0 0.011069748267571639 -0.00070504064503819212 0 0.01050152438697375 -0.00048533971567957707 0 0.011087664028584437 -0.00067691724712281567 0 0.010890210973528712 -0.00016009399848345251 0 0.010890210973528712 -0.00016009399848345251 0 0.010736644678481042 0.00035197820866087571 0 0.011174438965272543 0.00016330722419905137 0 0.01013196374745525 -3.1099301129491739e-05 0 0.010890210973528712 -0.00016009399848345251 0 0.010736644678481042 0.00035197820866087571 0 0.0064869761826339732 0.00029505826450594499 0 0.0072700094722732032 0.00080423281554297711 0 0.0029223968932001439 0.0006451102443456654 0 0.0035244882409216274 0.0011579888482357973 0 0.0028101760684132596 0.001283879024672751 0 0.0031835168784003698 0.0015015171044326949 0 0.0035244882409216274 0.0011579888482357973 0 0.0028101760684132596 0.001283879024672751 0 0.0031835168784003698 0.0015015171044326949 0 0.0028101760684132596 0.001283879024672751 0 0.0029612864424247167 0.0018480592040212803 0 0.0031835168784003698 0.0015015171044326949 0 0.0035244882409216274 0.0011579888482357973 0 0.0034856877424451539 0.0019096649725066325 0 0.0018632599574421032 0.0011945506099514821 0 0.0019691222419403191 0.00060144693652203879 0 0.0023889598262017424 0.00099033870517210875 0 0.0029223968932001439 0.0006451102443456654 0 0.0023889598262017424 0.00099033870517210875 0 0.0028101760684132596 0.001283879024672751 0 0.0023889598262017424 0.00099033870517210875 0 0.0028101760684132596 0.001283879024672751 0 0.0023742901147069326 0.0016923222156691653 0 0.0018632599574421032 0.0011945506099514821 0 0.0023889598262017424 0.00099033870517210875 0 0.0023742901147069326 0.0016923222156691653 0 0.0014643121771935931 0.00088714543238773412 0 0.0016037614106195494 0.0010429525611141729 0 0.00099609954366126972 0.00044467657762835229 0 0.0010541584648101642 0.00058867090405984263 0 0.00093150031193867718 0.00049654196203847479 0 0.00099609954366126972 0.00044467657762835229 0 0.00093150031193867718 0.00049654196203847479 0 0.00092549701140395716 0.0004549836033012468 0 0.0023742901147069326 0.0016923222156691653 0 0.0027957922648710228 0.0020218787006532025 0 0.0029612864424247167 0.0018480592040212803 0 0.0016037614106195494 0.0010429525611141729 0 0.0021137436045450559 0.0014239277508851064 0 0.0028101760684132596 0.001283879024672751 0 0.0023742901147069326 0.0016923222156691653 0 0.0029612864424247167 0.0018480592040212803 0 0.00093150031193867718 0.00049654196203847479 0 0.00091001924895748156 0.00046703526588969094 0 0.00092549701140395716 0.0004549836033012468 0 0.00090437235003540449 0.00046760756694907616 0 0.00091001924895748156 0.00046703526588969094 0 0.00092549701140395716 0.0004549836033012468 0 0.00091642189416146086 0.00044977268538189455 0 0.00099609954366126972 0.00044467657762835229 0 0.00092549701140395716 0.0004549836033012468 0 0.00090076459475309256 0.0004638486745941395 0 0.00091642189416146086 0.00044977268538189455 0 0.00092549701140395716 0.0004549836033012468 0 0.0035244882409216274 0.0011579888482357973 0 0.0034856877424451539 0.0019096649725066325 0 0.0042091336041709775 0.0016813046825774306 0 0.003559725177726908 0.0019067256891070852 0 0.0014868637884516138 0.0014079114012085065 0 0.0031835168784003698 0.0015015171044326949 0 0.0034856877424451539 0.0019096649725066325 0 0.0029612864424247167 0.0018480592040212803 0 0.003559725177726908 0.0019067256891070852 0 0.0029030451777680975 0.0018584934042277228 0 0.0030062028149676454 0.0019061187813451098 0 0.0029612864424247167 0.0018480592040212803 0 0.0029576552176866725 0.0019742219669603533 0 0.002936401739825803 0.002100457398055059 0 0.0027957922648710228 0.0020218787006532025 0 0.0029576552176866725 0.0019742219669603533 0 0.00024711975507840656 0.00075166566385737206 0 0.0021137436045450559 0.0014239277508851064 0 0.0027957922648710228 0.0020218787006532025 0 0.0029612864424247167 0.0018480592040212803 0 0.0029576552176866725 0.0019742219669603533 0 0.002936401739825803 0.002100457398055059 0 0.0029576552176866725 0.0019742219669603533 0 0.0030144558448710387 0.0019909389849003863 0 0.0030062028149676454 0.0019061187813451098 0 0.0029576552176866725 0.0019742219669603533 0 0.0030144558448710387 0.0019909389849003863 0 -0.00061370654104899174 0.00053333549302445613 0 0.0014868637884516138 0.0014079114012085065 0 0.0030062028149676454 0.0019061187813451098 0 0.0030144558448710387 0.0019909389849003863 0 0.0030579427505552838 0.0019110888468810651 0 -0.0037397382220309685 -0.001037389225997705 0 -0.0037705208978319844 -0.0012215968356143014 0 -0.0036220943348246144 -0.0012092688302287472 0 -0.0039476273381652983 -0.0010662873745613424 0 -0.0037397382220309685 -0.001037389225997705 0 -0.0037705208978319844 -0.0012215968356143014 0 0.0034856877424451539 0.0019096649725066325 0 0.0039758451817265335 0.0019442298138784577 0 0.0042091336041709775 0.0016813046825774306 0 0.0033717513726978497 0.0008609852605944349 0 0.0030771832498716796 0.001083108427846722 0 0.0028954046256079898 0.00082243541253592919 0 0.0014868637884516138 0.0014079114012085065 0 0.00071002719462428133 0.00010631721643557293 0 0.0033717513726978497 0.0008609852605944349 0 0.0030771832498716796 0.001083108427846722 0 0.0031286553999444453 0.0011559069885314801 0 0.0014868637884516138 0.0014079114012085065 0 0.0069504962326215345 0.0011985344404995852 0 0.0062288247872726897 0.0013782759762041631 0 0.0061651070179814813 0.0012813846511282759 0 0.0064819747111499416 0.0013715659976004863 0 0.0053482149629892296 0.0011415672819718743 0 0.0069504962326215345 0.0011985344404995852 0 0.0069504962326215345 0.0011985344404995852 0 0.0077697784776284105 0.0015682385933934032 0 0.0066496538614874744 0.0017338716721051236 0 0.0075652699898741656 0.0018011006513041421 0 0.0068842113816524955 0.0010924631116291602 0 0.0064819747111499416 0.0013715659976004863 0 0.0066496538614874744 0.0017338716721051236 0 0.0068842113816524955 0.0010924631116291602 0 0.0061651070179814813 0.0012813846511282759 0 0.0064819747111499416 0.0013715659976004863 0 0.0068842113816524955 0.0010924631116291602 0 0.0053482149629892296 0.0011415672819718743 0 0.003526286584811284 0.00091032163699729287 0 0.0042419015532600256 0.0014286321868098523 0 0.0032594719592427043 -3.8307845671907526e-05 0 0.0024173427249358482 -9.4884717104413009e-05 0 0.0062288247872726897 0.0013782759762041631 0 0.0064819747111499416 0.0013715659976004863 0 0.0066496538614874744 0.0017338716721051236 0 0.0053482149629892296 0.0011415672819718743 0 0.00071002719462428133 0.00010631721643557293 0 0.00071002719462428133 0.00010631721643557293 0 0.003526286584811284 0.00091032163699729287 0 0.0013846891249794599 0.0012651065461719742 0 0.0011569455455027046 0.0012513034365199968 0 0.00079378315366749458 0.00039829840392746326 0 0.00071002719462428133 0.00010631721643557293 0 -0.0014792982657985941 -0.00043119903731074358 0 -0.0037397382220309685 -0.001037389225997705 0 -0.0036220943348246144 -0.0012092688302287472 0 -0.0035268117050066758 -0.0010488591439208115 0 0.003526286584811284 0.00091032163699729287 0 0.0026028875338072505 0.0018058202579704793 0 0.0038649033636003883 0.0016649478373493456 0 0.0045093604938176721 0.0022033190721320118 0 0.0045538912173189085 0.0017134839936412791 0 0.0011569455455027046 0.0012513034365199968 0 0.00079378315366749458 0.00039829840392746326 0 0.0001506315996223927 0.00042448212651932779 0 0.0093713471720323106 0.0032293253574285242 0 0.0087148838757390677 0.0038110654178485676 0 0.0092935328223816421 0.0043138330620143992 0 0.0026028875338072505 0.0018058202579704793 0 0.0071288492983930208 0.0027677451288380568 0 0.0087148838757390677 0.0038110654178485676 0 0.00807970530181896 0.0043002287391299557 0 0.0092935328223816421 0.0043138330620143992 0 0.0081969279254607025 0.003140537830554335 0 0.0087148838757390677 0.0038110654178485676 0 0.0077358764168312874 0.0035910924053701725 0 0.0093713471720323106 0.0032293253574285242 0 0.0081969279254607025 0.003140537830554335 0 0.0087148838757390677 0.0038110654178485676 0 0.00807970530181896 0.0043002287391299557 0 0.0077358764168312874 0.0035910924053701725 0 0.0077788279986408257 0.0040902165038673123 0 0.0087148838757390677 0.0038110654178485676 0 0.00807970530181896 0.0043002287391299557 0 0.0077358764168312874 0.0035910924053701725 0 0.00807970530181896 0.0043002287391299557 0 0.0076187571227631272 0.0040408133413606375 0 0.0069719654123476709 0.0045549393633275009 0 0.0083947472019961049 0.0042925147101853176 0 0.0071288492983930208 0.0027677451288380568 0 0.008210800134806958 0.0043501512559169387 0 0.00807970530181896 0.0043002287391299557 0 0.0076187571227631272 0.0040408133413606375 0 0.008210800134806958 0.0043501512559169387 0 0.00807970530181896 0.0043002287391299557 0 0.0077788279986408257 0.0040902165038673123 0 0.008210800134806958 0.0043501512559169387 0 0.0080921312611813619 0.0032646539167387077 0 0.0088930568408624264 0.0035762431953050822 0 0.008210800134806958 0.0043501512559169387 0 0.0076187571227631272 0.0040408133413606375 0 0.0080921312611813619 0.0032646539167387077 0 0.0076187571227631272 0.0040408133413606375 0 0.0069719654123476709 0.0045549393633275009 0 0.0068895314137602847 0.0025426648387250807 0 0.003526286584811284 0.00091032163699729287 0 0.0071288492983930208 0.0027677451288380568 0 0.0071288492983930208 0.0027677451288380568 0 0.0071593641686321548 0.0017093923422138004 0 0.0075652699898741656 0.0018011006513041421 0 0.0076690171244437385 0.0006172208825030069 0 0.0068842113816524955 0.0010924631116291602 0 0.0076690171244437385 0.0006172208825030069 0 0.0069712045855113173 0.00035591413922824063 0 0.0068842113816524955 0.0010924631116291602 0 0.0076187571227631272 0.0040408133413606375 0 0.0068895314137602847 0.0025426648387250807 0 0.0080921312611813619 0.0032646539167387077 0 0.0068895314137602847 0.0025426648387250807 0 0.0080921312611813619 0.0032646539167387077 0 0.008163926448257957 0.0018137473446100036 0 0.0080921312611813619 0.0032646539167387077 0 0.008163926448257957 0.0018137473446100036 0 0.0088603056574625069 0.0027965190658531076 0 0.0068895314137602847 0.0025426648387250807 0 0.008163926448257957 0.0018137473446100036 0 0.0069857959140891598 3.055797326017771e-05 0 0.008163926448257957 0.0018137473446100036 0 0.0089082354759737904 -3.4967967379835863e-05 0 0.0069857959140891598 3.055797326017771e-05 0 0.0097348651125375579 0.0001516974912868339 0 0.0086762170493232971 -0.00053535007305458341 0 0.0076690171244437385 0.0006172208825030069 0 0.0069712045855113173 0.00035591413922824063 0 0.0077737626179314396 -0.00057205448581724213 0 0.0071593641686321548 0.0017093923422138004 0 0.0086762170493232971 -0.00053535007305458341 0 0.011609677577251126 0.00024616931703668458 0 0.011174438965272543 0.00016330722419905137 0 0.011449316421684726 -0.00033526250334300239 0 0.0072700094722732032 0.00080423281554297711 0 0.0069504962326215345 0.0011985344404995852 0 0.010736644678481042 0.00035197820866087571 0 0.011200551375706457 0.0007064044485000226 0 0.011159124059426253 0.0006430878718139951 0 0.010736644678481042 0.00035197820866087571 0 0.011159124059426253 0.0006430878718139951 0 0.011174438965272543 0.00016330722419905137 0 0.011159124059426253 0.0006430878718139951 0 0.011609677577251126 0.00024616931703668458 0 0.011174438965272543 0.00016330722419905137 0 0.0069504962326215345 0.0011985344404995852 0 0.0097348651125375579 0.0001516974912868339 0 0.011202332668106706 0.00071632053210613292 0 0.011159124059426253 0.0006430878718139951 0 0.011609677577251126 0.00024616931703668458 0 0.0061651070179814813 0.0012813846511282759 0 0.0069712045855113173 0.00035591413922824063 0 0.0068842113816524955 0.0010924631116291602 0 0.010090479211526971 0.0043229487871112521 0 0.0100151830989052 0.0042809095491487233 0 0.0099503485346288684 0.0043305269326694498 0 0.010090479211526971 0.0043229487871112521 0 0.010065987673389769 0.0043724636336517197 0 0.0099503485346288684 0.0043305269326694498 0 0.0099347305274858043 0.0041651314939426341 0 0.0100151830989052 0.0042809095491487233 0 0.010090678938124776 0.0043022881471875144 0 0.010090479211526971 0.0043229487871112521 0 0.0100151830989052 0.0042809095491487233 0 0.010090678938124776 0.0043022881471875144 0 0.0051760531588880268 0.002787465817758909 0 0.0072932132858310921 0.0040203714610295574 0 0.010090678938124776 0.0043022881471875144 0 0.010100405371578714 0.0043696977551420666 0 0.010014668556885237 0.0045459293603340818 0 0.0072932132858310921 0.0040203714610295574 0 0.0079117945953284669 0.0043086821430122412 0 0.010100405371578714 0.0043696977551420666 0 0.010014668556885237 0.0045459293603340818 0 0.010135450342096576 0.0042561887977456509 0 0.010090479211526971 0.0043229487871112521 0 0.010090678938124776 0.0043022881471875144 0 0.010100405371578714 0.0043696977551420666 0 0.010090479211526971 0.0043229487871112521 0 0.010100405371578714 0.0043696977551420666 0 0.010135450342096576 0.0042561887977456509 0 0.0098226691140294239 0.004141144447485502 0 0.010987244965279383 0.0039945309973893296 0 0.010014668556885237 0.0045459293603340818 0 0.0096287147908616817 0.0041589335030250158 0 0.010135450342096576 0.0042561887977456509 0 0.0040624765892129256 0.0034897175226219503 0 0.0060542077373796832 0.0031707423624102327 0 0.005992594956646822 0.0042007382446575545 0 0.0052808483767480723 0.0023484935488731012 0 0.0040624765892129256 0.0034897175226219503 0 0.0060542077373796832 0.0031707423624102327 0 0.0060542077373796832 0.0031707423624102327 0 0.005992594956646822 0.0042007382446575545 0 0.0070569185661340413 0.0039468582983245267 0 0.0060542077373796832 0.0031707423624102327 0 0.0070569185661340413 0.0039468582983245267 0 0.0072205858141502271 0.0030470397223418886 0 0.0070569185661340413 0.0039468582983245267 0 0.0072205858141502271 0.0030470397223418886 0 0.0077358764168312874 0.0035910924053701725 0 0.0081969279254607025 0.003140537830554335 0 0.0072205858141502271 0.0030470397223418886 0 0.0077358764168312874 0.0035910924053701725 0 0.0070569185661340413 0.0039468582983245267 0 0.0077358764168312874 0.0035910924053701725 0 0.0077788279986408257 0.0040902165038673123 0 0.008210800134806958 0.0043501512559169387 0 0.0070569185661340413 0.0039468582983245267 0 0.0077788279986408257 0.0040902165038673123 0 0.008210800134806958 0.0043501512559169387 0 0.010014668556885237 0.0045459293603340818 0 0.0096287147908616817 0.0041589335030250158 0 0.008210800134806958 0.0043501512559169387 0 0.005992594956646822 0.0042007382446575545 0 0.0070569185661340413 0.0039468582983245267 0 0.0081723791800983412 0.0043629171826458845 0 0.0079117945953284669 0.0043086821430122412 0 0.0096287147908616817 0.0041589335030250158 0 0.0088930568408624264 0.0035762431953050822 0 0.0096439055086537332 0.0031676898222001292 0 0.008210800134806958 0.0043501512559169387 0 0.0096287147908616817 0.0041589335030250158 0 0.0088930568408624264 0.0035762431953050822 0 0.0096439055086537332 0.0031676898222001292 0 0.0088603056574625069 0.0027965190658531076 0 0.0097383986582726279 0.0015027848158804759 0 0.0096439055086537332 0.0031676898222001292 0 0.0097383986582726279 0.0015027848158804759 0 0.010574858289353995 0.0027247463893200824 0 0.0088930568408624264 0.0035762431953050822 0 0.0096439055086537332 0.0031676898222001292 0 0.0088603056574625069 0.0027965190658531076 0 0.0080921312611813619 0.0032646539167387077 0 0.0088930568408624264 0.0035762431953050822 0 0.0088603056574625069 0.0027965190658531076 0 0.0096287147908616817 0.0041589335030250158 0 0.0096439055086537332 0.0031676898222001292 0 0.010574858289353995 0.0027247463893200824 0 0.008163926448257957 0.0018137473446100036 0 0.0097383986582726279 0.0015027848158804759 0 0.0089082354759737904 -3.4967967379835863e-05 0 0.008163926448257957 0.0018137473446100036 0 0.0088603056574625069 0.0027965190658531076 0 0.0097383986582726279 0.0015027848158804759 0 0.0097383986582726279 0.0015027848158804759 0 0.010574858289353995 0.0027247463893200824 0 0.012637682011267483 0.00044391229409271879 0 0.0096287147908616817 0.0041589335030250158 0 0.010574858289353995 0.0027247463893200824 0 0.01221320911450282 0.0034952166017480244 0 0.014931833550851823 0.0028057322290044842 0 0.014656640749797093 -0.00046359186848293158 0 0.012637682011267483 0.00044391229409271879 0 0.014931833550851823 0.0028057322290044842 0 0.014656640749797093 -0.00046359186848293158 0 0.016116474131632492 0.00106243335829808 0 0.010987244965279383 0.0039945309973893296 0 0.012712728542696309 0.0024485515365749145 0 0.010574858289353995 0.0027247463893200824 0 0.01221320911450282 0.0034952166017480244 0 0.012637682011267483 0.00044391229409271879 0 0.01221320911450282 0.0034952166017480244 0 0.014435783569602031 0.002678212823351732 0 0.012637682011267483 0.00044391229409271879 0 0.012712728542696309 0.0024485515365749145 0 0.013424166941417928 0.00078389725796826815 0 0.010090479211526971 0.0043229487871112521 0 0.010135450342096576 0.0042561887977456509 0 0.010065987673389769 0.0043724636336517197 0 0.014656640749797093 -0.00046359186848293158 0 0.012654072459970359 -0.0018384043865796401 0 0.014835879647987259 -0.0040160348809863203 0 0.014656640749797093 -0.00046359186848293158 0 0.014835879647987259 -0.0040160348809863203 0 0.016839059877075097 -0.0013556948423128735 0 0.012637682011267483 0.00044391229409271879 0 0.012654072459970359 -0.0018384043865796401 0 0.010707376364809248 -0.00065600484598783487 0 0.014656640749797093 -0.00046359186848293158 0 0.012637682011267483 0.00044391229409271879 0 0.012654072459970359 -0.0018384043865796401 0 0.010892893611697351 -0.0023674589981165081 0 0.010707376364809248 -0.00065600484598783487 0 0.0096727870357278152 -0.0015382233454780611 0 0.012654072459970359 -0.0018384043865796401 0 0.010892893611697351 -0.0023674589981165081 0 0.010707376364809248 -0.00065600484598783487 0 0.012654072459970359 -0.0018384043865796401 0 0.010892893611697351 -0.0023674589981165081 0 0.012278715858511655 -0.003882280516376803 0 0.0097383986582726279 0.0015027848158804759 0 0.012637682011267483 0.00044391229409271879 0 0.010707376364809248 -0.00065600484598783487 0 0.010707376364809248 -0.00065600484598783487 0 0.0089082354759737904 -3.4967967379835863e-05 0 0.0096727870357278152 -0.0015382233454780611 0 0.0097383986582726279 0.0015027848158804759 0 0.010707376364809248 -0.00065600484598783487 0 0.0089082354759737904 -3.4967967379835863e-05 0 0.0089082354759737904 -3.4967967379835863e-05 0 0.0096727870357278152 -0.0015382233454780611 0 0.008311576930851404 -0.0015748786786712182 0 0.010892893611697351 -0.0023674589981165081 0 0.0096727870357278152 -0.0015382233454780611 0 0.0098108366066196051 -0.0032048662002808659 0 0.0096727870357278152 -0.0015382233454780611 0 0.0098108366066196051 -0.0032048662002808659 0 0.008311576930851404 -0.0015748786786712182 0 0.0097265652248674974 -0.0031204523948787978 0 0.0086042428914944683 -0.001902765863330085 0 0.0098108366066196051 -0.0032048662002808659 0 0.0090577584730132318 -0.0023242777361533471 0 0.0090633870495929678 -0.0035117801747964021 0 0.0098108366066196051 -0.0032048662002808659 0 0.0097738882807880505 -0.0039824768526650258 0 0.010883690863467767 -0.0036973903203265262 0 0.0097738882807880505 -0.0039824768526650258 0 0.0090633870495929678 -0.0035117801747964021 0 0.0092451662415427745 -0.0042447159784347408 0 0.0098108366066196051 -0.0032048662002808659 0 0.0097738882807880505 -0.0039824768526650258 0 0.0090633870495929678 -0.0035117801747964021 0 0.0098355774881616568 -0.0039654860848945261 0 0.01029039211659725 -0.0061426023452289457 0 0.0097738882807880505 -0.0039824768526650258 0 0.0095030669912883215 -0.0047458249539138707 0 0.0092451662415427745 -0.0042447159784347408 0 0.0097738882807880505 -0.0039824768526650258 0 0.0095030669912883215 -0.0047458249539138707 0 0.010217957304255237 -0.0051599439496121296 0 0.0097738882807880505 -0.0039824768526650258 0 0.011136309378322372 -0.0049296671155034969 0 0.010736311528210658 -0.0064751408353710014 0 0.011136309378322372 -0.0049296671155034969 0 0.010883690863467767 -0.0036973903203265262 0 0.012278715858511655 -0.003882280516376803 0 0.0097738882807880505 -0.0039824768526650258 0 0.011136309378322372 -0.0049296671155034969 0 0.010883690863467767 -0.0036973903203265262 0 0.010892893611697351 -0.0023674589981165081 0 0.0098108366066196051 -0.0032048662002808659 0 0.010883690863467767 -0.0036973903203265262 0 0.010892893611697351 -0.0023674589981165081 0 0.010883690863467767 -0.0036973903203265262 0 0.012278715858511655 -0.003882280516376803 0 0.012654072459970359 -0.0018384043865796401 0 0.012278715858511655 -0.003882280516376803 0 0.014835879647987259 -0.0040160348809863203 0 0.011136309378322372 -0.0049296671155034969 0 0.012278715858511655 -0.003882280516376803 0 0.013178175122211495 -0.0063902428811569417 0 0.012278715858511655 -0.003882280516376803 0 0.014835879647987259 -0.0040160348809863203 0 0.013178175122211495 -0.0063902428811569417 0 0.017164766491277229 -0.0025126194708043601 0 0.017016056288898122 -0.0030662882044707471 0 0.017515594578167197 -0.0030766874124335589 0 0.015993258536709836 -0.0031757139813919375 0 0.015221210402783764 -0.0048456688388372514 0 0.011449670275626 -0.00068254546627314597 0 0.011449316421684726 -0.00033526250334300239 0 0.011687579293236952 -0.00058181057458957383 0 0.011449670275626 -0.00068254546627314597 0 0.011687579293236952 -0.00058181057458957383 0 0.011644145026258809 -0.00086359992991245004 0 0.011087664028584437 -0.00067691724712281567 0 0.011449670275626 -0.00068254546627314597 0 0.011449316421684726 -0.00033526250334300239 0 0.010890210973528712 -0.00016009399848345251 0 0.011174438965272543 0.00016330722419905137 0 0.011449316421684726 -0.00033526250334300239 0 0.011087664028584437 -0.00067691724712281567 0 0.010890210973528712 -0.00016009399848345251 0 0.011449316421684726 -0.00033526250334300239 0 0.011609677577251126 0.00024616931703668458 0 0.011449316421684726 -0.00033526250334300239 0 0.011939397875927491 -0.00020617581590011541 0 0.011449316421684726 -0.00033526250334300239 0 0.011939397875927491 -0.00020617581590011541 0 0.011687579293236952 -0.00058181057458957383 0 0.0089082354759737904 -3.4967967379835863e-05 0 0.0069857959140891598 3.055797326017771e-05 0 0.008311576930851404 -0.0015748786786712182 0 0.0086762170493232971 -0.00053535007305458341 0 0.0086042428914944683 -0.001902765863330085 0 0.0086762170493232971 -0.00053535007305458341 0 0.010244199635984254 -0.0021542534748910875 0 0.0082613047240626559 -0.0013661221796894701 0 0.0090577584730132318 -0.0023242777361533471 0 0.008392770948421488 -0.0030859986291613753 0 0.0090577584730132318 -0.0023242777361533471 0 0.008392770948421488 -0.0030859986291613753 0 0.0090633870495929678 -0.0035117801747964021 0 0.011939397875927491 -0.00020617581590011541 0 0.011687579293236952 -0.00058181057458957383 0 0.011949731391728316 -0.00073396530105696673 0 0.011949731391728316 -0.00073396530105696673 0 0.011975715877207313 -0.0012309530841473199 0 0.011644145026258809 -0.00086359992991245004 0 0.011687579293236952 -0.00058181057458957383 0 0.011949731391728316 -0.00073396530105696673 0 0.011644145026258809 -0.00086359992991245004 0 0.008392770948421488 -0.0030859986291613753 0 0.0090633870495929678 -0.0035117801747964021 0 0.0086060935043436784 -0.0047114622520505285 0 0.010244199635984254 -0.0021542534748910875 0 0.011228696678394016 -0.0020672874444655435 0 0.0095030669912883215 -0.0047458249539138707 0 0.0086060935043436784 -0.0047114622520505285 0 0.0092451662415427745 -0.0042447159784347408 0 0.0090633870495929678 -0.0035117801747964021 0 0.0086060935043436784 -0.0047114622520505285 0 0.0092451662415427745 -0.0042447159784347408 0 0.011228696678394016 -0.0020672874444655435 0 0.011804281252328278 -0.00062892745150464838 0 0.011844270644032 -0.0010544837929718129 0 0.011675051306098673 -0.001037561427094328 0 0.011644145026258809 -0.00086359992991245004 0 0.011675051306098673 -0.001037561427094328 0 0.01152479086974054 -0.0010301935755951111 0 0.011644145026258809 -0.00086359992991245004 0 0.01152479086974054 -0.0010301935755951111 0 0.011644145026258809 -0.00086359992991245004 0 0.011380737085417456 -0.00087997765275272687 0 0.011449670275626 -0.00068254546627314597 0 0.011644145026258809 -0.00086359992991245004 0 0.011380737085417456 -0.00087997765275272687 0 0.011087664028584437 -0.00067691724712281567 0 0.011449670275626 -0.00068254546627314597 0 0.011380737085417456 -0.00087997765275272687 0 0.011174881295997202 -0.00083669031808809066 0 0.011087664028584437 -0.00067691724712281567 0 0.011380737085417456 -0.00087997765275272687 0 0.011322193689325218 -0.0010250956131598573 0 0.01152479086974054 -0.0010301935755951111 0 0.011485490007915407 -0.001162772667353492 0 0.011174881295997202 -0.00083669031808809066 0 0.011322193689325218 -0.0010250956131598573 0 0.011380737085417456 -0.00087997765275272687 0 0.011322193689325218 -0.0010250956131598573 0 0.01152479086974054 -0.0010301935755951111 0 0.011380737085417456 -0.00087997765275272687 0 0.011322193689325218 -0.0010250956131598573 0 0.011485490007915407 -0.001162772667353492 0 0.011350865979968809 -0.0012081534609290692 0 0.011485490007915407 -0.001162772667353492 0 0.011501122291844983 -0.0012633214335915728 0 0.011350865979968809 -0.0012081534609290692 0 0.011501122291844983 -0.0012633214335915728 0 0.011462358065362891 -0.0013401610632054518 0 0.011350865979968809 -0.0012081534609290692 0 0.011485490007915407 -0.001162772667353492 0 0.011501122291844983 -0.0012633214335915728 0 0.011591202815180369 -0.0012692341901061931 0 0.011501122291844983 -0.0012633214335915728 0 0.011462358065362891 -0.0013401610632054518 0 0.011570085901042202 -0.0013563369726351275 0 0.011591202815180369 -0.0012692341901061931 0 0.011682497994677578 -0.0011958513741321803 0 0.011669551673120939 -0.0013465119119411843 0 0.011501122291844983 -0.0012633214335915728 0 0.011591202815180369 -0.0012692341901061931 0 0.011570085901042202 -0.0013563369726351275 0 0.011591202815180369 -0.0012692341901061931 0 0.011570085901042202 -0.0013563369726351275 0 0.011669551673120939 -0.0013465119119411843 0 0.011485490007915407 -0.001162772667353492 0 0.011591202815180369 -0.0012692341901061931 0 0.011682497994677578 -0.0011958513741321803 0 0.01152479086974054 -0.0010301935755951111 0 0.011485490007915407 -0.001162772667353492 0 0.011682497994677578 -0.0011958513741321803 0 0.011675051306098673 -0.001037561427094328 0 0.01152479086974054 -0.0010301935755951111 0 0.011682497994677578 -0.0011958513741321803 0 0.011844270644032 -0.0010544837929718129 0 0.011682497994677578 -0.0011958513741321803 0 0.011868830143703697 -0.0012388275080883878 0 0.011844270644032 -0.0010544837929718129 0 0.011675051306098673 -0.001037561427094328 0 0.011682497994677578 -0.0011958513741321803 0 0.011228696678394016 -0.0020672874444655435 0 0.011900002866279832 -0.00087367164755147687 0 0.0095030669912883215 -0.0047458249539138707 0 0.0086060935043436784 -0.0047114622520505285 0 0.0096438614281638326 -0.0056161236122618695 0 0.011228696678394016 -0.0020672874444655435 0 0.010432141034466252 -0.0035374892944495888 0 0.011850335058996391 -0.0011037102601796475 0 0.011868830143703697 -0.0012388275080883878 0 0.012012048675141435 -0.0012359712081404146 0 0.011868830143703697 -0.0012388275080883878 0 0.011809336645207256 -0.0013560220821527136 0 0.011962804874347378 -0.0013800132503766121 0 0.011868830143703697 -0.0012388275080883878 0 0.011962804874347378 -0.0013800132503766121 0 0.012012048675141435 -0.0012359712081404146 0 0.011682497994677578 -0.0011958513741321803 0 0.011809336645207256 -0.0013560220821527136 0 0.011669551673120939 -0.0013465119119411843 0 0.011682497994677578 -0.0011958513741321803 0 0.011868830143703697 -0.0012388275080883878 0 0.011809336645207256 -0.0013560220821527136 0 0.011809336645207256 -0.0013560220821527136 0 0.011721830845076159 -0.0014249172806013986 0 0.011669551673120939 -0.0013465119119411843 0 0.011809336645207256 -0.0013560220821527136 0 0.011835148168694725 -0.0014543006059405134 0 0.011721830845076159 -0.0014249172806013986 0 0.011835148168694725 -0.0014543006059405134 0 0.011895444405812533 -0.0014208872835459005 0 0.011977242900325319 -0.0014923229634198469 0 0.011809336645207256 -0.0013560220821527136 0 0.011962804874347378 -0.0013800132503766121 0 0.011895444405812533 -0.0014208872835459005 0 0.011809336645207256 -0.0013560220821527136 0 0.011835148168694725 -0.0014543006059405134 0 0.011895444405812533 -0.0014208872835459005 0 0.011962804874347378 -0.0013800132503766121 0 0.011895444405812533 -0.0014208872835459005 0 0.011977242900325319 -0.0014923229634198469 0 0.011835148168694725 -0.0014543006059405134 0 0.012041383275691363 -0.0016854605514512939 0 0.012315019430438563 -0.0017185691441339624 0 0.011104183601463955 -0.0012171345912106481 0 0.014078639697813146 -0.0019887341289921085 0 0.011835148168694725 -0.0014543006059405134 0 0.011977242900325319 -0.0014923229634198469 0 0.012045725132078383 -0.0016383516661092738 0 0.011835148168694725 -0.0014543006059405134 0 0.012041383275691363 -0.0016854605514512939 0 0.011880762188820606 -0.001631764633685873 0 0.011703004999520513 -0.0015160117713700094 0 0.011880762188820606 -0.001631764633685873 0 0.011937957822085517 -0.0019025615375319784 0 0.011835148168694725 -0.0014543006059405134 0 0.011721830845076159 -0.0014249172806013986 0 0.011703004999520513 -0.0015160117713700094 0 0.011835148168694725 -0.0014543006059405134 0 0.011703004999520513 -0.0015160117713700094 0 0.011880762188820606 -0.001631764633685873 0 0.011703004999520513 -0.0015160117713700094 0 0.011623239269974054 -0.0015195354193577538 0 0.011684638064208172 -0.0015583668633580813 0 0.011703004999520513 -0.0015160117713700094 0 0.011623239269974054 -0.0015195354193577538 0 0.011633219840629733 -0.0014454936099899168 0 0.011623239269974054 -0.0015195354193577538 0 0.011552796193391978 -0.0014467871166363722 0 0.011633219840629733 -0.0014454936099899168 0 0.011623239269974054 -0.0015195354193577538 0 0.011552796193391978 -0.0014467871166363722 0 0.011548617236632971 -0.0015318116501200488 0 0.011552796193391978 -0.0014467871166363722 0 0.011548617236632971 -0.0015318116501200488 0 0.011455717680730717 -0.0014127766387129596 0 0.011552796193391978 -0.0014467871166363722 0 0.011462358065362891 -0.0013401610632054518 0 0.011455717680730717 -0.0014127766387129596 0 0.011552796193391978 -0.0014467871166363722 0 0.011462358065362891 -0.0013401610632054518 0 0.011570085901042202 -0.0013563369726351275 0 0.011570085901042202 -0.0013563369726351275 0 0.011669551673120939 -0.0013465119119411843 0 0.011633219840629733 -0.0014454936099899168 0 0.011721830845076159 -0.0014249172806013986 0 0.011669551673120939 -0.0013465119119411843 0 0.011633219840629733 -0.0014454936099899168 0 0.011721830845076159 -0.0014249172806013986 0 0.011703004999520513 -0.0015160117713700094 0 0.011633219840629733 -0.0014454936099899168 0 0.011552796193391978 -0.0014467871166363722 0 0.011570085901042202 -0.0013563369726351275 0 0.011633219840629733 -0.0014454936099899168 0 0.017452360383769176 -0.0035630848392133587 0 0.017128290356371208 -0.0034210385350539954 0 0.016994685923036126 -0.0037268299502219854 0 0.017452360383769176 -0.0035630848392133587 0 0.017128290356371208 -0.0034210385350539954 0 0.017515594578167197 -0.0030766874124335589 0 0.017016056288898122 -0.0030662882044707471 0 0.017128290356371208 -0.0034210385350539954 0 0.017515594578167197 -0.0030766874124335589 0 0.017128290356371208 -0.0034210385350539954 0 0.016994685923036126 -0.0037268299502219854 0 0.016597840616807535 -0.0037169221209084734 0 0.015221210402783764 -0.0048456688388372514 0 0.013207342121922339 -0.0055129143825259855 0 0.017016056288898122 -0.0030662882044707471 0 0.017128290356371208 -0.0034210385350539954 0 0.016597840616807535 -0.0037169221209084734 0 0.010700118477045086 -0.0062913178666032079 0 0.010217957304255237 -0.0051599439496121296 0 0.0096438614281638326 -0.0056161236122618695 0 0.010700118477045086 -0.0062913178666032079 0 0.0096438614281638326 -0.0056161236122618695 0 0.010586866918389641 -0.0064774864557946062 0 0.013207342121922339 -0.0055129143825259855 0 0.01029039211659725 -0.0061426023452289457 0 0.011136309378322372 -0.0049296671155034969 0 0.013178175122211495 -0.0063902428811569417 0 0.010736311528210658 -0.0064751408353710014 0 0.013178175122211495 -0.0063902428811569417 0 0.011673792944043034 -0.0087607839013011928 0 0.010736311528210658 -0.0064751408353710014 0 0.0095030669912883215 -0.0047458249539138707 0 0.010217957304255237 -0.0051599439496121296 0 0.0096438614281638326 -0.0056161236122618695 0 0.011962804874347378 -0.0013800132503766121 0 0.012012048675141435 -0.0012359712081404146 0 0.012068087133346133 -0.001406928276544691 0 0.012012048675141435 -0.0012359712081404146 0 0.012068087133346133 -0.001406928276544691 0 0.012191419019197085 -0.0013956125105942195 0 0.010432141034466252 -0.0035374892944495888 0 0.013213336168630539 -0.0032638155855153833 0 0.011977242900325319 -0.0014923229634198469 0 0.012068087133346133 -0.001406928276544691 0 0.012117639339180584 -0.0015091703904742545 0 0.011962804874347378 -0.0013800132503766121 0 0.011977242900325319 -0.0014923229634198469 0 0.012068087133346133 -0.001406928276544691 0 0.015599526457930963 -0.0028144702985515727 0 0.015599525326967303 -0.0028198511258125088 0 0.015596627684176821 -0.0028179326003703168 0 0.011977242900325319 -0.0014923229634198469 0 0.012117639339180584 -0.0015091703904742545 0 0.012045725132078383 -0.0016383516661092738 0 0.013947096088907722 -0.0020165690382364112 0 0.014078639697813146 -0.0019887341289921085 0 0.015609255437537139 -0.0028182810410173438 0 0.015608967654115118 -0.0028142055102722361 0 0.015628114877992576 -0.0028250808809578559 0 0.015599526457930963 -0.0028144702985515727 0 0.015609255437537139 -0.0028182810410173438 0 0.015608967654115118 -0.0028142055102722361 0 0.015609255437537139 -0.0028182810410173438 0 0.015628114877992576 -0.0028250808809578559 0 0.015599525326967303 -0.0028198511258125088 0 0.017569638831838381 -0.0031487390401227192 0 0.016422342577662459 -0.0025377914921764391 0 0.015599526457930963 -0.0028144702985515727 0 0.015609255437537139 -0.0028182810410173438 0 0.015599525326967303 -0.0028198511258125088 0 0.015599526457930963 -0.0028144702985515727 0 0.015608967654115118 -0.0028142055102722361 0 0.015596762834427198 -0.0028109772500084498 0 0.012068087133346133 -0.001406928276544691 0 0.012117639339180584 -0.0015091703904742545 0 0.012191419019197085 -0.0013956125105942195 0 0.013947096088907722 -0.0020165690382364112 0 0.013213336168630539 -0.0032638155855153833 0 0.014165926762063042 -0.0038095989901854436 0 0.014280286911849798 -0.0040691555202763026 0 0.014106160141949479 -0.0039082556572060355 0 0.013207342121922339 -0.0055129143825259855 0 0.013213336168630539 -0.0032638155855153833 0 0.016597840616807535 -0.0037169221209084734 0 0.016709617439977967 -0.0040053791577858086 0 0.016820201808840012 -0.0038678653034375072 0 0.013207342121922339 -0.0055129143825259855 0 0.015500974719528967 -0.0036363535871108098 0 0.015500974719528967 -0.0036363535871108098 0 0.013213336168630539 -0.0032638155855153833 0 0.016994685923036126 -0.0037268299502219854 0 0.016597840616807535 -0.0037169221209084734 0 0.016820201808840012 -0.0038678653034375072 0 0.016994685923036126 -0.0037268299502219854 0 0.016820201808840012 -0.0038678653034375072 0 0.017030619199420935 -0.0041277953283714447 0 0.016994685923036126 -0.0037268299502219854 0 0.017030619199420935 -0.0041277953283714447 0 0.017284992465677593 -0.0040145105339281029 0 0.016709617439977967 -0.0040053791577858086 0 0.017030619199420935 -0.0041277953283714447 0 0.017108072060169802 -0.00439135917260063 0 0.017030619199420935 -0.0041277953283714447 0 0.017108072060169802 -0.00439135917260063 0 0.017284992465677593 -0.0040145105339281029 0 0.016709617439977967 -0.0040053791577858086 0 0.016820201808840012 -0.0038678653034375072 0 0.017030619199420935 -0.0041277953283714447 0 0.016579866533944165 -0.0030564609471920049 0 0.016974292032878736 -0.0040447669686215606 0 0.017431859959419468 -0.0038893171297574615 0 0.015500974719528967 -0.0036363535871108098 0 0.018361475992933654 -0.0038735805656275324 0 0.015500974719528967 -0.0036363535871108098 0 0.017569638831838381 -0.0031487390401227192 0 0.018907643113883162 -0.0035123166091107091 0 0.018608552683886757 -0.0036160193752744507 0 0.018766826452051324 -0.0031344940574238814 0 0.018361475992933654 -0.0038735805656275324 0 0.019732951188289407 -0.0030248611078539994 0 0.017569638831838381 -0.0031487390401227192 0 0.019732951188289407 -0.0030248611078539994 0 0.017569638831838381 -0.0031487390401227192 0 0.018361475992933654 -0.0038735805656275324 0 0.018113166693883659 -0.0041697500831643043 0 0.018131036922375849 -0.0041780967900341146 0 0.018151711753186622 -0.0041975521122570927 0 0.018361475992933654 -0.0038735805656275324 0 0.017732124553546988 -0.0042311548258006249 0 0.018361475992933654 -0.0038735805656275324 0 0.019807042087253552 -0.0036584255980415658 0 0.018361475992933654 -0.0038735805656275324 0 0.017250312664482664 -0.0043692883757354686 0 0.018113166693883659 -0.0041697500831643043 0 0.018131036922375849 -0.0041780967900341146 0 0.018122413870777777 -0.0041623130050841943 0 0.017111217158999117 -0.0044035443378507184 0 0.017620289545918419 -0.0042324409762129703 0 0.017284992465677593 -0.0040145105339281029 0 0.018131036922375849 -0.0041780967900341146 0 0.018122413870777777 -0.0041623130050841943 0 0.018150107126242536 -0.0041799986111033995 0 0.017620289545918419 -0.0042324409762129703 0 0.017284992465677593 -0.0040145105339281029 0 0.017719055137231557 -0.0038552038194537806 0 0.017452360383769176 -0.0035630848392133587 0 0.016994685923036126 -0.0037268299502219854 0 0.017284992465677593 -0.0040145105339281029 0 0.017452360383769176 -0.0035630848392133587 0 0.017284992465677593 -0.0040145105339281029 0 0.017719055137231557 -0.0038552038194537806 0 0.02122213579385877 -0.0028583929136221063 0 0.021108627026038714 -0.0029313570774337199 0 0.021077222997724562 -0.0028403853533951794 0 0.021169560685003901 -0.0029592954900875554 0 0.02122213579385877 -0.0028583929136221063 0 0.021108627026038714 -0.0029313570774337199 0 0.021169560685003901 -0.0029592954900875554 0 0.021224477109202521 -0.0029461552775426861 0 0.02122213579385877 -0.0028583929136221063 0 0.021169560685003901 -0.0029592954900875554 0 0.021106882330091038 -0.0030366320834439233 0 0.021108627026038714 -0.0029313570774337199 0 0.021169560685003901 -0.0029592954900875554 0 0.021106882330091038 -0.0030366320834439233 0 0.021213845073199167 -0.0030185042244920564 0 0.021184281695944215 -0.0031367158084333363 0 0.021106882330091038 -0.0030366320834439233 0 0.021220132083674778 -0.0030638522312664055 0 0.021106882330091038 -0.0030366320834439233 0 0.021213845073199167 -0.0030185042244920564 0 0.021220132083674778 -0.0030638522312664055 0 0.018131036922375849 -0.0041780967900341146 0 0.018151711753186622 -0.0041975521122570927 0 0.018150107126242536 -0.0041799986111033995 0 0.019732951188289407 -0.0030248611078539994 0 0.02019163496088484 -0.0029544701033074362 0 0.021213845073199167 -0.0030185042244920564 0 0.021225667525101372 -0.0030637301100307 0 0.021286074875443359 -0.0029390007752630757 0 0.018693801835574342 -0.0023359931453268905 0 0.018853082238835597 -0.002735796148034902 0 0.017990346978880488 -0.003160010682850108 0 0.018853082238835597 -0.002735796148034902 0 0.018529645533725728 -0.0035625101554327271 0 0.017990346978880488 -0.003160010682850108 0 0.020427456107342264 -0.0032754624708476923 0 0.019732951188289407 -0.0030248611078539994 0 0.021460606498708502 -0.0029562797783304869 0 0.02152929403957117 -0.0027989877093134003 0 0.02131850411821553 -0.0028442820842147897 0 0.021169560685003901 -0.0029592954900875554 0 0.021213845073199167 -0.0030185042244920564 0 0.021224477109202521 -0.0029461552775426861 0 0.021213845073199167 -0.0030185042244920564 0 0.021286074875443359 -0.0029390007752630757 0 0.021224477109202521 -0.0029461552775426861 0 0.021286074875443359 -0.0029390007752630757 0 0.021224477109202521 -0.0029461552775426861 0 0.02122213579385877 -0.0028583929136221063 0 0.02019163496088484 -0.0029544701033074362 0 0.02140659205409504 -0.0029418720579235981 0 0.019874118633371931 -0.0025421320861052418 0 0.019544888504492479 -0.002295480995791611 0 0.019404124658396825 -0.0026793731524063927 0 0.019874118633371931 -0.0025421320861052418 0 0.019404124658396825 -0.0026793731524063927 0 0.019721766653356849 -0.0029334261001834911 0 0.02019163496088484 -0.0029544701033074362 0 0.020620587203149715 -0.0028998121802753878 0 0.02019163496088484 -0.0029544701033074362 0 0.018834003423611315 -0.0028104705774965777 0 0.018693801835574342 -0.0023359931453268905 0 0.017990346978880488 -0.003160010682850108 0 0.017450324043600838 -0.0027537830234982139 0 0.018834003423611315 -0.0028104705774965777 0 0.016422342577662459 -0.0025377914921764391 0 0.019544888504492479 -0.002295480995791611 0 0.019247145313005667 -0.0023449837562310436 0 0.019205975662370939 -0.0020491501793493952 0 0.019247145313005667 -0.0023449837562310436 0 0.019076903459209763 -0.0020941571547993493 0 0.018815761964631895 -0.0025442950524195121 0 0.012041383275691363 -0.0016854605514512939 0 0.012315019430438563 -0.0017185691441339624 0 0.01227370493447527 -0.0017913730564237109 0 0.014556720333100357 -0.0023263949081170718 0 0.014929440265733547 -0.0026114271765587714 0 0.015250454096137015 -0.0020861705805969469 0 0.016422342577662459 -0.0025377914921764391 0 0.014078639697813146 -0.0019887341289921085 0 0.014078639697813146 -0.0019887341289921085 0 0.015384452637282628 -0.0020198921462357363 0 0.016422342577662459 -0.0025377914921764391 0 0.015384452637282628 -0.0020198921462357363 0 0.019247145313005667 -0.0023449837562310436 0 0.019205975662370939 -0.0020491501793493952 0 0.019076903459209763 -0.0020941571547993493 0 0.019247145313005667 -0.0023449837562310436 0 0.019158402959215618 -0.0026502459487420704 0 0.018815761964631895 -0.0025442950524195121 0 0.019158402959215618 -0.0026502459487420704 0 0.01916650085750508 -0.0030320608224962864 0 0.018815761964631895 -0.0025442950524195121 0 0.019247145313005667 -0.0023449837562310436 0 0.019404124658396825 -0.0026793731524063927 0 0.019158402959215618 -0.0026502459487420704 0 0.019544888504492479 -0.002295480995791611 0 0.019247145313005667 -0.0023449837562310436 0 0.019404124658396825 -0.0026793731524063927 0 0.019404124658396825 -0.0026793731524063927 0 0.01916650085750508 -0.0030320608224962864 0 0.019448924464395927 -0.0030176152246335873 0 0.019404124658396825 -0.0026793731524063927 0 0.019158402959215618 -0.0026502459487420704 0 0.01916650085750508 -0.0030320608224962864 0 0.01916650085750508 -0.0030320608224962864 0 0.019348012621818168 -0.0032825198030656685 0 0.019448924464395927 -0.0030176152246335873 0 0.021428931805979528 -0.0028364813372539332 0 0.021285170563544346 -0.0024199807975085327 0 0.023017178413859925 -0.0022475180542981671 0 0.022969240661015886 -0.0022465435024123302 0 0.022974897407986267 -0.0023183653336916669 0 0.022969240661015886 -0.0022465435024123302 0 0.022974897407986267 -0.0023183653336916669 0 0.023014557660107942 -0.0021935601213639404 0 0.02295527432144084 -0.0021576232531446359 0 0.023014557660107942 -0.0021935601213639404 0 0.023051851514357267 -0.002070667516097678 0 0.022969240661015886 -0.0022465435024123302 0 0.02295527432144084 -0.0021576232531446359 0 0.023014557660107942 -0.0021935601213639404 0 0.02295527432144084 -0.0021576232531446359 0 0.023051851514357267 -0.002070667516097678 0 0.022919510036207978 -0.0020552137644819072 0 0.02295527432144084 -0.0021576232531446359 0 0.02280329717611107 -0.0021358746480004288 0 0.022919510036207978 -0.0020552137644819072 0 0.021285170563544346 -0.0024199807975085327 0 0.022071534555002246 -0.0022771304078264775 0 0.022969240661015886 -0.0022465435024123302 0 0.02295527432144084 -0.0021576232531446359 0 0.02280329717611107 -0.0021358746480004288 0 0.022969240661015886 -0.0022465435024123302 0 0.022892799055653366 -0.0022423705427459515 0 0.02280329717611107 -0.0021358746480004288 0 0.023017178413859925 -0.0022475180542981671 0 0.022969240661015886 -0.0022465435024123302 0 0.022892799055653366 -0.0022423705427459515 0 0.021589943931585597 -0.002414726580653696 0 0.02170117016325308 -0.0024340778283269645 0 0.021666584110329085 -0.0025250293223223305 0 0.019348012621818168 -0.0032825198030656685 0 0.019575881335751995 -0.0033194088821872211 0 0.019448924464395927 -0.0030176152246335873 0 0.021285170563544346 -0.0024199807975085327 0 0.021436799250791026 -0.0026961561046878863 0 0.022737692561466776 -0.0022505240452170496 0 0.022783348133716443 -0.0021533773722644464 0 0.022637787455934814 -0.0021349880930735263 0 0.021436799250791026 -0.0026961561046878863 0 0.022071534555002246 -0.0022771304078264775 0 0.021595261547609535 -0.0026415254768777444 0 0.02152929403957117 -0.0027989877093134003 0 0.021422803796109668 -0.0027127288262349886 0 0.021436799250791026 -0.0026961561046878863 0 0.020620587203149715 -0.0028998121802753878 0 0.019575881335751995 -0.0033194088821872211 0 0.019448924464395927 -0.0030176152246335873 0 0.019721766653356849 -0.0029334261001834911 0 0.019404124658396825 -0.0026793731524063927 0 0.019448924464395927 -0.0030176152246335873 0 0.019721766653356849 -0.0029334261001834911 0 0.02152929403957117 -0.0027989877093134003 0 0.021422803796109668 -0.0027127288262349886 0 0.02131850411821553 -0.0028442820842147897 0 0.021422803796109668 -0.0027127288262349886 0 0.021311362285082472 -0.0027151433914052877 0 0.02131850411821553 -0.0028442820842147897 0 0.021595261547609535 -0.0026415254768777444 0 0.021422803796109668 -0.0027127288262349886 0 0.021342703584644341 -0.0025667569535288261 0 0.021436799250791026 -0.0026961561046878863 0 0.022022447471780629 -0.0023861432055414852 0 0.022737692561466776 -0.0022505240452170496 0 0.022637787455934814 -0.0021349880930735263 0 0.022415668356335763 -0.0022194561044791496 0 0.021422803796109668 -0.0027127288262349886 0 0.021342703584644341 -0.0025667569535288261 0 0.021311362285082472 -0.0027151433914052877 0 0.022022447471780629 -0.0023861432055414852 0 0.021424258113133129 -0.002343532286449488 0 0.021342703584644341 -0.0025667569535288261 0 0.021157574596603147 -0.0027324953300774269 0 0.021089518186013741 -0.0024568752488542678 0 0.021342703584644341 -0.0025667569535288261 0 0.021157574596603147 -0.0027324953300774269 0 0.021311362285082472 -0.0027151433914052877 0 0.021157574596603147 -0.0027324953300774269 0 0.02122213579385877 -0.0028583929136221063 0 0.021077222997724562 -0.0028403853533951794 0 0.021157574596603147 -0.0027324953300774269 0 0.021311362285082472 -0.0027151433914052877 0 0.02131850411821553 -0.0028442820842147897 0 0.021115976196216604 -0.0027114802323975444 0 0.02140659205409504 -0.0029418720579235981 0 0.013792750435981421 -0.00086459317596673314 0 0.013352742605898832 -0.0015090882399954326 0 0.013830613578630259 -0.0016360506592819238 0 0.013792750435981421 -0.00086459317596673314 0 0.012839178953545794 -0.0011398285880393367 0 0.013352742605898832 -0.0015090882399954326 0 0.012731513480853638 -0.001207148782923232 0 0.012212055660758905 -0.0013955975506657261 0 0.011671108767245581 -0.0016020838109010651 0 0.011595311253808969 -0.0016098115418457237 0 0.011618747072416538 -0.0015691374377263436 0 0.011595311253808969 -0.0016098115418457237 0 0.011548617236632971 -0.0015318116501200488 0 0.011618747072416538 -0.0015691374377263436 0 0.011595311253808969 -0.0016098115418457237 0 0.011548617236632971 -0.0015318116501200488 0 0.011576619691371925 -0.0015884446584453254 0 0.011623239269974054 -0.0015195354193577538 0 0.011548617236632971 -0.0015318116501200488 0 0.011618747072416538 -0.0015691374377263436 0 0.011623239269974054 -0.0015195354193577538 0 0.011618747072416538 -0.0015691374377263436 0 0.011684638064208172 -0.0015583668633580813 0 0.011671108767245581 -0.0016020838109010651 0 0.011618747072416538 -0.0015691374377263436 0 0.011684638064208172 -0.0015583668633580813 0 0.011703004999520513 -0.0015160117713700094 0 0.011684638064208172 -0.0015583668633580813 0 0.011759979755040489 -0.0015776944601835622 0 0.012731513480853638 -0.001207148782923232 0 0.013281136365915085 -0.0013372676877804086 0 0.011671108767245581 -0.0016020838109010651 0 0.011684638064208172 -0.0015583668633580813 0 0.011759979755040489 -0.0015776944601835622 0 0.01134460531462967 -0.0015422306991933368 0 0.013281136365915085 -0.0013372676877804086 0 0.015890532930183495 -0.001778332500865905 0 0.015798281790934041 -0.001804896943560065 0 0.015847732269902576 -0.0018612818985812476 0 0.015384452637282628 -0.0020198921462357363 0 0.018626204948469931 -0.001879939008581098 0 0.012041383275691363 -0.0016854605514512939 0 0.01227370493447527 -0.0017913730564237109 0 0.011937957822085517 -0.0019025615375319784 0 0.015384452637282628 -0.0020198921462357363 0 0.013281136365915085 -0.0013372676877804086 0 0.012041383275691363 -0.0016854605514512939 0 0.011880762188820606 -0.001631764633685873 0 0.011937957822085517 -0.0019025615375319784 0 0.015035823910869836 -0.0010399032584425584 0 0.014382653812939539 -0.0011757378274731684 0 0.014563891786322185 -0.001772449771152342 0 0.013281136365915085 -0.0013372676877804086 0 0.018626204948469931 -0.001879939008581098 0 0.014700565014204423 -0.00056530115040899097 0 0.015035823910869836 -0.0010399032584425584 0 0.014382653812939539 -0.0011757378274731684 0 0.013792750435981421 -0.00086459317596673314 0 0.014700565014204423 -0.00056530115040899097 0 0.014382653812939539 -0.0011757378274731684 0 0.013792750435981421 -0.00086459317596673314 0 0.014382653812939539 -0.0011757378274731684 0 0.013830613578630259 -0.0016360506592819238 0 0.014563891786322185 -0.001772449771152342 0 0.013865121102360326 -0.0020731312364896458 0 0.013830613578630259 -0.0016360506592819238 0 0.014382653812939539 -0.0011757378274731684 0 0.014563891786322185 -0.001772449771152342 0 0.013830613578630259 -0.0016360506592819238 0 0.021428931805979528 -0.0028364813372539332 0 0.018626204948469931 -0.001879939008581098 0 0.018626204948469931 -0.001879939008581098 0 0.018492408346983853 -0.0020168209460706505 0 0.023017178413859925 -0.0022475180542981671 0 0.022817911676318473 -0.0018396072668132961 0 0.022842646373524633 -0.0021015981866557391 0 0.022817911676318473 -0.0018396072668132961 0 0.022557503080201574 -0.0021656838253620594 0 0.022842646373524633 -0.0021015981866557391 0 0.022557503080201574 -0.0021656838253620594 0 0.022842646373524633 -0.0021015981866557391 0 0.022974897407986267 -0.0023183653336916669 0 0.023017178413859925 -0.0022475180542981671 0 0.022842646373524633 -0.0021015981866557391 0 0.022974897407986267 -0.0023183653336916669 0 0.022974897407986267 -0.0023183653336916669 0 0.023151454630189659 -0.0021399303670855546 0 0.023507507662145422 -0.0021996254244870369 0 0.02443176305475285 -0.0021719045835573293 0 0.019109955484507831 -0.0020750024983891349 0 0.022974897407986267 -0.0023183653336916669 0 0.023151454630189659 -0.0021399303670855546 0 0.023014557660107942 -0.0021935601213639404 0 0.023151454630189659 -0.0021399303670855546 0 0.023014557660107942 -0.0021935601213639404 0 0.023051851514357267 -0.002070667516097678 0 0.018492408346983853 -0.0020168209460706505 0 0.019109955484507831 -0.0020750024983891349 0 0.014563891786322185 -0.001772449771152342 0 0.014003558513560383 -0.0024387947455922678 0 0.013865121102360326 -0.0020731312364896458 0 0.023151454630189659 -0.0021399303670855546 0 0.023507507662145422 -0.0021996254244870369 0 0.023323482892910148 -0.0020263163298225692 0 0.022557503080201574 -0.0021656838253620594 0 0.022974897407986267 -0.0023183653336916669 0 0.022205177297028453 -0.0026731330805025624 0 0.014003558513560383 -0.0024387947455922678 0 0.013615263485601404 -0.0024164931073055243 0 0.013666335524529311 -0.0022946439433212517 0 0.014003558513560383 -0.0024387947455922678 0 0.013615263485601404 -0.0024164931073055243 0 0.013865121102360326 -0.0020731312364896458 0 0.019109955484507831 -0.0020750024983891349 0 0.014174498355199952 -0.0019084137859845505 0 0.013615263485601404 -0.0024164931073055243 0 0.013865121102360326 -0.0020731312364896458 0 0.013501605374400722 -0.0019618110050404129 0 0.013865121102360326 -0.0020731312364896458 0 0.013501605374400722 -0.0019618110050404129 0 0.013830613578630259 -0.0016360506592819238 0 0.013501605374400722 -0.0019618110050404129 0 0.013352742605898832 -0.0015090882399954326 0 0.013830613578630259 -0.0016360506592819238 0 0.012839178953545794 -0.0011398285880393367 0 0.013352742605898832 -0.0015090882399954326 0 0.012919349148919453 -0.0019312608905937962 0 0.012839178953545794 -0.0011398285880393367 0 0.012919349148919453 -0.0019312608905937962 0 0.01236792346903621 -0.0017491833877561404 0 0.013501605374400722 -0.0019618110050404129 0 0.013352742605898832 -0.0015090882399954326 0 0.012919349148919453 -0.0019312608905937962 0 0.013615263485601404 -0.0024164931073055243 0 0.012919349148919453 -0.0019312608905937962 0 0.012032341870469082 -0.0022550365119977495 0 0.013615263485601404 -0.0024164931073055243 0 0.014144665531428249 -0.0023248397502203177 0 0.013666335524529311 -0.0022946439433212517 0 0.013626095069670469 -0.0024418625169128558 0 0.013160101632308416 -0.0024102141353064912 0 0.013615263485601404 -0.0024164931073055243 0 0.014144665531428249 -0.0023248397502203177 0 0.014482963600213814 -0.0026421252584860619 0 0.013615263485601404 -0.0024164931073055243 0 0.013501605374400722 -0.0019618110050404129 0 0.012919349148919453 -0.0019312608905937962 0 0.014144665531428249 -0.0023248397502203177 0 0.014633970228643031 -0.0022660727916993103 0 0.014482963600213814 -0.0026421252584860619 0 0.014633970228643031 -0.0022660727916993103 0 0.014482963600213814 -0.0026421252584860619 0 0.014810047992412475 -0.0025631674934438412 0 0.014482963600213814 -0.0026421252584860619 0 0.014810047992412475 -0.0025631674934438412 0 0.015377780286966 -0.0027281003391997302 0 0.015365928230507428 -0.0027449058735418068 0 0.013809157318714269 -0.0023612885156668239 0 0.01515022956308599 -0.002391303179016039 0 0.014810047992412475 -0.0025631674934438412 0 0.015250350017634915 -0.0025872332036895262 0 0.01515022956308599 -0.002391303179016039 0 0.014810047992412475 -0.0025631674934438412 0 0.015033672883231588 -0.0022137648372828516 0 0.01515022956308599 -0.002391303179016039 0 0.015289402876154301 -0.0021425248166085718 0 0.015033672883231588 -0.0022137648372828516 0 0.014633970228643031 -0.0022660727916993103 0 0.014810047992412475 -0.0025631674934438412 0 0.015033672883231588 -0.0022137648372828516 0 0.011712005213482694 -0.0016436140615416466 0 0.011424534578891338 -0.0016575285867268352 0 0.01128165922018246 -0.0019071882689431455 0 0.012032341870469082 -0.0022550365119977495 0 0.011712005213482694 -0.0016436140615416466 0 0.01128165922018246 -0.0019071882689431455 0 0.013160101632308416 -0.0024102141353064912 0 0.013809157318714269 -0.0023612885156668239 0 0.012919349148919453 -0.0019312608905937962 0 0.012032341870469082 -0.0022550365119977495 0 0.01236792346903621 -0.0017491833877561404 0 0.012032341870469082 -0.0022550365119977495 0 0.01236792346903621 -0.0017491833877561404 0 0.011712005213482694 -0.0016436140615416466 0 0.012839178953545794 -0.0011398285880393367 0 0.01236792346903621 -0.0017491833877561404 0 0.011712005213482694 -0.0016436140615416466 0 0.011595311253808969 -0.0016098115418457237 0 0.011712005213482694 -0.0016436140615416466 0 0.011576619691371925 -0.0015884446584453254 0 0.011712005213482694 -0.0016436140615416466 0 0.011576619691371925 -0.0015884446584453254 0 0.011496508970961087 -0.0015674989414586789 0 0.012212055660758905 -0.0013955975506657261 0 0.011749000497156662 -0.0016059295231418088 0 0.011424534578891338 -0.0016575285867268352 0 0.011496508970961087 -0.0015674989414586789 0 0.011344746647634966 -0.0015440506914022622 0 0.011712005213482694 -0.0016436140615416466 0 0.011424534578891338 -0.0016575285867268352 0 0.011496508970961087 -0.0015674989414586789 0 0.011496508970961087 -0.0015674989414586789 0 0.011344746647634966 -0.0015440506914022622 0 0.011383413178114074 -0.0014812106344264827 0 0.011496508970961087 -0.0015674989414586789 0 0.011492353494161797 -0.0015234429697538114 0 0.011383413178114074 -0.0014812106344264827 0 0.011548617236632971 -0.0015318116501200488 0 0.011576619691371925 -0.0015884446584453254 0 0.011492353494161797 -0.0015234429697538114 0 0.011576619691371925 -0.0015884446584453254 0 0.011496508970961087 -0.0015674989414586789 0 0.011492353494161797 -0.0015234429697538114 0 0.011164497980620575 -0.0015724245293353843 0 0.011190949943896791 -0.0014875124107552196 0 0.011099419726398822 -0.0014680832808307293 0 0.011164497980620575 -0.0015724245293353843 0 0.011190949943896791 -0.0014875124107552196 0 0.011239958540583702 -0.0015372065394743367 0 0.011164497980620575 -0.0015724245293353843 0 0.011239958540583702 -0.0015372065394743367 0 0.011257226896696934 -0.0016243783398466904 0 0.011344746647634966 -0.0015440506914022622 0 0.011383413178114074 -0.0014812106344264827 0 0.011267697788815652 -0.0014528630284957385 0 0.011344746647634966 -0.0015440506914022622 0 0.011239958540583702 -0.0015372065394743367 0 0.011267697788815652 -0.0014528630284957385 0 0.011190949943896791 -0.0014875124107552196 0 0.011239958540583702 -0.0015372065394743367 0 0.011267697788815652 -0.0014528630284957385 0 0.011344746647634966 -0.0015440506914022622 0 0.011239958540583702 -0.0015372065394743367 0 0.011257226896696934 -0.0016243783398466904 0 0.011424534578891338 -0.0016575285867268352 0 0.011344746647634966 -0.0015440506914022622 0 0.011257226896696934 -0.0016243783398466904 0 0.011164497980620575 -0.0015724245293353843 0 0.011257226896696934 -0.0016243783398466904 0 0.011108259482124024 -0.0016845761967325724 0 0.011257226896696934 -0.0016243783398466904 0 0.011157927883354067 -0.0018117018769599593 0 0.010986138268215602 -0.0017345047875274812 0 0.010995745037176726 -0.0016362069598179767 0 0.011757107258521126 -0.001945137332999867 0 0.013313905230907811 -0.0021752346778135495 0 0.013396472762649098 -0.002146108245398343 0 0.013127408123025999 -0.0020212883628071068 0 0.013313905230907811 -0.0021752346778135495 0 0.013396472762649098 -0.002146108245398343 0 0.013669070509514474 -0.0022796062629882189 0 0.012129266474615413 -0.0019143717022762654 0 0.011757107258521126 -0.001945137332999867 0 0.011424534578891338 -0.0016575285867268352 0 0.011257226896696934 -0.0016243783398466904 0 0.01128165922018246 -0.0019071882689431455 0 0.011257226896696934 -0.0016243783398466904 0 0.011157927883354067 -0.0018117018769599593 0 0.01128165922018246 -0.0019071882689431455 0 0.01467792038701738 -0.0024487564337469488 0 0.013809157318714269 -0.0023612885156668239 0 0.015552092846914597 -0.0025955911915208872 0 0.015250350017634915 -0.0025872332036895262 0 0.015363703355433297 -0.0023727255237761796 0 0.012129266474615413 -0.0019143717022762654 0 0.013809157318714269 -0.0023612885156668239 0 0.015363703355433297 -0.0023727255237761796 0 0.015551027302718285 -0.002249768384475468 0 0.015289402876154301 -0.0021425248166085718 0 0.01515022956308599 -0.002391303179016039 0 0.015250350017634915 -0.0025872332036895262 0 0.015363703355433297 -0.0023727255237761796 0 0.01515022956308599 -0.002391303179016039 0 0.015363703355433297 -0.0023727255237761796 0 0.015289402876154301 -0.0021425248166085718 0 0.015552092846914597 -0.0025955911915208872 0 0.015363703355433297 -0.0023727255237761796 0 0.015551027302718285 -0.002249768384475468 0 0.015552092846914597 -0.0025955911915208872 0 0.015551027302718285 -0.002249768384475468 0 0.015731076067283419 -0.0024474178811543265 0 0.015551027302718285 -0.002249768384475468 0 0.015731076067283419 -0.0024474178811543265 0 0.015870340025684288 -0.002276750912351137 0 0.015731076067283419 -0.0024474178811543265 0 0.015870340025684288 -0.002276750912351137 0 0.01589533456902556 -0.0024247032990010594 0 0.016006996960112412 -0.0022812531903474019 0 0.016040714892156194 -0.0025128635812372967 0 0.016057722256705226 -0.0021750837099254882 0 0.014063485309788232 -0.0019663965244828109 0 0.016990452156897408 -0.00099981219986526961 0 0.016006996960112412 -0.0022812531903474019 0 0.01589533456902556 -0.0024247032990010594 0 0.016040714892156194 -0.0025128635812372967 0 0.015870340025684288 -0.002276750912351137 0 0.016006996960112412 -0.0022812531903474019 0 0.01589533456902556 -0.0024247032990010594 0 0.013021619987991033 -0.0020690990326867197 0 0.01349787079377675 -0.0018943929172415654 0 0.013027318323892827 -0.0017765230065806027 0 0.014063485309788232 -0.0019663965244828109 0 0.013660640823308924 -0.0020631067252585675 0 0.013660640823308924 -0.0020631067252585675 0 0.01172009449114351 -0.0014787625968474113 0 0.01589533456902556 -0.0024247032990010594 0 0.016040714892156194 -0.0025128635812372967 0 0.015806821573891971 -0.0026197583658851254 0 0.014063485309788232 -0.0019663965244828109 0 0.01172009449114351 -0.0014787625968474113 0 0.015552092846914597 -0.0025955911915208872 0 0.015731076067283419 -0.0024474178811543265 0 0.015806821573891971 -0.0026197583658851254 0 0.01467792038701738 -0.0024487564337469488 0 0.013660640823308924 -0.0020631067252585675 0 0.013313905230907811 -0.0021752346778135495 0 0.012965679283921422 -0.0020793339221611851 0 0.013127408123025999 -0.0020212883628071068 0 0.013660640823308924 -0.0020631067252585675 0 0.011757107258521126 -0.001945137332999867 0 0.015731076067283419 -0.0024474178811543265 0 0.01589533456902556 -0.0024247032990010594 0 0.015806821573891971 -0.0026197583658851254 0 0.016840595212406727 0.00075721912648612328 0 0.016866133102744679 0.00015890136735495044 0 0.016153784243466529 0.00051474315835634379 0 0.016840595212406727 0.00075721912648612328 0 0.017283174267969128 0.00045012228199125235 0 0.016866133102744679 0.00015890136735495044 0 0.015062282671957703 0.00034807349368791538 0 0.014778079818002159 -0.00049084107712650462 0 0.012641890698604556 -0.00028995803976094941 0 0.012561952082214414 -0.00032690721916630726 0 0.012616021095681195 -0.00034587140505007864 0 0.016840595212406727 0.00075721912648612328 0 0.017283174267969128 0.00045012228199125235 0 0.017503711399210437 0.00099335889701266289 0 0.017771243757578568 0.00045756447847955826 0 0.017479253485299995 0.00097992705334699177 0 0.018114108418015053 3.4828067011204216e-05 0 0.015360556798457698 -0.0011586688495947657 0 0.015353341884683654 -0.001158764658616186 0 0.015379119543143442 -0.0011743809201107131 0 0.014778079818002159 -0.00049084107712650462 0 0.016990452156897408 -0.00099981219986526961 0 0.017098420850009299 0.00030356196754690142 0 0.014778079818002159 -0.00049084107712650462 0 0.017283174267969128 0.00045012228199125235 0 0.017771243757578568 0.00045756447847955826 0 0.017503711399210437 0.00099335889701266289 0 0.017283174267969128 0.00045012228199125235 0 0.017771243757578568 0.00045756447847955826 0 0.017426247434675277 -0.00011904007568813482 0 0.011647895762343766 -0.0014018581718607582 0 0.01156922136001582 -0.0016597820112027059 0 0.011422606138965161 -0.0012206256634492965 0 0.011928201680727982 -0.0016144825101821402 0 0.011714817576957004 -0.0015727563784577888 0 0.011603892566442816 -0.0017244920848510615 0 0.014063485309788232 -0.0019663965244828109 0 0.014778079818002159 -0.00049084107712650462 0 0.011928201680727982 -0.0016144825101821402 0 0.011821772583494665 -0.001464930101184993 0 0.011934365116277259 -0.0013203741988775607 0 0.011821772583494665 -0.001464930101184993 0 0.011647895762343766 -0.0014018581718607582 0 0.011934365116277259 -0.0013203741988775607 0 0.011928201680727982 -0.0016144825101821402 0 0.011714817576957004 -0.0015727563784577888 0 0.011821772583494665 -0.001464930101184993 0 0.011714817576957004 -0.0015727563784577888 0 0.011821772583494665 -0.001464930101184993 0 0.011647895762343766 -0.0014018581718607582 0 0.011714817576957004 -0.0015727563784577888 0 0.011647895762343766 -0.0014018581718607582 0 0.01156922136001582 -0.0016597820112027059 0 0.011714817576957004 -0.0015727563784577888 0 0.011603892566442816 -0.0017244920848510615 0 0.01156922136001582 -0.0016597820112027059 0 0.014778079818002159 -0.00049084107712650462 0 0.013296735152451136 -0.0007624722220378673 0 0.012566565728221592 -0.00034173590083252193 0 0.012616021095681195 -0.00034587140505007864 0 0.012604198282187905 -0.00045032247199392644 0 0.013296735152451136 -0.0007624722220378673 0 0.010316116436901765 -0.00075382818449958565 0 0.013296735152451136 -0.0007624722220378673 0 0.010040589873043239 -0.0010657475985481881 0 0.012616021095681195 -0.00034587140505007864 0 0.012604198282187905 -0.00045032247199392644 0 0.012668998573579384 -0.00035491492489478013 0 0.011979957319397726 -0.0014210693846146273 0 0.011300732493960661 -0.00037015432381411824 0 0.011354856788566048 -0.00026755317018332128 0 0.012561952082214414 -0.00032690721916630726 0 0.012566565728221592 -0.00034173590083252193 0 0.012616021095681195 -0.00034587140505007864 0 0.010316116436901765 -0.00075382818449958565 0 0.010693911421614587 -0.00048415120464056767 0 0.012641890698604556 -0.00028995803976094941 0 0.012616021095681195 -0.00034587140505007864 0 0.012668998573579384 -0.00035491492489478013 0 0.01156922136001582 -0.0016597820112027059 0 0.011422606138965161 -0.0012206256634492965 0 0.011339081346863329 -0.001207348397771232 0 0.0087755439355439186 -0.00075941602467901486 0 0.0087177034810737141 -0.00064800575253687515 0 0.0089644164164659947 -0.00043858115989391192 0 0.0087547502843659235 -0.0012725868026997487 0 0.0087143941966882112 -0.0011757002804581005 0 0.0087081535258482102 -0.0012693786686250779 0 0.0085704527738701894 -0.0006585263814277249 0 0.0086881482072480431 -0.00045269052742526373 0 0.0090351527048969718 -0.0011583457956016736 0 0.00745860225782844 -0.00093680978710749261 0 0.010040589873043239 -0.0010657475985481881 0 0.0072857708015427076 -0.00075778823250654929 0 0.00745860225782844 -0.00093680978710749261 0 0.0085704527738701894 -0.0006585263814277249 0 0.0089543477716263649 -0.0013071883297791696 0 0.0090351527048969718 -0.0011583457956016736 0 0.0072857708015427076 -0.00075778823250654929 0 0.010316116436901765 -0.00075382818449958565 0 0.010316116436901765 -0.00075382818449958565 0 0.010040589873043239 -0.0010657475985481881 0 0.0087143941966882112 -0.0011757002804581005 0 0.0087081535258482102 -0.0012693786686250779 0 0.0086433705297346911 -0.0012985031720305154 0 0.010040589873043239 -0.0010657475985481881 0 0.0090236787417319591 -0.0015075076587848454 0 0.011422606138965161 -0.0012206256634492965 0 0.011339081346863329 -0.001207348397771232 0 0.011419296269659913 -0.001143967295921067 0 0.011647895762343766 -0.0014018581718607582 0 0.011422606138965161 -0.0012206256634492965 0 0.011934365116277259 -0.0013203741988775607 0 0.011440855330186357 -0.0012020965000160116 0 0.01172009449114351 -0.0014787625968474113 0 0.011422606138965161 -0.0012206256634492965 0 0.011419296269659913 -0.001143967295921067 0 0.011520459509172805 -0.0012104933866838505 0 0.0090236787417319591 -0.0015075076587848454 0 0.010113633179263103 -0.0023198117748631443 0 0.011422606138965161 -0.0012206256634492965 0 0.011519900051448404 -0.0012484326475363809 0 0.011520459509172805 -0.0012104933866838505 0 0.0062434725988855643 -0.0029546247928272222 0 0.0058474772587319961 -0.0023330263102219304 0 0.0082562720661583985 -0.00079311389093729553 0 0.0062434725988855643 -0.0029546247928272222 0 0.0081633041095918752 -0.0037738201356516178 0 0.0082562720661583985 -0.00079311389093729553 0 0.0090236787417319591 -0.0015075076587848454 0 0.007279582850239291 -0.0012220136388510167 0 0.0087081535258482102 -0.0012693786686250779 0 0.0086433705297346911 -0.0012985031720305154 0 0.0087200570268388643 -0.0013307155735363956 0 0.0062434725988855643 -0.0029546247928272222 0 0.0058474772587319961 -0.0023330263102219304 0 0.0056566304530060018 -0.0026128999640267002 0 0.0058474772587319961 -0.0023330263102219304 0 0.0056354702959803748 -0.0023689994366054706 0 0.0056566304530060018 -0.0026128999640267002 0 0.0057153561325652431 -0.0021581046175043455 0 0.0055448402030973459 -0.0020144078559858961 0 0.0059178443492017216 -0.00189741962535432 0 0.0057153561325652431 -0.0021581046175043455 0 0.0058474772587319961 -0.0023330263102219304 0 0.0059178443492017216 -0.00189741962535432 0 0.0057153561325652431 -0.0021581046175043455 0 0.0058474772587319961 -0.0023330263102219304 0 0.0056354702959803748 -0.0023689994366054706 0 0.0057153561325652431 -0.0021581046175043455 0 0.0056354702959803748 -0.0023689994366054706 0 0.0055802083825869488 -0.0022268201060591151 0 0.0056354702959803748 -0.0023689994366054706 0 0.0055802083825869488 -0.0022268201060591151 0 0.0053562872651480506 -0.0023983740414565444 0 0.0055448402030973459 -0.0020144078559858961 0 0.0053562872651480506 -0.0023983740414565444 0 0.0053519309205854061 -0.0018192530062425235 0 0.0055802083825869488 -0.0022268201060591151 0 0.0055448402030973459 -0.0020144078559858961 0 0.0053562872651480506 -0.0023983740414565444 0 0.0057153561325652431 -0.0021581046175043455 0 0.0055802083825869488 -0.0022268201060591151 0 0.0055448402030973459 -0.0020144078559858961 0 0.0051811228998629487 -0.00089574698637861388 0 0.0051853516518503865 -0.00088658946491767165 0 0.0051568050127753801 -0.00085771201338643687 0 0.0051811228998629487 -0.00089574698637861388 0 0.0051568050127753801 -0.00085771201338643687 0 0.0051473689857624225 -0.0008503693279494751 0 0.0072857708015427076 -0.00075778823250654929 0 0.0054725874121280063 -0.00044627314953975478 0 0.0056354702959803748 -0.0023689994366054706 0 0.0053562872651480506 -0.0023983740414565444 0 0.0056566304530060018 -0.0026128999640267002 0 0.005619837106408644 -0.0009690725125064924 0 0.007279582850239291 -0.0012220136388510167 0 0.00745860225782844 -0.00093680978710749261 0 0.007279582850239291 -0.0012220136388510167 0 0.0067689005452274461 -0.0013382463445316206 0 0.0065935119478196351 -0.00098021895504772356 0 0.0069001231303825574 -0.0011101910854549551 0 0.0087547502843659235 -0.0012725868026997487 0 0.0087081535258482102 -0.0012693786686250779 0 0.0087200570268388643 -0.0013307155735363956 0 0.00745860225782844 -0.00093680978710749261 0 0.005619837106408644 -0.0009690725125064924 0 0.011108259482124024 -0.0016845761967325724 0 0.011043416636959874 -0.0016579326185774692 0 0.01097018433660811 -0.0016463813962563233 0 0.011164497980620575 -0.0015724245293353843 0 0.01110492056502497 -0.0015982804918730762 0 0.011108259482124024 -0.0016845761967325724 0 0.011650641217666315 -0.0021936415501035756 0 0.012001475041448341 -0.0020567544978818937 0 0.011047433498251026 -0.0017834749132441487 0 0.011757107258521126 -0.001945137332999867 0 0.010913101241038612 -0.00161997895577191 0 0.01110492056502497 -0.0015982804918730762 0 0.011108259482124024 -0.0016845761967325724 0 0.011043416636959874 -0.0016579326185774692 0 0.011650641217666315 -0.0021936415501035756 0 0.010897125449769748 -0.0020180083653155712 0 0.011047433498251026 -0.0017834749132441487 0 0.011043416636959874 -0.0016579326185774692 0 0.01097018433660811 -0.0016463813962563233 0 0.011003234273776639 -0.0015975371113974919 0 0.012001475041448341 -0.0020567544978818937 0 0.011047433498251026 -0.0017834749132441487 0 0.01097018433660811 -0.0016463813962563233 0 0.010897125449769748 -0.0020180083653155712 0 0.011047433498251026 -0.0017834749132441487 0 0.010904032741527288 -0.0017232243960116542 0 0.01172009449114351 -0.0014787625968474113 0 0.010113633179263103 -0.0023198117748631443 0 0.010414392926920157 -0.0023148756743156442 0 0.010113633179263103 -0.0023198117748631443 0 0.011047433498251026 -0.0017834749132441487 0 0.01095946685274592 -0.001660575163250204 0 0.01097018433660811 -0.0016463813962563233 0 0.010113633179263103 -0.0023198117748631443 0 0.0087926479344205624 -0.0016824862402186605 0 0.01095946685274592 -0.001660575163250204 0 0.01097018433660811 -0.0016463813962563233 0 0.010961064152735268 -0.0015525555496155522 0 0.01097018433660811 -0.0016463813962563233 0 0.011003234273776639 -0.0015975371113974919 0 0.010961064152735268 -0.0015525555496155522 0 0.011043416636959874 -0.0016579326185774692 0 0.011003234273776639 -0.0015975371113974919 0 0.011033584617572008 -0.0015710794786972378 0 0.011025554025702846 -0.0016749060815177742 0 0.011116192963652308 -0.0014715495703864143 0 0.011164497980620575 -0.0015724245293353843 0 0.01110492056502497 -0.0015982804918730762 0 0.011099419726398822 -0.0014680832808307293 0 0.01110492056502497 -0.0015982804918730762 0 0.011043416636959874 -0.0016579326185774692 0 0.011099419726398822 -0.0014680832808307293 0 0.011033584617572008 -0.0015710794786972378 0 0.011003659202839283 -0.0015635064942773379 0 0.011011161332163557 -0.0015354990493144989 0 0.011116192963652308 -0.0014715495703864143 0 0.010793369383597595 -0.0016148334039324461 0 0.011003234273776639 -0.0015975371113974919 0 0.011033584617572008 -0.0015710794786972378 0 0.011003659202839283 -0.0015635064942773379 0 0.011003659202839283 -0.0015635064942773379 0 0.010961064152735268 -0.0015525555496155522 0 0.011011161332163557 -0.0015354990493144989 0 0.011003234273776639 -0.0015975371113974919 0 0.011003659202839283 -0.0015635064942773379 0 0.010961064152735268 -0.0015525555496155522 0 0.0087926479344205624 -0.0016824862402186605 0 0.010645574134393198 -0.0018697610693585126 0 0.009975427049305402 -0.0023138715941662261 0 0.010085618151668748 -0.001827912413682059 0 0.0095846917928033085 -0.0019698862021405509 0 0.0095636890181594464 -0.002562038349420614 0 0.009975427049305402 -0.0023138715941662261 0 0.0095846917928033085 -0.0019698862021405509 0 0.0087926479344205624 -0.0016824862402186605 0 0.0082661909629737854 -0.0014261054665568491 0 0.0068255147614327298 -0.0016697653590636789 0 0.0064228168950974003 -0.001128908881130283 0 0.0068567194651797661 -0.00065039831951222262 0 0.011033584617572008 -0.0015710794786972378 0 0.011011161332163557 -0.0015354990493144989 0 0.011042276239274482 -0.0015154949220038787 0 0.010645574134393198 -0.0018697610693585126 0 0.010793369383597595 -0.0016148334039324461 0 0.009975427049305402 -0.0023138715941662261 0 0.010085618151668748 -0.001827912413682059 0 0.010390518992262419 -0.0020660893255244053 0 0.0055119519236743958 -0.0013780470456209216 0 0.0053519309205854061 -0.0018192530062425235 0 0.0056504491949364412 -0.0016852584356727236 0 0.0055448402030973459 -0.0020144078559858961 0 0.0053519309205854061 -0.0018192530062425235 0 0.0056504491949364412 -0.0016852584356727236 0 0.0055448402030973459 -0.0020144078559858961 0 0.0056504491949364412 -0.0016852584356727236 0 0.0059178443492017216 -0.00189741962535432 0 0.0056504491949364412 -0.0016852584356727236 0 0.0059178443492017216 -0.00189741962535432 0 0.0060270920179504228 -0.0014480378945998596 0 0.0055119519236743958 -0.0013780470456209216 0 0.0056504491949364412 -0.0016852584356727236 0 0.0060270920179504228 -0.0014480378945998596 0 0.0058474772587319961 -0.0023330263102219304 0 0.0068255147614327298 -0.0016697653590636789 0 0.0059178443492017216 -0.00189741962535432 0 0.0068255147614327298 -0.0016697653590636789 0 0.0059178443492017216 -0.00189741962535432 0 0.0060270920179504228 -0.0014480378945998596 0 0.0068255147614327298 -0.0016697653590636789 0 0.0060270920179504228 -0.0014480378945998596 0 0.0064228168950974003 -0.001128908881130283 0 0.0054763736092699657 -0.0022391520286143695 0 0.0087926479344205624 -0.0016824862402186605 0 0.0064228168950974003 -0.001128908881130283 0 0.0064041199494873895 -0.00023336050642797359 0 0.0068567194651797661 -0.00065039831951222262 0 0.0064228168950974003 -0.001128908881130283 0 0.0058912480239142594 -0.00083241568675764595 0 0.0064041199494873895 -0.00023336050642797359 0 0.0060270920179504228 -0.0014480378945998596 0 0.0064228168950974003 -0.001128908881130283 0 0.0058912480239142594 -0.00083241568675764595 0 0.0055119519236743958 -0.0013780470456209216 0 0.0060270920179504228 -0.0014480378945998596 0 0.0058912480239142594 -0.00083241568675764595 0 0.0058912480239142594 -0.00083241568675764595 0 0.0053916677647381211 -0.00069524847389742627 0 0.005290892238526545 -0.0010121047347607323 0 0.0055119519236743958 -0.0013780470456209216 0 0.0058912480239142594 -0.00083241568675764595 0 0.005290892238526545 -0.0010121047347607323 0 0.0058912480239142594 -0.00083241568675764595 0 0.0053916677647381211 -0.00069524847389742627 0 0.0057625272014453421 -0.00014076362793118298 0 0.0058912480239142594 -0.00083241568675764595 0 0.0057625272014453421 -0.00014076362793118298 0 0.0063119205264334163 -0.00025277151414831745 0 0.0057625272014453421 -0.00014076362793118298 0 0.0063119205264334163 -0.00025277151414831745 0 0.0067360449214746414 0.0002636674510767797 0 0.0059266048917613933 -0.0007861281616613452 0 0.0063758343751096156 -0.00020813420991681137 0 0.0046010577928834355 -0.0006848018054649858 0 0.004613870520658204 -0.00067461905944495926 0 0.0046459182979596081 -0.00068180736219209444 0 0.0045937201005083715 -0.00070168921696390444 0 0.0046010577928834355 -0.0006848018054649858 0 0.0046459182979596081 -0.00068180736219209444 0 0.0057625272014453421 -0.00014076362793118298 0 0.0067360449214746414 0.0002636674510767797 0 0.0067411809249673356 0.0004096377982534897 0 0.0051160171480661952 -0.0003527736033487095 0 0.0060461066928332854 -0.00066985021877182828 0 0.0063758343751096156 -0.00020813420991681137 0 0.0071544422254791002 -0.00035824382041016114 0 0.0045912978261252613 -0.00066874150372370428 0 0.0046010577928834355 -0.0006848018054649858 0 0.004613870520658204 -0.00067461905944495926 0 0.0045937201005083715 -0.00070168921696390444 0 0.0045678547996634185 -0.00068385948960234845 0 0.0045688985304736017 -0.00070054328665165519 0 0.0045937201005083715 -0.00070168921696390444 0 0.0046010577928834355 -0.0006848018054649858 0 0.0045678547996634185 -0.00068385948960234845 0 0.0045912978261252613 -0.00066874150372370428 0 0.0046010577928834355 -0.0006848018054649858 0 0.0045678547996634185 -0.00068385948960234845 0 0.010085618151668748 -0.001827912413682059 0 0.010309836159288278 -0.0016690285338205528 0 0.010390518992262419 -0.0020660893255244053 0 0.010085618151668748 -0.001827912413682059 0 0.009849478204443065 -0.0015514507909380015 0 0.010125822719378043 -0.001452998387126964 0 0.010085618151668748 -0.001827912413682059 0 0.010125822719378043 -0.001452998387126964 0 0.010309836159288278 -0.0016690285338205528 0 0.0095846917928033085 -0.0019698862021405509 0 0.009849478204443065 -0.0015514507909380015 0 0.0096181190023376783 -0.0013588910057613245 0 0.010085618151668748 -0.001827912413682059 0 0.0095846917928033085 -0.0019698862021405509 0 0.009849478204443065 -0.0015514507909380015 0 0.0064041199494873895 -0.00023336050642797359 0 0.0068567194651797661 -0.00065039831951222262 0 0.0068900349569410045 0.00035651291554358215 0 0.0082661909629737854 -0.0014261054665568491 0 0.0071544422254791002 -0.00035824382041016114 0 0.009849478204443065 -0.0015514507909380015 0 0.0096181190023376783 -0.0013588910057613245 0 0.0097838565802573062 -0.0013964381194923616 0 0.009849478204443065 -0.0015514507909380015 0 0.0097838565802573062 -0.0013964381194923616 0 0.0099339690082250361 -0.0013439411035067307 0 0.0071544422254791002 -0.00035824382041016114 0 0.0060461066928332854 -0.00066985021877182828 0 0.0074578184578378568 -0.0011794061387174271 0 0.0071544422254791002 -0.00035824382041016114 0 0.0074578184578378568 -0.0011794061387174271 0 0.0060461066928332854 -0.00066985021877182828 0 0.0096587591852033521 -0.0013095683939190654 0 0.0096181190023376783 -0.0013588910057613245 0 0.0096555788476449054 -0.0013242868977481773 0 0.007036774201053757 -0.00098593042399687894 0 0.0071423278466693505 -0.00084633488558351442 0 0.0071405154172777107 -0.00091918239514621875 0 0.0096181190023376783 -0.0013588910057613245 0 0.0097838565802573062 -0.0013964381194923616 0 0.0096555788476449054 -0.0013242868977481773 0 0.0097838565802573062 -0.0013964381194923616 0 0.0096555788476449054 -0.0013242868977481773 0 0.0099339690082250361 -0.0013439411035067307 0 0.0096555788476449054 -0.0013242868977481773 0 0.0099339690082250361 -0.0013439411035067307 0 0.010115075751726281 -0.0012166604445811116 0 0.0099339690082250361 -0.0013439411035067307 0 0.010130242545108799 -0.0012983286483531896 0 0.010115075751726281 -0.0012166604445811116 0 0.0099339690082250361 -0.0013439411035067307 0 0.010125822719378043 -0.001452998387126964 0 0.010130242545108799 -0.0012983286483531896 0 0.009849478204443065 -0.0015514507909380015 0 0.0099339690082250361 -0.0013439411035067307 0 0.010125822719378043 -0.001452998387126964 0 0.010125822719378043 -0.001452998387126964 0 0.010361082964978957 -0.0014372165384098456 0 0.010309836159288278 -0.0016690285338205528 0 0.010125822719378043 -0.001452998387126964 0 0.010284163874489528 -0.0012588965816240766 0 0.010361082964978957 -0.0014372165384098456 0 0.010402847881427105 -0.0011100157878482909 0 0.010115075751726281 -0.0012166604445811116 0 0.010284163874489528 -0.0012588965816240766 0 0.010125822719378043 -0.001452998387126964 0 0.010130242545108799 -0.0012983286483531896 0 0.010284163874489528 -0.0012588965816240766 0 0.010130242545108799 -0.0012983286483531896 0 0.010115075751726281 -0.0012166604445811116 0 0.010284163874489528 -0.0012588965816240766 0 0.010402847881427105 -0.0011100157878482909 0 0.010284163874489528 -0.0012588965816240766 0 0.010508196280207858 -0.0012226487014871531 0 0.01081821728148182 -0.00098751421637274729 0 0.010644317541489036 -0.0014380864706564423 0 0.010284163874489528 -0.0012588965816240766 0 0.010508196280207858 -0.0012226487014871531 0 0.010361082964978957 -0.0014372165384098456 0 0.01082023258992598 -0.00098115635186333335 0 0.010508196280207858 -0.0012226487014871531 0 0.010591780973340655 -0.0015380955628704438 0 0.010591780973340655 -0.0015380955628704438 0 0.010361082964978957 -0.0014372165384098456 0 0.010309836159288278 -0.0016690285338205528 0 0.010508196280207858 -0.0012226487014871531 0 0.010591780973340655 -0.0015380955628704438 0 0.010361082964978957 -0.0014372165384098456 0 0.011079100877428163 -0.0013256966061663373 0 0.010793369383597595 -0.0016148334039324461 0 0.010591780973340655 -0.0015380955628704438 0 0.010309836159288278 -0.0016690285338205528 0 0.010390518992262419 -0.0020660893255244053 0 0.010644317541489036 -0.0014380864706564423 0 0.010793369383597595 -0.0016148334039324461 0 0.010755500647700016 -0.0012547953155301892 0 0.010892562905982933 -0.0014092892604274587 0 0.010657810834246389 -0.0015601999971009734 0 0.011079100877428163 -0.0013256966061663373 0 0.011150440318506072 -0.0012600869353955641 0 0.011206923690306847 -0.0012988764192925996 0 0.0111633282759578 -0.0012389217847314307 0 0.011244906037551964 -0.0013170546692858141 0 0.011206923690306847 -0.0012988764192925996 0 0.011244906037551964 -0.0013170546692858141 0 0.011222038786071359 -0.0013577252837059057 0 0.010755500647700016 -0.0012547953155301892 0 0.010892562905982933 -0.0014092892604274587 0 0.010994463915949463 -0.0011113257681612749 0 0.01082023258992598 -0.00098115635186333335 0 0.010755500647700016 -0.0012547953155301892 0 0.010994463915949463 -0.0011113257681612749 0 0.010892562905982933 -0.0014092892604274587 0 0.010994463915949463 -0.0011113257681612749 0 0.0111633282759578 -0.0012389217847314307 0 0.0111633282759578 -0.0012389217847314307 0 0.011202093617144826 -0.0010844925692828861 0 0.011350865979968809 -0.0012081534609290692 0 0.010994463915949463 -0.0011113257681612749 0 0.0111633282759578 -0.0012389217847314307 0 0.011202093617144826 -0.0010844925692828861 0 0.011322193689325218 -0.0010250956131598573 0 0.011202093617144826 -0.0010844925692828861 0 0.011350865979968809 -0.0012081534609290692 0 0.011462358065362891 -0.0013401610632054518 0 0.011350865979968809 -0.0012081534609290692 0 0.011333622099063847 -0.0013139664698705671 0 0.0111633282759578 -0.0012389217847314307 0 0.011350865979968809 -0.0012081534609290692 0 0.011333622099063847 -0.0013139664698705671 0 0.0111633282759578 -0.0012389217847314307 0 0.011333622099063847 -0.0013139664698705671 0 0.011244906037551964 -0.0013170546692858141 0 0.011244906037551964 -0.0013170546692858141 0 0.011351967734672506 -0.0013764374140184685 0 0.011292907994597251 -0.0013821877190471636 0 0.011333622099063847 -0.0013139664698705671 0 0.011244906037551964 -0.0013170546692858141 0 0.011351967734672506 -0.0013764374140184685 0 0.011351967734672506 -0.0013764374140184685 0 0.011292907994597251 -0.0013821877190471636 0 0.011421682950103009 -0.0014491657109052367 0 0.011462358065362891 -0.0013401610632054518 0 0.011333622099063847 -0.0013139664698705671 0 0.011455717680730717 -0.0014127766387129596 0 0.011333622099063847 -0.0013139664698705671 0 0.011351967734672506 -0.0013764374140184685 0 0.011455717680730717 -0.0014127766387129596 0 0.011351967734672506 -0.0013764374140184685 0 0.011455717680730717 -0.0014127766387129596 0 0.011421682950103009 -0.0014491657109052367 0 0.011548617236632971 -0.0015318116501200488 0 0.011455717680730717 -0.0014127766387129596 0 0.011421682950103009 -0.0014491657109052367 0 0.011548617236632971 -0.0015318116501200488 0 0.011492353494161797 -0.0015234429697538114 0 0.011421682950103009 -0.0014491657109052367 0 0.011292907994597251 -0.0013821877190471636 0 0.011421682950103009 -0.0014491657109052367 0 0.011383413178114074 -0.0014812106344264827 0 0.011492353494161797 -0.0015234429697538114 0 0.011421682950103009 -0.0014491657109052367 0 0.011383413178114074 -0.0014812106344264827 0 0.011267697788815652 -0.0014528630284957385 0 0.011181392054264123 -0.0014171181793711971 0 0.011222038786071359 -0.0013577252837059057 0 0.011292907994597251 -0.0013821877190471636 0 0.011383413178114074 -0.0014812106344264827 0 0.011267697788815652 -0.0014528630284957385 0 0.011099419726398822 -0.0014680832808307293 0 0.011181392054264123 -0.0014171181793711971 0 0.011151840427937236 -0.0013357636301724362 0 0.011190949943896791 -0.0014875124107552196 0 0.011267697788815652 -0.0014528630284957385 0 0.011181392054264123 -0.0014171181793711971 0 0.011190949943896791 -0.0014875124107552196 0 0.011099419726398822 -0.0014680832808307293 0 0.011181392054264123 -0.0014171181793711971 0 0.011181392054264123 -0.0014171181793711971 0 0.011151840427937236 -0.0013357636301724362 0 0.011222038786071359 -0.0013577252837059057 0 0.011206923690306847 -0.0012988764192925996 0 0.011151840427937236 -0.0013357636301724362 0 0.011222038786071359 -0.0013577252837059057 0 0.011292907994597251 -0.0013821877190471636 0 0.011267697788815652 -0.0014528630284957385 0 0.011222038786071359 -0.0013577252837059057 0 0.011244906037551964 -0.0013170546692858141 0 0.011292907994597251 -0.0013821877190471636 0 0.011222038786071359 -0.0013577252837059057 0 0.0085427045380645408 -0.0048364365449125009 0 0.010888674060485834 -0.0035835581225056277 0 0.010480380042085789 -0.005553982912305847 0 0.0085427045380645408 -0.0048364365449125009 0 0.0089324459610159203 -0.0026712140369692227 0 0.010888674060485834 -0.0035835581225056277 0 0.0069797036454623158 -0.0026319273419582122 0 0.0065534927793791239 -0.00098746986834279972 0 0.0049940346512032819 0.00013206897922198567 0 0.0056594388754867934 2.954382093595709e-07 0 0.0043219196448381157 -4.5610588132535352e-07 0 0.0085427045380645408 -0.0048364365449125009 0 0.0074612341354605843 -0.0022239767182882469 0 0.0089324459610159203 -0.0026712140369692227 0 0.0049940346512032819 0.00013206897922198567 0 0.0056594388754867934 2.954382093595709e-07 0 0.0056203812594648427 -2.7638631659264227e-05 0 0.0074612341354605843 -0.0022239767182882469 0 0.0083475148809792499 -0.001730833829625621 0 0.0089324459610159203 -0.0026712140369692227 0 0.0056594388754867934 2.954382093595709e-07 0 0.0056203812594648427 -2.7638631659264227e-05 0 0.0068424999804307367 -2.3494663608911517e-05 0 0.0074612341354605843 -0.0022239767182882469 0 0.0079449508683374637 -0.0010602934748657935 0 0.0074769479372470363 -0.00084253981252854944 0 0.0074612341354605843 -0.0022239767182882469 0 0.0083475148809792499 -0.001730833829625621 0 0.0079449508683374637 -0.0010602934748657935 0 0.0089324459610159203 -0.0026712140369692227 0 0.010888674060485834 -0.0035835581225056277 0 0.0090577694781100657 -0.0010283609227987271 0 0.0083475148809792499 -0.001730833829625621 0 0.0089324459610159203 -0.0026712140369692227 0 0.0090577694781100657 -0.0010283609227987271 0 0.012292482673982858 -0.0056339816214059568 0 0.012493516981792291 -0.0045965415532785211 0 0.011324087922314012 -0.0047084131080599601 0 0.0083475148809792499 -0.001730833829625621 0 0.0090577694781100657 -0.0010283609227987271 0 0.0079449508683374637 -0.0010602934748657935 0 0.01155380205407832 -0.0046518892107940352 0 0.010160685507703382 -0.0028856608177096317 0 0.012974050923727599 -0.0050747984543214443 0 0.012292482673982858 -0.0056339816214059568 0 0.012493516981792291 -0.0045965415532785211 0 0.012974050923727599 -0.0050747984543214443 0 0.013510177225454565 -0.0048919705118350429 0 0.013516330538302477 -0.0041014175614459006 0 0.013510177225454565 -0.0048919705118350429 0 0.013750626233220875 -0.0052481024757633698 0 0.013977795583681186 -0.0046884395733105136 0 0.012974050923727599 -0.0050747984543214443 0 0.013510177225454565 -0.0048919705118350429 0 0.013333866262530938 -0.0053081277841494825 0 0.012974050923727599 -0.0050747984543214443 0 0.013333866262530938 -0.0053081277841494825 0 0.012950303049442195 -0.005697192998732485 0 0.013510177225454565 -0.0048919705118350429 0 0.013333866262530938 -0.0053081277841494825 0 0.013750626233220875 -0.0052481024757633698 0 0.013333866262530938 -0.0053081277841494825 0 0.013506898183599285 -0.0056091400727346363 0 0.012950303049442195 -0.005697192998732485 0 0.013333866262530938 -0.0053081277841494825 0 0.013506898183599285 -0.0056091400727346363 0 0.013750626233220875 -0.0052481024757633698 0 0.013506898183599285 -0.0056091400727346363 0 0.012950303049442195 -0.005697192998732485 0 0.013548125812641086 -0.0062825701146691695 0 0.010888674060485834 -0.0035835581225056277 0 0.01241358550782171 -0.0063115612230727237 0 0.010480380042085789 -0.005553982912305847 0 0.012950303049442195 -0.005697192998732485 0 0.012292482673982858 -0.0056339816214059568 0 0.01241358550782171 -0.0063115612230727237 0 0.01155380205407832 -0.0046518892107940352 0 0.012386835323997153 -0.0061952230097050672 0 0.012974050923727599 -0.0050747984543214443 0 0.012950303049442195 -0.005697192998732485 0 0.012292482673982858 -0.0056339816214059568 0 0.01241358550782171 -0.0063115612230727237 0 0.012631910019083462 -0.0071000996401797412 0 0.009796566325604817 -0.0072652763621004054 0 0.01241358550782171 -0.0063115612230727237 0 0.009796566325604817 -0.0072652763621004054 0 0.010480380042085789 -0.005553982912305847 0 0.012950303049442195 -0.005697192998732485 0 0.01241358550782171 -0.0063115612230727237 0 0.013548125812641086 -0.0062825701146691695 0 0.013260236646427188 -0.0067396969045268179 0 0.012864319615642992 -0.0075264924971691167 0 0.013548125812641086 -0.0062825701146691695 0 0.012631910019083462 -0.0071000996401797412 0 0.012790807397654105 -0.0076641222483828956 0 0.01241358550782171 -0.0063115612230727237 0 0.013548125812641086 -0.0062825701146691695 0 0.012631910019083462 -0.0071000996401797412 0 0.012790807397654105 -0.0076641222483828956 0 0.012368502280959924 -0.00786998244127202 0 0.013282240887723739 -0.0078331819449979235 0 0.01001067518528902 -0.005863812727203991 0 0.0096381165259446667 -0.005380435666443124 0 0.01306216207818444 -0.0069264159794007922 0 0.012790807397654105 -0.0076641222483828956 0 0.013225235301827768 -0.0074057499702895966 0 0.012631910019083462 -0.0071000996401797412 0 0.012790807397654105 -0.0076641222483828956 0 0.012368502280959924 -0.00786998244127202 0 0.012631910019083462 -0.0071000996401797412 0 0.012368502280959924 -0.00786998244127202 0 0.009796566325604817 -0.0072652763621004054 0 0.01001067518528902 -0.005863812727203991 0 0.0061052969447508961 -0.0026074029232107799 0 0.0066377361577436931 -0.0031214924476231365 0 0.0067809795844839694 -0.0031773492370685743 0 0.0067157542176526563 -0.0029857979341859409 0 0.0061052969447508961 -0.0026074029232107799 0 0.0040244354694912434 -0.0011417071769875395 0 0.0085427045380645408 -0.0048364365449125009 0 0.009796566325604817 -0.0072652763621004054 0 0.010480380042085789 -0.005553982912305847 0 0.0069797036454623158 -0.0026319273419582122 0 0.0061052969447508961 -0.0026074029232107799 0 0.0061052969447508961 -0.0026074029232107799 0 0.004316022683032307 1.9954525482241952e-06 0 0.0049940346512032819 0.00013206897922198567 0 0.0052535774574117289 -0.00054751781094882336 0 0.0043219196448381157 -4.5610588132535352e-07 0 0.0027334167066664487 -0.0002302192928674387 0 0.0043174583245895303 -1.3770596984340597e-06 0 0.0029624622012706112 5.6140864861171922e-07 0 0.0027334167066664487 -0.0002302192928674387 0 0.0029624622012706112 5.6140864861171922e-07 0 0.0018591544817460157 0.00012446311074239291 0 0.0029624622012706112 5.6140864861171922e-07 0 0.0016860671892893061 0.00018852119296993515 0 0.0018591544817460157 0.00012446311074239291 0 0.0029624622012706112 5.6140864861171922e-07 0 0.0016860671892893061 0.00018852119296993515 0 0.0016045862156202463 4.1092766975954228e-07 0 0.0016045862156202463 4.1092766975954228e-07 0 0.00099243566707133812 8.3866861335442816e-05 0 0.00024734511988046916 -4.7287020548377982e-07 0 0.0016860671892893061 0.00018852119296993515 0 0.0016045862156202463 4.1092766975954228e-07 0 0.00099243566707133812 8.3866861335442816e-05 0 0.0016860671892893061 0.00018852119296993515 0 0.001280471391421443 0.00011016794733340385 0 0.0016632549789665466 0.00016403876060724776 0 0.0016860671892893061 0.00018852119296993515 0 0.00099243566707133812 8.3866861335442816e-05 0 0.001280471391421443 0.00011016794733340385 0 0.0014110747986639514 -0.00042313904562242918 0 0.00011065608260490171 -0.00013809795201209457 0 0.001280471391421443 0.00011016794733340385 0 0.00011065608260490171 -0.00013809795201209457 0 0.00099243566707133812 8.3866861335442816e-05 0 0.00024734511988046916 -4.7287020548377982e-07 0 0.00011065608260490171 -0.00013809795201209457 0 0.00099243566707133812 8.3866861335442816e-05 0 0.001280471391421443 0.00011016794733340385 0 0.0061253487367012955 -0.00094851880552677438 0 0.0060214468648710382 -0.0021831948651735433 0 0.0066733539583045945 -0.0026488975290498611 0 0.0061253487367012955 -0.00094851880552677438 0 0.0060214468648710382 -0.0021831948651735433 0 0.00524434283885336 -0.0016311040503257724 0 0.0019322600828166319 -0.00064854882307343795 0 0.0045244203386018622 -0.0013566456114748227 0 0.0060214468648710382 -0.0021831948651735433 0 0.0055008960628998294 -0.002474408128303845 0 0.00524434283885336 -0.0016311040503257724 0 0.001280471391421443 0.00011016794733340385 0 0.0015776991697296133 -0.00014066404833963756 0 0.0016632549789665466 0.00016403876060724776 0 0.0019502936062903325 -0.00042670774523556691 0 0.0015776991697296133 -0.00014066404833963756 0 0.0016632549789665466 0.00016403876060724776 0 0.0014110747986639514 -0.00042313904562242918 0 0.0019502936062903325 -0.00042670774523556691 0 0.0015776991697296133 -0.00014066404833963756 0 0.0014110747986639514 -0.00042313904562242918 0 0.001280471391421443 0.00011016794733340385 0 0.0015776991697296133 -0.00014066404833963756 0 0.0066733539583045945 -0.0026488975290498611 0 0.0065011285534972247 -0.0027549384109113234 0 0.0065734800203213727 -0.0029315228006764342 0 0.0060214468648710382 -0.0021831948651735433 0 0.0066733539583045945 -0.0026488975290498611 0 0.0065011285534972247 -0.0027549384109113234 0 0.0060214468648710382 -0.0021831948651735433 0 0.0065011285534972247 -0.0027549384109113234 0 0.005590303738128263 -0.0024176784633893342 0 0.0064654454882603508 -0.0027587592032378701 0 0.0060044407372972855 -0.0023781716278754822 0 0.0058986296695833478 -0.0023410057518720977 0 0.0060044407372972855 -0.0023781716278754822 0 0.0065011285534972247 -0.0027549384109113234 0 0.0064832954450650231 -0.0028197894713208379 0 0.0064722731086961863 -0.0027960863318131088 0 0.0065011285534972247 -0.0027549384109113234 0 0.0064832954450650231 -0.0028197894713208379 0 0.0065063224289872443 -0.0028469993163695133 0 0.0065011285534972247 -0.0027549384109113234 0 0.0065063224289872443 -0.0028469993163695133 0 0.0065734800203213727 -0.0029315228006764342 0 0.0064832954450650231 -0.0028197894713208379 0 0.0065063224289872443 -0.0028469993163695133 0 0.0064788920636037698 -0.0028937523369881504 0 0.0065063224289872443 -0.0028469993163695133 0 0.0065734800203213727 -0.0029315228006764342 0 0.0064788920636037698 -0.0028937523369881504 0 0.0016860671892893061 0.00018852119296993515 0 0.0016632549789665466 0.00016403876060724776 0 0.0018591544817460157 0.00012446311074239291 0 0.0045244203386018622 -0.0013566456114748227 0 0.0040244354694912434 -0.0011417071769875395 0 0.0066733539583045945 -0.0026488975290498611 0 0.0065734800203213727 -0.0029315228006764342 0 0.0067157542176526563 -0.0029857979341859409 0 0.0066377361577436931 -0.0031214924476231365 0 0.0065734800203213727 -0.0029315228006764342 0 0.0067157542176526563 -0.0029857979341859409 0 0.0065734800203213727 -0.0029315228006764342 0 0.0064887514966948216 -0.0030347403219386213 0 0.0064788920636037698 -0.0028937523369881504 0 0.0066377361577436931 -0.0031214924476231365 0 0.0065734800203213727 -0.0029315228006764342 0 0.0064887514966948216 -0.0030347403219386213 0 0.013282240887723739 -0.0078331819449979235 0 0.013726880127839286 -0.0079718160362835782 0 0.013444060355397781 -0.0076070630921452765 0 0.0064887514966948216 -0.0030347403219386213 0 0.0063938886180699211 -0.002970215746798397 0 0.0064344464153514329 -0.0029233260576252392 0 0.0096381165259446667 -0.005380435666443124 0 0.010707701256787406 -0.0052661447545896732 0 0.010707701256787406 -0.0052661447545896732 0 0.013904248766779412 -0.0071019289863519085 0 0.0063689719173885065 -0.0028996114041462992 0 0.0064344464153514329 -0.0029233260576252392 0 0.0064227782651466465 -0.0028448251668821709 0 0.0063938886180699211 -0.002970215746798397 0 0.0063689719173885065 -0.0028996114041462992 0 0.0064344464153514329 -0.0029233260576252392 0 0.010707701256787406 -0.0052661447545896732 0 0.0067199530516737866 -0.0029884571211656959 0 0.0067199530516737866 -0.0029884571211656959 0 0.0060103306399519373 -0.0026755812174653927 0 0.0064832954450650231 -0.0028197894713208379 0 0.0064788920636037698 -0.0028937523369881504 0 0.0064227782651466465 -0.0028448251668821709 0 0.0064887514966948216 -0.0030347403219386213 0 0.0064788920636037698 -0.0028937523369881504 0 0.0064344464153514329 -0.0029233260576252392 0 0.0064788920636037698 -0.0028937523369881504 0 0.0064344464153514329 -0.0029233260576252392 0 0.0064227782651466465 -0.0028448251668821709 0 0.0064832954450650231 -0.0028197894713208379 0 0.0064722731086961863 -0.0027960863318131088 0 0.0064227782651466465 -0.0028448251668821709 0 0.0062184113752052367 -0.0021613945274127932 0 0.0057258959828832496 -0.0024298931034059767 0 0.0055457463890327113 -0.001811419363641966 0 0.0060044407372972855 -0.0023781716278754822 0 0.0060103306399519373 -0.0026755812174653927 0 0.005234253563943244 -0.0027007683206176536 0 0.0057258959828832496 -0.0024298931034059767 0 0.005047764079748226 -0.0020829858872643083 0 0.0057258959828832496 -0.0024298931034059767 0 0.0055457463890327113 -0.001811419363641966 0 0.005047764079748226 -0.0020829858872643083 0 0.0028242624640908657 -0.0011178872246139916 0 0.0035843505675948926 -0.0010967475516359538 0 0.0041579232841660527 -0.0018017238701543187 0 0.0044003340586546147 -0.0007542287139607292 0 0.0035843505675948926 -0.0010967475516359538 0 0.0041579232841660527 -0.0018017238701543187 0 0.0055008960628998294 -0.002474408128303845 0 0.0041579232841660527 -0.0018017238701543187 0 0.00524434283885336 -0.0016311040503257724 0 0.0060044407372972855 -0.0023781716278754822 0 0.0047844101758669306 -0.0017935137263216715 0 0.0044003340586546147 -0.0007542287139607292 0 0.0041579232841660527 -0.0018017238701543187 0 0.00524434283885336 -0.0016311040503257724 0 0.004167311790298717 -0.00077283337084597806 0 0.0056741186519106927 -0.0018543391426905104 0 0.0050030909015688439 -0.00080964766764171929 0 0.004712115161444751 -0.0013228163387850977 0 0.0053884374015619393 -0.0020575608312148729 0 0.0056168595607479638 -0.00063669422602634579 0 0.0050030909015688439 -0.00080964766764171929 0 0.0053884374015619393 -0.0020575608312148729 0 0.004712115161444751 -0.0013228163387850977 0 0.0053884374015619393 -0.0020575608312148729 0 0.0044356403620820339 -0.0019374064950604699 0 0.0044449013937654545 -0.00069106483172146256 0 0.0050030909015688439 -0.00080964766764171929 0 0.004712115161444751 -0.0013228163387850977 0 0.0058926771571704215 -0.00076869379508890019 0 0.0056296122065013351 -0.00063479202012208229 0 0.0053884374015619393 -0.0020575608312148729 0 0.0040997467549499372 -0.0011546946942120292 0 0.0047844101758669306 -0.0017935137263216715 0 0.0058926771571704215 -0.00076869379508890019 0 0.006236925367913689 -0.001908547885663997 0 0.0053884374015619393 -0.0020575608312148729 0 0.0040997467549499372 -0.0011546946942120292 0 0.0056567011839323642 -0.0019881564621563085 0 0.0048591450403761127 -0.0014546253175621432 0 0.0055457463890327113 -0.001811419363641966 0 0.005047764079748226 -0.0020829858872643083 0 0.0067199530516737866 -0.0029884571211656959 0 0.0056567011839323642 -0.0019881564621563085 0 0.006580926241393099 -0.0030518238078866889 0 0.006236925367913689 -0.001908547885663997 0 0.0057732797988603356 -0.0026727367897530592 0 0.006236925367913689 -0.001908547885663997 0 0.0057732797988603356 -0.0026727367897530592 0 0.0053884374015619393 -0.0020575608312148729 0 0.0057732797988603356 -0.0026727367897530592 0 0.0053884374015619393 -0.0020575608312148729 0 0.0043108924257469379 -0.002838996104007402 0 0.0053884374015619393 -0.0020575608312148729 0 0.0043108924257469379 -0.002838996104007402 0 0.0044356403620820339 -0.0019374064950604699 0 0.010042822555848416 -0.0034530277907317379 0 0.0090547944370427402 -0.0039886137038725516 0 0.0076379780554610404 -0.0024477750350588483 0 0.0057732797988603356 -0.0026727367897530592 0 0.0058275082574230173 -0.0034660834809285231 0 0.0043108924257469379 -0.002838996104007402 0 0.0088292132971740499 -0.0038193907270490045 0 0.0069750535759369129 -0.0021838678348236576 0 0.0088292132971740499 -0.0038193907270490045 0 0.011203420650010423 -0.0038758479023545509 0 0.011203420650010423 -0.0038758479023545509 0 0.0069750535759369129 -0.0021838678348236576 0 0.0092221014862498823 -0.0044626934927955459 0 0.0089572333243921401 -0.0035643273295768827 0 0.0081404011708640766 -0.0040098622437608304 0 0.010707701256787406 -0.0052661447545896732 0 0.0088292132971740499 -0.0038193907270490045 0 0.006580926241393099 -0.0030518238078866889 0 0.0057732797988603356 -0.0026727367897530592 0 0.0058275082574230173 -0.0034660834809285231 0 0.0067199530516737866 -0.0029884571211656959 0 0.0088292132971740499 -0.0038193907270490045 0 0.013123196115755019 -0.0051018104156181441 0 0.012447954928637537 -0.0048004948181547547 0 0.012565443166864036 -0.0055723797604625685 0 0.013123196115755019 -0.0051018104156181441 0 0.012565443166864036 -0.0055723797604625685 0 0.013101797221259608 -0.0060789485384919262 0 0.012447954928637537 -0.0048004948181547547 0 0.012565443166864036 -0.0055723797604625685 0 0.012028944274341456 -0.0050213163403302575 0 0.01294876697347979 -0.0058959151036490536 0 0.012767884866927617 -0.0057000248619730465 0 0.012697807936965923 -0.0059709380708192093 0 0.012994999060233783 -0.0059927772060463834 0 0.011203420650010423 -0.0038758479023545509 0 0.01294876697347979 -0.0058959151036490536 0 0.012697807936965923 -0.0059709380708192093 0 0.012919695612447185 -0.0061028545618337735 0 0.012697807936965923 -0.0059709380708192093 0 0.012757817826885049 -0.0063452100756650649 0 0.012919695612447185 -0.0061028545618337735 0 0.012757817826885049 -0.0063452100756650649 0 0.01307212590235177 -0.0062838814401721321 0 0.012919695612447185 -0.0061028545618337735 0 0.012757817826885049 -0.0063452100756650649 0 0.01307212590235177 -0.0062838814401721321 0 0.01316211610407301 -0.0065536060374919046 0 0.01307212590235177 -0.0062838814401721321 0 0.012919695612447185 -0.0061028545618337735 0 0.013101797221259608 -0.0060789485384919262 0 0.01294876697347979 -0.0058959151036490536 0 0.012919695612447185 -0.0061028545618337735 0 0.013101797221259608 -0.0060789485384919262 0 0.012994999060233783 -0.0059927772060463834 0 0.012976926418875896 -0.0059527100832196924 0 0.013123196115755019 -0.0051018104156181441 0 0.013388098806243991 -0.0061211804395246991 0 0.013101797221259608 -0.0060789485384919262 0 0.013726880127839286 -0.0079718160362835782 0 0.013631383273197632 -0.0073803288185864098 0 0.013444060355397781 -0.0076070630921452765 0 0.013388098806243991 -0.0061211804395246991 0 0.013101797221259608 -0.0060789485384919262 0 0.013198450189332125 -0.0062249966616931603 0 0.012790807397654105 -0.0076641222483828956 0 0.013282240887723739 -0.0078331819449979235 0 0.013225235301827768 -0.0074057499702895966 0 0.013282240887723739 -0.0078331819449979235 0 0.013444060355397781 -0.0076070630921452765 0 0.013225235301827768 -0.0074057499702895966 0 0.013444060355397781 -0.0076070630921452765 0 0.013414897461443904 -0.0073726436067173048 0 0.013225235301827768 -0.0074057499702895966 0 0.013631383273197632 -0.0073803288185864098 0 0.013444060355397781 -0.0076070630921452765 0 0.013414897461443904 -0.0073726436067173048 0 0.013631383273197632 -0.0073803288185864098 0 0.013356654089744987 -0.0070668202053054824 0 0.013378668046376382 -0.0065869391278307963 0 0.01306216207818444 -0.0069264159794007922 0 0.013225235301827768 -0.0074057499702895966 0 0.013356654089744987 -0.0070668202053054824 0 0.013414897461443904 -0.0073726436067173048 0 0.013225235301827768 -0.0074057499702895966 0 0.013356654089744987 -0.0070668202053054824 0 0.013631383273197632 -0.0073803288185864098 0 0.013414897461443904 -0.0073726436067173048 0 0.013356654089744987 -0.0070668202053054824 0 0.01306216207818444 -0.0069264159794007922 0 0.013356654089744987 -0.0070668202053054824 0 0.013276088245100794 -0.0068118765156436516 0 0.013388098806243991 -0.0061211804395246991 0 0.013268533609805656 -0.006380368390220997 0 0.013378668046376382 -0.0065869391278307963 0 0.013904248766779412 -0.0071019289863519085 0 0.013271195044472578 -0.0064205344981569726 0 0.01307212590235177 -0.0062838814401721321 0 0.013198450189332125 -0.0062249966616931603 0 0.013268533609805656 -0.006380368390220997 0 0.01307212590235177 -0.0062838814401721321 0 0.013101797221259608 -0.0060789485384919262 0 0.013198450189332125 -0.0062249966616931603 0 0.013388098806243991 -0.0061211804395246991 0 0.013198450189332125 -0.0062249966616931603 0 0.013268533609805656 -0.006380368390220997 0 0.01307212590235177 -0.0062838814401721321 0 0.013268533609805656 -0.006380368390220997 0 0.01316211610407301 -0.0065536060374919046 0 0.013268533609805656 -0.006380368390220997 0 0.013378668046376382 -0.0065869391278307963 0 0.01316211610407301 -0.0065536060374919046 0 0.013879477808795958 -0.0054493709654427937 0 0.014158443094146751 -0.0056260067027495697 0 0.014621575081306298 -0.0045257109915409809 0 0.0149764511757868 -0.0043990913558458588 0 0.015078748106454055 -0.0046773236113951226 0 0.013378668046376382 -0.0065869391278307963 0 0.013393177358360478 -0.0065372238719061245 0 0.01316211610407301 -0.0065536060374919046 0 0.01306216207818444 -0.0069264159794007922 0 0.013276088245100794 -0.0068118765156436516 0 0.013393177358360478 -0.0065372238719061245 0 0.013356654089744987 -0.0070668202053054824 0 0.013378668046376382 -0.0065869391278307963 0 0.013276088245100794 -0.0068118765156436516 0 0.013506898183599285 -0.0056091400727346363 0 0.013548125812641086 -0.0062825701146691695 0 0.014051158853178029 -0.0053673080118259373 0 0.013378668046376382 -0.0065869391278307963 0 0.013276088245100794 -0.0068118765156436516 0 0.013393177358360478 -0.0065372238719061245 0 0.013260236646427188 -0.0067396969045268179 0 0.013879477808795958 -0.0054493709654427937 0 0.013506898183599285 -0.0056091400727346363 0 0.013750626233220875 -0.0052481024757633698 0 0.014051158853178029 -0.0053673080118259373 0 0.013750626233220875 -0.0052481024757633698 0 0.014211403846834872 -0.0053977859109798024 0 0.013977795583681186 -0.0046884395733105136 0 0.013848345962950951 -0.0053644029767140116 0 0.013879477808795958 -0.0054493709654427937 0 0.013879477808795958 -0.0054493709654427937 0 0.014678737989161084 -0.0043311574863605148 0 0.014211403846834872 -0.0053977859109798024 0 0.014562372522253189 -0.0046361114114131692 0 0.013977795583681186 -0.0046884395733105136 0 0.014621575081306298 -0.0045257109915409809 0 0.014739175128016245 -0.0042443585938553678 0 0.0149764511757868 -0.0043990913558458588 0 0.014739175128016245 -0.0042443585938553678 0 0.0149764511757868 -0.0043990913558458588 0 0.014963419212980946 -0.0041825894005250988 0 0.0149764511757868 -0.0043990913558458588 0 0.01519130609145058 -0.0042769215001183239 0 0.014963419212980946 -0.0041825894005250988 0 0.01519130609145058 -0.0042769215001183239 0 0.015287887031774619 -0.0044999714318533423 0 0.015550441017114053 -0.0043989755190890923 0 0.0149764511757868 -0.0043990913558458588 0 0.01519130609145058 -0.0042769215001183239 0 0.015287887031774619 -0.0044999714318533423 0 0.01519130609145058 -0.0042769215001183239 0 0.015550441017114053 -0.0043989755190890923 0 0.01545231830250096 -0.004034224893313519 0 0.015528977920351501 -0.0048072303321874225 0 0.015287887031774619 -0.0044999714318533423 0 0.015550441017114053 -0.0043989755190890923 0 0.015528977920351501 -0.0048072303321874225 0 0.015550441017114053 -0.0043989755190890923 0 0.015844575115748202 -0.0045785765263293334 0 0.015528977920351501 -0.0048072303321874225 0 0.015287887031774619 -0.0044999714318533423 0 0.015078748106454055 -0.0046773236113951226 0 0.01407831595334303 -0.0055396644637847776 0 0.014158443094146751 -0.0056260067027495697 0 0.0149764511757868 -0.0043990913558458588 0 0.015287887031774619 -0.0044999714318533423 0 0.015078748106454055 -0.0046773236113951226 0 0.016090407468587434 -0.004669176257361002 0 0.015844575115748202 -0.0045785765263293334 0 0.015946631637923817 -0.0049297678099574594 0 0.016090407468587434 -0.004669176257361002 0 0.015844575115748202 -0.0045785765263293334 0 0.016064988369559132 -0.0044545108299370896 0 0.016090407468587434 -0.004669176257361002 0 0.016064988369559132 -0.0044545108299370896 0 0.016266336381555124 -0.0045088692925714042 0 0.015844575115748202 -0.0045785765263293334 0 0.015912969855417524 -0.004212767185414041 0 0.016064988369559132 -0.0044545108299370896 0 0.015550441017114053 -0.0043989755190890923 0 0.015912969855417524 -0.004212767185414041 0 0.015664023318756659 -0.0041515282833417474 0 0.015550441017114053 -0.0043989755190890923 0 0.015844575115748202 -0.0045785765263293334 0 0.015912969855417524 -0.004212767185414041 0 0.015912969855417524 -0.004212767185414041 0 0.016064988369559132 -0.0044545108299370896 0 0.016200054288873948 -0.0042571448603159149 0 0.016064988369559132 -0.0044545108299370896 0 0.016200054288873948 -0.0042571448603159149 0 0.016266336381555124 -0.0045088692925714042 0 0.016417031138850343 -0.0043534473264939958 0 0.016707331610234737 -0.0043710379310514507 0 0.016386852501777946 -0.0040564778726515068 0 0.016200054288873948 -0.0042571448603159149 0 0.016417031138850343 -0.0043534473264939958 0 0.016386852501777946 -0.0040564778726515068 0 0.016200054288873948 -0.0042571448603159149 0 0.016417031138850343 -0.0043534473264939958 0 0.016266336381555124 -0.0045088692925714042 0 0.016417031138850343 -0.0043534473264939958 0 0.016707331610234737 -0.0043710379310514507 0 0.016525422036150855 -0.0045835144175023872 0 0.017829581521208351 -0.0037467955521508713 0 0.01766692986179055 -0.0036149436060944336 0 0.016525422036150855 -0.0045835144175023872 0 0.016742836466874796 -0.004620729325555034 0 0.016700224353504857 -0.0048679172828892253 0 0.016707331610234737 -0.0043710379310514507 0 0.016525422036150855 -0.0045835144175023872 0 0.016742836466874796 -0.004620729325555034 0 0.016525422036150855 -0.0045835144175023872 0 0.016266336381555124 -0.0045088692925714042 0 0.016316203171464344 -0.0047869286965196147 0 0.016090407468587434 -0.004669176257361002 0 0.016266336381555124 -0.0045088692925714042 0 0.016316203171464344 -0.0047869286965196147 0 0.016417031138850343 -0.0043534473264939958 0 0.016525422036150855 -0.0045835144175023872 0 0.016266336381555124 -0.0045088692925714042 0 0.016316203171464344 -0.0047869286965196147 0 0.016700224353504857 -0.0048679172828892253 0 0.016344292520327527 -0.0050612452882100095 0 0.016525422036150855 -0.0045835144175023872 0 0.016316203171464344 -0.0047869286965196147 0 0.016700224353504857 -0.0048679172828892253 0 0.015934611182348228 -0.0031981504368954685 0 0.013238626440450338 -0.0040271517239844961 0 0.014836837467452187 -0.0017117840349547878 0 0.014455575113941474 -0.0028445652348215835 0 0.015284707023218989 -0.0023924474585129579 0 0.010695189903822665 -0.0017276284323771316 0 0.010598890154735448 -0.0018979469805002484 0 0.010973574686097536 -0.0018123123993854593 0 0.014836837467452187 -0.0017117840349547878 0 0.014455575113941474 -0.0028445652348215835 0 0.013431485713958691 -0.0024762666235884469 0 0.010695189903822665 -0.0017276284323771316 0 0.010432237495951093 -0.0016640129960847265 0 0.010598890154735448 -0.0018979469805002484 0 0.012327014341988896 -0.0021761944050031181 0 0.01380809917560203 -0.00083735015623531261 0 0.012327014341988896 -0.0021761944050031181 0 0.013238626440450338 -0.0040271517239844961 0 0.013238626440450338 -0.0040271517239844961 0 0.010911519061390875 -0.0039381643044969737 0 0.012171492485452934 -0.0060379799851603801 0 0.012451173933898314 -0.0061791862978322594 0 0.012452277222429489 -0.0058874477975714573 0 0.013238626440450338 -0.0040271517239844961 0 0.014463885559225153 -0.005777411795061126 0 0.016090407468587434 -0.004669176257361002 0 0.016316203171464344 -0.0047869286965196147 0 0.015946631637923817 -0.0049297678099574594 0 0.016316203171464344 -0.0047869286965196147 0 0.016344292520327527 -0.0050612452882100095 0 0.015946631637923817 -0.0049297678099574594 0 0.012697807936965923 -0.0059709380708192093 0 0.012757817826885049 -0.0063452100756650649 0 0.012451173933898314 -0.0061791862978322594 0 0.01407831595334303 -0.0055396644637847776 0 0.014463885559225153 -0.005777411795061126 0 0.015528977920351501 -0.0048072303321874225 0 0.015844575115748202 -0.0045785765263293334 0 0.015946631637923817 -0.0049297678099574594 0 0.012697807936965923 -0.0059709380708192093 0 0.012451173933898314 -0.0061791862978322594 0 0.012452277222429489 -0.0058874477975714573 0 0.011203420650010423 -0.0038758479023545509 0 0.010911519061390875 -0.0039381643044969737 0 0.012767884866927617 -0.0057000248619730465 0 0.012697807936965923 -0.0059709380708192093 0 0.012452277222429489 -0.0058874477975714573 0 0.0098464374527997469 -0.0020626868070225202 0 0.010066045847672378 -0.001912162342131283 0 0.010086091202420074 -0.002090452426393186 0 0.010432237495951093 -0.0016640129960847265 0 0.010066045847672378 -0.001912162342131283 0 0.01025395058842947 -0.0020341541793089044 0 0.010066045847672378 -0.001912162342131283 0 0.01025395058842947 -0.0020341541793089044 0 0.010086091202420074 -0.002090452426393186 0 0.010086091202420074 -0.002090452426393186 0 0.010132312664313794 -0.0022273157699490955 0 0.010251745563205128 -0.0021476825501660917 0 0.01025395058842947 -0.0020341541793089044 0 0.010086091202420074 -0.002090452426393186 0 0.010251745563205128 -0.0021476825501660917 0 0.0098464374527997469 -0.0020626868070225202 0 0.010086091202420074 -0.002090452426393186 0 0.0099762985650706376 -0.0021873712578881896 0 0.010086091202420074 -0.002090452426393186 0 0.0099762985650706376 -0.0021873712578881896 0 0.010132312664313794 -0.0022273157699490955 0 0.0069750535759369129 -0.0021838678348236576 0 0.0088323555769200014 -0.0021443372514124261 0 0.0072614018739459206 -0.001974756268682275 0 0.0065973931464339804 -0.0016878096855045368 0 0.0067574077061392139 -0.0014145982506466718 0 0.0043108924257469379 -0.002838996104007402 0 0.0044356403620820339 -0.0019374064950604699 0 0.0034736951474048094 -0.0019349097283850487 0 0.0069750535759369129 -0.0021838678348236576 0 0.0050289728983927912 -0.0016536353172437561 0 0.0065973931464339804 -0.0016878096855045368 0 0.0063417882981923104 -0.0013454925559591453 0 0.0059292790593626467 -0.0014032677844570301 0 0.0065973931464339804 -0.0016878096855045368 0 0.0063417882981923104 -0.0013454925559591453 0 0.0067574077061392139 -0.0014145982506466718 0 0.0034736951474048094 -0.0019349097283850487 0 0.0033858176675137614 -0.0010685341138047246 0 0.0040264855991606792 -0.0012766409227496992 0 0.0034736951474048094 -0.0019349097283850487 0 0.0033858176675137614 -0.0010685341138047246 0 0.0026687273322552937 -0.0010448275510244042 0 0.0050289728983927912 -0.0016536353172437561 0 0.0044456765705817355 -0.00064582304763031789 0 0.0063417882981923104 -0.0013454925559591453 0 0.0067574077061392139 -0.0014145982506466718 0 0.0062452379450477196 -0.00086039311761366803 0 0.0030404772240854873 -0.00043066318652083661 0 0.0033858176675137614 -0.0010685341138047246 0 0.0026687273322552937 -0.0010448275510244042 0 0.0044449013937654545 -0.00069106483172146256 0 0.003733411856730436 -0.00067562993070328979 0 0.0040264855991606792 -0.0012766409227496992 0 0.003733411856730436 -0.00067562993070328979 0 0.0033858176675137614 -0.0010685341138047246 0 0.0040264855991606792 -0.0012766409227496992 0 0.0044449013937654545 -0.00069106483172146256 0 0.004712115161444751 -0.0013228163387850977 0 0.0040264855991606792 -0.0012766409227496992 0 0.004712115161444751 -0.0013228163387850977 0 0.0044356403620820339 -0.0019374064950604699 0 0.0040264855991606792 -0.0012766409227496992 0 0.0044356403620820339 -0.0019374064950604699 0 0.0034736951474048094 -0.0019349097283850487 0 0.0040264855991606792 -0.0012766409227496992 0 0.0070639921464232805 -0.00084626454212835924 0 0.0037743910455441043 0.0010018472615683171 0 0.0038827029611843878 4.3084418791384963e-05 0 0.0038086021210483843 0.00044469720835621724 0 0.0043265129952246616 0.00023265577702195837 0 0.0019606499422874218 0.00086837371755241557 0 0.0037743910455441043 0.0010018472615683171 0 0.0038827029611843878 4.3084418791384963e-05 0 0.0035780265184831286 0.00010337521659573841 0 0.0038086021210483843 0.00044469720835621724 0 0.0044456765705817355 -0.00064582304763031789 0 0.0070639921464232805 -0.00084626454212835924 0 0.0063417882981923104 -0.0013454925559591453 0 0.0062452379450477196 -0.00086039311761366803 0 0.0059292790593626467 -0.0014032677844570301 0 0.010132312664313794 -0.0022273157699490955 0 0.010255761659744579 -0.0022541425109904104 0 0.010251745563205128 -0.0021476825501660917 0 0.010255761659744579 -0.0022541425109904104 0 0.010342053518604061 -0.0021212422182308875 0 0.010251745563205128 -0.0021476825501660917 0 0.0070639921464232805 -0.00084626454212835924 0 0.0096136911952302562 -0.00096587430692575318 0 0.0088323555769200014 -0.0021443372514124261 0 0.0070639921464232805 -0.00084626454212835924 0 0.0073005865693380146 -0.00010066680777021521 0 0.0073241506954098692 -0.00017002022384636403 0 0.0072469910097740101 -0.00011835014736478406 0 0.0073586097064823634 -8.2811191407912066e-05 0 0.0073005865693380146 -0.00010066680777021521 0 0.0073241506954098692 -0.00017002022384636403 0 0.0073586097064823634 -8.2811191407912066e-05 0 0.0073005865693380146 -0.00010066680777021521 0 0.0072569229537951677 -3.84907427993029e-05 0 0.0096136911952302562 -0.00096587430692575318 0 0.0092556409208473522 0.00042015444471265207 0 0.01025395058842947 -0.0020341541793089044 0 0.010342053518604061 -0.0021212422182308875 0 0.010251745563205128 -0.0021476825501660917 0 0.010698656627627678 -0.0024476265287191072 0 0.0096136911952302562 -0.00096587430692575318 0 0.01025395058842947 -0.0020341541793089044 0 0.010665303510974366 -0.0022762075212469277 0 0.010598890154735448 -0.0018979469805002484 0 0.010432237495951093 -0.0016640129960847265 0 0.01025395058842947 -0.0020341541793089044 0 0.010598890154735448 -0.0018979469805002484 0 0.010665303510974366 -0.0022762075212469277 0 0.010598890154735448 -0.0018979469805002484 0 0.010973574686097536 -0.0018123123993854593 0 0.0096136911952302562 -0.00096587430692575318 0 0.01380809917560203 -0.00083735015623531261 0 0.01120280751030618 0.00084983022401849233 0 0.011203599003205549 0.00085245632600189206 0 0.011227823134150789 0.00082103369985413611 0 0.011215045842818907 0.00084654934754783864 0 0.011203599003205549 0.00085245632600189206 0 0.011227823134150789 0.00082103369985413611 0 0.01776419460239017 0.0011855552513499441 0 0.017984458229137506 0.00063574641728501868 0 0.018653561704382378 0.00077525560009144982 0 0.014603228630651265 0.0011343820959554072 0 0.01380809917560203 -0.00083735015623531261 0 0.011175980901608934 0.00087438345843733319 0 0.011203599003205549 0.00085245632600189206 0 0.011193990446966239 0.00087337520124432027 0 0.01120280751030618 0.00084983022401849233 0 0.011175980901608934 0.00087438345843733319 0 0.011203599003205549 0.00085245632600189206 0 0.011215045842818907 0.00084654934754783864 0 0.011203599003205549 0.00085245632600189206 0 0.011193990446966239 0.00087337520124432027 0 0.0073005865693380146 -0.00010066680777021521 0 0.0072469910097740101 -0.00011835014736478406 0 0.0072569229537951677 -3.84907427993029e-05 0 0.0072469910097740101 -0.00011835014736478406 0 0.0071843376363045037 -7.2253161827701983e-05 0 0.0072569229537951677 -3.84907427993029e-05 0 0.0092556409208473522 0.00042015444471265207 0 0.0081422672076929704 0.0006261339553208647 0 0.011175980901608934 0.00087438345843733319 0 0.011162386976164769 0.00089596240602989638 0 0.01114417815443609 0.00088778656180802447 0 0.011175980901608934 0.00087438345843733319 0 0.011193990446966239 0.00087337520124432027 0 0.011162386976164769 0.00089596240602989638 0 0.0038040074240369291 0.0014239288108736467 0 0.0037706228542667064 0.0017203303248354937 0 0.0044953457639174878 0.0017001927959036415 0 0.0037275750129709025 0.002022732884743003 0 0.0037706228542667064 0.0017203303248354937 0 0.0044953457639174878 0.0017001927959036415 0 0.0038040074240369291 0.0014239288108736467 0 0.0037706228542667064 0.0017203303248354937 0 0.0033806571892622157 0.0016859230212340206 0 0.0037275750129709025 0.002022732884743003 0 0.0037706228542667064 0.0017203303248354937 0 0.0035200474993366858 0.0018647013281070041 0 0.0081422672076929704 0.0006261339553208647 0 0.0037743910455441043 0.0010018472615683171 0 0.0020879621440388226 0.0020513550030924733 0 0.0037743910455441043 0.0010018472615683171 0 0.0099347305274858043 0.0041651314939426341 0 0.009919406516424709 0.0042506180889207929 0 0.0098024463240468478 0.0042245531331920015 0 0.0029910714184347934 0.0019645406886611315 0 0.0032591898182234387 0.0019140234858552108 0 0.0033923741107478914 0.0017101629290237914 0 0.0051760531588880268 0.002787465817758909 0 0.0073059582566213288 0.002541163840950952 0 0.0099347305274858043 0.0041651314939426341 0 0.0100151830989052 0.0042809095491487233 0 0.009919406516424709 0.0042506180889207929 0 0.0032591898182234387 0.0019140234858552108 0 0.0035200474993366858 0.0018647013281070041 0 0.0033923741107478914 0.0017101629290237914 0 0.0032925119993658727 0.0019876370527756788 0 0.0032591898182234387 0.0019140234858552108 0 0.0035200474993366858 0.0018647013281070041 0 0.0037706228542667064 0.0017203303248354937 0 0.0035200474993366858 0.0018647013281070041 0 0.0033806571892622157 0.0016859230212340206 0 0.0043511136047381825 0.0010128013205412492 0 0.0073059582566213288 0.002541163840950952 0 0.0081422672076929704 0.0006261339553208647 0 0.0073059582566213288 0.002541163840950952 0 0.011122590578318738 0.00080832040442530928 0 0.01114417815443609 0.00088778656180802447 0 0.011194692583539076 0.00088630907855951984 0 0.010998745911170218 0.00085424223299648849 0 0.011122590578318738 0.00080832040442530928 0 0.01114417815443609 0.00088778656180802447 0 0.0081422672076929704 0.0006261339553208647 0 0.011920015510202497 0.001262772135863474 0 0.01114417815443609 0.00088778656180802447 0 0.011194692583539076 0.00088630907855951984 0 0.011179555652509748 0.00089350848533323128 0 0.0073059582566213288 0.002541163840950952 0 0.010703240484776739 0.0026979347894754853 0 0.009919406516424709 0.0042506180889207929 0 0.0098024463240468478 0.0042245531331920015 0 0.0099503485346288684 0.0043305269326694498 0 0.0100151830989052 0.0042809095491487233 0 0.009919406516424709 0.0042506180889207929 0 0.0099503485346288684 0.0043305269326694498 0 0.012712728542696309 0.0024485515365749145 0 0.010703240484776739 0.0026979347894754853 0 0.012712728542696309 0.0024485515365749145 0 0.014027271911243583 0.0012908222687462582 0 0.01122996418655596 0.00091518960327707701 0 0.011179555652509748 0.00089350848533323128 0 0.011191693896215226 0.00089249669292840107 0 0.01122996418655596 0.00091518960327707701 0 0.011194692583539076 0.00088630907855951984 0 0.011179555652509748 0.00089350848533323128 0 0.011175980901608934 0.00087438345843733319 0 0.011179555652509748 0.00089350848533323128 0 0.011191693896215226 0.00089249669292840107 0 0.011175980901608934 0.00087438345843733319 0 0.01114417815443609 0.00088778656180802447 0 0.011179555652509748 0.00089350848533323128 0 0.01120280751030618 0.00084983022401849233 0 0.011175980901608934 0.00087438345843733319 0 0.011191693896215226 0.00089249669292840107 0 0.014603228630651265 0.0011343820959554072 0 0.014027271911243583 0.0012908222687462582 0 0.01776419460239017 0.0011855552513499441 0 0.016777241083972459 0.0018006448340017178 0 0.01696842023582909 0.0010409273612887572 0 0.014931833550851823 0.0028057322290044842 0 0.016777241083972459 0.0018006448340017178 0 0.016116474131632492 0.00106243335829808 0 0.016777241083972459 0.0018006448340017178 0 0.01696842023582909 0.0010409273612887572 0 0.016116474131632492 0.00106243335829808 0 0.014656640749797093 -0.00046359186848293158 0 0.016254025723243318 -0.00030615032712503863 0 0.016839059877075097 -0.0013556948423128735 0 0.014656640749797093 -0.00046359186848293158 0 0.016116474131632492 0.00106243335829808 0 0.016254025723243318 -0.00030615032712503863 0 0.016116474131632492 0.00106243335829808 0 0.016254025723243318 -0.00030615032712503863 0 0.0179693986068638 -0.00076732240700611606 0 0.016211005045560025 0.00097480043861310282 0 0.01755574601201243 -0.00016482262026366653 0 0.016254025723243318 -0.00030615032712503863 0 0.016839059877075097 -0.0013556948423128735 0 0.0179693986068638 -0.00076732240700611606 0 0.015993258536709836 -0.0031757139813919375 0 0.016863962274490583 -0.0014229271241441169 0 0.017164766491277229 -0.0025126194708043601 0 0.016839059877075097 -0.0013556948423128735 0 0.017426041020694411 -0.0020693373901565677 0 0.016839059877075097 -0.0013556948423128735 0 0.017614205016570864 -0.0014640124980900182 0 0.017426041020694411 -0.0020693373901565677 0 0.018117428083210232 -0.0016378171482725884 0 0.0179693986068638 -0.00076732240700611606 0 0.018841060967027992 -0.001859289128553485 0 0.018117428083210232 -0.0016378171482725884 0 0.017889135558270659 -0.0019421193644608644 0 0.017614205016570864 -0.0014640124980900182 0 0.018117428083210232 -0.0016378171482725884 0 0.017889135558270659 -0.0019421193644608644 0 0.018247800203923407 -0.0021010477536806526 0 0.017889135558270659 -0.0019421193644608644 0 0.017614205016570864 -0.0014640124980900182 0 0.017426041020694411 -0.0020693373901565677 0 0.016839059877075097 -0.0013556948423128735 0 0.017614205016570864 -0.0014640124980900182 0 0.0179693986068638 -0.00076732240700611606 0 0.018117428083210232 -0.0016378171482725884 0 0.017614205016570864 -0.0014640124980900182 0 0.0179693986068638 -0.00076732240700611606 0 0.01776419460239017 0.0011855552513499441 0 0.01696842023582909 0.0010409273612887572 0 0.017156929490746126 0.00029348341335538706 0 0.01696842023582909 0.0010409273612887572 0 0.016116474131632492 0.00106243335829808 0 0.017156929490746126 0.00029348341335538706 0 0.017156929490746126 0.00029348341335538706 0 0.017984458229137506 0.00063574641728501868 0 0.017853980096383094 0.00016281170850515625 0 0.01776419460239017 0.0011855552513499441 0 0.017156929490746126 0.00029348341335538706 0 0.017984458229137506 0.00063574641728501868 0 0.017984458229137506 0.00063574641728501868 0 0.017853980096383094 0.00016281170850515625 0 0.018316032356614276 0.00017469067127854189 0 0.014455575113941474 -0.0028445652348215835 0 0.015475135490706051 -0.0032094200930008806 0 0.015284707023218989 -0.0023924474585129579 0 0.017984458229137506 0.00063574641728501868 0 0.018653561704382378 0.00077525560009144982 0 0.018316032356614276 0.00017469067127854189 0 0.01380809917560203 -0.00083735015623531261 0 0.017247207171500384 -0.00079466888035331336 0 0.015475135490706051 -0.0032094200930008806 0 0.016061906242044604 -0.0022742434311775164 0 0.015284707023218989 -0.0023924474585129579 0 0.015934611182348228 -0.0031981504368954685 0 0.017452234108143817 -0.0030410258170114873 0 0.016742836466874796 -0.004620729325555034 0 0.016700224353504857 -0.0048679172828892253 0 0.017044039160642545 -0.0046722454335939544 0 0.014836837467452187 -0.0017117840349547878 0 0.015805756383280942 -0.0017429372896833296 0 0.016243067419709885 -0.00096198030532613653 0 0.014836837467452187 -0.0017117840349547878 0 0.015284707023218989 -0.0023924474585129579 0 0.015805756383280942 -0.0017429372896833296 0 0.016061906242044604 -0.0022742434311775164 0 0.015805756383280942 -0.0017429372896833296 0 0.016646070070072346 -0.0013386394981543955 0 0.016061906242044604 -0.0022742434311775164 0 0.015284707023218989 -0.0023924474585129579 0 0.015805756383280942 -0.0017429372896833296 0 0.017156929490746126 0.00029348341335538706 0 0.017853980096383094 0.00016281170850515625 0 0.017952746154534533 -0.00044852801365511281 0 0.01755574601201243 -0.00016482262026366653 0 0.017891212975058295 -0.0016245889387830855 0 0.017853980096383094 0.00016281170850515625 0 0.018316032356614276 0.00017469067127854189 0 0.017952746154534533 -0.00044852801365511281 0 0.017247207171500384 -0.00079466888035331336 0 0.017891212975058295 -0.0016245889387830855 0 0.015805756383280942 -0.0017429372896833296 0 0.016646070070072346 -0.0013386394981543955 0 0.016243067419709885 -0.00096198030532613653 0 0.017891212975058295 -0.0016245889387830855 0 0.017452234108143817 -0.0030410258170114873 0 0.018117428083210232 -0.0016378171482725884 0 0.018841060967027992 -0.001859289128553485 0 0.018247800203923407 -0.0021010477536806526 0 0.018841060967027992 -0.001859289128553485 0 0.018298179759592238 -0.0025494740396311477 0 0.018247800203923407 -0.0021010477536806526 0 0.018347430791505498 -0.0025239502481419949 0 0.018324441216137851 -0.002550629797027055 0 0.018298179759592238 -0.0025494740396311477 0 0.017891212975058295 -0.0016245889387830855 0 0.018302003939738021 -0.002520950491960096 0 0.018525469213462795 -0.0024517472269230721 0 0.017452234108143817 -0.0030410258170114873 0 0.018347430791505498 -0.0025239502481419949 0 0.018324441216137851 -0.002550629797027055 0 0.018357064825413466 -0.0025388107975829956 0 0.018324441216137851 -0.002550629797027055 0 0.018513325829459779 -0.0024872382932878208 0 0.018432746727689242 -0.0026425477197015127 0 0.018513325829459779 -0.0024872382932878208 0 0.018432746727689242 -0.0026425477197015127 0 0.018557799793330214 -0.0027933510010568542 0 0.018432746727689242 -0.0026425477197015127 0 0.018557799793330214 -0.0027933510010568542 0 0.018426511934020399 -0.0027620956002029195 0 0.018432746727689242 -0.0026425477197015127 0 0.018355808380471808 -0.0026403260526703921 0 0.018426511934020399 -0.0027620956002029195 0 0.018355808380471808 -0.0026403260526703921 0 0.018298179759592238 -0.0025494740396311477 0 0.018298964827960184 -0.0027281258533676965 0 0.018324441216137851 -0.002550629797027055 0 0.018355808380471808 -0.0026403260526703921 0 0.018298179759592238 -0.0025494740396311477 0 0.018324441216137851 -0.002550629797027055 0 0.018432746727689242 -0.0026425477197015127 0 0.018355808380471808 -0.0026403260526703921 0 0.018794862285840375 -0.0029157661289609272 0 0.018513325829459779 -0.0024872382932878208 0 0.018557799793330214 -0.0027933510010568542 0 0.016707331610234737 -0.0043710379310514507 0 0.016742836466874796 -0.004620729325555034 0 0.017044039160642545 -0.0046722454335939544 0 0.017829581521208351 -0.0037467955521508713 0 0.017452234108143817 -0.0030410258170114873 0 0.018794862285840375 -0.0029157661289609272 0 0.018557799793330214 -0.0027933510010568542 0 0.018643950214909076 -0.0030168609210408791 0 0.018794862285840375 -0.0029157661289609272 0 0.018643950214909076 -0.0030168609210408791 0 0.018722107542978469 -0.003242971660133806 0 0.018557799793330214 -0.0027933510010568542 0 0.018643950214909076 -0.0030168609210408791 0 0.018501943409613926 -0.002942050592790491 0 0.018643950214909076 -0.0030168609210408791 0 0.018501943409613926 -0.002942050592790491 0 0.01858884438662451 -0.0031679522846059221 0 0.018298964827960184 -0.0027281258533676965 0 0.018376467368705979 -0.0028856367655494507 0 0.018202541263495468 -0.0028755893570018894 0 0.018298964827960184 -0.0027281258533676965 0 0.018426511934020399 -0.0027620956002029195 0 0.018376467368705979 -0.0028856367655494507 0 0.018355808380471808 -0.0026403260526703921 0 0.018298964827960184 -0.0027281258533676965 0 0.018426511934020399 -0.0027620956002029195 0 0.018557799793330214 -0.0027933510010568542 0 0.018426511934020399 -0.0027620956002029195 0 0.018501943409613926 -0.002942050592790491 0 0.018426511934020399 -0.0027620956002029195 0 0.018501943409613926 -0.002942050592790491 0 0.018376467368705979 -0.0028856367655494507 0 0.018501943409613926 -0.002942050592790491 0 0.018376467368705979 -0.0028856367655494507 0 0.018395158359077127 -0.0030527687380666095 0 0.018376467368705979 -0.0028856367655494507 0 0.018202541263495468 -0.0028755893570018894 0 0.018395158359077127 -0.0030527687380666095 0 0.018202541263495468 -0.0028755893570018894 0 0.018139533965626935 -0.003060838283302655 0 0.018395158359077127 -0.0030527687380666095 0 0.018298964827960184 -0.0027281258533676965 0 0.018202541263495468 -0.0028755893570018894 0 0.018030831813989335 -0.0026417842968638285 0 0.018202541263495468 -0.0028755893570018894 0 0.017851376414328757 -0.002890125226130481 0 0.018030831813989335 -0.0026417842968638285 0 0.017851376414328757 -0.002890125226130481 0 0.017606860943686568 -0.0025263554405240943 0 0.018030831813989335 -0.0026417842968638285 0 0.018202541263495468 -0.0028755893570018894 0 0.017851376414328757 -0.002890125226130481 0 0.018139533965626935 -0.003060838283302655 0 0.017164766491277229 -0.0025126194708043601 0 0.017527141706295754 -0.0027501470014517151 0 0.017606860943686568 -0.0025263554405240943 0 0.017164766491277229 -0.0025126194708043601 0 0.017527141706295754 -0.0027501470014517151 0 0.017515594578167197 -0.0030766874124335589 0 0.017851376414328757 -0.002890125226130481 0 0.017527141706295754 -0.0027501470014517151 0 0.017515594578167197 -0.0030766874124335589 0 0.017851376414328757 -0.002890125226130481 0 0.017527141706295754 -0.0027501470014517151 0 0.017606860943686568 -0.0025263554405240943 0 0.017164766491277229 -0.0025126194708043601 0 0.017606860943686568 -0.0025263554405240943 0 0.017426041020694411 -0.0020693373901565677 0 0.017606860943686568 -0.0025263554405240943 0 0.017426041020694411 -0.0020693373901565677 0 0.01788532164784571 -0.0023300052504303119 0 0.017889135558270659 -0.0019421193644608644 0 0.017426041020694411 -0.0020693373901565677 0 0.01788532164784571 -0.0023300052504303119 0 0.018298179759592238 -0.0025494740396311477 0 0.01788532164784571 -0.0023300052504303119 0 0.018247800203923407 -0.0021010477536806526 0 0.017889135558270659 -0.0019421193644608644 0 0.01788532164784571 -0.0023300052504303119 0 0.018247800203923407 -0.0021010477536806526 0 0.018298179759592238 -0.0025494740396311477 0 0.018298964827960184 -0.0027281258533676965 0 0.018030831813989335 -0.0026417842968638285 0 0.018298179759592238 -0.0025494740396311477 0 0.01788532164784571 -0.0023300052504303119 0 0.018030831813989335 -0.0026417842968638285 0 0.017606860943686568 -0.0025263554405240943 0 0.01788532164784571 -0.0023300052504303119 0 0.018030831813989335 -0.0026417842968638285 0 0.018321985958651678 -0.0033268516528448771 0 0.018029181024690453 -0.0034710830180414592 0 0.018485492068829171 -0.0034553966855436573 0 0.018321985958651678 -0.0033268516528448771 0 0.018576611628569252 -0.0034261215596250757 0 0.018485492068829171 -0.0034553966855436573 0 0.018321985958651678 -0.0033268516528448771 0 0.018029181024690453 -0.0034710830180414592 0 0.017969477097143676 -0.003174769929372513 0 0.017452360383769176 -0.0035630848392133587 0 0.018029181024690453 -0.0034710830180414592 0 0.017719055137231557 -0.0038552038194537806 0 0.017452360383769176 -0.0035630848392133587 0 0.018029181024690453 -0.0034710830180414592 0 0.017515594578167197 -0.0030766874124335589 0 0.018029181024690453 -0.0034710830180414592 0 0.017969477097143676 -0.003174769929372513 0 0.017515594578167197 -0.0030766874124335589 0 0.017851376414328757 -0.002890125226130481 0 0.017969477097143676 -0.003174769929372513 0 0.017515594578167197 -0.0030766874124335589 0 0.017851376414328757 -0.002890125226130481 0 0.017969477097143676 -0.003174769929372513 0 0.018139533965626935 -0.003060838283302655 0 0.018321985958651678 -0.0033268516528448771 0 0.017969477097143676 -0.003174769929372513 0 0.018139533965626935 -0.003060838283302655 0 0.018321985958651678 -0.0033268516528448771 0 0.018139533965626935 -0.003060838283302655 0 0.018345498581508083 -0.0031913697553772927 0 0.018139533965626935 -0.003060838283302655 0 0.018395158359077127 -0.0030527687380666095 0 0.018345498581508083 -0.0031913697553772927 0 0.018321985958651678 -0.0033268516528448771 0 0.018524067681060023 -0.0032977247243274302 0 0.018345498581508083 -0.0031913697553772927 0 0.018501943409613926 -0.002942050592790491 0 0.018395158359077127 -0.0030527687380666095 0 0.01858884438662451 -0.0031679522846059221 0 0.018395158359077127 -0.0030527687380666095 0 0.018524067681060023 -0.0032977247243274302 0 0.01858884438662451 -0.0031679522846059221 0 0.018395158359077127 -0.0030527687380666095 0 0.018524067681060023 -0.0032977247243274302 0 0.018345498581508083 -0.0031913697553772927 0 0.018524067681060023 -0.0032977247243274302 0 0.01858884438662451 -0.0031679522846059221 0 0.01865933649126723 -0.0033610114940870674 0 0.018643950214909076 -0.0030168609210408791 0 0.01858884438662451 -0.0031679522846059221 0 0.018722107542978469 -0.003242971660133806 0 0.01858884438662451 -0.0031679522846059221 0 0.01865933649126723 -0.0033610114940870674 0 0.018722107542978469 -0.003242971660133806 0 0.018524067681060023 -0.0032977247243274302 0 0.01865933649126723 -0.0033610114940870674 0 0.018658858671195769 -0.0034168937936868795 0 0.01865933649126723 -0.0033610114940870674 0 0.018658858671195769 -0.0034168937936868795 0 0.018655342732938101 -0.0034299064484883267 0 0.018524067681060023 -0.0032977247243274302 0 0.018658858671195769 -0.0034168937936868795 0 0.018576611628569252 -0.0034261215596250757 0 0.018321985958651678 -0.0033268516528448771 0 0.018524067681060023 -0.0032977247243274302 0 0.018576611628569252 -0.0034261215596250757 0 0.018658858671195769 -0.0034168937936868795 0 0.018576611628569252 -0.0034261215596250757 0 0.018751799924646321 -0.0033947280815757293 0 0.018576611628569252 -0.0034261215596250757 0 0.018751799924646321 -0.0033947280815757293 0 0.018726728439053375 -0.0034130850252819672 0 0.018658858671195769 -0.0034168937936868795 0 0.01870230784212891 -0.0033914494456136839 0 0.018751799924646321 -0.0033947280815757293 0 0.018658858671195769 -0.0034168937936868795 0 0.01870230784212891 -0.0033914494456136839 0 0.018655342732938101 -0.0034299064484883267 0 0.01870230784212891 -0.0033914494456136839 0 0.018751799924646321 -0.0033947280815757293 0 0.018790056685640807 -0.003208420247465552 0 0.018751799924646321 -0.0033947280815757293 0 0.018898280723725302 -0.0032832687593680847 0 0.018790056685640807 -0.003208420247465552 0 0.018898280723725302 -0.0032832687593680847 0 0.018897590344250821 -0.0033001483337282626 0 0.018726728439053375 -0.0034130850252819672 0 0.018751799924646321 -0.0033947280815757293 0 0.018898280723725302 -0.0032832687593680847 0 0.018726728439053375 -0.0034130850252819672 0 0.018898280723725302 -0.0032832687593680847 0 0.018897590344250821 -0.0033001483337282626 0 0.019015215757722661 -0.003178788744808053 0 0.018897590344250821 -0.0033001483337282626 0 0.018761135667809205 -0.0034327815402880684 0 0.019229452187212646 -0.0030202009189729952 0 0.018897590344250821 -0.0033001483337282626 0 0.018761135667809205 -0.0034327815402880684 0 0.018726728439053375 -0.0034130850252819672 0 0.018761135667809205 -0.0034327815402880684 0 0.018726728439053375 -0.0034130850252819672 0 0.018485492068829171 -0.0034553966855436573 0 0.018029181024690453 -0.0034710830180414592 0 0.018761135667809205 -0.0034327815402880684 0 0.018485492068829171 -0.0034553966855436573 0 0.018576611628569252 -0.0034261215596250757 0 0.018726728439053375 -0.0034130850252819672 0 0.018485492068829171 -0.0034553966855436573 0 0.018029181024690453 -0.0034710830180414592 0 0.018205551002088944 -0.0041930518051093357 0 0.018132751374927907 -0.0040166794289285259 0 0.017620289545918419 -0.0042324409762129703 0 0.017719055137231557 -0.0038552038194537806 0 0.018132751374927907 -0.0040166794289285259 0 0.018029181024690453 -0.0034710830180414592 0 0.017719055137231557 -0.0038552038194537806 0 0.018132751374927907 -0.0040166794289285259 0 0.018089059712222254 -0.0034537471085817778 0 0.018467621604889996 -0.0037604395555070579 0 0.017732124553546988 -0.0042311548258006249 0 0.01816051463725879 -0.0040387927329820017 0 0.018122413870777777 -0.0041623130050841943 0 0.018132751374927907 -0.0040166794289285259 0 0.018141609485711401 -0.0041455841232246023 0 0.018122413870777777 -0.0041623130050841943 0 0.018141609485711401 -0.0041455841232246023 0 0.018150107126242536 -0.0041799986111033995 0 0.018205551002088944 -0.0041930518051093357 0 0.018150107126242536 -0.0041799986111033995 0 0.018179846924486483 -0.0041949374397401741 0 0.018205551002088944 -0.0041930518051093357 0 0.018141609485711401 -0.0041455841232246023 0 0.018150107126242536 -0.0041799986111033995 0 0.018205551002088944 -0.0041930518051093357 0 0.018132751374927907 -0.0040166794289285259 0 0.018141609485711401 -0.0041455841232246023 0 0.018151711753186622 -0.0041975521122570927 0 0.018179846924486483 -0.0041949374397401741 0 0.018197653231667291 -0.0041983207226018475 0 0.018151711753186622 -0.0041975521122570927 0 0.018150107126242536 -0.0041799986111033995 0 0.018179846924486483 -0.0041949374397401741 0 0.018205551002088944 -0.0041930518051093357 0 0.018179846924486483 -0.0041949374397401741 0 0.018194266540970026 -0.0041946525661163952 0 0.018467621604889996 -0.0037604395555070579 0 0.01861142192218334 -0.0036248182449713051 0 0.018179846924486483 -0.0041949374397401741 0 0.018194266540970026 -0.0041946525661163952 0 0.018197653231667291 -0.0041983207226018475 0 0.018897590344250821 -0.0033001483337282626 0 0.019229452187212646 -0.0030202009189729952 0 0.019015215757722661 -0.003178788744808053 0 0.01861142192218334 -0.0036248182449713051 0 0.019599511915752758 -0.0032248517095275803 0 0.019229452187212646 -0.0030202009189729952 0 0.019495966974119903 -0.0027153740589080321 0 0.019370203330997055 -0.0027961533348652276 0 0.018194266540970026 -0.0041946525661163952 0 0.018197653231667291 -0.0041983207226018475 0 0.018220956279211366 -0.0041861001856834052 0 0.019807042087253552 -0.0036584255980415658 0 0.019565823496008852 -0.0035845170680391951 0 0.021106882330091038 -0.0030366320834439233 0 0.020993887205204027 -0.0029424422560679455 0 0.021108627026038714 -0.0029313570774337199 0 0.020993887205204027 -0.0029424422560679455 0 0.021108627026038714 -0.0029313570774337199 0 0.021077222997724562 -0.0028403853533951794 0 0.021157574596603147 -0.0027324953300774269 0 0.021077222997724562 -0.0028403853533951794 0 0.020993891860839196 -0.0026934696433736191 0 0.021077222997724562 -0.0028403853533951794 0 0.02094801519591389 -0.0028198147492206073 0 0.020993891860839196 -0.0026934696433736191 0 0.020993887205204027 -0.0029424422560679455 0 0.021077222997724562 -0.0028403853533951794 0 0.02094801519591389 -0.0028198147492206073 0 0.020993887205204027 -0.0029424422560679455 0 0.02094801519591389 -0.0028198147492206073 0 0.020790839613249297 -0.0028297656355008201 0 0.019565823496008852 -0.0035845170680391951 0 0.019599511915752758 -0.0032248517095275803 0 0.02094801519591389 -0.0028198147492206073 0 0.020790839613249297 -0.0028297656355008201 0 0.020877894898943775 -0.0027627061428797564 0 0.020790839613249297 -0.0028297656355008201 0 0.020877894898943775 -0.0027627061428797564 0 0.020755309116497225 -0.002815839994673287 0 0.019599511915752758 -0.0032248517095275803 0 0.019847307799123217 -0.0031053338926933121 0 0.020877894898943775 -0.0027627061428797564 0 0.020858831795596344 -0.002659363086500206 0 0.020755309116497225 -0.002815839994673287 0 0.02094801519591389 -0.0028198147492206073 0 0.020877894898943775 -0.0027627061428797564 0 0.020993891860839196 -0.0026934696433736191 0 0.020877894898943775 -0.0027627061428797564 0 0.020858831795596344 -0.002659363086500206 0 0.020993891860839196 -0.0026934696433736191 0 0.020858831795596344 -0.002659363086500206 0 0.020894689960751483 -0.0024836360595415904 0 0.020993891860839196 -0.0026934696433736191 0 0.020894689960751483 -0.0024836360595415904 0 0.020993891860839196 -0.0026934696433736191 0 0.021089518186013741 -0.0024568752488542678 0 0.020858831795596344 -0.002659363086500206 0 0.020693186149607114 -0.0025072922276676715 0 0.020755309116497225 -0.002815839994673287 0 0.020858831795596344 -0.002659363086500206 0 0.020894689960751483 -0.0024836360595415904 0 0.020693186149607114 -0.0025072922276676715 0 0.020894689960751483 -0.0024836360595415904 0 0.020693186149607114 -0.0025072922276676715 0 0.020827946906933025 -0.002156177192453698 0 0.021157574596603147 -0.0027324953300774269 0 0.020993891860839196 -0.0026934696433736191 0 0.021089518186013741 -0.0024568752488542678 0 0.020004159224832698 -0.0024432928697429197 0 0.019476640147038697 -0.0025501358100750039 0 0.019686968673304793 -0.0021652097795190339 0 0.019599511915752758 -0.0032248517095275803 0 0.020106822953097674 -0.0023725265655678077 0 0.020004159224832698 -0.0024432928697429197 0 0.020693186149607114 -0.0025072922276676715 0 0.020827946906933025 -0.002156177192453698 0 0.020817344430497802 -0.0029745328957358915 0 0.020004159224832698 -0.0024432928697429197 0 0.020755309116497225 -0.002815839994673287 0 0.020004159224832698 -0.0024432928697429197 0 0.020693186149607114 -0.0025072922276676715 0 0.020755309116497225 -0.002815839994673287 0 0.019495966974119903 -0.0027153740589080321 0 0.020004159224832698 -0.0024432928697429197 0 0.019591300714622988 -0.0026750332375079094 0 0.019495966974119903 -0.0027153740589080321 0 0.019591300714622988 -0.0026750332375079094 0 0.019370203330997055 -0.0027961533348652276 0 0.020004159224832698 -0.0024432928697429197 0 0.019591300714622988 -0.0026750332375079094 0 0.019476640147038697 -0.0025501358100750039 0 0.019591300714622988 -0.0026750332375079094 0 0.019426481715157179 -0.0028306674034229533 0 0.019476640147038697 -0.0025501358100750039 0 0.019591300714622988 -0.0026750332375079094 0 0.019265130409120812 -0.0028381047450776547 0 0.019426481715157179 -0.0028306674034229533 0 0.019256099921942729 -0.0028436169860390293 0 0.019034198466103491 -0.0028838647376904394 0 0.019591300714622988 -0.0026750332375079094 0 0.019265130409120812 -0.0028381047450776547 0 0.019370203330997055 -0.0027961533348652276 0 0.019229452187212646 -0.0030202009189729952 0 0.019265130409120812 -0.0028381047450776547 0 0.019370203330997055 -0.0027961533348652276 0 0.019229452187212646 -0.0030202009189729952 0 0.019039384448308862 -0.0030948680361338222 0 0.019015215757722661 -0.003178788744808053 0 0.019229452187212646 -0.0030202009189729952 0 0.019265130409120812 -0.0028381047450776547 0 0.019039384448308862 -0.0030948680361338222 0 0.018898280723725302 -0.0032832687593680847 0 0.019039384448308862 -0.0030948680361338222 0 0.018790056685640807 -0.003208420247465552 0 0.018898280723725302 -0.0032832687593680847 0 0.019039384448308862 -0.0030948680361338222 0 0.019015215757722661 -0.003178788744808053 0 0.019265130409120812 -0.0028381047450776547 0 0.018790056685640807 -0.003208420247465552 0 0.018638902185953151 -0.0029366186170021709 0 0.019265130409120812 -0.0028381047450776547 0 0.019039384448308862 -0.0030948680361338222 0 0.018790056685640807 -0.003208420247465552 0 0.018790056685640807 -0.003208420247465552 0 0.018638902185953151 -0.0029366186170021709 0 0.018588062321875175 -0.0032559108098244487 0 0.018638902185953151 -0.0029366186170021709 0 0.018354104104090111 -0.0029753126692938269 0 0.018588062321875175 -0.0032559108098244487 0 0.018354104104090111 -0.0029753126692938269 0 0.018383671512045906 -0.0032457295666945122 0 0.018588062321875175 -0.0032559108098244487 0 0.019426481715157179 -0.0028306674034229533 0 0.019035270988692031 -0.0024627913934516499 0 0.018867817542857258 -0.0029139697754535583 0 0.019034198466103491 -0.0028838647376904394 0 0.018593818330248101 -0.0029391163275086238 0 0.019426481715157179 -0.0028306674034229533 0 0.019476640147038697 -0.0025501358100750039 0 0.019035270988692031 -0.0024627913934516499 0 0.019476640147038697 -0.0025501358100750039 0 0.019035270988692031 -0.0024627913934516499 0 0.01928188294962753 -0.0022356162879153701 0 0.01928188294962753 -0.0022356162879153701 0 0.018906414736782805 -0.0020708059096811358 0 0.019235146388352865 -0.0018867650995833623 0 0.019035270988692031 -0.0024627913934516499 0 0.01928188294962753 -0.0022356162879153701 0 0.018906414736782805 -0.0020708059096811358 0 0.019476640147038697 -0.0025501358100750039 0 0.01928188294962753 -0.0022356162879153701 0 0.019686968673304793 -0.0021652097795190339 0 0.018442502986380838 -0.0019513544155207389 0 0.018473442781965287 -0.0012360785251304693 0 0.018039604578778484 -0.0013215402496982067 0 0.018442502986380838 -0.0019513544155207389 0 0.017705930416342157 -0.002081073245292127 0 0.018039604578778484 -0.0013215402496982067 0 0.019035270988692031 -0.0024627913934516499 0 0.018442502986380838 -0.0019513544155207389 0 0.018906414736782805 -0.0020708059096811358 0 0.018442502986380838 -0.0019513544155207389 0 0.018906414736782805 -0.0020708059096811358 0 0.01875624100569144 -0.0018635833110725894 0 0.018451466552380374 -0.0019481493092518866 0 0.018598458167673509 -0.0015746421655335895 0 0.019035270988692031 -0.0024627913934516499 0 0.018442502986380838 -0.0019513544155207389 0 0.018443827837848772 -0.0024846862479461452 0 0.018442502986380838 -0.0019513544155207389 0 0.018443827837848772 -0.0024846862479461452 0 0.017705930416342157 -0.002081073245292127 0 0.018443827837848772 -0.0024846862479461452 0 0.017932995060176218 -0.0029587523218996383 0 0.017705930416342157 -0.002081073245292127 0 0.017973297502708832 -0.002963846415712647 0 0.018593818330248101 -0.0029391163275086238 0 0.019035270988692031 -0.0024627913934516499 0 0.018443827837848772 -0.0024846862479461452 0 0.018867817542857258 -0.0029139697754535583 0 0.018443827837848772 -0.0024846862479461452 0 0.017932995060176218 -0.0029587523218996383 0 0.018867817542857258 -0.0029139697754535583 0 0.018354104104090111 -0.0029753126692938269 0 0.018026867022088625 -0.0033082879054243857 0 0.018383671512045906 -0.0032457295666945122 0 0.017932995060176218 -0.0029587523218996383 0 0.018354104104090111 -0.0029753126692938269 0 0.018026867022088625 -0.0033082879054243857 0 0.018026867022088625 -0.0033082879054243857 0 0.018136463392075478 -0.0035086990216512555 0 0.017812386434360613 -0.003614791070855636 0 0.018026867022088625 -0.0033082879054243857 0 0.018136463392075478 -0.0035086990216512555 0 0.018253385092917875 -0.0034016712871517839 0 0.018136463392075478 -0.0035086990216512555 0 0.018272589205672211 -0.0036368462003957634 0 0.017812386434360613 -0.003614791070855636 0 0.015940010677498527 -0.0036190053271117906 0 0.016333219014020402 -0.0037763864953571057 0 0.015753408325314754 -0.0032939856864595959 0 0.017475229286296742 -0.0036044103018752749 0 0.016744236298002951 -0.0034583466633233734 0 0.018136463392075478 -0.0035086990216512555 0 0.018304171608622539 -0.0034988716435716645 0 0.018272589205672211 -0.0036368462003957634 0 0.018304171608622539 -0.0034988716435716645 0 0.018455399329281016 -0.0035182756054920627 0 0.018272589205672211 -0.0036368462003957634 0 0.018136463392075478 -0.0035086990216512555 0 0.018304171608622539 -0.0034988716435716645 0 0.018253385092917875 -0.0034016712871517839 0 0.018304171608622539 -0.0034988716435716645 0 0.018253385092917875 -0.0034016712871517839 0 0.018467419398199032 -0.0034249063130642903 0 0.018253385092917875 -0.0034016712871517839 0 0.018383671512045906 -0.0032457295666945122 0 0.018467419398199032 -0.0034249063130642903 0 0.018026867022088625 -0.0033082879054243857 0 0.018253385092917875 -0.0034016712871517839 0 0.018383671512045906 -0.0032457295666945122 0 0.018383671512045906 -0.0032457295666945122 0 0.018588062321875175 -0.0032559108098244487 0 0.018467419398199032 -0.0034249063130642903 0 0.018588062321875175 -0.0032559108098244487 0 0.018607963066231151 -0.0034095583510361802 0 0.018467419398199032 -0.0034249063130642903 0 0.01870230784212891 -0.0033914494456136839 0 0.018588062321875175 -0.0032559108098244487 0 0.018607963066231151 -0.0034095583510361802 0 0.01870230784212891 -0.0033914494456136839 0 0.018790056685640807 -0.003208420247465552 0 0.018588062321875175 -0.0032559108098244487 0 0.01870230784212891 -0.0033914494456136839 0 0.018607963066231151 -0.0034095583510361802 0 0.018655342732938101 -0.0034299064484883267 0 0.018607963066231151 -0.0034095583510361802 0 0.018583435052751285 -0.0034685078519691701 0 0.018655342732938101 -0.0034299064484883267 0 0.018607963066231151 -0.0034095583510361802 0 0.018467419398199032 -0.0034249063130642903 0 0.018583435052751285 -0.0034685078519691701 0 0.018467419398199032 -0.0034249063130642903 0 0.018455399329281016 -0.0035182756054920627 0 0.018583435052751285 -0.0034685078519691701 0 0.018304171608622539 -0.0034988716435716645 0 0.018467419398199032 -0.0034249063130642903 0 0.018455399329281016 -0.0035182756054920627 0 0.018961481289865301 -0.0033144096476524043 0 0.018978460592817166 -0.0032464868007610545 0 0.019017371499086177 -0.0033776669038186958 0 0.018455399329281016 -0.0035182756054920627 0 0.018569324240872445 -0.0035357311468861511 0 0.018272589205672211 -0.0036368462003957634 0 0.018455399329281016 -0.0035182756054920627 0 0.018583435052751285 -0.0034685078519691701 0 0.018569324240872445 -0.0035357311468861511 0 0.018583435052751285 -0.0034685078519691701 0 0.018655342732938101 -0.0034299064484883267 0 0.018654876523695421 -0.0034224488803705909 0 0.018583435052751285 -0.0034685078519691701 0 0.018569324240872445 -0.0035357311468861511 0 0.018654876523695421 -0.0034224488803705909 0 0.01865933649126723 -0.0033610114940870674 0 0.018655342732938101 -0.0034299064484883267 0 0.018654876523695421 -0.0034224488803705909 0 0.018794862285840375 -0.0029157661289609272 0 0.018722107542978469 -0.003242971660133806 0 0.018978460592817166 -0.0032464868007610545 0 0.018966061210604169 -0.003458619071013054 0 0.018615098737626529 -0.0032397385841907884 0 0.018569324240872445 -0.0035357311468861511 0 0.018654876523695421 -0.0034224488803705909 0 0.018722107542978469 -0.003242971660133806 0 0.01865933649126723 -0.0033610114940870674 0 0.018654876523695421 -0.0034224488803705909 0 0.018722107542978469 -0.003242971660133806 0 0.018961481289865301 -0.0033144096476524043 0 0.018722107542978469 -0.003242971660133806 0 0.018978460592817166 -0.0032464868007610545 0 0.016386852501777946 -0.0040564778726515068 0 0.016105921542888105 -0.0040255646564482115 0 0.016060044427822575 -0.0037138769066075491 0 0.015912969855417524 -0.004212767185414041 0 0.016105921542888105 -0.0040255646564482115 0 0.015951403416577428 -0.0038892722690196009 0 0.015912969855417524 -0.004212767185414041 0 0.016200054288873948 -0.0042571448603159149 0 0.016105921542888105 -0.0040255646564482115 0 0.016200054288873948 -0.0042571448603159149 0 0.016386852501777946 -0.0040564778726515068 0 0.016105921542888105 -0.0040255646564482115 0 0.015912969855417524 -0.004212767185414041 0 0.015737601528579191 -0.0039331004742852041 0 0.015951403416577428 -0.0038892722690196009 0 0.015912969855417524 -0.004212767185414041 0 0.015737601528579191 -0.0039331004742852041 0 0.015664023318756659 -0.0041515282833417474 0 0.01581533675770045 -0.0035791899896913861 0 0.015737601528579191 -0.0039331004742852041 0 0.015951403416577428 -0.0038892722690196009 0 0.01581533675770045 -0.0035791899896913861 0 0.015737601528579191 -0.0039331004742852041 0 0.015594113929658664 -0.0037204539093167589 0 0.01581533675770045 -0.0035791899896913861 0 0.015951403416577428 -0.0038892722690196009 0 0.016060044427822575 -0.0037138769066075491 0 0.015726893435794722 -0.0034953531631053769 0 0.017475229286296742 -0.0036044103018752749 0 0.018966061210604169 -0.003458619071013054 0 0.017475229286296742 -0.0036044103018752749 0 0.016105921542888105 -0.0040255646564482115 0 0.015951403416577428 -0.0038892722690196009 0 0.016060044427822575 -0.0037138769066075491 0 0.01766692986179055 -0.0036149436060944336 0 0.017475229286296742 -0.0036044103018752749 0 0.015276745823932729 -0.0036699453310531233 0 0.015594113929658664 -0.0037204539093167589 0 0.01545231830250096 -0.004034224893313519 0 0.015276745823932729 -0.0036699453310531233 0 0.015594113929658664 -0.0037204539093167589 0 0.01544481980605171 -0.0035509046077781986 0 0.015737601528579191 -0.0039331004742852041 0 0.015594113929658664 -0.0037204539093167589 0 0.01545231830250096 -0.004034224893313519 0 0.015550441017114053 -0.0043989755190890923 0 0.01545231830250096 -0.004034224893313519 0 0.015664023318756659 -0.0041515282833417474 0 0.015737601528579191 -0.0039331004742852041 0 0.01545231830250096 -0.004034224893313519 0 0.015664023318756659 -0.0041515282833417474 0 0.01519130609145058 -0.0042769215001183239 0 0.01545231830250096 -0.004034224893313519 0 0.015147274329898956 -0.0040173661599847863 0 0.015276745823932729 -0.0036699453310531233 0 0.01545231830250096 -0.004034224893313519 0 0.015147274329898956 -0.0040173661599847863 0 0.01519130609145058 -0.0042769215001183239 0 0.015147274329898956 -0.0040173661599847863 0 0.014963419212980946 -0.0041825894005250988 0 0.014678737989161084 -0.0043311574863605148 0 0.014789269200325184 -0.0040758800645795028 0 0.014739175128016245 -0.0042443585938553678 0 0.014963419212980946 -0.0041825894005250988 0 0.014821304254436991 -0.0039858926493100532 0 0.015147274329898956 -0.0040173661599847863 0 0.014963419212980946 -0.0041825894005250988 0 0.014821304254436991 -0.0039858926493100532 0 0.014562372522253189 -0.0046361114114131692 0 0.013977795583681186 -0.0046884395733105136 0 0.014298769185983225 -0.0040439730827896668 0 0.014562372522253189 -0.0046361114114131692 0 0.014821304254436991 -0.0039858926493100532 0 0.014298769185983225 -0.0040439730827896668 0 0.014298769185983225 -0.0040439730827896668 0 0.014733406190810702 -0.0035649465056263024 0 0.014174480268464566 -0.0034851296957039307 0 0.014821304254436991 -0.0039858926493100532 0 0.014298769185983225 -0.0040439730827896668 0 0.014733406190810702 -0.0035649465056263024 0 0.015276745823932729 -0.0036699453310531233 0 0.015147274329898956 -0.0040173661599847863 0 0.014821304254436991 -0.0039858926493100532 0 0.015276745823932729 -0.0036699453310531233 0 0.014821304254436991 -0.0039858926493100532 0 0.014733406190810702 -0.0035649465056263024 0 0.014733406190810702 -0.0035649465056263024 0 0.015078374465739433 -0.0032565402162884035 0 0.014663783713398068 -0.0031731807296355944 0 0.015276745823932729 -0.0036699453310531233 0 0.014733406190810702 -0.0035649465056263024 0 0.015078374465739433 -0.0032565402162884035 0 0.014733406190810702 -0.0035649465056263024 0 0.014663783713398068 -0.0031731807296355944 0 0.014174480268464566 -0.0034851296957039307 0 0.014663783713398068 -0.0031731807296355944 0 0.014726396891149742 -0.0029485099698665302 0 0.014341316212158089 -0.0029770563769803185 0 0.014663783713398068 -0.0031731807296355944 0 0.015080084742704437 -0.0029478140621629948 0 0.014726396891149742 -0.0029485099698665302 0 0.015078374465739433 -0.0032565402162884035 0 0.014663783713398068 -0.0031731807296355944 0 0.015080084742704437 -0.0029478140621629948 0 0.015078374465739433 -0.0032565402162884035 0 0.015382633580366317 -0.002931625882747993 0 0.015080084742704437 -0.0029478140621629948 0 0.015321768449945865 -0.003381050919434192 0 0.015583014985891638 -0.0034306233359576973 0 0.015382633580366317 -0.002931625882747993 0 0.015078374465739433 -0.0032565402162884035 0 0.015321768449945865 -0.003381050919434192 0 0.015382633580366317 -0.002931625882747993 0 0.015276745823932729 -0.0036699453310531233 0 0.015078374465739433 -0.0032565402162884035 0 0.015321768449945865 -0.003381050919434192 0 0.015276745823932729 -0.0036699453310531233 0 0.015321768449945865 -0.003381050919434192 0 0.01544481980605171 -0.0035509046077781986 0 0.015726893435794722 -0.0034953531631053769 0 0.015667935217868922 -0.0034797029405104966 0 0.01581533675770045 -0.0035791899896913861 0 0.015594113929658664 -0.0037204539093167589 0 0.015583014985891638 -0.0034306233359576973 0 0.015321768449945865 -0.003381050919434192 0 0.01544481980605171 -0.0035509046077781986 0 0.015583014985891638 -0.0034306233359576973 0 0.015594113929658664 -0.0037204539093167589 0 0.01544481980605171 -0.0035509046077781986 0 0.015583014985891638 -0.0034306233359576973 0 0.015940010677498527 -0.0036190053271117906 0 0.015583014985891638 -0.0034306233359576973 0 0.015753408325314754 -0.0032939856864595959 0 0.018026867022088625 -0.0033082879054243857 0 0.017812386434360613 -0.003614791070855636 0 0.017041606221009198 -0.0034485286838953459 0 0.015583014985891638 -0.0034306233359576973 0 0.015753408325314754 -0.0032939856864595959 0 0.015382633580366317 -0.002931625882747993 0 0.016744236298002951 -0.0034583466633233734 0 0.016192895925572635 -0.0031512154468888551 0 0.017932995060176218 -0.0029587523218996383 0 0.018026867022088625 -0.0033082879054243857 0 0.017041606221009198 -0.0034485286838953459 0 0.017932995060176218 -0.0029587523218996383 0 0.017041606221009198 -0.0034485286838953459 0 0.016959798482061573 -0.0025548859212231622 0 0.017041606221009198 -0.0034485286838953459 0 0.016959798482061573 -0.0025548859212231622 0 0.015523390573210963 -0.0026100782739361269 0 0.017932995060176218 -0.0029587523218996383 0 0.016959798482061573 -0.0025548859212231622 0 0.017705930416342157 -0.002081073245292127 0 0.016959798482061573 -0.0025548859212231622 0 0.017705930416342157 -0.002081073245292127 0 0.017024484191711084 -0.00198328244809849 0 0.017705930416342157 -0.002081073245292127 0 0.017024484191711084 -0.00198328244809849 0 0.01729916030200828 -0.0013294608569360635 0 0.016959798482061573 -0.0025548859212231622 0 0.017024484191711084 -0.00198328244809849 0 0.015966654662963566 -0.0019692890526692747 0 0.017024484191711084 -0.00198328244809849 0 0.01729916030200828 -0.0013294608569360635 0 0.015966654662963566 -0.0019692890526692747 0 0.017198484183989386 -0.001318411177559131 0 0.016377994643549398 -0.001734095647551078 0 0.017705930416342157 -0.002081073245292127 0 0.01729916030200828 -0.0013294608569360635 0 0.018039604578778484 -0.0013215402496982067 0 0.016661722322003251 -0.0010991972833694292 0 0.015828939368277378 -0.0011278026874171022 0 0.015951710887679025 -0.00083882096740703414 0 0.016661722322003251 -0.0010991972833694292 0 0.0163865063548225 -0.0012812450201734001 0 0.015828939368277378 -0.0011278026874171022 0 0.01729916030200828 -0.0013294608569360635 0 0.016661722322003251 -0.0010991972833694292 0 0.016754114825661418 -0.0014570210087714996 0 0.016661722322003251 -0.0010991972833694292 0 0.016754114825661418 -0.0014570210087714996 0 0.0163865063548225 -0.0012812450201734001 0 0.016754114825661418 -0.0014570210087714996 0 0.016135829325230357 -0.0015008814033510487 0 0.0163865063548225 -0.0012812450201734001 0 0.016135829325230357 -0.0015008814033510487 0 0.0163865063548225 -0.0012812450201734001 0 0.015828939368277378 -0.0011278026874171022 0 0.016135829325230357 -0.0015008814033510487 0 0.01570651517858386 -0.0016056323162256538 0 0.015828939368277378 -0.0011278026874171022 0 0.016135829325230357 -0.0015008814033510487 0 0.01570651517858386 -0.0016056323162256538 0 0.015925375670703661 -0.0020803368664712566 0 0.016754114825661418 -0.0014570210087714996 0 0.016135829325230357 -0.0015008814033510487 0 0.015925375670703661 -0.0020803368664712566 0 0.015966654662963566 -0.0019692890526692747 0 0.01485742743735808 -0.0026836868838195278 0 0.015523390573210963 -0.0026100782739361269 0 0.016959798482061573 -0.0025548859212231622 0 0.015966654662963566 -0.0019692890526692747 0 0.015523390573210963 -0.0026100782739361269 0 0.016377994643549398 -0.001734095647551078 0 0.015369120864663029 -0.0023751004852361991 0 0.015382633580366317 -0.002931625882747993 0 0.015523390573210963 -0.0026100782739361269 0 0.015080084742704437 -0.0029478140621629948 0 0.016192895925572635 -0.0031512154468888551 0 0.015533082088301878 -0.0026139256083639382 0 0.01485742743735808 -0.0026836868838195278 0 0.015080084742704437 -0.0029478140621629948 0 0.014726396891149742 -0.0029485099698665302 0 0.01485742743735808 -0.0026836868838195278 0 0.014726396891149742 -0.0029485099698665302 0 0.014341316212158089 -0.0029770563769803185 0 0.01485742743735808 -0.0026836868838195278 0 0.015523390573210963 -0.0026100782739361269 0 0.015080084742704437 -0.0029478140621629948 0 0.015369120864663029 -0.0023751004852361991 0 0.014451333910438872 -0.0029600476025142576 0 0.015925375670703661 -0.0020803368664712566 0 0.015014680430552868 -0.0016502857270477784 0 0.014341316212158089 -0.0029770563769803185 0 0.013910299722221213 -0.0019093938443061093 0 0.013175271591776084 -0.0027117532402694609 0 0.014341316212158089 -0.0029770563769803185 0 0.013910299722221213 -0.0019093938443061093 0 0.015014680430552868 -0.0016502857270477784 0 0.014341316212158089 -0.0029770563769803185 0 0.013910299722221213 -0.0019093938443061093 0 0.015014680430552868 -0.0016502857270477784 0 0.013857277125595318 -0.00081353330638172887 0 0.01570651517858386 -0.0016056323162256538 0 0.015925375670703661 -0.0020803368664712566 0 0.015014680430552868 -0.0016502857270477784 0 0.01570651517858386 -0.0016056323162256538 0 0.015014680430552868 -0.0016502857270477784 0 0.015828939368277378 -0.0011278026874171022 0 0.015014680430552868 -0.0016502857270477784 0 0.015157633059352173 -0.00086135483630753618 0 0.015828939368277378 -0.0011278026874171022 0 0.013969287865283028 -0.00089553858729879529 0 0.014405586000270488 -0.00037657182830613914 0 0.015157633059352173 -0.00086135483630753618 0 0.013857277125595318 -0.00081353330638172887 0 0.015453652756274335 -0.00078457993516453824 0 0.015014680430552868 -0.0016502857270477784 0 0.015157633059352173 -0.00086135483630753618 0 0.013857277125595318 -0.00081353330638172887 0 0.015157633059352173 -0.00086135483630753618 0 0.015453652756274335 -0.00078457993516453824 0 0.015951710887679025 -0.00083882096740703414 0 0.015157633059352173 -0.00086135483630753618 0 0.015828939368277378 -0.0011278026874171022 0 0.015951710887679025 -0.00083882096740703414 0 0.012204833909711587 -4.2545650737737662e-08 0 0.011941042079966451 -0.00045423814972306444 0 0.0099717234662279816 3.9540482583699395e-07 0 0.012204833909711587 -4.2545650737737662e-08 0 0.012723446567872639 9.4738710579241769e-06 0 0.013398018876349616 0.0001666157623154841 0 0.01338070926053426 0.00019215026505319671 0 0.012723446567872639 9.4738710579241769e-06 0 0.013398018876349616 0.0001666157623154841 0 0.013857277125595318 -0.00081353330638172887 0 0.01338070926053426 0.00019215026505319671 0 0.012723446567872639 9.4738710579241769e-06 0 0.013857277125595318 -0.00081353330638172887 0 0.012723446567872639 9.4738710579241769e-06 0 0.011941042079966451 -0.00045423814972306444 0 0.012204833909711587 -4.2545650737737662e-08 0 0.012723446567872639 9.4738710579241769e-06 0 0.011941042079966451 -0.00045423814972306444 0 0.011941042079966451 -0.00045423814972306444 0 0.010573790378686504 0.00017244885610293316 0 0.0099717234662279816 3.9540482583699395e-07 0 0.011867490050526244 -0.00040807349405648209 0 0.011929771518314114 -0.0012029738834412082 0 0.013910299722221213 -0.0019093938443061093 0 0.011941042079966451 -0.00045423814972306444 0 0.013175271591776084 -0.0027117532402694609 0 0.013910299722221213 -0.0019093938443061093 0 0.013857277125595318 -0.00081353330638172887 0 0.011941042079966451 -0.00045423814972306444 0 0.010573790378686504 0.00017244885610293316 0 0.0099717234662279816 3.9540482583699395e-07 0 0.0099483343954454885 -1.1634406615552014e-05 0 0.0099717234662279816 3.9540482583699395e-07 0 0.0099483343954454885 -1.1634406615552014e-05 0 0.008343841348870628 -2.7887982199058427e-06 0 0.0099483343954454885 -1.1634406615552014e-05 0 0.008343841348870628 -2.7887982199058427e-06 0 0.010105836002089577 -0.0011632000633747461 0 0.008341477873035812 -2.3737662518899712e-07 0 0.0087046535366911409 -0.0012726223234297337 0 0.008343841348870628 -2.7887982199058427e-06 0 0.010105836002089577 -0.0011632000633747461 0 0.0096668727801741388 -0.002830172511496479 0 0.0099483343954454885 -1.1634406615552014e-05 0 0.010105836002089577 -0.0011632000633747461 0 0.011443459843669984 -0.00056202209592472164 0 0.011929771518314114 -0.0012029738834412082 0 0.012436891858842601 -0.0020628002252940716 0 0.010573790378686504 0.00017244885610293316 0 0.0099483343954454885 -1.1634406615552014e-05 0 0.011443459843669984 -0.00056202209592472164 0 0.013175271591776084 -0.0027117532402694609 0 0.014341316212158089 -0.0029770563769803185 0 0.013469092192693793 -0.0033404527969214423 0 0.014663783713398068 -0.0031731807296355944 0 0.014341316212158089 -0.0029770563769803185 0 0.014174480268464566 -0.0034851296957039307 0 0.014341316212158089 -0.0029770563769803185 0 0.014174480268464566 -0.0034851296957039307 0 0.01352504036788609 -0.0034344903651877074 0 0.014341316212158089 -0.0029770563769803185 0 0.01352504036788609 -0.0034344903651877074 0 0.013469092192693793 -0.0033404527969214423 0 0.01352504036788609 -0.0034344903651877074 0 0.013469092192693793 -0.0033404527969214423 0 0.012856325949921322 -0.0036326925591486006 0 0.01352504036788609 -0.0034344903651877074 0 0.012856325949921322 -0.0036326925591486006 0 0.013516330538302477 -0.0041014175614459006 0 0.011443459843669984 -0.00056202209592472164 0 0.012856325949921322 -0.0036326925591486006 0 0.011244534500217292 -0.0034971482900395924 0 0.012436891858842601 -0.0020628002252940716 0 0.012858165231874465 -0.0035890882743573145 0 0.014174480268464566 -0.0034851296957039307 0 0.01352504036788609 -0.0034344903651877074 0 0.013516330538302477 -0.0041014175614459006 0 0.014298769185983225 -0.0040439730827896668 0 0.014174480268464566 -0.0034851296957039307 0 0.013516330538302477 -0.0041014175614459006 0 0.013977795583681186 -0.0046884395733105136 0 0.014298769185983225 -0.0040439730827896668 0 0.013516330538302477 -0.0041014175614459006 0 0.013510177225454565 -0.0048919705118350429 0 0.013977795583681186 -0.0046884395733105136 0 0.013516330538302477 -0.0041014175614459006 0 0.012856325949921322 -0.0036326925591486006 0 0.013516330538302477 -0.0041014175614459006 0 0.012493516981792291 -0.0045965415532785211 0 0.012974050923727599 -0.0050747984543214443 0 0.013516330538302477 -0.0041014175614459006 0 0.012493516981792291 -0.0045965415532785211 0 0.012856325949921322 -0.0036326925591486006 0 0.012493516981792291 -0.0045965415532785211 0 0.011244534500217292 -0.0034971482900395924 0 0.011244534500217292 -0.0034971482900395924 0 0.011324087922314012 -0.0047084131080599601 0 0.0096668727801741388 -0.002830172511496479 0 0.012493516981792291 -0.0045965415532785211 0 0.011244534500217292 -0.0034971482900395924 0 0.011324087922314012 -0.0047084131080599601 0 0.010160685507703382 -0.0028856608177096317 0 0.0087046535366911409 -0.0012726223234297337 0 0.0090577694781100657 -0.0010283609227987271 0 0.0075544551865404643 -0.00025844459489450994 0 0.0075123050567047168 0.00020652391312968562 0 0.0065534927793791239 -0.00098746986834279972 0 0.0066942959588799002 -0.00012406242110643491 0 0.0090577694781100657 -0.0010283609227987271 0 0.0079449508683374637 -0.0010602934748657935 0 0.0075544551865404643 -0.00025844459489450994 0 0.0056594388754867934 2.954382093595709e-07 0 0.0068424999804307367 -2.3494663608911517e-05 0 0.0070018534004965055 -3.8355834347567263e-07 0 0.0074612341354605843 -0.0022239767182882469 0 0.0074769479372470363 -0.00084253981252854944 0 0.0068424999804307367 -2.3494663608911517e-05 0 0.0079449508683374637 -0.0010602934748657935 0 0.0074769479372470363 -0.00084253981252854944 0 0.0075544551865404643 -0.00025844459489450994 0 0.0068424999804307367 -2.3494663608911517e-05 0 0.0070018534004965055 -3.8355834347567263e-07 0 0.0075544551865404643 -0.00025844459489450994 0 0.0074769479372470363 -0.00084253981252854944 0 0.0068424999804307367 -2.3494663608911517e-05 0 0.0075544551865404643 -0.00025844459489450994 0 0.0083404304794479217 5.0062545355871355e-07 0 0.0070018534004965055 -3.8355834347567263e-07 0 0.0075123050567047168 0.00020652391312968562 0 0.0070018534004965055 -3.8355834347567263e-07 0 0.0075544551865404643 -0.00025844459489450994 0 0.0075123050567047168 0.00020652391312968562 0 0.010105836002089577 -0.0011632000633747461 0 0.011443459843669984 -0.00056202209592472164 0 0.011244534500217292 -0.0034971482900395924 0 0.010105836002089577 -0.0011632000633747461 0 0.011244534500217292 -0.0034971482900395924 0 0.0096668727801741388 -0.002830172511496479 0 0.016867003297601466 -1.0911351599220841e-05 0 0.015264321626786476 9.2422835582082112e-07 0 0.019466039360657938 -1.3665310057461561e-06 0 0.018503155082605912 0.00011309820414266503 0 0.016867003297601466 -1.0911351599220841e-05 0 0.019466039360657938 -1.3665310057461561e-06 0 0.018503155082605912 0.00011309820414266503 0 0.018455523242070133 -0.0001721258521573964 0 0.016867003297601466 -1.0911351599220841e-05 0 0.018503155082605912 0.00011309820414266503 0 0.018557091589404176 -1.2618454780783457e-05 0 0.018455523242070133 -0.0001721258521573964 0 0.018503155082605912 0.00011309820414266503 0 0.018581586620646604 4.8803062809328654e-05 0 0.018602475069601714 -4.6167664049715742e-05 0 0.018503155082605912 0.00011309820414266503 0 0.018557091589404176 -1.2618454780783457e-05 0 0.018581586620646604 4.8803062809328654e-05 0 0.020213870349571526 -0.00057147014136047045 0 0.01980243417902729 -0.0004485783734337905 0 0.020213870349571526 -0.00057147014136047045 0 0.019597667947124968 -2.2887013499983771e-05 0 0.021681724016100544 -0.0010625558946069714 0 0.021667475186888677 -0.00093935802918715199 0 0.021606333423593561 -0.00066785501912629188 0 0.018557091589404176 -1.2618454780783457e-05 0 0.018581586620646604 4.8803062809328654e-05 0 0.018799240669120296 -4.7882027817642843e-05 0 0.017372911331806115 0.0013559456790129202 0 0.016134872104453343 0.00045501426408835546 0 0.016952441477720587 0.00034312795752733101 0 0.017372911331806115 0.0013559456790129202 0 0.016952441477720587 0.00034312795752733101 0 0.017565776275977586 0.00076683889424066561 0 0.018557091589404176 -1.2618454780783457e-05 0 0.018799240669120296 -4.7882027817642843e-05 0 0.018455523242070133 -0.0001721258521573964 0 0.017372911331806115 0.0013559456790129202 0 0.016061903872091561 0.00042810217275052225 0 0.016134872104453343 0.00045501426408835546 0 0.019597667947124968 -2.2887013499983771e-05 0 0.016966561296092569 0.00022150583843359278 0 0.016134872104453343 0.00045501426408835546 0 0.016952441477720587 0.00034312795752733101 0 0.016392312977964316 -0.00010395648231405848 0 0.016126210743879963 0.00045799222800785755 0 0.016021189547239446 8.1900621562748752e-05 0 0.016952441477720587 0.00034312795752733101 0 0.017375564877524896 -0.00018649954374916095 0 0.017813910160914048 0.0002946592533702767 0 0.016952441477720587 0.00034312795752733101 0 0.017813910160914048 0.0002946592533702767 0 0.017565776275977586 0.00076683889424066561 0 0.016952441477720587 0.00034312795752733101 0 0.016852939288073573 -8.094548921577159e-05 0 0.017375564877524896 -0.00018649954374916095 0 0.016852939288073573 -8.094548921577159e-05 0 0.016788366626905908 -0.00038408759146224341 0 0.017375564877524896 -0.00018649954374916095 0 0.016952441477720587 0.00034312795752733101 0 0.016852939288073573 -8.094548921577159e-05 0 0.016392312977964316 -0.00010395648231405848 0 0.016852939288073573 -8.094548921577159e-05 0 0.016392312977964316 -0.00010395648231405848 0 0.016788366626905908 -0.00038408759146224341 0 0.01612408057495248 0.00023052646277082808 0 0.016867003297601466 -1.0911351599220841e-05 0 0.015264321626786476 9.2422835582082112e-07 0 0.015720158902861561 0.00017013600301266375 0 0.01612408057495248 0.00023052646277082808 0 0.015264321626786476 9.2422835582082112e-07 0 0.016061903872091561 0.00042810217275052225 0 0.01612408057495248 0.00023052646277082808 0 0.016867003297601466 -1.0911351599220841e-05 0 0.016966561296092569 0.00022150583843359278 0 0.017078246434102971 7.0496965628691681e-06 0 0.016134872104453343 0.00045501426408835546 0 0.015720158902861561 0.00017013600301266375 0 0.01612408057495248 0.00023052646277082808 0 0.016061903872091561 0.00042810217275052225 0 0.016134872104453343 0.00045501426408835546 0 0.01612408057495248 0.00023052646277082808 0 0.015720158902861561 0.00017013600301266375 0 0.015264321626786476 9.2422835582082112e-07 0 0.01481141862745769 9.5039349992661151e-05 0 0.015264321626786476 9.2422835582082112e-07 0 0.01386698773085126 0.00019536261158456351 0 0.01481141862745769 9.5039349992661151e-05 0 0.015264321626786476 9.2422835582082112e-07 0 0.013398018876349616 0.0001666157623154841 0 0.01386698773085126 0.00019536261158456351 0 0.012204833909711587 -4.2545650737737662e-08 0 0.015264321626786476 9.2422835582082112e-07 0 0.013398018876349616 0.0001666157623154841 0 0.01338070926053426 0.00019215026505319671 0 0.013398018876349616 0.0001666157623154841 0 0.01386698773085126 0.00019536261158456351 0 0.015951710887679025 -0.00083882096740703414 0 0.016450311529439085 -0.00076363699192866414 0 0.016725796672074373 -0.00085368547919107665 0 0.014405586000270488 -0.00037657182830613914 0 0.01498968190063029 -0.00025203086301361108 0 0.015453652756274335 -0.00078457993516453824 0 0.015951710887679025 -0.00083882096740703414 0 0.016099197478838704 -0.00075081679228813545 0 0.016099197478838704 -0.00075081679228813545 0 0.016450311529439085 -0.00076363699192866414 0 0.016377010689046293 -0.00056569228182904384 0 0.015951710887679025 -0.00083882096740703414 0 0.016099197478838704 -0.00075081679228813545 0 0.016450311529439085 -0.00076363699192866414 0 0.016450311529439085 -0.00076363699192866414 0 0.01693531362408968 -0.00062488508329654473 0 0.016377010689046293 -0.00056569228182904384 0 0.01498968190063029 -0.00025203086301361108 0 0.015582592074216828 -0.00018996290272056153 0 0.016021189547239446 8.1900621562748752e-05 0 0.015582592074216828 -0.00018996290272056153 0 0.016392312977964316 -0.00010395648231405848 0 0.016377010689046293 -0.00056569228182904384 0 0.016788366626905908 -0.00038408759146224341 0 0.01693531362408968 -0.00062488508329654473 0 0.016377010689046293 -0.00056569228182904384 0 0.016788366626905908 -0.00038408759146224341 0 0.01693531362408968 -0.00062488508329654473 0 0.016788366626905908 -0.00038408759146224341 0 0.017375564877524896 -0.00018649954374916095 0 0.01693531362408968 -0.00062488508329654473 0 0.017604477045244579 -0.00055095734308146778 0 0.017375564877524896 -0.00018649954374916095 0 0.017604477045244579 -0.00055095734308146778 0 0.017864212785736959 -0.00074979967424870472 0 0.018432163879023078 -0.0001537165649875984 0 0.017604477045244579 -0.00055095734308146778 0 0.017217381972991302 -0.00076780054537017904 0 0.017864212785736959 -0.00074979967424870472 0 0.016450311529439085 -0.00076363699192866414 0 0.01693531362408968 -0.00062488508329654473 0 0.017217381972991302 -0.00076780054537017904 0 0.01693531362408968 -0.00062488508329654473 0 0.017604477045244579 -0.00055095734308146778 0 0.017217381972991302 -0.00076780054537017904 0 0.016450311529439085 -0.00076363699192866414 0 0.017217381972991302 -0.00076780054537017904 0 0.016725796672074373 -0.00085368547919107665 0 0.017217381972991302 -0.00076780054537017904 0 0.016725796672074373 -0.00085368547919107665 0 0.017369700373851434 -0.00093139807464818938 0 0.017217381972991302 -0.00076780054537017904 0 0.017369700373851434 -0.00093139807464818938 0 0.017864212785736959 -0.00074979967424870472 0 0.016661722322003251 -0.0010991972833694292 0 0.016725796672074373 -0.00085368547919107665 0 0.017369700373851434 -0.00093139807464818938 0 0.01729916030200828 -0.0013294608569360635 0 0.016661722322003251 -0.0010991972833694292 0 0.017369700373851434 -0.00093139807464818938 0 0.016661722322003251 -0.0010991972833694292 0 0.015951710887679025 -0.00083882096740703414 0 0.016725796672074373 -0.00085368547919107665 0 0.01729916030200828 -0.0013294608569360635 0 0.01787955635670023 -0.0010047889838037494 0 0.018039604578778484 -0.0013215402496982067 0 0.01729916030200828 -0.0013294608569360635 0 0.017369700373851434 -0.00093139807464818938 0 0.01787955635670023 -0.0010047889838037494 0 0.017369700373851434 -0.00093139807464818938 0 0.017899868536085793 -0.00084559029726752344 0 0.017864212785736959 -0.00074979967424870472 0 0.017369700373851434 -0.00093139807464818938 0 0.01787955635670023 -0.0010047889838037494 0 0.017899868536085793 -0.00084559029726752344 0 0.01787955635670023 -0.0010047889838037494 0 0.017899868536085793 -0.00084559029726752344 0 0.018181717309643946 -0.00089141982188212395 0 0.017899868536085793 -0.00084559029726752344 0 0.018188310464936894 -0.0008454384256296472 0 0.018181717309643946 -0.00089141982188212395 0 0.017899868536085793 -0.00084559029726752344 0 0.017864212785736959 -0.00074979967424870472 0 0.018188310464936894 -0.0008454384256296472 0 0.017864212785736959 -0.00074979967424870472 0 0.019222842742994687 -2.399450517738449e-05 0 0.018432163879023078 -0.0001537165649875984 0 0.01798302534523789 -0.00070718400320475647 0 0.018604010646953155 -0.00024396735131246471 0 0.017864212785736959 -0.00074979967424870472 0 0.018188310464936894 -0.0008454384256296472 0 0.018073485824689622 -0.00050328956721662824 0 0.018188310464936894 -0.0008454384256296472 0 0.018073485824689622 -0.00050328956721662824 0 0.018842954863474287 -0.0004914236528629119 0 0.018073485824689622 -0.00050328956721662824 0 0.018457045948384113 0.00013012566949945347 0 0.018842954863474287 -0.0004914236528629119 0 0.018604010646953155 -0.00024396735131246471 0 0.019007128751174461 0.00016738655442397971 0 0.019577993989944208 0.00023921106498390546 0 0.019222842742994687 -2.399450517738449e-05 0 0.019386118456148516 0.0004750223578043658 0 0.019577993989944208 0.00023921106498390546 0 0.019222842742994687 -2.399450517738449e-05 0 0.019478356746701366 0.00020320519707108997 0 0.019222842742994687 -2.399450517738449e-05 0 0.018432163879023078 -0.0001537165649875984 0 0.019386118456148516 0.0004750223578043658 0 0.017604477045244579 -0.00055095734308146778 0 0.018432163879023078 -0.0001537165649875984 0 0.017375564877524896 -0.00018649954374916095 0 0.018432163879023078 -0.0001537165649875984 0 0.017375564877524896 -0.00018649954374916095 0 0.017813910160914048 0.0002946592533702767 0 0.017813910160914048 0.0002946592533702767 0 0.019386118456148516 0.0004750223578043658 0 0.018184720612220779 0.0010871976115928578 0 0.017813910160914048 0.0002946592533702767 0 0.017565776275977586 0.00076683889424066561 0 0.018184720612220779 0.0010871976115928578 0 0.018432163879023078 -0.0001537165649875984 0 0.017813910160914048 0.0002946592533702767 0 0.019386118456148516 0.0004750223578043658 0 0.019529012576057617 0.00049083968976036815 0 0.01959641341681722 0.00053836960819588625 0 0.02038553910484274 -0.00011568833529405131 0 0.021098642144923432 -0.00066674578980514864 0 0.020168307044952597 -0.00022038657002422892 0 0.019577993989944208 0.00023921106498390546 0 0.019386118456148516 0.0004750223578043658 0 0.020168307044952597 -0.00022038657002422892 0 0.019386118456148516 0.0004750223578043658 0 0.02038553910484274 -0.00011568833529405131 0 0.020168307044952597 -0.00022038657002422892 0 0.019386118456148516 0.0004750223578043658 0 0.02038553910484274 -0.00011568833529405131 0 0.021124959469754862 0.00011780513285351496 0 0.019597667947124968 -2.2887013499983771e-05 0 0.021730047934792971 -0.00046260566694242598 0 0.021833879887976648 -0.00034426840403515674 0 0.021124959469754862 0.00011780513285351496 0 0.021098642144923432 -0.00066674578980514864 0 0.017372911331806115 0.0013559456790129202 0 0.017565776275977586 0.00076683889424066561 0 0.018184720612220779 0.0010871976115928578 0 0.02038553910484274 -0.00011568833529405131 0 0.021124959469754862 0.00011780513285351496 0 0.021098642144923432 -0.00066674578980514864 0 0.019597667947124968 -2.2887013499983771e-05 0 0.01959641341681722 0.00053836960819588625 0 0.021667475186888677 -0.00093935802918715199 0 0.021606333423593561 -0.00066785501912629188 0 0.021098642144923432 -0.00066674578980514864 0 0.021667475186888677 -0.00093935802918715199 0 0.021098642144923432 -0.00066674578980514864 0 0.021475100154873236 -0.0010701668692612322 0 0.021098642144923432 -0.00066674578980514864 0 0.021050636265564426 -0.0011774647376270844 0 0.021475100154873236 -0.0010701668692612322 0 0.021098642144923432 -0.00066674578980514864 0 0.020168307044952597 -0.00022038657002422892 0 0.021050636265564426 -0.0011774647376270844 0 0.019808809823279806 -0.00061051451353075095 0 0.020168307044952597 -0.00022038657002422892 0 0.021050636265564426 -0.0011774647376270844 0 0.019808809823279806 -0.00061051451353075095 0 0.019478356746701366 0.00020320519707108997 0 0.018998423234633827 -0.0010032558898522698 0 0.019007128751174461 0.00016738655442397971 0 0.018621407549930177 -0.0001069298559047666 0 0.019577993989944208 0.00023921106498390546 0 0.019478356746701366 0.00020320519707108997 0 0.020168307044952597 -0.00022038657002422892 0 0.019808809823279806 -0.00061051451353075095 0 0.019478356746701366 0.00020320519707108997 0 0.020168307044952597 -0.00022038657002422892 0 0.018457045948384113 0.00013012566949945347 0 0.019403287709685198 5.5299625695352226e-05 0 0.019343846503817642 0.00063682011717458543 0 0.018457045948384113 0.00013012566949945347 0 0.018838095829126107 0.00086561783213742359 0 0.019343846503817642 0.00063682011717458543 0 0.018838095829126107 0.00086561783213742359 0 0.019343846503817642 0.00063682011717458543 0 0.019424232229208131 0.0010815988086890025 0 0.019403287709685198 5.5299625695352226e-05 0 0.019343846503817642 0.00063682011717458543 0 0.019934504401992646 0.00074427184714149326 0 0.019343846503817642 0.00063682011717458543 0 0.019934504401992646 0.00074427184714149326 0 0.019424232229208131 0.0010815988086890025 0 0.020833494778665307 0.00065258128482459669 0 0.020381311084595927 0.00030288609840777627 0 0.02092727441832231 0.00015083705850679326 0 0.019934504401992646 0.00074427184714149326 0 0.020833494778665307 0.00065258128482459669 0 0.020381311084595927 0.00030288609840777627 0 0.020381311084595927 0.00030288609840777627 0 0.020420967767433837 -0.00019682707580709148 0 0.02092727441832231 0.00015083705850679326 0 0.020420967767433837 -0.00019682707580709148 0 0.02104207898908338 -0.00022146548455428004 0 0.02092727441832231 0.00015083705850679326 0 0.019403287709685198 5.5299625695352226e-05 0 0.019934504401992646 0.00074427184714149326 0 0.020381311084595927 0.00030288609840777627 0 0.019403287709685198 5.5299625695352226e-05 0 0.020381311084595927 0.00030288609840777627 0 0.020420967767433837 -0.00019682707580709148 0 0.019403287709685198 5.5299625695352226e-05 0 0.020420967767433837 -0.00019682707580709148 0 0.019611408782106942 -0.00041280863296655593 0 0.020386789601512731 -0.00021048407044664579 0 0.020221599715932792 -0.00067916707120792492 0 0.020420967767433837 -0.00019682707580709148 0 0.020723453149118637 -0.00051577063708506963 0 0.02104207898908338 -0.00022146548455428004 0 0.020723453149118637 -0.00051577063708506963 0 0.020322677540373917 -0.00069702963343324092 0 0.020674070591059305 -0.00080751425914895529 0 0.020420967767433837 -0.00019682707580709148 0 0.020723453149118637 -0.00051577063708506963 0 0.020322677540373917 -0.00069702963343324092 0 0.020420967767433837 -0.00019682707580709148 0 0.019992182508350342 -0.00067873446976488808 0 0.019611408782106942 -0.00041280863296655593 0 0.019992182508350342 -0.00067873446976488808 0 0.019611408782106942 -0.00041280863296655593 0 0.019413954664370257 -0.00078709844005164721 0 0.019611408782106942 -0.00041280863296655593 0 0.018842954863474287 -0.0004914236528629119 0 0.019413954664370257 -0.00078709844005164721 0 0.018457045948384113 0.00013012566949945347 0 0.019403287709685198 5.5299625695352226e-05 0 0.018842954863474287 -0.0004914236528629119 0 0.019403287709685198 5.5299625695352226e-05 0 0.019611408782106942 -0.00041280863296655593 0 0.018842954863474287 -0.0004914236528629119 0 0.018269571508354111 -0.00087112048732134394 0 0.018598168549752013 -0.00094222613520822179 0 0.018188310464936894 -0.0008454384256296472 0 0.018842954863474287 -0.0004914236528629119 0 0.019014070271107034 -0.0011389225730415431 0 0.019413954664370257 -0.00078709844005164721 0 0.019014070271107034 -0.0011389225730415431 0 0.019698590946622973 -0.001242215599321664 0 0.018842954863474287 -0.0004914236528629119 0 0.019413954664370257 -0.00078709844005164721 0 0.019014070271107034 -0.0011389225730415431 0 0.018598168549752013 -0.00094222613520822179 0 0.019373148674720508 -0.00096067709780687344 0 0.018275322468415619 -0.00076083727353948804 0 0.018181717309643946 -0.00089141982188212395 0 0.018470605066800826 -0.00093648382756822044 0 0.018275322468415619 -0.00076083727353948804 0 0.018470605066800826 -0.00093648382756822044 0 0.018527391422932013 -0.00075139725584126398 0 0.018188310464936894 -0.0008454384256296472 0 0.018275322468415619 -0.00076083727353948804 0 0.018181717309643946 -0.00089141982188212395 0 0.018181717309643946 -0.00089141982188212395 0 0.018470605066800826 -0.00093648382756822044 0 0.018473442781965287 -0.0012360785251304693 0 0.018669452593250674 -0.0012050655633866292 0 0.018598458167673509 -0.0015746421655335895 0 0.018925963756550049 -0.0014808449842315249 0 0.01875624100569144 -0.0018635833110725894 0 0.019235146388352865 -0.0018867650995833623 0 0.018181717309643946 -0.00089141982188212395 0 0.018473442781965287 -0.0012360785251304693 0 0.018039604578778484 -0.0013215402496982067 0 0.01787955635670023 -0.0010047889838037494 0 0.018181717309643946 -0.00089141982188212395 0 0.018039604578778484 -0.0013215402496982067 0 0.01928188294962753 -0.0022356162879153701 0 0.019686968673304793 -0.0021652097795190339 0 0.019235146388352865 -0.0018867650995833623 0 0.019686968673304793 -0.0021652097795190339 0 0.019235146388352865 -0.0018867650995833623 0 0.019869460443534118 -0.0017160339705685006 0 0.018906414736782805 -0.0020708059096811358 0 0.01875624100569144 -0.0018635833110725894 0 0.019235146388352865 -0.0018867650995833623 0 0.018925963756550049 -0.0014808449842315249 0 0.019235146388352865 -0.0018867650995833623 0 0.019450247817970927 -0.001416954667274232 0 0.019235146388352865 -0.0018867650995833623 0 0.019450247817970927 -0.001416954667274232 0 0.019869460443534118 -0.0017160339705685006 0 0.019450247817970927 -0.001416954667274232 0 0.019869460443534118 -0.0017160339705685006 0 0.020044499779371623 -0.0013040338643286614 0 0.019450247817970927 -0.001416954667274232 0 0.019705942172821719 -0.00087855307804660327 0 0.020044499779371623 -0.0013040338643286614 0 0.019705942172821719 -0.00087855307804660327 0 0.020044499779371623 -0.0013040338643286614 0 0.020575028399680121 -0.0010099187795888222 0 0.020154742828218001 -0.00096328831542834205 0 0.020489814188888681 -0.00099351548976175431 0 0.018669452593250674 -0.0012050655633866292 0 0.019373148674720508 -0.00096067709780687344 0 0.019450247817970927 -0.001416954667274232 0 0.019705942172821719 -0.00087855307804660327 0 0.019124242791225501 -0.00087806919219224854 0 0.020154742828218001 -0.00096328831542834205 0 0.019373148674720508 -0.00096067709780687344 0 0.018925963756550049 -0.0014808449842315249 0 0.019450247817970927 -0.001416954667274232 0 0.019124242791225501 -0.00087806919219224854 0 0.020322677540373917 -0.00069702963343324092 0 0.020482170947238535 -0.0010256960352042258 0 0.020208836429677291 -0.0010191341818556866 0 0.020221599715932792 -0.00067916707120792492 0 0.019373148674720508 -0.00096067709780687344 0 0.019992182508350342 -0.00067873446976488808 0 0.019413954664370257 -0.00078709844005164721 0 0.019698590946622973 -0.001242215599321664 0 0.020322677540373917 -0.00069702963343324092 0 0.020482170947238535 -0.0010256960352042258 0 0.020674070591059305 -0.00080751425914895529 0 0.020482170947238535 -0.0010256960352042258 0 0.020674070591059305 -0.00080751425914895529 0 0.020575028399680121 -0.0010099187795888222 0 0.020674070591059305 -0.00080751425914895529 0 0.020920990785052541 -0.00083128428876832214 0 0.020575028399680121 -0.0010099187795888222 0 0.020920990785052541 -0.00083128428876832214 0 0.020977918172543027 -0.0010729072407669375 0 0.020575028399680121 -0.0010099187795888222 0 0.020920990785052541 -0.00083128428876832214 0 0.021363593180565698 -0.00085062228218511554 0 0.020977918172543027 -0.0010729072407669375 0 0.020920990785052541 -0.00083128428876832214 0 0.021363593180565698 -0.00085062228218511554 0 0.021437436469435422 -0.00057658048356417279 0 0.021363593180565698 -0.00085062228218511554 0 0.020977918172543027 -0.0010729072407669375 0 0.021403438596346039 -0.0011168120911869809 0 0.020977918172543027 -0.0010729072407669375 0 0.02105450415270986 -0.0013990641416213204 0 0.021403438596346039 -0.0011168120911869809 0 0.020977918172543027 -0.0010729072407669375 0 0.02105450415270986 -0.0013990641416213204 0 0.020565523934119655 -0.0013744897656519045 0 0.020977918172543027 -0.0010729072407669375 0 0.020575028399680121 -0.0010099187795888222 0 0.020565523934119655 -0.0013744897656519045 0 0.020044499779371623 -0.0013040338643286614 0 0.020575028399680121 -0.0010099187795888222 0 0.020565523934119655 -0.0013744897656519045 0 0.019869460443534118 -0.0017160339705685006 0 0.020044499779371623 -0.0013040338643286614 0 0.020565523934119655 -0.0013744897656519045 0 0.019869460443534118 -0.0017160339705685006 0 0.020565523934119655 -0.0013744897656519045 0 0.020455593740629142 -0.0018358624642463657 0 0.02105450415270986 -0.0013990641416213204 0 0.020455593740629142 -0.0018358624642463657 0 0.021336939578887232 -0.0017350401275761651 0 0.02105450415270986 -0.0013990641416213204 0 0.020565523934119655 -0.0013744897656519045 0 0.020455593740629142 -0.0018358624642463657 0 0.020004159224832698 -0.0024432928697429197 0 0.020455593740629142 -0.0018358624642463657 0 0.020827946906933025 -0.002156177192453698 0 0.020455593740629142 -0.0018358624642463657 0 0.020827946906933025 -0.002156177192453698 0 0.021336939578887232 -0.0017350401275761651 0 0.019686968673304793 -0.0021652097795190339 0 0.019869460443534118 -0.0017160339705685006 0 0.020455593740629142 -0.0018358624642463657 0 0.020004159224832698 -0.0024432928697429197 0 0.019686968673304793 -0.0021652097795190339 0 0.020455593740629142 -0.0018358624642463657 0 0.021883152014065706 -0.0022756403122400023 0 0.021336939578887232 -0.0017350401275761651 0 0.021952433447648679 -0.0017220572480347244 0 0.021883152014065706 -0.0022756403122400023 0 0.021952433447648679 -0.0017220572480347244 0 0.022306243943127319 -0.001993199521131785 0 0.020827946906933025 -0.002156177192453698 0 0.021883152014065706 -0.0022756403122400023 0 0.021336939578887232 -0.0017350401275761651 0 0.020864096118373816 -0.0021764864528044494 0 0.021424258113133129 -0.002343532286449488 0 0.020894689960751483 -0.0024836360595415904 0 0.020827946906933025 -0.002156177192453698 0 0.021089518186013741 -0.0024568752488542678 0 0.021336939578887232 -0.0017350401275761651 0 0.021952433447648679 -0.0017220572480347244 0 0.021562954672490593 -0.00140340392985534 0 0.02105450415270986 -0.0013990641416213204 0 0.021336939578887232 -0.0017350401275761651 0 0.021562954672490593 -0.00140340392985534 0 0.021952433447648679 -0.0017220572480347244 0 0.021562954672490593 -0.00140340392985534 0 0.022217028404374378 -0.0013044488488278703 0 0.021813420051272028 -0.0011305543368021387 0 0.021562954672490593 -0.00140340392985534 0 0.022217028404374378 -0.0013044488488278703 0 0.021813420051272028 -0.0011305543368021387 0 0.022117322682591291 -0.00098119369671983265 0 0.022217028404374378 -0.0013044488488278703 0 0.02105450415270986 -0.0013990641416213204 0 0.021562954672490593 -0.00140340392985534 0 0.021403438596346039 -0.0011168120911869809 0 0.021813420051272028 -0.0011305543368021387 0 0.021562954672490593 -0.00140340392985534 0 0.021403438596346039 -0.0011168120911869809 0 0.021363593180565698 -0.00085062228218511554 0 0.021403438596346039 -0.0011168120911869809 0 0.021756311703572416 -0.0009011911690260466 0 0.021813420051272028 -0.0011305543368021387 0 0.021403438596346039 -0.0011168120911869809 0 0.021756311703572416 -0.0009011911690260466 0 0.021363593180565698 -0.00085062228218511554 0 0.021756311703572416 -0.0009011911690260466 0 0.021801632225910039 -0.00063519337700341399 0 0.021756311703572416 -0.0009011911690260466 0 0.022210883256160548 -0.00070913811899232034 0 0.021801632225910039 -0.00063519337700341399 0 0.021813420051272028 -0.0011305543368021387 0 0.021756311703572416 -0.0009011911690260466 0 0.022117322682591291 -0.00098119369671983265 0 0.021756311703572416 -0.0009011911690260466 0 0.022117322682591291 -0.00098119369671983265 0 0.022210883256160548 -0.00070913811899232034 0 0.022117322682591291 -0.00098119369671983265 0 0.022210883256160548 -0.00070913811899232034 0 0.022495681017165932 -0.00095233908469917364 0 0.022210883256160548 -0.00070913811899232034 0 0.022292128680671763 -0.0004111965703314314 0 0.021801632225910039 -0.00063519337700341399 0 0.022292128680671763 -0.0004111965703314314 0 0.02195215785960616 -0.00032508657363571411 0 0.022327350702677131 -0.00011544897681375953 0 0.022292128680671763 -0.0004111965703314314 0 0.022327350702677131 -0.00011544897681375953 0 0.022632948897531535 -0.00018928191632380529 0 0.02195215785960616 -0.00032508657363571411 0 0.021534824713995482 -0.00025071929489170708 0 0.022088443359911836 3.9193319523353498e-05 0 0.022292128680671763 -0.0004111965703314314 0 0.02195215785960616 -0.00032508657363571411 0 0.021801632225910039 -0.00063519337700341399 0 0.02195215785960616 -0.00032508657363571411 0 0.021801632225910039 -0.00063519337700341399 0 0.021437436469435422 -0.00057658048356417279 0 0.021363593180565698 -0.00085062228218511554 0 0.021801632225910039 -0.00063519337700341399 0 0.021437436469435422 -0.00057658048356417279 0 0.020920990785052541 -0.00083128428876832214 0 0.021437436469435422 -0.00057658048356417279 0 0.021053769698380576 -0.00054209006071388374 0 0.020674070591059305 -0.00080751425914895529 0 0.020920990785052541 -0.00083128428876832214 0 0.021053769698380576 -0.00054209006071388374 0 0.020723453149118637 -0.00051577063708506963 0 0.020674070591059305 -0.00080751425914895529 0 0.021053769698380576 -0.00054209006071388374 0 0.021053769698380576 -0.00054209006071388374 0 0.02104207898908338 -0.00022146548455428004 0 0.021534824713995482 -0.00025071929489170708 0 0.020723453149118637 -0.00051577063708506963 0 0.021053769698380576 -0.00054209006071388374 0 0.02104207898908338 -0.00022146548455428004 0 0.02195215785960616 -0.00032508657363571411 0 0.021437436469435422 -0.00057658048356417279 0 0.021534824713995482 -0.00025071929489170708 0 0.021437436469435422 -0.00057658048356417279 0 0.021053769698380576 -0.00054209006071388374 0 0.021534824713995482 -0.00025071929489170708 0 0.021534824713995482 -0.00025071929489170708 0 0.021558936897391499 0.0001005593660282632 0 0.022088443359911836 3.9193319523353498e-05 0 0.021558936897391499 0.0001005593660282632 0 0.02224570725868551 0.00039227089783464291 0 0.022088443359911836 3.9193319523353498e-05 0 0.02104207898908338 -0.00022146548455428004 0 0.021534824713995482 -0.00025071929489170708 0 0.021558936897391499 0.0001005593660282632 0 0.02104207898908338 -0.00022146548455428004 0 0.021558936897391499 0.0001005593660282632 0 0.02092727441832231 0.00015083705850679326 0 0.021558936897391499 0.0001005593660282632 0 0.02092727441832231 0.00015083705850679326 0 0.021627394895967621 0.00053229992434552619 0 0.020833494778665307 0.00065258128482459669 0 0.02092727441832231 0.00015083705850679326 0 0.021627394895967621 0.00053229992434552619 0 0.021558936897391499 0.0001005593660282632 0 0.021627394895967621 0.00053229992434552619 0 0.02224570725868551 0.00039227089783464291 0 0.021627394895967621 0.00053229992434552619 0 0.02224570725868551 0.00039227089783464291 0 0.022366682315786052 0.00081996894655447989 0 0.02224570725868551 0.00039227089783464291 0 0.022623063609967107 0.0001718451104581724 0 0.022088443359911836 3.9193319523353498e-05 0 0.02224570725868551 0.00039227089783464291 0 0.022623063609967107 0.0001718451104581724 0 0.02263112764779392 0.00056518464499760702 0 0.022623063609967107 0.0001718451104581724 0 0.022987206753356072 0.0004465332290651625 0 0.023046168846613226 0.00022281318297372247 0 0.022623063609967107 0.0001718451104581724 0 0.022327350702677131 -0.00011544897681375953 0 0.022632948897531535 -0.00018928191632380529 0 0.02195215785960616 -0.00032508657363571411 0 0.022327350702677131 -0.00011544897681375953 0 0.022088443359911836 3.9193319523353498e-05 0 0.022623063609967107 0.0001718451104581724 0 0.022327350702677131 -0.00011544897681375953 0 0.022088443359911836 3.9193319523353498e-05 0 0.022648053043838691 0.00069198779091999966 0 0.022920217032576698 0.00059395563819187919 0 0.022936172998145894 0.00069324133505961746 0 0.022648053043838691 0.00069198779091999966 0 0.022920217032576698 0.00059395563819187919 0 0.02263112764779392 0.00056518464499760702 0 0.022920217032576698 0.00059395563819187919 0 0.022987206753356072 0.0004465332290651625 0 0.023316152406362447 0.00059534857768242522 0 0.022920217032576698 0.00059395563819187919 0 0.022936172998145894 0.00069324133505961746 0 0.023316152406362447 0.00059534857768242522 0 0.022920217032576698 0.00059395563819187919 0 0.022987206753356072 0.0004465332290651625 0 0.02263112764779392 0.00056518464499760702 0 0.022623063609967107 0.0001718451104581724 0 0.022987206753356072 0.0004465332290651625 0 0.02263112764779392 0.00056518464499760702 0 0.02224570725868551 0.00039227089783464291 0 0.02263112764779392 0.00056518464499760702 0 0.022366682315786052 0.00081996894655447989 0 0.022648053043838691 0.00069198779091999966 0 0.02263112764779392 0.00056518464499760702 0 0.022366682315786052 0.00081996894655447989 0 0.022325017660598197 0.00087123853929396418 0 0.02206300799299802 0.0010610321028742371 0 0.021627394895967621 0.00053229992434552619 0 0.022366682315786052 0.00081996894655447989 0 0.021288234380842395 0.0014567782222933299 0 0.020833494778665307 0.00065258128482459669 0 0.021627394895967621 0.00053229992434552619 0 0.021288234380842395 0.0014567782222933299 0 0.022748010084037637 0.00074125514643403928 0 0.022826486602280056 0.00069597907281020556 0 0.022825827246587028 0.00070763050824616878 0 0.022748010084037637 0.00074125514643403928 0 0.022788142738280479 0.00069130575861048045 0 0.022826486602280056 0.00069597907281020556 0 0.022648053043838691 0.00069198779091999966 0 0.022366682315786052 0.00081996894655447989 0 0.022748010084037637 0.00074125514643403928 0 0.022648053043838691 0.00069198779091999966 0 0.022748010084037637 0.00074125514643403928 0 0.022788142738280479 0.00069130575861048045 0 0.022788142738280479 0.00069130575861048045 0 0.022899257376539681 0.00069382478464599261 0 0.022905573185992151 0.00075880610001362498 0 0.022826486602280056 0.00069597907281020556 0 0.022899257376539681 0.00069382478464599261 0 0.02283609650475029 0.00071323220514145412 0 0.022788142738280479 0.00069130575861048045 0 0.022826486602280056 0.00069597907281020556 0 0.022899257376539681 0.00069382478464599261 0 0.022973074011026422 0.00055120538131620174 0 0.023767551599856974 0.00055493715368011207 0 0.023486644064179073 0.00043822262762335112 0 0.024115240597914249 0.00021559252381352732 0 0.024277185136629 0.0004454342520512144 0 0.023070334410531815 0.0006144169228182694 0 0.023486644064179073 0.00043822262762335112 0 0.024277185136629 0.0004454342520512144 0 0.022899257376539681 0.00069382478464599261 0 0.023070334410531815 0.0006144169228182694 0 0.02283609650475029 0.00071323220514145412 0 0.022905573185992151 0.00075880610001362498 0 0.022925397481223832 0.00089047216085111033 0 0.023070334410531815 0.0006144169228182694 0 0.022899257376539681 0.00069382478464599261 0 0.022905573185992151 0.00075880610001362498 0 0.023070334410531815 0.0006144169228182694 0 0.022905573185992151 0.00075880610001362498 0 0.022925397481223832 0.00089047216085111033 0 0.022936172998145894 0.00069324133505961746 0 0.022648053043838691 0.00069198779091999966 0 0.022788142738280479 0.00069130575861048045 0 0.022936172998145894 0.00069324133505961746 0 0.022788142738280479 0.00069130575861048045 0 0.022905573185992151 0.00075880610001362498 0 0.022936172998145894 0.00069324133505961746 0 0.022936172998145894 0.00069324133505961746 0 0.023316152406362447 0.00059534857768242522 0 0.023812630798155709 0.00079399902709921056 0 0.023807849446082007 0.00075245411929377121 0 0.023842185729830101 0.00077150618695173527 0 0.022925397481223832 0.00089047216085111033 0 0.022936172998145894 0.00069324133505961746 0 0.023812630798155709 0.00079399902709921056 0 0.024698568997391594 0.00060515159617971731 0 0.023812630798155709 0.00079399902709921056 0 0.024307918453330531 0.0004574101938661079 0 0.024978559854160372 5.1793958884751637e-07 0 0.02499923492788984 2.4050708608088444e-07 0 0.024893202424997016 -1.2330399901813323e-06 0 0.024978559854160372 5.1793958884751637e-07 0 0.025000253770191796 -1.1776286681597983e-07 0 0.02499923492788984 2.4050708608088444e-07 0 0.024698568997391594 0.00060515159617971731 0 0.024628630048136053 0.00026848097502756431 0 0.024307918453330531 0.0004574101938661079 0 0.024698568997391594 0.00060515159617971731 0 0.024796790472100295 0.00037867276139782465 0 0.024628630048136053 0.00026848097502756431 0 0.024698568997391594 0.00060515159617971731 0 0.024796790472100295 0.00037867276139782465 0 0.025026586735368717 0.00043061983934255898 0 0.024846512000873705 0.00022703401543143413 0 0.024628630048136053 0.00026848097502756431 0 0.024795148655636683 0.0001063109370089348 0 0.024796790472100295 0.00037867276139782465 0 0.024846512000873705 0.00022703401543143413 0 0.024628630048136053 0.00026848097502756431 0 0.024957163607364927 -3.915915371574215e-05 0 0.024978559854160372 5.1793958884751637e-07 0 0.024924072968275042 -4.3080289694603871e-05 0 0.024628630048136053 0.00026848097502756431 0 0.024795148655636683 0.0001063109370089348 0 0.024727231491472958 0.00015660069475699167 0 0.02500786549354235 0.00012627383656619144 0 0.024875612752226998 2.9155490676036292e-05 0 0.024875612752226998 2.9155490676036292e-05 0 0.024999941277444284 1.5703277907242687e-08 0 0.024795148655636683 0.0001063109370089348 0 0.024999608838323795 1.3717243717056332e-07 0 0.024727231491472958 0.00015660069475699167 0 0.024978559854160372 5.1793958884751637e-07 0 0.024924072968275042 -4.3080289694603871e-05 0 0.024893202424997016 -1.2330399901813323e-06 0 0.024864656842017149 -0.00010180002416398152 0 0.024924072968275042 -4.3080289694603871e-05 0 0.024926388430124399 -0.0001020829188038536 0 0.024864656842017149 -0.00010180002416398152 0 0.024924072968275042 -4.3080289694603871e-05 0 0.024893202424997016 -1.2330399901813323e-06 0 0.024796790472100295 0.00037867276139782465 0 0.024846512000873705 0.00022703401543143413 0 0.025026586735368717 0.00043061983934255898 0 0.02500786549354235 0.00012627383656619144 0 0.024153393849269331 0.00027869437656978307 0 0.024957163607364927 -3.915915371574215e-05 0 0.024924072968275042 -4.3080289694603871e-05 0 0.024926388430124399 -0.0001020829188038536 0 0.023807849446082007 0.00075245411929377121 0 0.024153393849269331 0.00027869437656978307 0 0.022925397481223832 0.00089047216085111033 0 0.023090630691713427 0.00043422903978503313 0 0.023070334410531815 0.0006144169228182694 0 0.023090630691713427 0.00043422903978503313 0 0.023070334410531815 0.0006144169228182694 0 0.023486644064179073 0.00043822262762335112 0 0.024436573933992959 -9.2890490674725338e-05 0 0.024153393849269331 0.00027869437656978307 0 0.024032197992197447 -0.00010801007007817292 0 0.02326498397386173 7.2778819887190326e-05 0 0.023734831839173028 0.00014999979254909514 0 0.024032197992197447 -0.00010801007007817292 0 0.023734831839173028 0.00014999979254909514 0 0.024115240597914249 0.00021559252381352732 0 0.024153393849269331 0.00027869437656978307 0 0.023556447227905793 0.00022538434222888271 0 0.02326498397386173 7.2778819887190326e-05 0 0.023734831839173028 0.00014999979254909514 0 0.023486644064179073 0.00043822262762335112 0 0.023734831839173028 0.00014999979254909514 0 0.023486644064179073 0.00043822262762335112 0 0.024115240597914249 0.00021559252381352732 0 0.024032197992197447 -0.00010801007007817292 0 0.024115240597914249 0.00021559252381352732 0 0.024469470184765623 0.00012139996983648125 0 0.02499923492788984 2.4050708608088444e-07 0 0.024627465024497086 0.00012913065173200648 0 0.024998379717436205 2.0509776252765569e-07 0 0.024115240597914249 0.00021559252381352732 0 0.024469470184765623 0.00012139996983648125 0 0.024340675432205337 0.00024764772216692433 0 0.024469470184765623 0.00012139996983648125 0 0.024484488936855908 0.00011239170985240667 0 0.024431933154817419 0.00016959507675405567 0 0.024469470184765623 0.00012139996983648125 0 0.024431933154817419 0.00016959507675405567 0 0.024340675432205337 0.00024764772216692433 0 0.024469470184765623 0.00012139996983648125 0 0.024557898816685804 7.7778638428434738e-05 0 0.024484488936855908 0.00011239170985240667 0 0.024469470184765623 0.00012139996983648125 0 0.024557898816685804 7.7778638428434738e-05 0 0.024635084741341119 -3.3107123038045139e-05 0 0.024557898816685804 7.7778638428434738e-05 0 0.024635084741341119 -3.3107123038045139e-05 0 0.024627465024497086 0.00012913065173200648 0 0.024436573933992959 -9.2890490674725338e-05 0 0.024578621666604454 -5.5231746929927929e-05 0 0.024864656842017149 -0.00010180002416398152 0 0.024635084741341119 -3.3107123038045139e-05 0 0.024893202424997016 -1.2330399901813323e-06 0 0.024032197992197447 -0.00010801007007817292 0 0.024469470184765623 0.00012139996983648125 0 0.024635084741341119 -3.3107123038045139e-05 0 0.024635084741341119 -3.3107123038045139e-05 0 0.02499923492788984 2.4050708608088444e-07 0 0.024627465024497086 0.00012913065173200648 0 0.024635084741341119 -3.3107123038045139e-05 0 0.02499923492788984 2.4050708608088444e-07 0 0.024893202424997016 -1.2330399901813323e-06 0 0.024627465024497086 0.00012913065173200648 0 0.024371628732566285 0.00021784848014449389 0 0.024519577626518806 0.00022671190368602159 0 0.024627465024497086 0.00012913065173200648 0 0.024371628732566285 0.00021784848014449389 0 0.024458273610840856 0.00014287950292784569 0 0.024371628732566285 0.00021784848014449389 0 0.024458273610840856 0.00014287950292784569 0 0.024201534763043403 0.00016168735117819385 0 0.024557898816685804 7.7778638428434738e-05 0 0.024627465024497086 0.00012913065173200648 0 0.024458273610840856 0.00014287950292784569 0 0.024557898816685804 7.7778638428434738e-05 0 0.024458273610840856 0.00014287950292784569 0 0.024484488936855908 0.00011239170985240667 0 0.024458273610840856 0.00014287950292784569 0 0.024484488936855908 0.00011239170985240667 0 0.024367745745110636 0.00011739887249594369 0 0.024367745745110636 0.00011739887249594369 0 0.024181824223418174 3.1765322738610615e-05 0 0.02441013037836012 8.7918614802590071e-05 0 0.024484488936855908 0.00011239170985240667 0 0.024367745745110636 0.00011739887249594369 0 0.02441013037836012 8.7918614802590071e-05 0 0.024484488936855908 0.00011239170985240667 0 0.02441013037836012 8.7918614802590071e-05 0 0.024431933154817419 0.00016959507675405567 0 0.024201534763043403 0.00016168735117819385 0 0.024181824223418174 3.1765322738610615e-05 0 0.023777155813670087 2.4200647815456134e-05 0 0.024458273610840856 0.00014287950292784569 0 0.024367745745110636 0.00011739887249594369 0 0.024201534763043403 0.00016168735117819385 0 0.024367745745110636 0.00011739887249594369 0 0.024201534763043403 0.00016168735117819385 0 0.024181824223418174 3.1765322738610615e-05 0 0.024181824223418174 3.1765322738610615e-05 0 0.023733023448410738 -0.00022230054124386788 0 0.023777155813670087 2.4200647815456134e-05 0 0.024181824223418174 3.1765322738610615e-05 0 0.024015204844214065 -0.00018447529332094603 0 0.024211338660654978 -7.6172329071978558e-05 0 0.024015204844214065 -0.00018447529332094603 0 0.024130762846502143 -0.00028948357784312957 0 0.024211338660654978 -7.6172329071978558e-05 0 0.024181824223418174 3.1765322738610615e-05 0 0.024015204844214065 -0.00018447529332094603 0 0.023733023448410738 -0.00022230054124386788 0 0.024015204844214065 -0.00018447529332094603 0 0.023733023448410738 -0.00022230054124386788 0 0.023897156010432345 -0.00047638904392103323 0 0.023897156010432345 -0.00047638904392103323 0 0.024058765217182292 -0.00099568029976313259 0 0.023364655201978685 -0.00061355905417356576 0 0.023733023448410738 -0.00022230054124386788 0 0.023897156010432345 -0.00047638904392103323 0 0.023364655201978685 -0.00061355905417356576 0 0.024015204844214065 -0.00018447529332094603 0 0.024130762846502143 -0.00028948357784312957 0 0.023897156010432345 -0.00047638904392103323 0 0.024130762846502143 -0.00028948357784312957 0 0.023897156010432345 -0.00047638904392103323 0 0.024343994671826484 -0.00039015157842473865 0 0.023897156010432345 -0.00047638904392103323 0 0.024343994671826484 -0.00039015157842473865 0 0.024058765217182292 -0.00099568029976313259 0 0.022098973845637915 0.00054570008595996482 0 0.022760899305992913 0.00025049639359160978 0 0.021730371026653063 -0.00033244359364937459 0 0.023688463294848302 -0.00014015728203272166 0 0.022334138442728465 0.00081629459721901595 0 0.023688463294848302 -0.00014015728203272166 0 0.020790868578855939 -0.0004098712041252438 0 0.024130762846502143 -0.00028948357784312957 0 0.024316059945991231 -0.00033463609932256317 0 0.024387102523962603 -2.1395749251997018e-05 0 0.024061281314228404 -0.00029070152186437038 0 0.023688463294848302 -0.00014015728203272166 0 0.023688463294848302 -0.00014015728203272166 0 0.024014710242387893 3.1612626924457783e-05 0 0.024415081335183941 2.893132450127684e-05 0 0.024387102523962603 -2.1395749251997018e-05 0 0.024400898655971056 9.9406578472616437e-05 0 0.024387102523962603 -2.1395749251997018e-05 0 0.02440679132406948 0.00015217579029215512 0 0.024400898655971056 9.9406578472616437e-05 0 0.024408725211646543 8.1494473409790349e-05 0 0.024387102523962603 -2.1395749251997018e-05 0 0.024336437310864465 1.9936611371842139e-05 0 0.024408725211646543 8.1494473409790349e-05 0 0.024387102523962603 -2.1395749251997018e-05 0 0.02440679132406948 0.00015217579029215512 0 0.024130762846502143 -0.00028948357784312957 0 0.024211338660654978 -7.6172329071978558e-05 0 0.024387102523962603 -2.1395749251997018e-05 0 0.024211338660654978 -7.6172329071978558e-05 0 0.024387102523962603 -2.1395749251997018e-05 0 0.024336437310864465 1.9936611371842139e-05 0 0.024181824223418174 3.1765322738610615e-05 0 0.024211338660654978 -7.6172329071978558e-05 0 0.024336437310864465 1.9936611371842139e-05 0 0.024181824223418174 3.1765322738610615e-05 0 0.024336437310864465 1.9936611371842139e-05 0 0.02441013037836012 8.7918614802590071e-05 0 0.024408725211646543 8.1494473409790349e-05 0 0.02441013037836012 8.7918614802590071e-05 0 0.024431933154817419 0.00016959507675405567 0 0.024408725211646543 8.1494473409790349e-05 0 0.024336437310864465 1.9936611371842139e-05 0 0.02441013037836012 8.7918614802590071e-05 0 0.024431933154817419 0.00016959507675405567 0 0.02440679132406948 0.00015217579029215512 0 0.024277185136629 0.0004454342520512144 0 0.024408725211646543 8.1494473409790349e-05 0 0.024431933154817419 0.00016959507675405567 0 0.02440679132406948 0.00015217579029215512 0 0.024115240597914249 0.00021559252381352732 0 0.024277185136629 0.0004454342520512144 0 0.024340675432205337 0.00024764772216692433 0 0.024431933154817419 0.00016959507675405567 0 0.024277185136629 0.0004454342520512144 0 0.024340675432205337 0.00024764772216692433 0 0.022826486602280056 0.00069597907281020556 0 0.02283609650475029 0.00071323220514145412 0 0.022825827246587028 0.00070763050824616878 0 0.02283609650475029 0.00071323220514145412 0 0.022809389417520972 0.00071235211946595631 0 0.022825827246587028 0.00070763050824616878 0 0.02440679132406948 0.00015217579029215512 0 0.024277185136629 0.0004454342520512144 0 0.024400898655971056 9.9406578472616437e-05 0 0.023767551599856974 0.00055493715368011207 0 0.022334138442728465 0.00081629459721901595 0 0.019820644044318818 0.0020843507057767404 0 0.019839764150017924 0.0014495797441425014 0 0.020504461580655713 0.001805585108648216 0 0.022334138442728465 0.00081629459721901595 0 0.021453412353202292 0.0013591110142627872 0 0.019839764150017924 0.0014495797441425014 0 0.020504461580655713 0.001805585108648216 0 0.020438786750660513 0.0012025666835744683 0 0.02206300799299802 0.0010610321028742371 0 0.021453412353202292 0.0013591110142627872 0 0.021288234380842395 0.0014567782222933299 0 0.020504461580655713 0.001805585108648216 0 0.020438786750660513 0.0012025666835744683 0 0.019934504401992646 0.00074427184714149326 0 0.020833494778665307 0.00065258128482459669 0 0.020438786750660513 0.0012025666835744683 0 0.020833494778665307 0.00065258128482459669 0 0.021288234380842395 0.0014567782222933299 0 0.020438786750660513 0.0012025666835744683 0 0.019934504401992646 0.00074427184714149326 0 0.019839764150017924 0.0014495797441425014 0 0.020438786750660513 0.0012025666835744683 0 0.019934504401992646 0.00074427184714149326 0 0.019839764150017924 0.0014495797441425014 0 0.019424232229208131 0.0010815988086890025 0 0.018838095829126107 0.00086561783213742359 0 0.019424232229208131 0.0010815988086890025 0 0.019204481277526261 0.0017226050527342431 0 0.018998423234633827 -0.0010032558898522698 0 0.018487533404028943 -0.0023615025856831657 0 0.019549629335716297 -0.0017928436346335364 0 0.018621407549930177 -0.0001069298559047666 0 0.020790868578855939 -0.0004098712041252438 0 0.020790868578855939 -0.0004098712041252438 0 0.021270645579198874 -0.0017038102903504295 0 0.019820644044318818 0.0020843507057767404 0 0.019839764150017924 0.0014495797441425014 0 0.019204481277526261 0.0017226050527342431 0 0.022334138442728465 0.00081629459721901595 0 0.020790868578855939 -0.0004098712041252438 0 0.019839764150017924 0.0014495797441425014 0 0.019424232229208131 0.0010815988086890025 0 0.019204481277526261 0.0017226050527342431 0 0.022229669162485682 -0.00082487018106982169 0 0.022848157985089965 -0.0009197679601290089 0 0.022811845874448806 -0.00061662873239080743 0 0.021821253957270043 -0.0010997279906541221 0 0.022848157985089965 -0.0009197679601290089 0 0.022900342781738241 -0.0014292995637141856 0 0.021821253957270043 -0.0010997279906541221 0 0.022229669162485682 -0.00082487018106982169 0 0.022848157985089965 -0.0009197679601290089 0 0.024058765217182292 -0.00099568029976313259 0 0.022848157985089965 -0.0009197679601290089 0 0.022900342781738241 -0.0014292995637141856 0 0.024058765217182292 -0.00099568029976313259 0 0.022848157985089965 -0.0009197679601290089 0 0.023364655201978685 -0.00061355905417356576 0 0.019808809823279806 -0.00061051451353075095 0 0.018998423234633827 -0.0010032558898522698 0 0.019549629335716297 -0.0017928436346335364 0 0.019808809823279806 -0.00061051451353075095 0 0.019549629335716297 -0.0017928436346335364 0 0.021050636265564426 -0.0011774647376270844 0 0.021270645579198874 -0.0017038102903504295 0 0.02116227452236543 -0.0011888196346137151 0 0.021821253957270043 -0.0010997279906541221 0 0.022900342781738241 -0.0014292995637141856 0 0.021050636265564426 -0.0011774647376270844 0 0.021821253957270043 -0.0010997279906541221 0 0.021050636265564426 -0.0011774647376270844 0 0.021475100154873236 -0.0010701668692612322 0 0.021475100154873236 -0.0010701668692612322 0 0.021757244723127404 -0.00096738714411235258 0 0.021897876005702747 -0.00088918018643938221 0 0.021667475186888677 -0.00093935802918715199 0 0.021475100154873236 -0.0010701668692612322 0 0.021897876005702747 -0.00088918018643938221 0 0.021757244723127404 -0.00096738714411235258 0 0.021710167944551675 -0.00080859348775105875 0 0.021897876005702747 -0.00088918018643938221 0 0.021821253957270043 -0.0010997279906541221 0 0.021475100154873236 -0.0010701668692612322 0 0.021757244723127404 -0.00096738714411235258 0 0.021821253957270043 -0.0010997279906541221 0 0.022229669162485682 -0.00082487018106982169 0 0.021757244723127404 -0.00096738714411235258 0 0.022409662771551778 -0.00053550774349745811 0 0.021710167944551675 -0.00080859348775105875 0 0.022256472965262963 -0.00015184091921404566 0 0.021757244723127404 -0.00096738714411235258 0 0.022409662771551778 -0.00053550774349745811 0 0.021710167944551675 -0.00080859348775105875 0 0.022229669162485682 -0.00082487018106982169 0 0.021757244723127404 -0.00096738714411235258 0 0.022409662771551778 -0.00053550774349745811 0 0.022433436228813469 -0.00053512949732482202 0 0.023099010972694938 -5.8296294342906486e-05 0 0.023129753290713501 -0.00032386122566053349 0 0.023912567710790568 5.0599239482427474e-05 0 0.02316434659215403 0.00018312873699750945 0 0.022409662771551778 -0.00053550774349745811 0 0.022256472965262963 -0.00015184091921404566 0 0.023230897185827624 -1.0384038812463335e-05 0 0.022409662771551778 -0.00053550774349745811 0 0.023254569992657435 -0.00026090519423411579 0 0.023230897185827624 -1.0384038812463335e-05 0 0.022409662771551778 -0.00053550774349745811 0 0.022811845874448806 -0.00061662873239080743 0 0.023254569992657435 -0.00026090519423411579 0 0.022229669162485682 -0.00082487018106982169 0 0.022409662771551778 -0.00053550774349745811 0 0.022811845874448806 -0.00061662873239080743 0 0.022848157985089965 -0.0009197679601290089 0 0.022811845874448806 -0.00061662873239080743 0 0.023364655201978685 -0.00061355905417356576 0 0.022811845874448806 -0.00061662873239080743 0 0.023364655201978685 -0.00061355905417356576 0 0.023254569992657435 -0.00026090519423411579 0 0.023733023448410738 -0.00022230054124386788 0 0.023364655201978685 -0.00061355905417356576 0 0.023254569992657435 -0.00026090519423411579 0 0.023733023448410738 -0.00022230054124386788 0 0.023254569992657435 -0.00026090519423411579 0 0.023777155813670087 2.4200647815456134e-05 0 0.023254569992657435 -0.00026090519423411579 0 0.023777155813670087 2.4200647815456134e-05 0 0.023230897185827624 -1.0384038812463335e-05 0 0.023777155813670087 2.4200647815456134e-05 0 0.023230897185827624 -1.0384038812463335e-05 0 0.023960582897089137 0.00023729489779827665 0 0.024201534763043403 0.00016168735117819385 0 0.023777155813670087 2.4200647815456134e-05 0 0.023960582897089137 0.00023729489779827665 0 0.023230897185827624 -1.0384038812463335e-05 0 0.023300633290342709 0.00033798267342659532 0 0.023960582897089137 0.00023729489779827665 0 0.023854153852885279 0.0002352156522908981 0 0.02438691969031501 0.00023189840708519405 0 0.023300633290342709 0.00033798267342659532 0 0.023960582897089137 0.00023729489779827665 0 0.024519577626518806 0.00022671190368602159 0 0.024415755352395357 0.00022339242318364472 0 0.024519577626518806 0.00022671190368602159 0 0.024552107735513289 0.00023256644708463521 0 0.024371628732566285 0.00021784848014449389 0 0.024201534763043403 0.00016168735117819385 0 0.023960582897089137 0.00023729489779827665 0 0.024371628732566285 0.00021784848014449389 0 0.023960582897089137 0.00023729489779827665 0 0.024519577626518806 0.00022671190368602159 0 0.024627465024497086 0.00012913065173200648 0 0.024519577626518806 0.00022671190368602159 0 0.024998379717436205 2.0509776252765569e-07 0 0.024519577626518806 0.00022671190368602159 0 0.024998379717436205 2.0509776252765569e-07 0 0.024552107735513289 0.00023256644708463521 0 0.024998379717436205 2.0509776252765569e-07 0 0.024740154300812417 8.785828473594592e-05 0 0.024552107735513289 0.00023256644708463521 0 0.024632064501689907 0.00011820014711364058 0 0.024067627883826097 0.0002332024621577843 0 0.024740154300812417 8.785828473594592e-05 0 0.024552107735513289 0.00023256644708463521 0 0.02403112586205422 0.00036898817953597398 0 0.024415755352395357 0.00022339242318364472 0 0.024552107735513289 0.00023256644708463521 0 0.02403112586205422 0.00036898817953597398 0 0.023099010972694938 -5.8296294342906486e-05 0 0.023854153852885279 0.0002352156522908981 0 0.022256472965262963 -0.00015184091921404566 0 0.023230897185827624 -1.0384038812463335e-05 0 0.023300633290342709 0.00033798267342659532 0 0.023912567710790568 5.0599239482427474e-05 0 0.024415755352395357 0.00022339242318364472 0 0.02403112586205422 0.00036898817953597398 0 0.023912567710790568 5.0599239482427474e-05 0 0.02403112586205422 0.00036898817953597398 0 0.02316434659215403 0.00018312873699750945 0 0.024998379717436205 2.0509776252765569e-07 0 0.024740154300812417 8.785828473594592e-05 0 0.024997426032934155 1.0254054078610977e-06 0 0.024740154300812417 8.785828473594592e-05 0 0.024084664740014756 0.00011201953591988652 0 0.024997426032934155 1.0254054078610977e-06 0 0.024084664740014756 0.00011201953591988652 0 0.024997426032934155 1.0254054078610977e-06 0 0.023204271647153839 0.00011435632711825168 0 0.024997426032934155 1.0254054078610977e-06 0 0.023204271647153839 0.00011435632711825168 0 0.019466039360657938 -1.3665310057461561e-06 0 0.024067627883826097 0.0002332024621577843 0 0.023154231359401423 0.00014748770998034493 0 0.023204271647153839 0.00011435632711825168 0 0.022086355592228147 -0.00025348451168866898 0 0.019802070344147462 -0.0001042669312950312 0 0.023154231359401423 0.00014748770998034493 0 0.022235135746272474 -0.00026671393877099873 0 0.023129753290713501 -0.00032386122566053349 0 0.02316434659215403 0.00018312873699750945 0 0.022086355592228147 -0.00025348451168866898 0 0.022086355592228147 -0.00025348451168866898 0 0.021897876005702747 -0.00088918018643938221 0 0.021459091851370925 -0.00073113002440084644 0 0.022433436228813469 -0.00053512949732482202 0 0.021982682387175972 -0.00085026770761787145 0 0.023129753290713501 -0.00032386122566053349 0 0.022086355592228147 -0.00025348451168866898 0 0.021897876005702747 -0.00088918018643938221 0 0.021681724016100544 -0.0010625558946069714 0 0.021667475186888677 -0.00093935802918715199 0 0.021897876005702747 -0.00088918018643938221 0 0.021681724016100544 -0.0010625558946069714 0 0.021459091851370925 -0.00073113002440084644 0 0.020995907384491832 -0.0010487232187804093 0 0.021681724016100544 -0.0010625558946069714 0 0.021897876005702747 -0.00088918018643938221 0 0.021459091851370925 -0.00073113002440084644 0 0.01980243417902729 -0.0004485783734337905 0 0.019741872504784336 -0.00019341571926655761 0 0.022086355592228147 -0.00025348451168866898 0 0.021459091851370925 -0.00073113002440084644 0 0.019802070344147462 -0.0001042669312950312 0 0.021459091851370925 -0.00073113002440084644 0 0.020995907384491832 -0.0010487232187804093 0 0.019802070344147462 -0.0001042669312950312 0 0.018503155082605912 0.00011309820414266503 0 0.018602475069601714 -4.6167664049715742e-05 0 0.019802070344147462 -0.0001042669312950312 0 0.023204271647153839 0.00011435632711825168 0 0.019802070344147462 -0.0001042669312950312 0 0.019466039360657938 -1.3665310057461561e-06 0 0.018503155082605912 0.00011309820414266503 0 0.019802070344147462 -0.0001042669312950312 0 0.019466039360657938 -1.3665310057461561e-06 0 0.019309099830211118 -0.0011894936611854649 0 0.019287416110229234 -0.00090928369051431043 0 0.019640278889586627 -0.0011691615110559473 0 0.019309099830211118 -0.0011894936611854649 0 0.019071550069860478 -0.0010555090763079181 0 0.019287416110229234 -0.00090928369051431043 0 0.019071550069860478 -0.0010555090763079181 0 0.019114369152244352 -0.0013437168884483054 0 0.018898079408729278 -0.001237653259310591 0 0.019309099830211118 -0.0011894936611854649 0 0.019071550069860478 -0.0010555090763079181 0 0.019114369152244352 -0.0013437168884483054 0 0.019071550069860478 -0.0010555090763079181 0 0.019031895712644482 -0.00081345691940834161 0 0.019287416110229234 -0.00090928369051431043 0 0.019031895712644482 -0.00081345691940834161 0 0.019287416110229234 -0.00090928369051431043 0 0.019167200888048089 -0.00055652508493981667 0 0.019071550069860478 -0.0010555090763079181 0 0.019031895712644482 -0.00081345691940834161 0 0.018778703736193954 -0.00081713387693571149 0 0.019287416110229234 -0.00090928369051431043 0 0.019640278889586627 -0.0011691615110559473 0 0.01952275476642085 -0.00066658507875168706 0 0.019880196470348617 -0.00077235954296347856 0 0.019640278889586627 -0.0011691615110559473 0 0.01952275476642085 -0.00066658507875168706 0 0.020496693288153706 -0.0011387503514102687 0 0.017029479263675779 -0.0012260072321049573 0 0.024289134834970263 -0.00083402827768375523 0 0.02426214296715214 -0.00053137477657075089 0 0.024151218795182772 -0.00079343388132450845 0 0.020496693288153706 -0.0011387503514102687 0 0.022360691613300301 -0.00063879683169291664 0 0.020496693288153706 -0.0011387503514102687 0 0.024472326796997259 -0.0014139107125395976 0 0.024289134834970263 -0.00083402827768375523 0 0.02426214296715214 -0.00053137477657075089 0 0.024492347622124828 -0.00045297645025513521 0 0.024492347622124828 -0.00045297645025513521 0 0.024331255971514268 -0.00018004315381780551 0 0.024635007280710639 -0.00012217915052886757 0 0.022360691613300301 -0.00063879683169291664 0 0.021778588586147823 -0.0010327063503125899 0 0.02426214296715214 -0.00053137477657075089 0 0.024492347622124828 -0.00045297645025513521 0 0.024331255971514268 -0.00018004315381780551 0 0.02426214296715214 -0.00053137477657075089 0 0.024331255971514268 -0.00018004315381780551 0 0.024047881214648247 -0.00032142981110008974 0 0.024331255971514268 -0.00018004315381780551 0 0.02449012641021877 9.5350857185920579e-05 0 0.02428474980767471 0.00013278487865415442 0 0.024331255971514268 -0.00018004315381780551 0 0.024635007280710639 -0.00012217915052886757 0 0.02449012641021877 9.5350857185920579e-05 0 0.021778588586147823 -0.0010327063503125899 0 0.023080297111203928 -0.00030341094359424706 0 0.019309099830211118 -0.0011894936611854649 0 0.019404572501964826 -0.0015416876377020066 0 0.019114369152244352 -0.0013437168884483054 0 0.019309099830211118 -0.0011894936611854649 0 0.019640278889586627 -0.0011691615110559473 0 0.019404572501964826 -0.0015416876377020066 0 0.019114369152244352 -0.0013437168884483054 0 0.019117502185868385 -0.0015975386111806008 0 0.018914374286537784 -0.0014118507809793319 0 0.019114369152244352 -0.0013437168884483054 0 0.018914374286537784 -0.0014118507809793319 0 0.018898079408729278 -0.001237653259310591 0 0.019404572501964826 -0.0015416876377020066 0 0.019114369152244352 -0.0013437168884483054 0 0.019117502185868385 -0.0015975386111806008 0 0.019404572501964826 -0.0015416876377020066 0 0.019117502185868385 -0.0015975386111806008 0 0.019206707228849991 -0.0018859389663458883 0 0.019117502185868385 -0.0015975386111806008 0 0.018885028409922944 -0.0016633689892856774 0 0.019206707228849991 -0.0018859389663458883 0 0.019117502185868385 -0.0015975386111806008 0 0.018885028409922944 -0.0016633689892856774 0 0.018914374286537784 -0.0014118507809793319 0 0.021741064833665523 -0.0006018582371912632 0 0.021372145378723961 -0.00029194222209055125 0 0.024789617714868359 0.00053251664021258284 0 0.024658377231489996 0.00062540994379421482 0 0.024645779324639541 0.00054909805102030466 0 0.021372145378723961 -0.00029194222209055125 0 0.018582665938191748 -0.001717029248744959 0 0.018885028409922944 -0.0016633689892856774 0 0.01859811160139363 -0.001436675010882638 0 0.018702698572867736 -0.001361978600653317 0 0.018607504045053104 -0.0013920387035579612 0 0.0186291879737982 -0.0013193059404536518 0 0.018568494992318371 -0.0013209399399600524 0 0.018607504045053104 -0.0013920387035579612 0 0.0186291879737982 -0.0013193059404536518 0 0.018702698572867736 -0.001361978600653317 0 0.0186291879737982 -0.0013193059404536518 0 0.018568494992318371 -0.0013209399399600524 0 0.018590886049185008 -0.0012619080170368556 0 0.018702698572867736 -0.001361978600653317 0 0.018766031103527772 -0.0012676710478131924 0 0.018661136452727073 -0.0012606782966617632 0 0.0186291879737982 -0.0013193059404536518 0 0.018702698572867736 -0.001361978600653317 0 0.018661136452727073 -0.0012606782966617632 0 0.018702698572867736 -0.001361978600653317 0 0.018914374286537784 -0.0014118507809793319 0 0.018766031103527772 -0.0012676710478131924 0 0.018885028409922944 -0.0016633689892856774 0 0.018702698572867736 -0.001361978600653317 0 0.018914374286537784 -0.0014118507809793319 0 0.018914374286537784 -0.0014118507809793319 0 0.018898079408729278 -0.001237653259310591 0 0.018766031103527772 -0.0012676710478131924 0 0.023924638307054227 0.0011624515691714985 0 0.023589810736239728 0.0011766729966678714 0 0.02546573284163892 0.0013694819900524255 0 0.02486333887408641 0.00095685453421677968 0 0.024779896400934073 0.0018605248440279911 0 0.024658377231489996 0.00062540994379421482 0 0.024554847527710887 0.00056424996271378322 0 0.024645779324639541 0.00054909805102030466 0 0.021372145378723961 -0.00029194222209055125 0 0.023924638307054227 0.0011624515691714985 0 0.024554847527710887 0.00056424996271378322 0 0.024645779324639541 0.00054909805102030466 0 0.024594788909239319 0.00052904217505663073 0 0.021563725910431434 0.00051247700628161586 0 0.021907299463139625 0.00073721494229455958 0 0.021765266092300714 0.00035280148252238042 0 0.021372145378723961 -0.00029194222209055125 0 0.020046514608072594 -0.00039820296573948296 0 0.018607504045053104 -0.0013920387035579612 0 0.018568494992318371 -0.0013209399399600524 0 0.018544417446405153 -0.0013074867678008189 0 0.021907299463139625 0.00073721494229455958 0 0.021999535405809005 0.0004211841830090637 0 0.022178285780003359 0.00054715292938120846 0 0.021907299463139625 0.00073721494229455958 0 0.021765266092300714 0.00035280148252238042 0 0.021999535405809005 0.0004211841830090637 0 0.021999535405809005 0.0004211841830090637 0 0.021963687984150746 0.00019286289817605265 0 0.022209550958615664 0.00027816291842802253 0 0.018544417446405153 -0.0013074867678008189 0 0.018530456237819896 -0.0012633006291145053 0 0.018540507031883161 -0.0012613279408458505 0 0.021765266092300714 0.00035280148252238042 0 0.021999535405809005 0.0004211841830090637 0 0.021963687984150746 0.00019286289817605265 0 0.020046514608072594 -0.00039820296573948296 0 0.020237646062288828 -0.00039218346848905858 0 0.020237646062288828 -0.00039218346848905858 0 0.018654181961202092 -0.0010362235443062355 0 0.018358029029196549 -0.0011776617228275821 0 0.018398069658916327 -0.0011669297278324193 0 0.01840488207204935 -0.00110322694550507 0 0.01835371025951545 -0.001182681128589906 0 0.018398069658916327 -0.0011669297278324193 0 0.018502143204878654 -0.0012013632139053669 0 0.018654181961202092 -0.0010362235443062355 0 0.018533036094736732 -0.0010826885660454332 0 0.018568494992318371 -0.0013209399399600524 0 0.018544417446405153 -0.0013074867678008189 0 0.018540507031883161 -0.0012613279408458505 0 0.018525816618993038 -0.0013283086542064037 0 0.018654181961202092 -0.0010362235443062355 0 0.018568494992318371 -0.0013209399399600524 0 0.01835371025951545 -0.001182681128589906 0 0.018502143204878654 -0.0012013632139053669 0 0.018568494992318371 -0.0013209399399600524 0 0.018502143204878654 -0.0012013632139053669 0 0.018590886049185008 -0.0012619080170368556 0 0.018398069658916327 -0.0011669297278324193 0 0.018502143204878654 -0.0012013632139053669 0 0.018468891086979501 -0.0011418756762120307 0 0.018502143204878654 -0.0012013632139053669 0 0.018468891086979501 -0.0011418756762120307 0 0.018536669662016544 -0.001136769572419042 0 0.018358029029196549 -0.0011776617228275821 0 0.01840488207204935 -0.00110322694550507 0 0.018321641053953817 -0.0010333175728265481 0 0.018468891086979501 -0.0011418756762120307 0 0.018478630721343328 -0.0010889597455806092 0 0.018536669662016544 -0.001136769572419042 0 0.018468891086979501 -0.0011418756762120307 0 0.018478630721343328 -0.0010889597455806092 0 0.01840488207204935 -0.00110322694550507 0 0.018478630721343328 -0.0010889597455806092 0 0.018500306565271053 -0.0010388198526745003 0 0.018407543822885019 -0.0010153369228399389 0 0.018500306565271053 -0.0010388198526745003 0 0.018407543822885019 -0.0010153369228399389 0 0.018487808442989785 -0.0009867685258606112 0 0.018478630721343328 -0.0010889597455806092 0 0.018407543822885019 -0.0010153369228399389 0 0.01840488207204935 -0.00110322694550507 0 0.018407543822885019 -0.0010153369228399389 0 0.01840488207204935 -0.00110322694550507 0 0.018321641053953817 -0.0010333175728265481 0 0.018398069658916327 -0.0011669297278324193 0 0.018468891086979501 -0.0011418756762120307 0 0.01840488207204935 -0.00110322694550507 0 0.018654181961202092 -0.0010362235443062355 0 0.018724085003696454 -0.00082619630594666402 0 0.019264572673397973 -0.00084748878833447135 0 0.019326171349852119 -0.00082739959355198039 0 0.019168321208236378 -0.00067358907883725936 0 0.018358029029196549 -0.0011776617228275821 0 0.018321641053953817 -0.0010333175728265481 0 0.018175500402193043 -0.0010149254583615641 0 0.019071550069860478 -0.0010555090763079181 0 0.018898079408729278 -0.001237653259310591 0 0.018778703736193954 -0.00081713387693571149 0 0.018898079408729278 -0.001237653259310591 0 0.018708697391851228 -0.0011704856272854384 0 0.01873568307339301 -0.0010472826304429178 0 0.018877973490970274 -0.0012342353888821892 0 0.018785764823916435 -0.00091459086745165137 0 0.018898079408729278 -0.001237653259310591 0 0.018766031103527772 -0.0012676710478131924 0 0.018708697391851228 -0.0011704856272854384 0 0.018766031103527772 -0.0012676710478131924 0 0.018661136452727073 -0.0012606782966617632 0 0.018708697391851228 -0.0011704856272854384 0 0.018502143204878654 -0.0012013632139053669 0 0.018590886049185008 -0.0012619080170368556 0 0.018601949950332482 -0.0011935695918518388 0 0.0186291879737982 -0.0013193059404536518 0 0.018661136452727073 -0.0012606782966617632 0 0.018590886049185008 -0.0012619080170368556 0 0.018661136452727073 -0.0012606782966617632 0 0.018590886049185008 -0.0012619080170368556 0 0.018601949950332482 -0.0011935695918518388 0 0.018502143204878654 -0.0012013632139053669 0 0.018601949950332482 -0.0011935695918518388 0 0.018536669662016544 -0.001136769572419042 0 0.018601949950332482 -0.0011935695918518388 0 0.018536669662016544 -0.001136769572419042 0 0.018614129720838014 -0.0011287779611978356 0 0.018661136452727073 -0.0012606782966617632 0 0.018601949950332482 -0.0011935695918518388 0 0.018708697391851228 -0.0011704856272854384 0 0.018601949950332482 -0.0011935695918518388 0 0.018708697391851228 -0.0011704856272854384 0 0.018614129720838014 -0.0011287779611978356 0 0.018708697391851228 -0.0011704856272854384 0 0.018614129720838014 -0.0011287779611978356 0 0.018636314074178432 -0.0010636589824259432 0 0.018614129720838014 -0.0011287779611978356 0 0.018564636458050669 -0.0010657273324745191 0 0.018636314074178432 -0.0010636589824259432 0 0.018478630721343328 -0.0010889597455806092 0 0.018536669662016544 -0.001136769572419042 0 0.018564636458050669 -0.0010657273324745191 0 0.018536669662016544 -0.001136769572419042 0 0.018614129720838014 -0.0011287779611978356 0 0.018564636458050669 -0.0010657273324745191 0 0.018478630721343328 -0.0010889597455806092 0 0.018500306565271053 -0.0010388198526745003 0 0.018564636458050669 -0.0010657273324745191 0 0.018564636458050669 -0.0010657273324745191 0 0.018636314074178432 -0.0010636589824259432 0 0.018562644358415526 -0.00100051758148148 0 0.018500306565271053 -0.0010388198526745003 0 0.018562644358415526 -0.00100051758148148 0 0.018487808442989785 -0.0009867685258606112 0 0.018500306565271053 -0.0010388198526745003 0 0.018564636458050669 -0.0010657273324745191 0 0.018562644358415526 -0.00100051758148148 0 0.018636314074178432 -0.0010636589824259432 0 0.01873568307339301 -0.0010472826304429178 0 0.018621953412251206 -0.00097046506791425267 0 0.018636314074178432 -0.0010636589824259432 0 0.018621953412251206 -0.00097046506791425267 0 0.018562644358415526 -0.00100051758148148 0 0.018708697391851228 -0.0011704856272854384 0 0.018636314074178432 -0.0010636589824259432 0 0.01873568307339301 -0.0010472826304429178 0 0.018785764823916435 -0.00091459086745165137 0 0.018412478522848288 -0.00077491712855206078 0 0.018778703736193954 -0.00081713387693571149 0 0.01881759059471097 -0.00046530465481078582 0 0.018669208302923745 -0.00042097170557829183 0 0.01873568307339301 -0.0010472826304429178 0 0.018621953412251206 -0.00097046506791425267 0 0.018635101759121836 -0.0008368821439903594 0 0.019031895712644482 -0.00081345691940834161 0 0.018778703736193954 -0.00081713387693571149 0 0.01881759059471097 -0.00046530465481078582 0 0.019243584999757566 -0.00071259987401795942 0 0.017670037676809799 -0.00098215189860163528 0 0.018562644358415526 -0.00100051758148148 0 0.018504244299088674 -0.00090203440010840573 0 0.018487808442989785 -0.0009867685258606112 0 0.018621953412251206 -0.00097046506791425267 0 0.018562644358415526 -0.00100051758148148 0 0.018504244299088674 -0.00090203440010840573 0 0.018504244299088674 -0.00090203440010840573 0 0.018487808442989785 -0.0009867685258606112 0 0.018432505720752369 -0.00092501356573022973 0 0.018621953412251206 -0.00097046506791425267 0 0.018504244299088674 -0.00090203440010840573 0 0.018635101759121836 -0.0008368821439903594 0 0.018412478522848288 -0.00077491712855206078 0 0.018439109122787699 -0.00085435100838420419 0 0.018419051239580823 -0.0009049536204104099 0 0.018367798733471309 -0.0008267915636831774 0 0.018337073095964884 -0.00081332088384808118 0 0.018504244299088674 -0.00090203440010840573 0 0.018635101759121836 -0.0008368821439903594 0 0.018367798733471309 -0.0008267915636831774 0 0.018412478522848288 -0.00077491712855206078 0 0.016843291512848278 -0.0016019769935285367 0 0.017487880684959663 -0.0011778958832274324 0 0.017520851993688771 -0.0011895326974175331 0 0.017533171667802574 -0.001283018251052368 0 0.015844262165814211 -0.0019696194181885816 0 0.015934376387167274 -0.0021165452249452166 0 0.015766309191924552 -0.0020578082482761106 0 0.017670037676809799 -0.00098215189860163528 0 0.016843291512848278 -0.0016019769935285367 0 0.017670037676809799 -0.00098215189860163528 0 0.018412478522848288 -0.00077491712855206078 0 0.018321641053953817 -0.0010333175728265481 0 0.018286609201478399 -0.00094133962442411465 0 0.018175500402193043 -0.0010149254583615641 0 0.018286609201478399 -0.00094133962442411465 0 0.018256253686000791 -0.00085902245617864681 0 0.018155118076400925 -0.00089567300404359937 0 0.018286609201478399 -0.00094133962442411465 0 0.018175500402193043 -0.0010149254583615641 0 0.018155118076400925 -0.00089567300404359937 0 0.018407543822885019 -0.0010153369228399389 0 0.018321641053953817 -0.0010333175728265481 0 0.018286609201478399 -0.00094133962442411465 0 0.018286609201478399 -0.00094133962442411465 0 0.018357846695919531 -0.00089991610847361329 0 0.018256253686000791 -0.00085902245617864681 0 0.018407543822885019 -0.0010153369228399389 0 0.018357846695919531 -0.00089991610847361329 0 0.018432505720752369 -0.00092501356573022973 0 0.018407543822885019 -0.0010153369228399389 0 0.018286609201478399 -0.00094133962442411465 0 0.018357846695919531 -0.00089991610847361329 0 0.018407543822885019 -0.0010153369228399389 0 0.018487808442989785 -0.0009867685258606112 0 0.018432505720752369 -0.00092501356573022973 0 0.018367798733471309 -0.0008267915636831774 0 0.018317643082746211 -0.00080384530583266082 0 0.018337073095964884 -0.00081332088384808118 0 0.018504244299088674 -0.00090203440010840573 0 0.018432505720752369 -0.00092501356573022973 0 0.018367798733471309 -0.0008267915636831774 0 0.018357846695919531 -0.00089991610847361329 0 0.018432505720752369 -0.00092501356573022973 0 0.018367798733471309 -0.0008267915636831774 0 0.018357846695919531 -0.00089991610847361329 0 0.018367798733471309 -0.0008267915636831774 0 0.018317643082746211 -0.00080384530583266082 0 0.018317643082746211 -0.00080384530583266082 0 0.018256253686000791 -0.00085902245617864681 0 0.018267384448998402 -0.00073057921066934652 0 0.018357846695919531 -0.00089991610847361329 0 0.018317643082746211 -0.00080384530583266082 0 0.018256253686000791 -0.00085902245617864681 0 0.018256253686000791 -0.00085902245617864681 0 0.018267384448998402 -0.00073057921066934652 0 0.018109186010571668 -0.00079652685908924569 0 0.018317643082746211 -0.00080384530583266082 0 0.018267384448998402 -0.00073057921066934652 0 0.018337073095964884 -0.00081332088384808118 0 0.016951235160892201 -0.00078180646703202386 0 0.018124022569956152 -0.00047133473208425027 0 0.018337073095964884 -0.00081332088384808118 0 0.017989333013191319 -0.00077422724860862517 0 0.018125944793609242 -0.00080013924141037157 0 0.016951235160892201 -0.00078180646703202386 0 0.018124022569956152 -0.00047133473208425027 0 0.017426247434675277 -0.00011904007568813482 0 0.018124022569956152 -0.00047133473208425027 0 0.017426247434675277 -0.00011904007568813482 0 0.018114108418015053 3.4828067011204216e-05 0 0.017771243757578568 0.00045756447847955826 0 0.017426247434675277 -0.00011904007568813482 0 0.018114108418015053 3.4828067011204216e-05 0 0.016951235160892201 -0.00078180646703202386 0 0.016866133102744679 0.00015890136735495044 0 0.016377969159669648 -0.00017692767605966231 0 0.016951235160892201 -0.00078180646703202386 0 0.017426247434675277 -0.00011904007568813482 0 0.016866133102744679 0.00015890136735495044 0 0.017283174267969128 0.00045012228199125235 0 0.017426247434675277 -0.00011904007568813482 0 0.016866133102744679 0.00015890136735495044 0 0.015934376387167274 -0.0021165452249452166 0 0.015769128845461066 -0.0021575234085075708 0 0.015766309191924552 -0.0020578082482761106 0 0.018419051239580823 -0.0009049536204104099 0 0.018337073095964884 -0.00081332088384808118 0 0.018442964630634169 -0.00073098241392183065 0 0.018124022569956152 -0.00047133473208425027 0 0.018337073095964884 -0.00081332088384808118 0 0.018442964630634169 -0.00073098241392183065 0 0.016843291512848278 -0.0016019769935285367 0 0.016990452156897408 -0.00099981219986526961 0 0.016006996960112412 -0.0022812531903474019 0 0.015947413215125848 -0.0019382086771725729 0 0.016057722256705226 -0.0021750837099254882 0 0.015811992313441235 -0.0024025337468399047 0 0.016843291512848278 -0.0016019769935285367 0 0.015870340025684288 -0.002276750912351137 0 0.016006996960112412 -0.0022812531903474019 0 0.015934376387167274 -0.0021165452249452166 0 0.018124022569956152 -0.00047133473208425027 0 0.018442964630634169 -0.00073098241392183065 0 0.018141023593144144 -7.4377459193644544e-05 0 0.017777597628203062 -0.00020137794332776278 0 0.016990452156897408 -0.00099981219986526961 0 0.015860830947244251 -0.0022565814484341333 0 0.01568407221925739 -0.002041288565459101 0 0.015870340025684288 -0.002276750912351137 0 0.015934376387167274 -0.0021165452249452166 0 0.015769128845461066 -0.0021575234085075708 0 0.015551027302718285 -0.002249768384475468 0 0.015870340025684288 -0.002276750912351137 0 0.015604972895524857 -0.0019038881776427617 0 0.015551027302718285 -0.002249768384475468 0 0.015389420538151623 -0.0018350397663198421 0 0.015604972895524857 -0.0019038881776427617 0 0.015551027302718285 -0.002249768384475468 0 0.015289402876154301 -0.0021425248166085718 0 0.015389420538151623 -0.0018350397663198421 0 0.015289402876154301 -0.0021425248166085718 0 0.015389420538151623 -0.0018350397663198421 0 0.015242764907866801 -0.0017161973249147262 0 0.015389420538151623 -0.0018350397663198421 0 0.015331327420723519 -0.0017513656552936283 0 0.015242764907866801 -0.0017161973249147262 0 0.015769128845461066 -0.0021575234085075708 0 0.015766309191924552 -0.0020578082482761106 0 0.01564440758836726 -0.0020522589619561427 0 0.01568407221925739 -0.002041288565459101 0 0.015496722378490009 -0.0019063243087463393 0 0.015389420538151623 -0.0018350397663198421 0 0.015604972895524857 -0.0019038881776427617 0 0.015331327420723519 -0.0017513656552936283 0 0.015844262165814211 -0.0019696194181885816 0 0.015766309191924552 -0.0020578082482761106 0 0.015697471747060002 -0.0019419884951009784 0 0.015766309191924552 -0.0020578082482761106 0 0.01564440758836726 -0.0020522589619561427 0 0.015697471747060002 -0.0019419884951009784 0 0.015496722378490009 -0.0019063243087463393 0 0.0154908529315944 -0.0019457237584474063 0 0.01564440758836726 -0.0020522589619561427 0 0.015697471747060002 -0.0019419884951009784 0 0.015500684891290589 -0.0019450657609555503 0 0.01564440758836726 -0.0020522589619561427 0 0.015500684891290589 -0.0019450657609555503 0 0.015493096298572448 -0.0019557438395411803 0 0.019287416110229234 -0.00090928369051431043 0 0.019167200888048089 -0.00055652508493981667 0 0.01952275476642085 -0.00066658507875168706 0 0.017468287441041647 -0.0012801233675951422 0 0.017029479263675779 -0.0012260072321049573 0 0.019031895712644482 -0.00081345691940834161 0 0.0187916150901952 -0.00044604028061249893 0 0.019167200888048089 -0.00055652508493981667 0 0.017670037676809799 -0.00098215189860163528 0 0.017468287441041647 -0.0012801233675951422 0 0.020496693288153706 -0.0011387503514102687 0 0.019831451592203907 -0.0017005068966404037 0 0.015630208297251764 -0.002056436011607285 0 0.015614904431443038 -0.0019211150341788901 0 0.015825066764654273 -0.0018901676990075579 0 0.015630208297251764 -0.002056436011607285 0 0.015614904431443038 -0.0019211150341788901 0 0.015548260011369086 -0.0019734885557138185 0 0.024309470675127252 -0.00085192367290031444 0 0.024081886704215873 -0.0012868496767338962 0 0.024151218795182772 -0.00079343388132450845 0 0.015614904431443038 -0.0019211150341788901 0 0.015548260011369086 -0.0019734885557138185 0 0.015519993206124167 -0.0019221717271843536 0 0.015493096298572448 -0.0019557438395411803 0 0.015519993206124167 -0.0019221717271843536 0 0.015437506613616437 -0.0018302229638794496 0 0.015630208297251764 -0.002056436011607285 0 0.015548260011369086 -0.0019734885557138185 0 0.015500684891290589 -0.0019450657609555503 0 0.015548260011369086 -0.0019734885557138185 0 0.015500684891290589 -0.0019450657609555503 0 0.015493096298572448 -0.0019557438395411803 0 0.015548260011369086 -0.0019734885557138185 0 0.015493096298572448 -0.0019557438395411803 0 0.015519993206124167 -0.0019221717271843536 0 0.015331327420723519 -0.0017513656552936283 0 0.015437506613616437 -0.0018302229638794496 0 0.015242764907866801 -0.0017161973249147262 0 0.015614904431443038 -0.0019211150341788901 0 0.015519993206124167 -0.0019221717271843536 0 0.015437506613616437 -0.0018302229638794496 0 0.015331327420723519 -0.0017513656552936283 0 0.015493096298572448 -0.0019557438395411803 0 0.015437506613616437 -0.0018302229638794496 0 0.015614904431443038 -0.0019211150341788901 0 0.015610450764534723 -0.0017490507206411126 0 0.015825066764654273 -0.0018901676990075579 0 0.015614904431443038 -0.0019211150341788901 0 0.015437506613616437 -0.0018302229638794496 0 0.015610450764534723 -0.0017490507206411126 0 0.015610450764534723 -0.0017490507206411126 0 0.015242764907866801 -0.0017161973249147262 0 0.01562517584470284 -0.0014408352326961517 0 0.015610450764534723 -0.0017490507206411126 0 0.01562517584470284 -0.0014408352326961517 0 0.015846846977451867 -0.0015928347494698221 0 0.015160065562306408 -0.0017131791570852721 0 0.015183429575039029 -0.0016322637820330086 0 0.015437506613616437 -0.0018302229638794496 0 0.015610450764534723 -0.0017490507206411126 0 0.015242764907866801 -0.0017161973249147262 0 0.014633970228643031 -0.0022660727916993103 0 0.015242764907866801 -0.0017161973249147262 0 0.015033672883231588 -0.0022137648372828516 0 0.015289402876154301 -0.0021425248166085718 0 0.015242764907866801 -0.0017161973249147262 0 0.015033672883231588 -0.0022137648372828516 0 0.014633970228643031 -0.0022660727916993103 0 0.015242764907866801 -0.0017161973249147262 0 0.014442229582326134 -0.0018822154426285447 0 0.014144665531428249 -0.0023248397502203177 0 0.014633970228643031 -0.0022660727916993103 0 0.014442229582326134 -0.0018822154426285447 0 0.01562517584470284 -0.0014408352326961517 0 0.01602625248821711 -0.0012418193284534193 0 0.015846846977451867 -0.0015928347494698221 0 0.015183429575039029 -0.0016322637820330086 0 0.014174498355199952 -0.0019084137859845505 0 0.01602625248821711 -0.0012418193284534193 0 0.015846846977451867 -0.0015928347494698221 0 0.016157170795280385 -0.001550023936093134 0 0.014144665531428249 -0.0023248397502203177 0 0.014442229582326134 -0.0018822154426285447 0 0.013666335524529311 -0.0022946439433212517 0 0.020164004050784525 -0.0014938576675579984 0 0.019831451592203907 -0.0017005068966404037 0 0.015846846977451867 -0.0015928347494698221 0 0.016157170795280385 -0.001550023936093134 0 0.015825066764654273 -0.0018901676990075579 0 0.015610450764534723 -0.0017490507206411126 0 0.015846846977451867 -0.0015928347494698221 0 0.015825066764654273 -0.0018901676990075579 0 0.02381193689437466 -0.001747787709419614 0 0.023465190192673721 -0.0018377076179386346 0 0.023671654449556632 -0.0014503170521823867 0 0.019109955484507831 -0.0020750024983891349 0 0.020164004050784525 -0.0014938576675579984 0 0.016529898241552148 -0.0010567198064919613 0 0.01602625248821711 -0.0012418193284534193 0 0.016157170795280385 -0.001550023936093134 0 0.023507507662145422 -0.0021996254244870369 0 0.023323482892910148 -0.0020263163298225692 0 0.023465190192673721 -0.0018377076179386346 0 0.023507507662145422 -0.0021996254244870369 0 0.02381193689437466 -0.001747787709419614 0 0.023465190192673721 -0.0018377076179386346 0 0.023323482892910148 -0.0020263163298225692 0 0.023465190192673721 -0.0018377076179386346 0 0.023185141774198198 -0.0019379122886667482 0 0.023051851514357267 -0.002070667516097678 0 0.023185141774198198 -0.0019379122886667482 0 0.023012735465766876 -0.0019587920769824764 0 0.023151454630189659 -0.0021399303670855546 0 0.023051851514357267 -0.002070667516097678 0 0.023185141774198198 -0.0019379122886667482 0 0.023151454630189659 -0.0021399303670855546 0 0.023323482892910148 -0.0020263163298225692 0 0.023185141774198198 -0.0019379122886667482 0 0.023185141774198198 -0.0019379122886667482 0 0.023082550273954925 -0.0017917762979550401 0 0.023012735465766876 -0.0019587920769824764 0 0.023185141774198198 -0.0019379122886667482 0 0.023279353234825894 -0.0016106244595751713 0 0.023082550273954925 -0.0017917762979550401 0 0.023465190192673721 -0.0018377076179386346 0 0.023185141774198198 -0.0019379122886667482 0 0.023279353234825894 -0.0016106244595751713 0 0.023279353234825894 -0.0016106244595751713 0 0.023082550273954925 -0.0017917762979550401 0 0.022962529119947835 -0.0016401462818724521 0 0.023465190192673721 -0.0018377076179386346 0 0.023279353234825894 -0.0016106244595751713 0 0.023671654449556632 -0.0014503170521823867 0 0.023279353234825894 -0.0016106244595751713 0 0.023508101482290843 -0.0012386457291195686 0 0.023671654449556632 -0.0014503170521823867 0 0.023279353234825894 -0.0016106244595751713 0 0.023157142794489067 -0.0012747804762573852 0 0.022962529119947835 -0.0016401462818724521 0 0.023279353234825894 -0.0016106244595751713 0 0.023508101482290843 -0.0012386457291195686 0 0.023157142794489067 -0.0012747804762573852 0 0.023157142794489067 -0.0012747804762573852 0 0.022978310642513568 -0.00094200699678431503 0 0.023520340912518877 -0.00085942299196863862 0 0.023508101482290843 -0.0012386457291195686 0 0.023157142794489067 -0.0012747804762573852 0 0.023520340912518877 -0.00085942299196863862 0 0.023508101482290843 -0.0012386457291195686 0 0.023857445702356043 -0.00099618676421034825 0 0.023520340912518877 -0.00085942299196863862 0 0.023857445702356043 -0.00099618676421034825 0 0.024081886704215873 -0.0012868496767338962 0 0.024151218795182772 -0.00079343388132450845 0 0.023857445702356043 -0.00099618676421034825 0 0.024081886704215873 -0.0012868496767338962 0 0.023671654449556632 -0.0014503170521823867 0 0.02381193689437466 -0.001747787709419614 0 0.024081886704215873 -0.0012868496767338962 0 0.023671654449556632 -0.0014503170521823867 0 0.023508101482290843 -0.0012386457291195686 0 0.023857445702356043 -0.00099618676421034825 0 0.023671654449556632 -0.0014503170521823867 0 0.022314138956346416 -0.0016346411855751124 0 0.022306243943127319 -0.001993199521131785 0 0.022783341720707805 -0.0015232961931693767 0 0.022314138956346416 -0.0016346411855751124 0 0.022783341720707805 -0.0015232961931693767 0 0.022217028404374378 -0.0013044488488278703 0 0.021952433447648679 -0.0017220572480347244 0 0.022314138956346416 -0.0016346411855751124 0 0.022217028404374378 -0.0013044488488278703 0 0.021952433447648679 -0.0017220572480347244 0 0.022314138956346416 -0.0016346411855751124 0 0.022306243943127319 -0.001993199521131785 0 0.022415668356335763 -0.0022194561044791496 0 0.021883152014065706 -0.0022756403122400023 0 0.022306243943127319 -0.001993199521131785 0 0.022306243943127319 -0.001993199521131785 0 0.022554256897994254 -0.0019980115622010067 0 0.022470955413068858 -0.0016685050923419035 0 0.022415668356335763 -0.0022194561044791496 0 0.022306243943127319 -0.001993199521131785 0 0.022554256897994254 -0.0019980115622010067 0 0.022637787455934814 -0.0021349880930735263 0 0.022415668356335763 -0.0022194561044791496 0 0.022554256897994254 -0.0019980115622010067 0 0.022554256897994254 -0.0019980115622010067 0 0.022470955413068858 -0.0016685050923419035 0 0.022714043723251406 -0.0017801869157556766 0 0.022333181790489081 -0.0019553920834499369 0 0.022623275192556608 -0.0015966720148768844 0 0.022470955413068858 -0.0016685050923419035 0 0.022714043723251406 -0.0017801869157556766 0 0.0226908620573535 -0.0013162825115916011 0 0.022714043723251406 -0.0017801869157556766 0 0.022962529119947835 -0.0016401462818724521 0 0.0226908620573535 -0.0013162825115916011 0 0.022554256897994254 -0.0019980115622010067 0 0.022714043723251406 -0.0017801869157556766 0 0.022730915275252742 -0.0020023887055925739 0 0.022637787455934814 -0.0021349880930735263 0 0.022554256897994254 -0.0019980115622010067 0 0.022730915275252742 -0.0020023887055925739 0 0.022783348133716443 -0.0021533773722644464 0 0.022637787455934814 -0.0021349880930735263 0 0.022730915275252742 -0.0020023887055925739 0 0.022783348133716443 -0.0021533773722644464 0 0.022730915275252742 -0.0020023887055925739 0 0.022827863448379882 -0.0020498207536698895 0 0.022071534555002246 -0.0022771304078264775 0 0.022413170399853015 -0.0020051583838982655 0 0.022730915275252742 -0.0020023887055925739 0 0.022827863448379882 -0.0020498207536698895 0 0.022870120458399385 -0.001886610152151489 0 0.022714043723251406 -0.0017801869157556766 0 0.022730915275252742 -0.0020023887055925739 0 0.022870120458399385 -0.001886610152151489 0 0.022870120458399385 -0.001886610152151489 0 0.022919510036207978 -0.0020552137644819072 0 0.023012735465766876 -0.0019587920769824764 0 0.02280329717611107 -0.0021358746480004288 0 0.022827863448379882 -0.0020498207536698895 0 0.022919510036207978 -0.0020552137644819072 0 0.022827863448379882 -0.0020498207536698895 0 0.022870120458399385 -0.001886610152151489 0 0.022919510036207978 -0.0020552137644819072 0 0.023051851514357267 -0.002070667516097678 0 0.022919510036207978 -0.0020552137644819072 0 0.023012735465766876 -0.0019587920769824764 0 0.023082550273954925 -0.0017917762979550401 0 0.022870120458399385 -0.001886610152151489 0 0.023012735465766876 -0.0019587920769824764 0 0.023082550273954925 -0.0017917762979550401 0 0.022870120458399385 -0.001886610152151489 0 0.022962529119947835 -0.0016401462818724521 0 0.022714043723251406 -0.0017801869157556766 0 0.022870120458399385 -0.001886610152151489 0 0.022962529119947835 -0.0016401462818724521 0 0.023157142794489067 -0.0012747804762573852 0 0.022962529119947835 -0.0016401462818724521 0 0.0226908620573535 -0.0013162825115916011 0 0.023157142794489067 -0.0012747804762573852 0 0.022978310642513568 -0.00094200699678431503 0 0.0226908620573535 -0.0013162825115916011 0 0.023318932072938829 -0.00072894666319619399 0 0.023128360483671648 -0.0010884479231396908 0 0.023090929501674629 -0.0006353161478313545 0 0.02315016447680119 -0.00084091011017164237 0 0.022907343715188374 -0.0012021278065014152 0 0.023128360483671648 -0.0010884479231396908 0 0.022886228329679539 -0.00088694484946767065 0 0.023090929501674629 -0.0006353161478313545 0 0.022623275192556608 -0.0015966720148768844 0 0.022907343715188374 -0.0012021278065014152 0 0.022783341720707805 -0.0015232961931693767 0 0.022886228329679539 -0.00088694484946767065 0 0.022495681017165932 -0.00095233908469917364 0 0.022783341720707805 -0.0015232961931693767 0 0.023128360483671648 -0.0010884479231396908 0 0.022886228329679539 -0.00088694484946767065 0 0.022886228329679539 -0.00088694484946767065 0 0.022495681017165932 -0.00095233908469917364 0 0.022738255767211602 -0.00051531288143410287 0 0.022117322682591291 -0.00098119369671983265 0 0.022495681017165932 -0.00095233908469917364 0 0.022217028404374378 -0.0013044488488278703 0 0.022783341720707805 -0.0015232961931693767 0 0.022495681017165932 -0.00095233908469917364 0 0.022217028404374378 -0.0013044488488278703 0 0.022738255767211602 -0.00051531288143410287 0 0.022955201979294862 -0.00018985798142946372 0 0.022632948897531535 -0.00018928191632380529 0 0.022292128680671763 -0.0004111965703314314 0 0.022738255767211602 -0.00051531288143410287 0 0.022632948897531535 -0.00018928191632380529 0 0.022210883256160548 -0.00070913811899232034 0 0.022495681017165932 -0.00095233908469917364 0 0.022738255767211602 -0.00051531288143410287 0 0.022210883256160548 -0.00070913811899232034 0 0.022292128680671763 -0.0004111965703314314 0 0.022738255767211602 -0.00051531288143410287 0 0.022738255767211602 -0.00051531288143410287 0 0.023099123270907733 -0.00033927985246830759 0 0.023090929501674629 -0.0006353161478313545 0 0.022886228329679539 -0.00088694484946767065 0 0.022738255767211602 -0.00051531288143410287 0 0.023090929501674629 -0.0006353161478313545 0 0.022738255767211602 -0.00051531288143410287 0 0.023099123270907733 -0.00033927985246830759 0 0.022955201979294862 -0.00018985798142946372 0 0.023099123270907733 -0.00033927985246830759 0 0.023090929501674629 -0.0006353161478313545 0 0.02327238411274473 -0.00042612315735610675 0 0.023099123270907733 -0.00033927985246830759 0 0.02327238411274473 -0.00042612315735610675 0 0.023195473821119483 -0.00021319177370568643 0 0.023318932072938829 -0.00072894666319619399 0 0.023090929501674629 -0.0006353161478313545 0 0.02327238411274473 -0.00042612315735610675 0 0.02315016447680119 -0.00084091011017164237 0 0.023348299886345483 -0.00058500617774776464 0 0.023318932072938829 -0.00072894666319619399 0 0.02327238411274473 -0.00042612315735610675 0 0.023366042112545369 -0.00055913322294271709 0 0.02327238411274473 -0.00042612315735610675 0 0.023303194327012722 -0.00024142281174621181 0 0.023402771736986506 -0.00033562317246953356 0 0.02327238411274473 -0.00042612315735610675 0 0.023303194327012722 -0.00024142281174621181 0 0.023195473821119483 -0.00021319177370568643 0 0.023303194327012722 -0.00024142281174621181 0 0.023249727147716056 -0.0001224346748472683 0 0.023195473821119483 -0.00021319177370568643 0 0.023303194327012722 -0.00024142281174621181 0 0.023249727147716056 -0.0001224346748472683 0 0.023362893354396043 -0.0001413822343302727 0 0.023303194327012722 -0.00024142281174621181 0 0.023402771736986506 -0.00033562317246953356 0 0.023362893354396043 -0.0001413822343302727 0 0.023282505442873025 -4.27699361620106e-05 0 0.023362893354396043 -0.0001413822343302727 0 0.023405017445158362 5.9495795969256935e-05 0 0.023282505442873025 -4.27699361620106e-05 0 0.023249727147716056 -0.0001224346748472683 0 0.023362893354396043 -0.0001413822343302727 0 0.023282505442873025 -4.27699361620106e-05 0 0.023249727147716056 -0.0001224346748472683 0 0.023217908397126681 -5.842785562668272e-05 0 0.023249727147716056 -0.0001224346748472683 0 0.023217908397126681 -5.842785562668272e-05 0 0.023178600879787421 -6.9539684038465315e-05 0 0.02319027253371779 5.713934595139143e-07 0 0.023774732761413161 0.00024131168891624349 0 0.023839204379109934 0.00023187324699549503 0 0.023178600879787421 -6.9539684038465315e-05 0 0.02319027253371779 5.713934595139143e-07 0 0.023176681555454434 -1.1039246966404464e-05 0 0.023217908397126681 -5.842785562668272e-05 0 0.023178600879787421 -6.9539684038465315e-05 0 0.023176681555454434 -1.1039246966404464e-05 0 0.023282505442873025 -4.27699361620106e-05 0 0.023217908397126681 -5.842785562668272e-05 0 0.023176681555454434 -1.1039246966404464e-05 0 0.023178600879787421 -6.9539684038465315e-05 0 0.023195473821119483 -0.00021319177370568643 0 0.023123187541564165 -0.00014384295055539265 0 0.023249727147716056 -0.0001224346748472683 0 0.023178600879787421 -6.9539684038465315e-05 0 0.023195473821119483 -0.00021319177370568643 0 0.023099123270907733 -0.00033927985246830759 0 0.023195473821119483 -0.00021319177370568643 0 0.023123187541564165 -0.00014384295055539265 0 0.022955201979294862 -0.00018985798142946372 0 0.02319027253371779 5.713934595139143e-07 0 0.022901270781573977 4.6352900985561569e-07 0 0.022955201979294862 -0.00018985798142946372 0 0.023123187541564165 -0.00014384295055539265 0 0.02319027253371779 5.713934595139143e-07 0 0.023099123270907733 -0.00033927985246830759 0 0.022955201979294862 -0.00018985798142946372 0 0.023123187541564165 -0.00014384295055539265 0 0.023178600879787421 -6.9539684038465315e-05 0 0.023123187541564165 -0.00014384295055539265 0 0.02319027253371779 5.713934595139143e-07 0 0.02319027253371779 5.713934595139143e-07 0 0.023494342245666662 0.00033459923934060407 0 0.023774732761413161 0.00024131168891624349 0 0.02319027253371779 5.713934595139143e-07 0 0.023046168846613226 0.00022281318297372247 0 0.023494342245666662 0.00033459923934060407 0 0.023231954735548357 -3.7987591577761896e-06 0 0.023529335329996709 0.00013836663759347174 0 0.02319027253371779 5.713934595139143e-07 0 0.023046168846613226 0.00022281318297372247 0 0.022901270781573977 4.6352900985561569e-07 0 0.022623063609967107 0.0001718451104581724 0 0.023046168846613226 0.00022281318297372247 0 0.022901270781573977 4.6352900985561569e-07 0 0.022955201979294862 -0.00018985798142946372 0 0.022632948897531535 -0.00018928191632380529 0 0.022901270781573977 4.6352900985561569e-07 0 0.022623063609967107 0.0001718451104581724 0 0.022632948897531535 -0.00018928191632380529 0 0.022901270781573977 4.6352900985561569e-07 0 0.023806521038031225 -0.00039072612912923648 0 0.024009845304927488 -0.00056657158965375701 0 0.024047881214648247 -0.00032142981110008974 0 0.023806521038031225 -0.00039072612912923648 0 0.023792142000865477 -0.000668285312184471 0 0.023583858644178203 -0.0004738223846486848 0 0.023806521038031225 -0.00039072612912923648 0 0.024009845304927488 -0.00056657158965375701 0 0.023792142000865477 -0.000668285312184471 0 0.02426214296715214 -0.00053137477657075089 0 0.024009845304927488 -0.00056657158965375701 0 0.024151218795182772 -0.00079343388132450845 0 0.02426214296715214 -0.00053137477657075089 0 0.024009845304927488 -0.00056657158965375701 0 0.024047881214648247 -0.00032142981110008974 0 0.023857445702356043 -0.00099618676421034825 0 0.023953601226258951 -0.00075400342606152671 0 0.024151218795182772 -0.00079343388132450845 0 0.024009845304927488 -0.00056657158965375701 0 0.023953601226258951 -0.00075400342606152671 0 0.024151218795182772 -0.00079343388132450845 0 0.023857445702356043 -0.00099618676421034825 0 0.023792142000865477 -0.000668285312184471 0 0.023520340912518877 -0.00085942299196863862 0 0.023857445702356043 -0.00099618676421034825 0 0.023953601226258951 -0.00075400342606152671 0 0.023792142000865477 -0.000668285312184471 0 0.024009845304927488 -0.00056657158965375701 0 0.023953601226258951 -0.00075400342606152671 0 0.023792142000865477 -0.000668285312184471 0 0.023520340912518877 -0.00085942299196863862 0 0.023366042112545369 -0.00055913322294271709 0 0.023583858644178203 -0.0004738223846486848 0 0.023792142000865477 -0.000668285312184471 0 0.023520340912518877 -0.00085942299196863862 0 0.023583858644178203 -0.0004738223846486848 0 0.022978310642513568 -0.00094200699678431503 0 0.023520340912518877 -0.00085942299196863862 0 0.023366042112545369 -0.00055913322294271709 0 0.023366042112545369 -0.00055913322294271709 0 0.023583858644178203 -0.0004738223846486848 0 0.023402771736986506 -0.00033562317246953356 0 0.02327238411274473 -0.00042612315735610675 0 0.023366042112545369 -0.00055913322294271709 0 0.023402771736986506 -0.00033562317246953356 0 0.023583858644178203 -0.0004738223846486848 0 0.023598220299962492 -0.00018949576355200569 0 0.023402771736986506 -0.00033562317246953356 0 0.023806521038031225 -0.00039072612912923648 0 0.023583858644178203 -0.0004738223846486848 0 0.023598220299962492 -0.00018949576355200569 0 0.023598220299962492 -0.00018949576355200569 0 0.023402771736986506 -0.00033562317246953356 0 0.023362893354396043 -0.0001413822343302727 0 0.023598220299962492 -0.00018949576355200569 0 0.023362893354396043 -0.0001413822343302727 0 0.023405017445158362 5.9495795969256935e-05 0 0.023598220299962492 -0.00018949576355200569 0 0.02378147296559768 0.00011357289610257223 0 0.023405017445158362 5.9495795969256935e-05 0 0.023598220299962492 -0.00018949576355200569 0 0.02383282898300455 -0.00017837876837534575 0 0.02378147296559768 0.00011357289610257223 0 0.02383282898300455 -0.00017837876837534575 0 0.024057975494881177 -9.3195848176999126e-05 0 0.02378147296559768 0.00011357289610257223 0 0.023806521038031225 -0.00039072612912923648 0 0.02383282898300455 -0.00017837876837534575 0 0.024047881214648247 -0.00032142981110008974 0 0.023806521038031225 -0.00039072612912923648 0 0.023598220299962492 -0.00018949576355200569 0 0.02383282898300455 -0.00017837876837534575 0 0.024331255971514268 -0.00018004315381780551 0 0.024047881214648247 -0.00032142981110008974 0 0.024057975494881177 -9.3195848176999126e-05 0 0.02383282898300455 -0.00017837876837534575 0 0.024047881214648247 -0.00032142981110008974 0 0.024057975494881177 -9.3195848176999126e-05 0 0.024331255971514268 -0.00018004315381780551 0 0.024057975494881177 -9.3195848176999126e-05 0 0.02428474980767471 0.00013278487865415442 0 0.02432114052738191 0.00029610476380823232 0 0.024139618636251248 0.00015470851175778368 0 0.02428474980767471 0.00013278487865415442 0 0.023972550794459081 0.00013310928410658002 0 0.024267476865850193 0.00013439426234543672 0 0.024057975494881177 -9.3195848176999126e-05 0 0.02378147296559768 0.00011357289610257223 0 0.02428474980767471 0.00013278487865415442 0 0.024184382766346768 0.00031231054301532655 0 0.024089925245156921 0.00034403661110749445 0 0.024188982780885278 0.00046761771020169984 0 0.02432114052738191 0.00029610476380823232 0 0.024184382766346768 0.00031231054301532655 0 0.024139618636251248 0.00015470851175778368 0 0.02432114052738191 0.00029610476380823232 0 0.024184382766346768 0.00031231054301532655 0 0.024188982780885278 0.00046761771020169984 0 0.024184382766346768 0.00031231054301532655 0 0.024139618636251248 0.00015470851175778368 0 0.024089925245156921 0.00034403661110749445 0 0.024139618636251248 0.00015470851175778368 0 0.023980432130750736 0.00024865780639019838 0 0.023885768581915993 0.00014499472409236049 0 0.024139618636251248 0.00015470851175778368 0 0.023980432130750736 0.00024865780639019838 0 0.024089925245156921 0.00034403661110749445 0 0.023972550794459081 0.00013310928410658002 0 0.023618789296178375 9.1001937236415449e-05 0 0.023980432130750736 0.00024865780639019838 0 0.023885768581915993 0.00014499472409236049 0 0.023767465589916992 0.00025561513352903868 0 0.023980432130750736 0.00024865780639019838 0 0.023911984266293148 0.00037365872301557587 0 0.023767465589916992 0.00025561513352903868 0 0.023980432130750736 0.00024865780639019838 0 0.023911984266293148 0.00037365872301557587 0 0.024089925245156921 0.00034403661110749445 0 0.024089925245156921 0.00034403661110749445 0 0.024078700034606378 0.0005033890266012077 0 0.024188982780885278 0.00046761771020169984 0 0.024003284349019934 0.00044936674061589157 0 0.024074504874504819 0.00050360344187091186 0 0.023911984266293148 0.00037365872301557587 0 0.024089925245156921 0.00034403661110749445 0 0.024078700034606378 0.0005033890266012077 0 0.024078700034606378 0.0005033890266012077 0 0.024078377687776892 0.00054679190561816144 0 0.024188982780885278 0.00046761771020169984 0 0.024103257476260909 0.0005405840649210465 0 0.024078700034606378 0.0005033890266012077 0 0.024085758399475587 0.00053970593705267539 0 0.024103257476260909 0.0005405840649210465 0 0.024085758399475587 0.00053970593705267539 0 0.024095604713705341 0.00056957203487148706 0 0.02408116255896954 0.00053631718581710283 0 0.024078377687776892 0.00054679190561816144 0 0.024080573775641278 0.00051171959308509134 0 0.024434957267972145 0.00039625469945506696 0 0.024442733565453706 0.00027601584966129337 0 0.024085758399475587 0.00053970593705267539 0 0.024104636860777833 0.00054835858670973471 0 0.024095604713705341 0.00056957203487148706 0 0.024085758399475587 0.00053970593705267539 0 0.02408116255896954 0.00053631718581710283 0 0.024104636860777833 0.00054835858670973471 0 0.02408116255896954 0.00053631718581710283 0 0.024104636860777833 0.00054835858670973471 0 0.024081024092200858 0.0005219474917037369 0 0.024104636860777833 0.00054835858670973471 0 0.02413094504317154 0.00050848018799930293 0 0.024081024092200858 0.0005219474917037369 0 0.024085758399475587 0.00053970593705267539 0 0.02408116255896954 0.00053631718581710283 0 0.024078377687776892 0.00054679190561816144 0 0.024078700034606378 0.0005033890266012077 0 0.024085758399475587 0.00053970593705267539 0 0.024078377687776892 0.00054679190561816144 0 0.024768619791234018 0.0002625496763109828 0 0.024568276536766718 0.00023712977322633689 0 0.024693917559208255 0.00017395374053704398 0 0.024568276536766718 0.00023712977322633689 0 0.024408337909753202 0.00023525140698129425 0 0.024624466566805916 7.8149937036661385e-05 0 0.024768619791234018 0.0002625496763109828 0 0.024568276536766718 0.00023712977322633689 0 0.024523432482870804 0.00035030074441867829 0 0.024434957267972145 0.00039625469945506696 0 0.024357287258844167 0.00039504197812367347 0 0.024568276536766718 0.00023712977322633689 0 0.024408337909753202 0.00023525140698129425 0 0.024397108374658461 0.00031357103100620342 0 0.024341249422643024 0.0003126861223987217 0 0.024357287258844167 0.00039504197812367347 0 0.02432114052738191 0.00029610476380823232 0 0.024397108374658461 0.00031357103100620342 0 0.024523432482870804 0.00035030074441867829 0 0.024568276536766718 0.00023712977322633689 0 0.024397108374658461 0.00031357103100620342 0 0.024523432482870804 0.00035030074441867829 0 0.023316152406362447 0.00059534857768242522 0 0.023376602213995325 0.00046703675234269275 0 0.023731905108728652 0.00062184011193789843 0 0.022987206753356072 0.0004465332290651625 0 0.023316152406362447 0.00059534857768242522 0 0.023376602213995325 0.00046703675234269275 0 0.023046168846613226 0.00022281318297372247 0 0.023376602213995325 0.00046703675234269275 0 0.023494342245666662 0.00033459923934060407 0 0.022987206753356072 0.0004465332290651625 0 0.023046168846613226 0.00022281318297372247 0 0.023376602213995325 0.00046703675234269275 0 0.023376602213995325 0.00046703675234269275 0 0.023494342245666662 0.00033459923934060407 0 0.023657445964503102 0.00049341355216411863 0 0.023494342245666662 0.00033459923934060407 0 0.023657445964503102 0.00049341355216411863 0 0.023816303508543614 0.00039429368393593457 0 0.023657445964503102 0.00049341355216411863 0 0.023881779164677871 0.00054568124695923541 0 0.023731905108728652 0.00062184011193789843 0 0.023376602213995325 0.00046703675234269275 0 0.023657445964503102 0.00049341355216411863 0 0.023731905108728652 0.00062184011193789843 0 0.023881779164677871 0.00054568124695923541 0 0.023816303508543614 0.00039429368393593457 0 0.024050960166124128 0.00045665856553914934 0 0.023657445964503102 0.00049341355216411863 0 0.023881779164677871 0.00054568124695923541 0 0.023816303508543614 0.00039429368393593457 0 0.023816303508543614 0.00039429368393593457 0 0.023818666159459774 0.00024719328022513844 0 0.024050960166124128 0.00045665856553914934 0 0.023529335329996709 0.00013836663759347174 0 0.023933770932556147 0.00037242821103965619 0 0.023494342245666662 0.00033459923934060407 0 0.023816303508543614 0.00039429368393593457 0 0.023774732761413161 0.00024131168891624349 0 0.023816303508543614 0.00039429368393593457 0 0.023774732761413161 0.00024131168891624349 0 0.023818666159459774 0.00024719328022513844 0 0.023560856328427842 0.00014247156968414645 0 0.023529335329996709 0.00013836663759347174 0 0.023885768581915993 0.00014499472409236049 0 0.023620848560795969 0.00013564317345846549 0 0.023767465589916992 0.00025561513352903868 0 0.023618789296178375 9.1001937236415449e-05 0 0.023529335329996709 0.00013836663759347174 0 0.023282505442873025 -4.27699361620106e-05 0 0.023405017445158362 5.9495795969256935e-05 0 0.023176681555454434 -1.1039246966404464e-05 0 0.024003284349019934 0.00044936674061589157 0 0.023933770932556147 0.00037242821103965619 0 0.023881779164677871 0.00054568124695923541 0 0.024050960166124128 0.00045665856553914934 0 0.02403722512863719 0.00056888770075827922 0 0.024103257476260909 0.0005405840649210465 0 0.024050960166124128 0.00045665856553914934 0 0.02403722512863719 0.00056888770075827922 0 0.024103257476260909 0.0005405840649210465 0 0.02403722512863719 0.00056888770075827922 0 0.024095604713705341 0.00056957203487148706 0 0.02403722512863719 0.00056888770075827922 0 0.024095604713705341 0.00056957203487148706 0 0.024104643273686836 0.00058448466860823076 0 0.024104636860777833 0.00054835858670973471 0 0.024095604713705341 0.00056957203487148706 0 0.024137938226221841 0.00055445338460694438 0 0.024104636860777833 0.00054835858670973471 0 0.024177569523985521 0.00051489238651184724 0 0.02413094504317154 0.00050848018799930293 0 0.024104636860777833 0.00054835858670973471 0 0.024137938226221841 0.00055445338460694438 0 0.024177569523985521 0.00051489238651184724 0 0.024137938226221841 0.00055445338460694438 0 0.024207803209470122 0.00051342290583737899 0 0.024177569523985521 0.00051489238651184724 0 0.024137938226221841 0.00055445338460694438 0 0.024104643273686836 0.00058448466860823076 0 0.024207803209470122 0.00051342290583737899 0 0.024095604713705341 0.00056957203487148706 0 0.024137938226221841 0.00055445338460694438 0 0.024104643273686836 0.00058448466860823076 0 0.024104643273686836 0.00058448466860823076 0 0.024136349461031797 0.00057352602221866634 0 0.023984547162886619 0.00062030097913074573 0 0.024104643273686836 0.00058448466860823076 0 0.024136349461031797 0.00057352602221866634 0 0.024207803209470122 0.00051342290583737899 0 0.023881779164677871 0.00054568124695923541 0 0.02403722512863719 0.00056888770075827922 0 0.023984547162886619 0.00062030097913074573 0 0.02403722512863719 0.00056888770075827922 0 0.024104643273686836 0.00058448466860823076 0 0.023984547162886619 0.00062030097913074573 0 0.023731905108728652 0.00062184011193789843 0 0.023977205483580601 0.0006597064642233719 0 0.023812630798155709 0.00079399902709921056 0 0.023881779164677871 0.00054568124695923541 0 0.023984547162886619 0.00062030097913074573 0 0.023731905108728652 0.00062184011193789843 0 0.023984547162886619 0.00062030097913074573 0 0.023731905108728652 0.00062184011193789843 0 0.023977205483580601 0.0006597064642233719 0 0.024136349461031797 0.00057352602221866634 0 0.023984547162886619 0.00062030097913074573 0 0.023977205483580601 0.0006597064642233719 0 0.024136349461031797 0.00057352602221866634 0 0.023977205483580601 0.0006597064642233719 0 0.024200746999224976 0.00052125225731190522 0 0.023977205483580601 0.0006597064642233719 0 0.023812630798155709 0.00079399902709921056 0 0.024200746999224976 0.00052125225731190522 0 0.023812630798155709 0.00079399902709921056 0 0.024307918453330531 0.0004574101938661079 0 0.024200746999224976 0.00052125225731190522 0 0.023316152406362447 0.00059534857768242522 0 0.023731905108728652 0.00062184011193789843 0 0.023812630798155709 0.00079399902709921056 0 0.024628630048136053 0.00026848097502756431 0 0.024540204132093051 0.00026366562424288444 0 0.024727231491472958 0.00015660069475699167 0 0.024628630048136053 0.00026848097502756431 0 0.024307918453330531 0.0004574101938661079 0 0.024540204132093051 0.00026366562424288444 0 0.024307918453330531 0.0004574101938661079 0 0.024200746999224976 0.00052125225731190522 0 0.024540204132093051 0.00026366562424288444 0 0.024200746999224976 0.00052125225731190522 0 0.024540204132093051 0.00026366562424288444 0 0.024364277820175372 0.00038882196948291183 0 0.024540204132093051 0.00026366562424288444 0 0.024364277820175372 0.00038882196948291183 0 0.024695892363936742 0.00015483747304140521 0 0.024364277820175372 0.00038882196948291183 0 0.024447565583908482 0.00027065051016666634 0 0.024695892363936742 0.00015483747304140521 0 0.024136349461031797 0.00057352602221866634 0 0.024200746999224976 0.00052125225731190522 0 0.024364277820175372 0.00038882196948291183 0 0.024136349461031797 0.00057352602221866634 0 0.024364277820175372 0.00038882196948291183 0 0.024207803209470122 0.00051342290583737899 0 0.024364277820175372 0.00038882196948291183 0 0.024258276166024655 0.00044362598565573938 0 0.024207803209470122 0.00051342290583737899 0 0.024370323523974186 0.00030662186795052339 0 0.024442733565453706 0.00027601584966129337 0 0.024258276166024655 0.00044362598565573938 0 0.024447565583908482 0.00027065051016666634 0 0.024058476144528797 0.00045426605379953795 0 0.024258276166024655 0.00044362598565573938 0 0.024207803209470122 0.00051342290583737899 0 0.024177569523985521 0.00051489238651184724 0 0.024258276166024655 0.00044362598565573938 0 0.024177569523985521 0.00051489238651184724 0 0.02413094504317154 0.00050848018799930293 0 0.024258276166024655 0.00044362598565573938 0 0.02413094504317154 0.00050848018799930293 0 0.024058476144528797 0.00045426605379953795 0 0.024447565583908482 0.00027065051016666634 0 0.024513802080278733 0.00020624963665642255 0 0.024557166729444406 0.00022647700586375308 0 0.024364277820175372 0.00038882196948291183 0 0.024258276166024655 0.00044362598565573938 0 0.024447565583908482 0.00027065051016666634 0 0.024447565583908482 0.00027065051016666634 0 0.024779311287663922 0.00011231819271056911 0 0.024557166729444406 0.00022647700586375308 0 0.024779311287663922 0.00011231819271056911 0 0.02499976868816282 8.3365635170889856e-08 0 0.024999417764393888 5.9222117261229772e-08 0 0.024779311287663922 0.00011231819271056911 0 0.024557166729444406 0.00022647700586375308 0 0.024999417764393888 5.9222117261229772e-08 0 0.02499976868816282 8.3365635170889856e-08 0 0.024695892363936742 0.00015483747304140521 0 0.024999760594521563 3.7651769617935901e-08 0 0.024779311287663922 0.00011231819271056911 0 0.02499976868816282 8.3365635170889856e-08 0 0.024695892363936742 0.00015483747304140521 0 0.024447565583908482 0.00027065051016666634 0 0.024779311287663922 0.00011231819271056911 0 0.024695892363936742 0.00015483747304140521 0 0.024540204132093051 0.00026366562424288444 0 0.024695892363936742 0.00015483747304140521 0 0.024776954876121235 0.00011473535197317525 0 0.024695892363936742 0.00015483747304140521 0 0.024776954876121235 0.00011473535197317525 0 0.024999760594521563 3.7651769617935901e-08 0 0.024999608838323795 1.3717243717056332e-07 0 0.024776954876121235 0.00011473535197317525 0 0.024727231491472958 0.00015660069475699167 0 0.024999608838323795 1.3717243717056332e-07 0 0.024776954876121235 0.00011473535197317525 0 0.024999760594521563 3.7651769617935901e-08 0 0.024540204132093051 0.00026366562424288444 0 0.024776954876121235 0.00011473535197317525 0 0.024727231491472958 0.00015660069475699167 0 0.024984083451837742 2.1658180011250533e-05 0 0.025001623787499119 3.5821234196550107e-05 0 0.024994006532434169 1.5259996260818086e-05 0 0.024984083451837742 2.1658180011250533e-05 0 0.025001623787499119 3.5821234196550107e-05 0 0.025004093456757692 3.6618683686473491e-05 0 0.025009991597896311 0.00010022754086032699 0 0.025001623787499119 3.5821234196550107e-05 0 0.024986059674421485 8.1647194013553879e-05 0 0.025009991597896311 0.00010022754086032699 0 0.025001623787499119 3.5821234196550107e-05 0 0.025004093456757692 3.6618683686473491e-05 0 0.024721534512328402 0.00016393607808863205 0 0.024810542989259481 6.7483495057055792e-05 0 0.024568276536766718 0.00023712977322633689 0 0.024624466566805916 7.8149937036661385e-05 0 0.024693917559208255 0.00017395374053704398 0 0.024624466566805916 7.8149937036661385e-05 0 0.024693917559208255 0.00017395374053704398 0 0.024813979201842504 0.00011528138972977765 0 0.024768619791234018 0.0002625496763109828 0 0.024693917559208255 0.00017395374053704398 0 0.024813979201842504 0.00011528138972977765 0 0.024768619791234018 0.0002625496763109828 0 0.024813979201842504 0.00011528138972977765 0 0.024962485058233192 0.00010704024508812398 0 0.024624466566805916 7.8149937036661385e-05 0 0.024813979201842504 0.00011528138972977765 0 0.024931316265973485 5.2267534404693428e-06 0 0.02413094504317154 0.00050848018799930293 0 0.024081024092200858 0.0005219474917037369 0 0.024058476144528797 0.00045426605379953795 0 0.024302747524506702 0.00047976845683149889 0 0.024442733565453706 0.00027601584966129337 0 0.02408116255896954 0.00053631718581710283 0 0.024081024092200858 0.0005219474917037369 0 0.024080573775641278 0.00051171959308509134 0 0.024813979201842504 0.00011528138972977765 0 0.024962485058233192 0.00010704024508812398 0 0.024936080524245913 4.3956262316507007e-05 0 0.024442733565453706 0.00027601584966129337 0 0.024819181569853719 9.4979436528710545e-05 0 0.024962485058233192 0.00010704024508812398 0 0.024936080524245913 4.3956262316507007e-05 0 0.024973451451656296 -6.7349695602001543e-06 0 0.024936080524245913 4.3956262316507007e-05 0 0.024931316265973485 5.2267534404693428e-06 0 0.024973451451656296 -6.7349695602001543e-06 0 0.024984083451837742 2.1658180011250533e-05 0 0.025004093456757692 3.6618683686473491e-05 0 0.024931316265973485 5.2267534404693428e-06 0 0.024813979201842504 0.00011528138972977765 0 0.024936080524245913 4.3956262316507007e-05 0 0.024931316265973485 5.2267534404693428e-06 0 0.024810542989259481 6.7483495057055792e-05 0 0.024912396032141397 1.0662627536737937e-05 0 0.024984083451837742 2.1658180011250533e-05 0 0.024979878326646564 6.0357378081080717e-06 0 0.024994006532434169 1.5259996260818086e-05 0 0.024984083451837742 2.1658180011250533e-05 0 0.024931316265973485 5.2267534404693428e-06 0 0.024979878326646564 6.0357378081080717e-06 0 0.024931316265973485 5.2267534404693428e-06 0 0.024979878326646564 6.0357378081080717e-06 0 0.024973451451656296 -6.7349695602001543e-06 0 0.024979878326646564 6.0357378081080717e-06 0 0.024999980590961524 -1.6584517498925035e-09 0 0.024999974537373557 1.2044348302442627e-08 0 0.024979878326646564 6.0357378081080717e-06 0 0.024973451451656296 -6.7349695602001543e-06 0 0.024999980590961524 -1.6584517498925035e-09 0 0.024819181569853719 9.4979436528710545e-05 0 0.024999873065842657 1.4192330064761547e-07 0 0.024979878326646564 6.0357378081080717e-06 0 0.024999974537373557 1.2044348302442627e-08 0 0.024994006532434169 1.5259996260818086e-05 0 0.024999974537373557 1.2044348302442627e-08 0 0.024994006532434169 1.5259996260818086e-05 0 0.025000004731282745 1.1215081531261466e-08 0 0.025001623787499119 3.5821234196550107e-05 0 0.024997709543007174 1.7029431537573144e-05 0 0.024993856018819392 3.3653786735900105e-05 0 0.025001623787499119 3.5821234196550107e-05 0 0.024994006532434169 1.5259996260818086e-05 0 0.024997709543007174 1.7029431537573144e-05 0 0.024997709543007174 1.7029431537573144e-05 0 0.025000004731282745 1.1215081531261466e-08 0 0.024995776038474363 7.8646916469245016e-06 0 0.024994006532434169 1.5259996260818086e-05 0 0.024997709543007174 1.7029431537573144e-05 0 0.025000004731282745 1.1215081531261466e-08 0 0.025000004731282745 1.1215081531261466e-08 0 0.024995776038474363 7.8646916469245016e-06 0 0.024999974788377493 5.4913894831069844e-09 0 0.024999974788377493 5.4913894831069844e-09 0 0.024994847719254736 8.6163801660310128e-08 0 0.024999986549134587 -1.0286069923144913e-08 0 0.024995776038474363 7.8646916469245016e-06 0 0.024999974788377493 5.4913894831069844e-09 0 0.024994847719254736 8.6163801660310128e-08 0 0.024995776038474363 7.8646916469245016e-06 0 0.024994847719254736 8.6163801660310128e-08 0 0.02497971852990408 1.794820358364585e-05 0 0.02497971852990408 1.794820358364585e-05 0 0.024933373171061333 2.7518543957154124e-05 0 0.024973971245734496 4.3577673879161084e-05 0 0.024994847719254736 8.6163801660310128e-08 0 0.02497971852990408 1.794820358364585e-05 0 0.024933373171061333 2.7518543957154124e-05 0 0.02497971852990408 1.794820358364585e-05 0 0.024989283039875666 2.20325919638304e-05 0 0.024973971245734496 4.3577673879161084e-05 0 0.024989283039875666 2.20325919638304e-05 0 0.024993856018819392 3.3653786735900105e-05 0 0.024973971245734496 4.3577673879161084e-05 0 0.024997709543007174 1.7029431537573144e-05 0 0.024989283039875666 2.20325919638304e-05 0 0.024993856018819392 3.3653786735900105e-05 0 0.024997709543007174 1.7029431537573144e-05 0 0.024995776038474363 7.8646916469245016e-06 0 0.024989283039875666 2.20325919638304e-05 0 0.024995776038474363 7.8646916469245016e-06 0 0.02497971852990408 1.794820358364585e-05 0 0.024989283039875666 2.20325919638304e-05 0 0.024999986549134587 -1.0286069923144913e-08 0 0.024997696878059316 5.9973992918931713e-06 0 0.024973001002589368 -2.8876441156219697e-06 0 0.024999986549134587 -1.0286069923144913e-08 0 0.024973001002589368 -2.8876441156219697e-06 0 0.024999993281332067 8.787061808913782e-09 0 0.024990835741611223 1.1467693085876579e-06 0 0.024966012972425823 1.8670124233121805e-05 0 0.024994847719254736 8.6163801660310128e-08 0 0.024999986549134587 -1.0286069923144913e-08 0 0.024997696878059316 5.9973992918931713e-06 0 0.024997696878059316 5.9973992918931713e-06 0 0.024973001002589368 -2.8876441156219697e-06 0 0.024966021322200202 5.1638686556056312e-05 0 0.024966012972425823 1.8670124233121805e-05 0 0.024922073385081893 6.8497294564511771e-05 0 0.024933373171061333 2.7518543957154124e-05 0 0.024882583831006441 8.4611993986645061e-05 0 0.024949945802733499 9.0214089972797564e-05 0 0.024882583831006441 8.4611993986645061e-05 0 0.024949945802733499 9.0214089972797564e-05 0 0.024907025385411979 0.00016042543899403823 0 0.024882583831006441 8.4611993986645061e-05 0 0.024907025385411979 0.00016042543899403823 0 0.024842838421422594 0.00014894155318644439 0 0.024993856018819392 3.3653786735900105e-05 0 0.024973971245734496 4.3577673879161084e-05 0 0.024986059674421485 8.1647194013553879e-05 0 0.025001623787499119 3.5821234196550107e-05 0 0.024993856018819392 3.3653786735900105e-05 0 0.024986059674421485 8.1647194013553879e-05 0 0.024973971245734496 4.3577673879161084e-05 0 0.024949945802733499 9.0214089972797564e-05 0 0.024986059674421485 8.1647194013553879e-05 0 0.024933373171061333 2.7518543957154124e-05 0 0.024973971245734496 4.3577673879161084e-05 0 0.024949945802733499 9.0214089972797564e-05 0 0.024949945802733499 9.0214089972797564e-05 0 0.024986059674421485 8.1647194013553879e-05 0 0.02495559670537182 0.00014656327204778111 0 0.024721534512328402 0.00016393607808863205 0 0.02464824446480627 0.00026763220212496159 0 0.025009991597896311 0.00010022754086032699 0 0.024986059674421485 8.1647194013553879e-05 0 0.024988047232790148 0.00017198383568238509 0 0.02432114052738191 0.00029610476380823232 0 0.024397108374658461 0.00031357103100620342 0 0.024397410346994691 0.00033530076438906449 0 0.024408337909753202 0.00023525140698129425 0 0.024397108374658461 0.00031357103100620342 0 0.024397410346994691 0.00033530076438906449 0 0.02464824446480627 0.00026763220212496159 0 0.025014617997028022 0.00023628729489714293 0 0.024988047232790148 0.00017198383568238509 0 0.02495559670537182 0.00014656327204778111 0 0.024939260831735418 0.00024625784525596082 0 0.024986059674421485 8.1647194013553879e-05 0 0.024988047232790148 0.00017198383568238509 0 0.02495559670537182 0.00014656327204778111 0 0.024907025385411979 0.00016042543899403823 0 0.024939260831735418 0.00024625784525596082 0 0.024858036875574346 0.00026601808794411545 0 0.024949945802733499 9.0214089972797564e-05 0 0.02495559670537182 0.00014656327204778111 0 0.024907025385411979 0.00016042543899403823 0 0.02495559670537182 0.00014656327204778111 0 0.024907025385411979 0.00016042543899403823 0 0.024939260831735418 0.00024625784525596082 0 0.024939260831735418 0.00024625784525596082 0 0.024880906057109509 0.00029608993993806507 0 0.024858036875574346 0.00026601808794411545 0 0.025014617997028022 0.00023628729489714293 0 0.023080297111203928 -0.00030341094359424706 0 0.023080297111203928 -0.00030341094359424706 0 0.02538173133675227 0.00067831637444084865 0 0.021741064833665523 -0.0006018582371912632 0 0.023080297111203928 -0.00030341094359424706 0 0.024635007280710639 -0.00012217915052886757 0 0.024744596373267855 0.00013258951789287335 0 0.02449012641021877 9.5350857185920579e-05 0 0.02455737814045383 0.00027616014414153585 0 0.024744596373267855 0.00013258951789287335 0 0.02449012641021877 9.5350857185920579e-05 0 0.02449012641021877 9.5350857185920579e-05 0 0.02428474980767471 0.00013278487865415442 0 0.024401743396701852 0.00024308576765926445 0 0.02432114052738191 0.00029610476380823232 0 0.024397410346994691 0.00033530076438906449 0 0.024401743396701852 0.00024308576765926445 0 0.02432114052738191 0.00029610476380823232 0 0.02428474980767471 0.00013278487865415442 0 0.024401743396701852 0.00024308576765926445 0 0.024397410346994691 0.00033530076438906449 0 0.02455737814045383 0.00027616014414153585 0 0.024401743396701852 0.00024308576765926445 0 0.02455737814045383 0.00027616014414153585 0 0.02449012641021877 9.5350857185920579e-05 0 0.024401743396701852 0.00024308576765926445 0 0.024657216793574754 0.00039842992383796517 0 0.024750635759913684 0.00030527853129682752 0 0.024640871680630259 0.00031110223954087802 0 0.024657216793574754 0.00039842992383796517 0 0.024561453627912747 0.00043848126503676641 0 0.024640871680630259 0.00031110223954087802 0 0.024561453627912747 0.00043848126503676641 0 0.024447230668343121 0.00033899530997381422 0 0.024431339761195034 0.00055216507022438986 0 0.024561453627912747 0.00043848126503676641 0 0.024640871680630259 0.00031110223954087802 0 0.024447230668343121 0.00033899530997381422 0 0.024554847527710887 0.00056424996271378322 0 0.024553312473092587 0.00052323950717554472 0 0.024431339761195034 0.00055216507022438986 0 0.023924638307054227 0.0011624515691714985 0 0.024783694825748843 0.00080584448448654323 0 0.024561453627912747 0.00043848126503676641 0 0.024553312473092587 0.00052323950717554472 0 0.024431339761195034 0.00055216507022438986 0 0.024554847527710887 0.00056424996271378322 0 0.024553312473092587 0.00052323950717554472 0 0.024594788909239319 0.00052904217505663073 0 0.024553312473092587 0.00052323950717554472 0 0.024594788909239319 0.00052904217505663073 0 0.024617737311271228 0.00048269958894444162 0 0.024657216793574754 0.00039842992383796517 0 0.024561453627912747 0.00043848126503676641 0 0.024617737311271228 0.00048269958894444162 0 0.024561453627912747 0.00043848126503676641 0 0.024553312473092587 0.00052323950717554472 0 0.024617737311271228 0.00048269958894444162 0 0.024657216793574754 0.00039842992383796517 0 0.024617737311271228 0.00048269958894444162 0 0.024707132801506958 0.00045244306032811687 0 0.024645779324639541 0.00054909805102030466 0 0.024594788909239319 0.00052904217505663073 0 0.024617737311271228 0.00048269958894444162 0 0.024645779324639541 0.00054909805102030466 0 0.024617737311271228 0.00048269958894444162 0 0.024707132801506958 0.00045244306032811687 0 0.024789617714868359 0.00053251664021258284 0 0.024645779324639541 0.00054909805102030466 0 0.024707132801506958 0.00045244306032811687 0 0.024789617714868359 0.00053251664021258284 0 0.024926229841405929 0.00042144850398637352 0 0.024800353184594292 0.00039936305224554965 0 0.024789617714868359 0.00053251664021258284 0 0.024707132801506958 0.00045244306032811687 0 0.024800353184594292 0.00039936305224554965 0 0.024800353184594292 0.00039936305224554965 0 0.024750635759913684 0.00030527853129682752 0 0.024858036875574346 0.00026601808794411545 0 0.024926229841405929 0.00042144850398637352 0 0.024800353184594292 0.00039936305224554965 0 0.024858036875574346 0.00026601808794411545 0 0.024657216793574754 0.00039842992383796517 0 0.024707132801506958 0.00045244306032811687 0 0.024750635759913684 0.00030527853129682752 0 0.024707132801506958 0.00045244306032811687 0 0.024800353184594292 0.00039936305224554965 0 0.024750635759913684 0.00030527853129682752 0 0.024750635759913684 0.00030527853129682752 0 0.024858036875574346 0.00026601808794411545 0 0.024842838421422594 0.00014894155318644439 0 0.024907025385411979 0.00016042543899403823 0 0.024858036875574346 0.00026601808794411545 0 0.024842838421422594 0.00014894155318644439 0 0.024750635759913684 0.00030527853129682752 0 0.024842838421422594 0.00014894155318644439 0 0.024719086693678189 0.00016355209265300451 0 0.024719086693678189 0.00016355209265300451 0 0.024640871680630259 0.00031110223954087802 0 0.02457268467059472 0.0002124345530818871 0 0.024750635759913684 0.00030527853129682752 0 0.024719086693678189 0.00016355209265300451 0 0.024640871680630259 0.00031110223954087802 0 0.024640871680630259 0.00031110223954087802 0 0.02457268467059472 0.0002124345530818871 0 0.024447230668343121 0.00033899530997381422 0 0.024719086693678189 0.00016355209265300451 0 0.02457268467059472 0.0002124345530818871 0 0.024602247464273579 0.00010279321465902697 0 0.02457268467059472 0.0002124345530818871 0 0.024602247464273579 0.00010279321465902697 0 0.024396018459619008 9.6192661919671069e-05 0 0.024602247464273579 0.00010279321465902697 0 0.024583145717709379 1.786608483908099e-05 0 0.024396018459619008 9.6192661919671069e-05 0 0.024602247464273579 0.00010279321465902697 0 0.024583145717709379 1.786608483908099e-05 0 0.024719217796751507 3.7780310417101523e-05 0 0.024719086693678189 0.00016355209265300451 0 0.024719217796751507 3.7780310417101523e-05 0 0.024847577271664072 4.4614355817298413e-05 0 0.024719086693678189 0.00016355209265300451 0 0.024602247464273579 0.00010279321465902697 0 0.024719217796751507 3.7780310417101523e-05 0 0.024719217796751507 3.7780310417101523e-05 0 0.024815344721760189 -4.42851088398536e-06 0 0.02472234931878815 -3.1000249499452614e-05 0 0.024719217796751507 3.7780310417101523e-05 0 0.024815344721760189 -4.42851088398536e-06 0 0.024847577271664072 4.4614355817298413e-05 0 0.024583145717709379 1.786608483908099e-05 0 0.024719217796751507 3.7780310417101523e-05 0 0.02472234931878815 -3.1000249499452614e-05 0 0.024922073385081893 6.8497294564511771e-05 0 0.024850352886377988 0.00014331273387600536 0 0.024966021322200202 5.1638686556056312e-05 0 0.024842838421422594 0.00014894155318644439 0 0.024847577271664072 4.4614355817298413e-05 0 0.024842838421422594 0.00014894155318644439 0 0.024719086693678189 0.00016355209265300451 0 0.024847577271664072 4.4614355817298413e-05 0 0.024847577271664072 4.4614355817298413e-05 0 0.024928499584226185 1.4603350472540403e-05 0 0.024925806294039596 -1.5915785436420262e-05 0 0.024815344721760189 -4.42851088398536e-06 0 0.024847577271664072 4.4614355817298413e-05 0 0.024925806294039596 -1.5915785436420262e-05 0 0.024966021322200202 5.1638686556056312e-05 0 0.024847577271664072 4.4614355817298413e-05 0 0.024928499584226185 1.4603350472540403e-05 0 0.024973001002589368 -2.8876441156219697e-06 0 0.024966021322200202 5.1638686556056312e-05 0 0.024928499584226185 1.4603350472540403e-05 0 0.024973001002589368 -2.8876441156219697e-06 0 0.024928499584226185 1.4603350472540403e-05 0 0.024925806294039596 -1.5915785436420262e-05 0 0.024925806294039596 -1.5915785436420262e-05 0 0.024999724910871247 -1.2067801155956889e-07 0 0.024999993281332067 8.787061808913782e-09 0 0.024925806294039596 -1.5915785436420262e-05 0 0.024999724910871247 -1.2067801155956889e-07 0 0.024852995547322593 -3.5415161579251856e-05 0 0.024973001002589368 -2.8876441156219697e-06 0 0.024925806294039596 -1.5915785436420262e-05 0 0.024999993281332067 8.787061808913782e-09 0 0.024721989148986701 -8.2656349773379872e-05 0 0.02472234931878815 -3.1000249499452614e-05 0 0.024923051551214472 -3.0153090949185755e-05 0 0.024760989053404018 -2.1340089691605775e-05 0 0.024881071290975585 -3.1074196169128082e-05 0 0.024815344721760189 -4.42851088398536e-06 0 0.024925806294039596 -1.5915785436420262e-05 0 0.024852995547322593 -3.5415161579251856e-05 0 0.024815344721760189 -4.42851088398536e-06 0 0.02472234931878815 -3.1000249499452614e-05 0 0.024852995547322593 -3.5415161579251856e-05 0 0.025000099273324854 1.0984570792145192e-07 0 0.024923051551214472 -3.0153090949185755e-05 0 0.0249996963822318 -2.32403893480761e-07 0 0.024999945072381118 -1.796830192392226e-08 0 0.024881071290975585 -3.1074196169128082e-05 0 0.024846460940933592 -1.284698386644622e-05 0 0.024999920733663989 8.876070562627959e-09 0 0.024721989148986701 -8.2656349773379872e-05 0 0.024923051551214472 -3.0153090949185755e-05 0 0.0249996963822318 -2.32403893480761e-07 0 0.024988268870018888 2.4972644177352703e-05 0 0.02499992913345906 2.5517463160282617e-10 0 0.024968684760872432 -1.8487002967103093e-06 0 0.024988268870018888 2.4972644177352703e-05 0 0.025000057660496584 -4.6593710055552115e-09 0 0.02499992913345906 2.5517463160282617e-10 0 0.025000000027267124 -2.7315913729396059e-11 0 0.02499999992752077 4.1925582705658132e-11 0 0.024999988520410098 8.2908031738733528e-09 0 0.024999979987682081 -5.9320443106679166e-09 0 0.025000138273006654 6.5833115681302982e-08 0 0.025000042661082043 1.2541933244690546e-08 0 0.024999987436893429 1.2048266103848421e-09 0 0.02499302995021048 3.0226991814218294e-06 0 0.024999990185936724 -4.8723050842669232e-10 0 0.02499302995021048 3.0226991814218294e-06 0 0.024846460940933592 -1.284698386644622e-05 0 0.02470194957998556 -8.7594536415265934e-07 0 0.024988268870018888 2.4972644177352703e-05 0 0.024968684760872432 -1.8487002967103093e-06 0 0.024924858876849591 4.4898088227132668e-05 0 0.024988268870018888 2.4972644177352703e-05 0 0.024924858876849591 4.4898088227132668e-05 0 0.02494073571401207 7.2370116463368992e-05 0 0.02499302995021048 3.0226991814218294e-06 0 0.02494873024034645 2.3046529089267098e-05 0 0.024721989148986701 -8.2656349773379872e-05 0 0.02472234931878815 -3.1000249499452614e-05 0 0.024468411607453229 -7.1188698957980914e-05 0 0.024997474796083802 6.4904381491899132e-06 0 0.024997280196041919 1.8627274418237496e-06 0 0.024992673868437235 6.9837352782716198e-06 0 0.02499302995021048 3.0226991814218294e-06 0 0.02500036790568283 9.1287173071159219e-07 0 0.025000284763760514 1.68035494140565e-06 0 0.024997474796083802 6.4904381491899132e-06 0 0.024997280196041919 1.8627274418237496e-06 0 0.025000138273006654 6.5833115681302982e-08 0 0.025000042661082043 1.2541933244690546e-08 0 0.024997280196041919 1.8627274418237496e-06 0 0.025000042661082043 1.2541933244690546e-08 0 0.024994997819548236 -1.0285048376901955e-06 0 0.024999796821228597 -4.8011845283984445e-08 0 0.025000042661082043 1.2541933244690546e-08 0 0.024994997819548236 -1.0285048376901955e-06 0 0.024997280196041919 1.8627274418237496e-06 0 0.024994997819548236 -1.0285048376901955e-06 0 0.024990788519017124 1.9412016187388345e-06 0 0.024993562262334349 3.6085559551852631e-06 0 0.024994997819548236 -1.0285048376901955e-06 0 0.024997280196041919 1.8627274418237496e-06 0 0.024993562262334349 3.6085559551852631e-06 0 0.024963046180185765 -8.111534121715829e-06 0 0.024999796821228597 -4.8011845283984445e-08 0 0.024990594071768849 -3.1061021833354794e-06 0 0.024994997819548236 -1.0285048376901955e-06 0 0.024999796821228597 -4.8011845283984445e-08 0 0.024990594071768849 -3.1061021833354794e-06 0 0.024994997819548236 -1.0285048376901955e-06 0 0.024990788519017124 1.9412016187388345e-06 0 0.024990594071768849 -3.1061021833354794e-06 0 0.024990788519017124 1.9412016187388345e-06 0 0.024984541284590038 2.1901215796265681e-06 0 0.024990594071768849 -3.1061021833354794e-06 0 0.024963046180185765 -8.111534121715829e-06 0 0.024984541284590038 2.1901215796265681e-06 0 0.024990594071768849 -3.1061021833354794e-06 0 0.024963046180185765 -8.111534121715829e-06 0 0.024984541284590038 2.1901215796265681e-06 0 0.02498851628948957 1.1419826346166416e-05 0 0.024936723453176029 -2.1828939882107274e-05 0 0.024838095017083128 -0.00012253299522527904 0 0.024963046180185765 -8.111534121715829e-06 0 0.02484187305426791 -0.00012011920661187654 0 0.024684939627280366 -0.00022172280561455978 0 0.024984541284590038 2.1901215796265681e-06 0 0.024987948127643607 5.6798723080890346e-06 0 0.02498851628948957 1.1419826346166416e-05 0 0.024990788519017124 1.9412016187388345e-06 0 0.024987948127643607 5.6798723080890346e-06 0 0.024990359534661204 7.4266787151011353e-06 0 0.024990788519017124 1.9412016187388345e-06 0 0.024984541284590038 2.1901215796265681e-06 0 0.024987948127643607 5.6798723080890346e-06 0 0.024987948127643607 5.6798723080890346e-06 0 0.02498851628948957 1.1419826346166416e-05 0 0.024990359534661204 7.4266787151011353e-06 0 0.02498851628948957 1.1419826346166416e-05 0 0.024990359534661204 7.4266787151011353e-06 0 0.024989105953948772 9.5594577386437683e-06 0 0.02484187305426791 -0.00012011920661187654 0 0.024684939627280366 -0.00022172280561455978 0 0.024760868811571517 -0.00021056118528460787 0 0.024684939627280366 -0.00022172280561455978 0 0.024689150544477768 -0.00021816809314615193 0 0.024760868811571517 -0.00021056118528460787 0 0.024997474796083802 6.4904381491899132e-06 0 0.024992673868437235 6.9837352782716198e-06 0 0.024989772017257415 9.1127474502587304e-06 0 0.024997280196041919 1.8627274418237496e-06 0 0.024993562262334349 3.6085559551852631e-06 0 0.024992673868437235 6.9837352782716198e-06 0 0.024993562262334349 3.6085559551852631e-06 0 0.024990359534661204 7.4266787151011353e-06 0 0.024992673868437235 6.9837352782716198e-06 0 0.024990788519017124 1.9412016187388345e-06 0 0.024993562262334349 3.6085559551852631e-06 0 0.024990359534661204 7.4266787151011353e-06 0 0.024990359534661204 7.4266787151011353e-06 0 0.024992673868437235 6.9837352782716198e-06 0 0.024989105953948772 9.5594577386437683e-06 0 0.024989772017257415 9.1127474502587304e-06 0 0.024986202234713678 8.8354022363156504e-06 0 0.024987346496677224 1.012602464936229e-05 0 0.024989772017257415 9.1127474502587304e-06 0 0.024989105953948772 9.5594577386437683e-06 0 0.024986202234713678 8.8354022363156504e-06 0 0.024992673868437235 6.9837352782716198e-06 0 0.024989772017257415 9.1127474502587304e-06 0 0.024989105953948772 9.5594577386437683e-06 0 0.024838095017083128 -0.00012253299522527904 0 0.024878075820111718 -2.720039518896245e-05 0 0.02498851628948957 1.1419826346166416e-05 0 0.024989105953948772 9.5594577386437683e-06 0 0.024986202234713678 8.8354022363156504e-06 0 0.024684939627280366 -0.00022172280561455978 0 0.024652050497850547 -0.00020182570674929042 0 0.024639548406859894 -0.00017401073242782547 0 0.024684939627280366 -0.00022172280561455978 0 0.024689150544477768 -0.00021816809314615193 0 0.024652050497850547 -0.00020182570674929042 0 0.024639548406859894 -0.00017401073242782547 0 0.0245993939415673 -0.00017154952446947198 0 0.024574373912959697 -0.00011314272833211617 0 0.024652050497850547 -0.00020182570674929042 0 0.024639548406859894 -0.00017401073242782547 0 0.0245993939415673 -0.00017154952446947198 0 0.024986202234713678 8.8354022363156504e-06 0 0.024987346496677224 1.012602464936229e-05 0 0.024977984068891904 4.6807442255084355e-06 0 0.025014021700117364 9.5512265029150688e-05 0 0.024176213361338374 -0.00023673471849753908 0 0.024868787408294294 0.00011052772599111927 0 0.02487804377697542 0.00012686960020037312 0 0.024801776926125823 0.00018022154528447786 0 0.024207364221967065 -7.0976144507166908e-06 0 0.024468411607453229 -7.1188698957980914e-05 0 0.024396018459619008 9.6192661919671069e-05 0 0.024868787408294294 0.00011052772599111927 0 0.02487804377697542 0.00012686960020037312 0 0.02494073571401207 7.2370116463368992e-05 0 0.024583145717709379 1.786608483908099e-05 0 0.024468411607453229 -7.1188698957980914e-05 0 0.024396018459619008 9.6192661919671069e-05 0 0.024583145717709379 1.786608483908099e-05 0 0.02472234931878815 -3.1000249499452614e-05 0 0.024468411607453229 -7.1188698957980914e-05 0 0.024997474796083802 6.4904381491899132e-06 0 0.024989772017257415 9.1127474502587304e-06 0 0.024987346496677224 1.012602464936229e-05 0 0.024544711215873389 0.00011617757297561679 0 0.02470194957998556 -8.7594536415265934e-07 0 0.02494873024034645 2.3046529089267098e-05 0 0.025014021700117364 9.5512265029150688e-05 0 0.024924858876849591 4.4898088227132668e-05 0 0.024868787408294294 0.00011052772599111927 0 0.02494073571401207 7.2370116463368992e-05 0 0.024539701992539274 -9.6333783964185603e-05 0 0.024635920096051915 -4.9392878079706335e-06 0 0.024539701992539274 -9.6333783964185603e-05 0 0.024184998919781729 -0.00010693873385604227 0 0.024998116130752718 3.2195702841631502e-06 0 0.024997428245763599 5.7276298769709653e-06 0 0.024985480259552058 1.6092957657592571e-05 0 0.024270765676804161 -3.6579707660911224e-05 0 0.024238721989027854 -4.6209348910606954e-05 0 0.024230918766944502 -4.2095771968903978e-05 0 0.024323808457560044 -0.00023375807225388227 0 0.024269523440381229 -0.00017340483491002308 0 0.024234916447332687 -0.00016375989073828725 0 0.024996504746878732 -2.6914134092052225e-06 0 0.025000001033685347 -1.6938370571322675e-09 0 0.024999949337166864 -8.688085510312008e-09 0 0.024996504746878732 -2.6914134092052225e-06 0 0.024998116130752718 3.2195702841631502e-06 0 0.024985480259552058 1.6092957657592571e-05 0 0.024996504746878732 -2.6914134092052225e-06 0 0.025000001033685347 -1.6938370571322675e-09 0 0.024998116130752718 3.2195702841631502e-06 0 0.025000001033685347 -1.6938370571322675e-09 0 0.024998116130752718 3.2195702841631502e-06 0 0.024999240922952852 2.0102929088222858e-06 0 0.025000001033685347 -1.6938370571322675e-09 0 0.024999240922952852 2.0102929088222858e-06 0 0.02499999918820758 4.0528616400789005e-09 0 0.024998116130752718 3.2195702841631502e-06 0 0.024999240922952852 2.0102929088222858e-06 0 0.024997428245763599 5.7276298769709653e-06 0 0.024999240922952852 2.0102929088222858e-06 0 0.024997428245763599 5.7276298769709653e-06 0 0.024998936584381327 1.9668951445852184e-06 0 0.024539701992539274 -9.6333783964185603e-05 0 0.024594109157289799 -0.00022200324275078439 0 0.024564654898042951 -0.00013869192843340435 0 0.024713476663592179 -0.0001381128542527262 0 0.024718076837622158 -9.6700358101046055e-05 0 0.024539701992539274 -9.6333783964185603e-05 0 0.024871702766117169 -0.00010976079956276332 0 0.024871702766117169 -0.00010976079956276332 0 0.024594109157289799 -0.00022200324275078439 0 0.024871702766117169 -0.00010976079956276332 0 0.025000080456042049 2.1780078979484967e-08 0 0.025041294422315525 -0.00017187618178156512 0 0.025000087771672147 3.2359756608890119e-08 0 0.024969199354483052 -7.520840927168691e-05 0 0.024999240922952852 2.0102929088222858e-06 0 0.024998936584381327 1.9668951445852184e-06 0 0.02499999918820758 4.0528616400789005e-09 0 0.025000087771672147 3.2359756608890119e-08 0 0.024969199354483052 -7.520840927168691e-05 0 0.024947146385699486 -4.5816781324442173e-05 0 0.024963046180185765 -8.111534121715829e-06 0 0.025000087771672147 3.2359756608890119e-08 0 0.024947146385699486 -4.5816781324442173e-05 0 0.024969199354483052 -7.520840927168691e-05 0 0.024947146385699486 -4.5816781324442173e-05 0 0.024907820260440514 -0.00011604479127453041 0 0.024963046180185765 -8.111534121715829e-06 0 0.024999796821228597 -4.8011845283984445e-08 0 0.025000087771672147 3.2359756608890119e-08 0 0.024963046180185765 -8.111534121715829e-06 0 0.02484187305426791 -0.00012011920661187654 0 0.024947146385699486 -4.5816781324442173e-05 0 0.02484187305426791 -0.00012011920661187654 0 0.024947146385699486 -4.5816781324442173e-05 0 0.024907820260440514 -0.00011604479127453041 0 0.024647570295729566 -0.00023291837584716292 0 0.024760868811571517 -0.00021056118528460787 0 0.024657916073977687 -0.00021683464107273445 0 0.024871702766117169 -0.00010976079956276332 0 0.024754016097674691 -0.00021248937050157642 0 0.025041294422315525 -0.00017187618178156512 0 0.024907820260440514 -0.00011604479127453041 0 0.024760868811571517 -0.00021056118528460787 0 0.02484187305426791 -0.00012011920661187654 0 0.024907820260440514 -0.00011604479127453041 0 0.024760868811571517 -0.00021056118528460787 0 0.025041294422315525 -0.00017187618178156512 0 0.024969199354483052 -7.520840927168691e-05 0 0.024907820260440514 -0.00011604479127453041 0 0.024647570295729566 -0.00023291837584716292 0 0.024657916073977687 -0.00021683464107273445 0 0.024647190434695543 -0.00022417079075625349 0 0.024657916073977687 -0.00021683464107273445 0 0.024495080396014876 -0.00015564106121785238 0 0.0245993939415673 -0.00017154952446947198 0 0.024657916073977687 -0.00021683464107273445 0 0.024495080396014876 -0.00015564106121785238 0 0.02454474752073409 -0.00025585297342881091 0 0.024689150544477768 -0.00021816809314615193 0 0.024760868811571517 -0.00021056118528460787 0 0.024657916073977687 -0.00021683464107273445 0 0.024689150544477768 -0.00021816809314615193 0 0.024652050497850547 -0.00020182570674929042 0 0.024657916073977687 -0.00021683464107273445 0 0.024645944426159659 -0.00021948632546379715 0 0.024594109157289799 -0.00022200324275078439 0 0.024652050497850547 -0.00020182570674929042 0 0.024657916073977687 -0.00021683464107273445 0 0.0245993939415673 -0.00017154952446947198 0 0.024495080396014876 -0.00015564106121785238 0 0.0245993939415673 -0.00017154952446947198 0 0.024482179862028216 -0.00010782326629354369 0 0.0245993939415673 -0.00017154952446947198 0 0.024482179862028216 -0.00010782326629354369 0 0.024574373912959697 -0.00011314272833211617 0 0.024495080396014876 -0.00015564106121785238 0 0.024368976373661363 -0.00017443202421440893 0 0.024386010434102399 -0.00011618769627403234 0 0.024495080396014876 -0.00015564106121785238 0 0.024386010434102399 -0.00011618769627403234 0 0.024482179862028216 -0.00010782326629354369 0 0.024490073758347546 -0.00016842490188691443 0 0.024594109157289799 -0.00022200324275078439 0 0.024495080396014876 -0.00015564106121785238 0 0.02445607968842824 -0.00023832857245105214 0 0.024368976373661363 -0.00017443202421440893 0 0.024323808457560044 -0.00023375807225388227 0 0.024368976373661363 -0.00017443202421440893 0 0.024300442192778309 -0.00016566689379369991 0 0.024323808457560044 -0.00023375807225388227 0 0.02445607968842824 -0.00023832857245105214 0 0.024368976373661363 -0.00017443202421440893 0 0.024368976373661363 -0.00017443202421440893 0 0.024304090627821278 -0.00012804761746815471 0 0.024300442192778309 -0.00016566689379369991 0 0.024368976373661363 -0.00017443202421440893 0 0.024304090627821278 -0.00012804761746815471 0 0.024386010434102399 -0.00011618769627403234 0 0.024304090627821278 -0.00012804761746815471 0 0.024260966680963864 -0.00013198827914734785 0 0.024300442192778309 -0.00016566689379369991 0 0.024304090627821278 -0.00012804761746815471 0 0.024260966680963864 -0.00013198827914734785 0 0.024267129581076151 -0.00011092935169740824 0 0.024260966680963864 -0.00013198827914734785 0 0.024300442192778309 -0.00016566689379369991 0 0.024255165633789644 -0.0001492799848456644 0 0.024300442192778309 -0.00016566689379369991 0 0.024269523440381229 -0.00017340483491002308 0 0.024255165633789644 -0.0001492799848456644 0 0.024323808457560044 -0.00023375807225388227 0 0.024300442192778309 -0.00016566689379369991 0 0.024269523440381229 -0.00017340483491002308 0 0.024241923764316272 -8.5555055648732723e-05 0 0.024286980506448196 -4.3801409840043111e-05 0 0.024194662468824749 -5.6308971201877726e-05 0 0.024241923764316272 -8.5555055648732723e-05 0 0.024306791808390078 -9.090498913257318e-05 0 0.024286980506448196 -4.3801409840043111e-05 0 0.024241923764316272 -8.5555055648732723e-05 0 0.024267129581076151 -0.00011092935169740824 0 0.024231999568749066 -0.00011593164328129122 0 0.024260966680963864 -0.00013198827914734785 0 0.024267129581076151 -0.00011092935169740824 0 0.024231999568749066 -0.00011593164328129122 0 0.024304090627821278 -0.00012804761746815471 0 0.024267129581076151 -0.00011092935169740824 0 0.024306791808390078 -9.090498913257318e-05 0 0.024241923764316272 -8.5555055648732723e-05 0 0.024267129581076151 -0.00011092935169740824 0 0.024306791808390078 -9.090498913257318e-05 0 0.024306791808390078 -9.090498913257318e-05 0 0.024382901539111566 -7.0119523220640544e-05 0 0.024386010434102399 -0.00011618769627403234 0 0.024304090627821278 -0.00012804761746815471 0 0.024306791808390078 -9.090498913257318e-05 0 0.024386010434102399 -0.00011618769627403234 0 0.024306791808390078 -9.090498913257318e-05 0 0.024382901539111566 -7.0119523220640544e-05 0 0.024286980506448196 -4.3801409840043111e-05 0 0.024382901539111566 -7.0119523220640544e-05 0 0.024385130906458732 -1.3938206123493239e-05 0 0.024286980506448196 -4.3801409840043111e-05 0 0.024382901539111566 -7.0119523220640544e-05 0 0.02448984730383549 -6.1362023133701538e-05 0 0.024385130906458732 -1.3938206123493239e-05 0 0.024382901539111566 -7.0119523220640544e-05 0 0.024386010434102399 -0.00011618769627403234 0 0.024482179862028216 -0.00010782326629354369 0 0.024382901539111566 -7.0119523220640544e-05 0 0.024482179862028216 -0.00010782326629354369 0 0.02448984730383549 -6.1362023133701538e-05 0 0.024482179862028216 -0.00010782326629354369 0 0.02448984730383549 -6.1362023133701538e-05 0 0.024574373912959697 -0.00011314272833211617 0 0.02448984730383549 -6.1362023133701538e-05 0 0.024496747560208341 1.3431261854349001e-06 0 0.024385130906458732 -1.3938206123493239e-05 0 0.023503836691273008 -3.4378605916804356e-05 0 0.022914421462244573 0.00057165975086379797 0 0.024496747560208341 1.3431261854349001e-06 0 0.024373080378194915 5.4748877735404681e-05 0 0.024385130906458732 -1.3938206123493239e-05 0 0.022388389114495741 0.00089734757137383632 0 0.021631030632023675 0.00098591550722595673 0 0.021921415815997335 0.0012805237120871091 0 0.022518748146332732 4.6240802966468067e-05 0 0.022388389114495741 0.00089734757137383632 0 0.021631030632023675 0.00098591550722595673 0 0.024373080378194915 5.4748877735404681e-05 0 0.024385130906458732 -1.3938206123493239e-05 0 0.024282465361345939 2.3395687985592184e-05 0 0.024385130906458732 -1.3938206123493239e-05 0 0.024286980506448196 -4.3801409840043111e-05 0 0.024282465361345939 2.3395687985592184e-05 0 0.024373080378194915 5.4748877735404681e-05 0 0.024282465361345939 2.3395687985592184e-05 0 0.024269820819995295 0.00010652965302285248 0 0.024225894843165272 -1.4349985376324547e-05 0 0.024202836570781053 4.4558793918317904e-05 0 0.024157917279268221 -9.2378242974280899e-06 0 0.024282465361345939 2.3395687985592184e-05 0 0.024225894843165272 -1.4349985376324547e-05 0 0.024202836570781053 4.4558793918317904e-05 0 0.024286980506448196 -4.3801409840043111e-05 0 0.024225894843165272 -1.4349985376324547e-05 0 0.024194662468824749 -5.6308971201877726e-05 0 0.024286980506448196 -4.3801409840043111e-05 0 0.024282465361345939 2.3395687985592184e-05 0 0.024225894843165272 -1.4349985376324547e-05 0 0.02457268467059472 0.0002124345530818871 0 0.024396018459619008 9.6192661919671069e-05 0 0.024447230668343121 0.00033899530997381422 0 0.02414042201766221 0.00020720875752182306 0 0.024396018459619008 9.6192661919671069e-05 0 0.024447230668343121 0.00033899530997381422 0 0.02414042201766221 0.00020720875752182306 0 0.024396018459619008 9.6192661919671069e-05 0 0.024172255782170745 9.971551309820462e-05 0 0.024207364221967065 -7.0976144507166908e-06 0 0.024396018459619008 9.6192661919671069e-05 0 0.024172255782170745 9.971551309820462e-05 0 0.024544711215873389 0.00011617757297561679 0 0.024176213361338374 -0.00023673471849753908 0 0.024207364221967065 -7.0976144507166908e-06 0 0.024172255782170745 9.971551309820462e-05 0 0.02394688497322086 0.00010014325168964504 0 0.02414042201766221 0.00020720875752182306 0 0.024172255782170745 9.971551309820462e-05 0 0.02394688497322086 0.00010014325168964504 0 0.02448984730383549 -6.1362023133701538e-05 0 0.024625416078957747 -8.1526965736349321e-05 0 0.024574373912959697 -0.00011314272833211617 0 0.024878075820111718 -2.720039518896245e-05 0 0.024176213361338374 -0.00023673471849753908 0 0.024639548406859894 -0.00017401073242782547 0 0.024625416078957747 -8.1526965736349321e-05 0 0.024574373912959697 -0.00011314272833211617 0 0.024176213361338374 -0.00023673471849753908 0 0.022904839286433241 -0.00035302876927974968 0 0.023503836691273008 -3.4378605916804356e-05 0 0.024176213361338374 -0.00023673471849753908 0 0.02448984730383549 -6.1362023133701538e-05 0 0.024496747560208341 1.3431261854349001e-06 0 0.024625416078957747 -8.1526965736349321e-05 0 0.022518748146332732 4.6240802966468067e-05 0 0.023399471563497455 -0.00092362308522306628 0 0.022919182169640711 -0.00011506195778359769 0 0.024176213361338374 -0.00023673471849753908 0 0.023628040403291379 0.00018499198219732225 0 0.02414042201766221 0.00020720875752182306 0 0.02394688497322086 0.00010014325168964504 0 0.023747466276228157 0.00033751321356359585 0 0.02344378452674661 -0.0010771507916414427 0 0.022919182169640711 -0.00011506195778359769 0 0.023747466276228157 0.00033751321356359585 0 0.023747466276228157 0.00033751321356359585 0 0.023636111313496747 0.0009148668048613454 0 0.024232907588840853 0.00052050316378444983 0 0.023747466276228157 0.00033751321356359585 0 0.022961502451298944 0.00049961552397977474 0 0.023636111313496747 0.0009148668048613454 0 0.022518748146332732 4.6240802966468067e-05 0 0.022388389114495741 0.00089734757137383632 0 0.022961502451298944 0.00049961552397977474 0 0.022919182169640711 -0.00011506195778359769 0 0.023747466276228157 0.00033751321356359585 0 0.022961502451298944 0.00049961552397977474 0 0.022518748146332732 4.6240802966468067e-05 0 0.022919182169640711 -0.00011506195778359769 0 0.022961502451298944 0.00049961552397977474 0 0.022961502451298944 0.00049961552397977474 0 0.022887270596095414 0.0010379783663220408 0 0.023636111313496747 0.0009148668048613454 0 0.022388389114495741 0.00089734757137383632 0 0.022961502451298944 0.00049961552397977474 0 0.022887270596095414 0.0010379783663220408 0 0.022388389114495741 0.00089734757137383632 0 0.022887270596095414 0.0010379783663220408 0 0.022417220152423267 0.0014478822517040091 0 0.022887270596095414 0.0010379783663220408 0 0.023636111313496747 0.0009148668048613454 0 0.023301138290453854 0.0015597831211313364 0 0.023636111313496747 0.0009148668048613454 0 0.024290285081632411 0.0011858068396922031 0 0.024232907588840853 0.00052050316378444983 0 0.023636111313496747 0.0009148668048613454 0 0.024290285081632411 0.0011858068396922031 0 0.023878382542908368 0.0015080078255745686 0 0.02414042201766221 0.00020720875752182306 0 0.023747466276228157 0.00033751321356359585 0 0.024232907588840853 0.00052050316378444983 0 0.02414042201766221 0.00020720875752182306 0 0.024232907588840853 0.00052050316378444983 0 0.024447230668343121 0.00033899530997381422 0 0.024232907588840853 0.00052050316378444983 0 0.024447230668343121 0.00033899530997381422 0 0.024431339761195034 0.00055216507022438986 0 0.024290285081632411 0.0011858068396922031 0 0.024232907588840853 0.00052050316378444983 0 0.02486333887408641 0.00095685453421677968 0 0.024219456873263615 0.00050399954167467493 0 0.024783694825748843 0.00080584448448654323 0 0.024290285081632411 0.0011858068396922031 0 0.024255168874940877 0.0017328181743549856 0 0.024779896400934073 0.0018605248440279911 0 0.024290285081632411 0.0011858068396922031 0 0.02486333887408641 0.00095685453421677968 0 0.024779896400934073 0.0018605248440279911 0 0.024290285081632411 0.0011858068396922031 0 0.023878382542908368 0.0015080078255745686 0 0.024255168874940877 0.0017328181743549856 0 0.023878382542908368 0.0015080078255745686 0 0.024255168874940877 0.0017328181743549856 0 0.024070481959980152 0.0023836997010468304 0 0.024255168874940877 0.0017328181743549856 0 0.024070481959980152 0.0023836997010468304 0 0.024779896400934073 0.0018605248440279911 0 0.022303710573250014 0.001184980420154143 0 0.023589810736239728 0.0011766729966678714 0 0.022448332330736488 0.00036381670508527211 0 0.022178285780003359 0.00054715292938120846 0 0.022209550958615664 0.00027816291842802253 0 0.021999535405809005 0.0004211841830090637 0 0.022178285780003359 0.00054715292938120846 0 0.022209550958615664 0.00027816291842802253 0 0.020412840769631804 0.0002603912125374249 0 0.020468767446518137 0.00028331217477087472 0 0.020472724309364598 0.00021324517682187535 0 0.020237646062288828 -0.00039218346848905858 0 0.021347175784226294 0.00028482145894811399 0 0.020468767446518137 0.00028331217477087472 0 0.020510579127260266 0.00026044680876207023 0 0.020472724309364598 0.00021324517682187535 0 0.022303710573250014 0.001184980420154143 0 0.021347175784226294 0.00028482145894811399 0 0.020527546190585871 0.00030641371485228203 0 0.020510579127260266 0.00026044680876207023 0 0.020566904154550692 0.00027486653194500109 0 0.020510579127260266 0.00026044680876207023 0 0.020528214602287594 0.00022229707478414702 0 0.020566904154550692 0.00027486653194500109 0 0.020527546190585871 0.00030641371485228203 0 0.020468767446518137 0.00028331217477087472 0 0.020510579127260266 0.00026044680876207023 0 0.020528214602287594 0.00022229707478414702 0 0.020472724309364598 0.00021324517682187535 0 0.020527567385207762 0.00015830419407515775 0 0.020510579127260266 0.00026044680876207023 0 0.020528214602287594 0.00022229707478414702 0 0.020472724309364598 0.00021324517682187535 0 0.019264572673397973 -0.00084748878833447135 0 0.019168321208236378 -0.00067358907883725936 0 0.01910246430171467 -0.00071980629368132744 0 0.020237646062288828 -0.00039218346848905858 0 0.019809662645050016 -0.00019463728394557945 0 0.020644646795980128 0.00092343433599002323 0 0.020223504207788425 0.00046712219203328233 0 0.019765176336473508 0.00075676272589219923 0 0.019834901205784915 0.00016665957091201015 0 0.020362292542871401 0.00026293909871813708 0 0.019765176336473508 0.00075676272589219923 0 0.019834901205784915 0.00016665957091201015 0 0.019355163907320772 1.2342314933841184e-05 0 0.020120310593229281 0.0013243462008941543 0 0.019093330205781318 0.00029438368973166111 0 0.019403395105530574 4.8375987221180303e-05 0 0.020644646795980128 0.00092343433599002323 0 0.019384157379326285 0.00015125988831273359 0 0.020644646795980128 0.00092343433599002323 0 0.019847963095865742 0.00025853702188556208 0 0.020616002917350582 0.00024694790311840007 0 0.020571740688037833 0.00020035041326616488 0 0.020566904154550692 0.00027486653194500109 0 0.020528214602287594 0.00022229707478414702 0 0.020571740688037833 0.00020035041326616488 0 0.020566904154550692 0.00027486653194500109 0 0.020528214602287594 0.00022229707478414702 0 0.020571740688037833 0.00020035041326616488 0 0.020527567385207762 0.00015830419407515775 0 0.020644646795980128 0.00092343433599002323 0 0.021033169857937409 0.00099772374805699466 0 0.022303710573250014 0.001184980420154143 0 0.021033169857937409 0.00099772374805699466 0 0.021635472937142027 0.0016463005139221787 0 0.021607572902372717 0.0016480878435362143 0 0.021602775642834561 0.0016061223455046186 0 0.021607572902372717 0.0016480878435362143 0 0.021581475566719695 0.001648955590691936 0 0.021572350588030892 0.0016222067104436383 0 0.021590308801534872 0.0016684942666851572 0 0.021607572902372717 0.0016480878435362143 0 0.021581475566719695 0.001648955590691936 0 0.021590308801534872 0.0016684942666851572 0 0.021635472937142027 0.0016463005139221787 0 0.021607572902372717 0.0016480878435362143 0 0.021591129391776417 0.0016542720054484592 0 0.021581475566719695 0.001648955590691936 0 0.021558470838433048 0.0016462377268064827 0 0.020644646795980128 0.00092343433599002323 0 0.021455274181427408 0.0018238586989940855 0 0.020644646795980128 0.00092343433599002323 0 0.021125790783935259 0.0014897209596216744 0 0.021607572902372717 0.0016480878435362143 0 0.021602775642834561 0.0016061223455046186 0 0.021572350588030892 0.0016222067104436383 0 0.022303710573250014 0.001184980420154143 0 0.022410467335795409 0.0019771134148929915 0 0.024070481959980152 0.0023836997010468304 0 0.022920990160863793 0.0020799747756088754 0 0.023301138290453854 0.0015597831211313364 0 0.021678561968174144 0.0016184042523640077 0 0.021635472937142027 0.0016463005139221787 0 0.021602775642834561 0.0016061223455046186 0 0.023878382542908368 0.0015080078255745686 0 0.024070481959980152 0.0023836997010468304 0 0.023301138290453854 0.0015597831211313364 0 0.023636111313496747 0.0009148668048613454 0 0.023878382542908368 0.0015080078255745686 0 0.023301138290453854 0.0015597831211313364 0 0.022887270596095414 0.0010379783663220408 0 0.023301138290453854 0.0015597831211313364 0 0.022417220152423267 0.0014478822517040091 0 0.022920990160863793 0.0020799747756088754 0 0.023301138290453854 0.0015597831211313364 0 0.022417220152423267 0.0014478822517040091 0 0.022417220152423267 0.0014478822517040091 0 0.021921415815997335 0.0012805237120871091 0 0.021562329518869217 0.0015538549153963738 0 0.022920990160863793 0.0020799747756088754 0 0.022417220152423267 0.0014478822517040091 0 0.021562329518869217 0.0015538549153963738 0 0.022388389114495741 0.00089734757137383632 0 0.022417220152423267 0.0014478822517040091 0 0.021921415815997335 0.0012805237120871091 0 0.022914421462244573 0.00057165975086379797 0 0.023376056087010849 0.0007661562794078876 0 0.021631030632023675 0.00098591550722595673 0 0.021469617108896537 0.0015175993517508042 0 0.02130922229230232 0.001643477529335277 0 0.021631030632023675 0.00098591550722595673 0 0.021469617108896537 0.0015175993517508042 0 0.021562329518869217 0.0015538549153963738 0 0.021631030632023675 0.00098591550722595673 0 0.021921415815997335 0.0012805237120871091 0 0.021562329518869217 0.0015538549153963738 0 0.021469617108896537 0.0015175993517508042 0 0.021381212611633234 0.001558049657268575 0 0.02130922229230232 0.001643477529335277 0 0.021469617108896537 0.0015175993517508042 0 0.021562329518869217 0.0015538549153963738 0 0.021436963291727239 0.0016070322883083318 0 0.021469617108896537 0.0015175993517508042 0 0.021436963291727239 0.0016070322883083318 0 0.021381212611633234 0.001558049657268575 0 0.021436963291727239 0.0016070322883083318 0 0.021381212611633234 0.001558049657268575 0 0.021376136587444184 0.0015149856825730696 0 0.021381212611633234 0.001558049657268575 0 0.021376136587444184 0.0015149856825730696 0 0.021396359045948214 0.0014540439359726116 0 0.021396359045948214 0.0014540439359726116 0 0.021229432887856284 0.0013722902071025605 0 0.02149293765806053 0.0012305358677200181 0 0.021376136587444184 0.0015149856825730696 0 0.021396359045948214 0.0014540439359726116 0 0.021229432887856284 0.0013722902071025605 0 0.021436963291727239 0.0016070322883083318 0 0.021229432887856284 0.0013722902071025605 0 0.020624445477441179 0.0012986106325037373 0 0.021436963291727239 0.0016070322883083318 0 0.021376136587444184 0.0015149856825730696 0 0.021229432887856284 0.0013722902071025605 0 0.021356201034556505 0.0015815409213825863 0 0.021125790783935259 0.0014897209596216744 0 0.022410467335795409 0.0019771134148929915 0 0.021521136672078171 0.0015240848775621544 0 0.021436963291727239 0.0016070322883083318 0 0.021572350588030892 0.0016222067104436383 0 0.021558470838433048 0.0016462377268064827 0 0.021602775642834561 0.0016061223455046186 0 0.021562329518869217 0.0015538549153963738 0 0.021572350588030892 0.0016222067104436383 0 0.021562329518869217 0.0015538549153963738 0 0.021436963291727239 0.0016070322883083318 0 0.021572350588030892 0.0016222067104436383 0 0.024202836570781053 4.4558793918317904e-05 0 0.024171319865132775 0.00011083206426634416 0 0.024118826800317867 5.3197564970488123e-05 0 0.024202836570781053 4.4558793918317904e-05 0 0.024269820819995295 0.00010652965302285248 0 0.024171319865132775 0.00011083206426634416 0 0.024282465361345939 2.3395687985592184e-05 0 0.024202836570781053 4.4558793918317904e-05 0 0.024269820819995295 0.00010652965302285248 0 0.023376056087010849 0.0007661562794078876 0 0.019745433181545202 -6.733831476462292e-05 0 0.021307485580541557 0.0015537914714777365 0 0.021444723828730767 0.00082086638990713681 0 0.020803334728376116 0.00053511682712032371 0 0.02130922229230232 0.001643477529335277 0 0.021307485580541557 0.0015537914714777365 0 0.021444723828730767 0.00082086638990713681 0 0.021396359045948214 0.0014540439359726116 0 0.021307485580541557 0.0015537914714777365 0 0.02149293765806053 0.0012305358677200181 0 0.02130922229230232 0.001643477529335277 0 0.021444723828730767 0.00082086638990713681 0 0.022211664925737548 0.0005093797103166304 0 0.021252914040008182 0.0013638827875145862 0 0.021324051630914945 0.0011153873172403391 0 0.021381212611633234 0.001558049657268575 0 0.021396359045948214 0.0014540439359726116 0 0.021307485580541557 0.0015537914714777365 0 0.021381212611633234 0.001558049657268575 0 0.02130922229230232 0.001643477529335277 0 0.021307485580541557 0.0015537914714777365 0 0.024171319865132775 0.00011083206426634416 0 0.024157404668086913 0.00019133752426920181 0 0.024105796908581868 0.00014987519030467035 0 0.024269820819995295 0.00010652965302285248 0 0.024171319865132775 0.00011083206426634416 0 0.024157404668086913 0.00019133752426920181 0 0.010609611882968819 -0.0023276735508750332 0 0.011061643252761131 -0.0020517713594569408 0 0.010581812396930856 -0.0017309838010771228 0 0.019745433181545202 -6.733831476462292e-05 0 0.015304380157415124 -0.0014870259920327002 0 0.021444723828730767 0.00082086638990713681 0 0.022211664925737548 0.0005093797103166304 0 0.021336021597596663 -2.8517681773671713e-05 0 0.021444723828730767 0.00082086638990713681 0 0.021336021597596663 -2.8517681773671713e-05 0 0.020803334728376116 0.00053511682712032371 0 0.011061643252761131 -0.0020517713594569408 0 0.011075265144343475 -0.0015738040439017744 0 0.011542747171765011 -0.0017758267162833674 0 0.011061643252761131 -0.0020517713594569408 0 0.011075265144343475 -0.0015738040439017744 0 0.010581812396930856 -0.0017309838010771228 0 0.010609611882968819 -0.0023276735508750332 0 0.010581812396930856 -0.0017309838010771228 0 0.0099667306580015387 -0.0016925290129584708 0 0.020508871680153074 0.00076131687046573026 0 0.020624445477441179 0.0012986106325037373 0 0.020985876780012337 0.00095760116869872663 0 0.0199128959934485 0.00067724416018159273 0 0.020508871680153074 0.00076131687046573026 0 0.020624445477441179 0.0012986106325037373 0 0.021581475566719695 0.001648955590691936 0 0.021572350588030892 0.0016222067104436383 0 0.021558470838433048 0.0016462377268064827 0 0.021229432887856284 0.0013722902071025605 0 0.020624445477441179 0.0012986106325037373 0 0.020985876780012337 0.00095760116869872663 0 0.02149293765806053 0.0012305358677200181 0 0.020985876780012337 0.00095760116869872663 0 0.021233571735324336 0.00040107745876421066 0 0.021324051630914945 0.0011153873172403391 0 0.018310724229464469 -0.00078148856093465517 0 0.021336021597596663 -2.8517681773671713e-05 0 0.020803334728376116 0.00053511682712032371 0 0.020346707244931567 -0.00058903721813783217 0 0.021229432887856284 0.0013722902071025605 0 0.02149293765806053 0.0012305358677200181 0 0.020985876780012337 0.00095760116869872663 0 0.015304380157415124 -0.0014870259920327002 0 0.018310724229464469 -0.00078148856093465517 0 0.020985876780012337 0.00095760116869872663 0 0.021233571735324336 0.00040107745876421066 0 0.020797812814776502 0.00054284777836247208 0 0.020983709137115426 0.00025356499296784831 0 0.021233571735324336 0.00040107745876421066 0 0.020797812814776502 0.00054284777836247208 0 0.020329252645506623 0.00020448644403345907 0 0.018310724229464469 -0.00078148856093465517 0 0.020983709137115426 0.00025356499296784831 0 0.020797812814776502 0.00054284777836247208 0 0.020362292542871401 0.00026293909871813708 0 0.020508871680153074 0.00076131687046573026 0 0.020985876780012337 0.00095760116869872663 0 0.020797812814776502 0.00054284777836247208 0 0.020508871680153074 0.00076131687046573026 0 0.020797812814776502 0.00054284777836247208 0 0.020362292542871401 0.00026293909871813708 0 0.0199128959934485 0.00067724416018159273 0 0.020508871680153074 0.00076131687046573026 0 0.020362292542871401 0.00026293909871813708 0 0.020362292542871401 0.00026293909871813708 0 0.020794269513127413 -0.00067740217635227655 0 0.01988229299162975 -0.00038212338283367107 0 0.020983709137115426 0.00025356499296784831 0 0.020362292542871401 0.00026293909871813708 0 0.020794269513127413 -0.00067740217635227655 0 0.011075265144343475 -0.0015738040439017744 0 0.011542747171765011 -0.0017758267162833674 0 0.011755015781011064 -0.0010996967201048436 0 0.018310724229464469 -0.00078148856093465517 0 0.016224379237385577 -0.0010127393258453821 0 0.020983709137115426 0.00025356499296784831 0 0.02123588005862433 0.00039237954526305426 0 0.020794269513127413 -0.00067740217635227655 0 0.011755015781011064 -0.0010996967201048436 0 0.010859409275705447 -0.0010469545427563096 0 0.0113193334519792 -0.00054845848782441513 0 0.011755015781011064 -0.0010996967201048436 0 0.012002635021820907 -0.00039179728172092376 0 0.0113193334519792 -0.00054845848782441513 0 0.016224379237385577 -0.0010127393258453821 0 0.014525046933439076 -0.00036066549750594261 0 0.020794269513127413 -0.00067740217635227655 0 0.01988229299162975 -0.00038212338283367107 0 0.01968316594722333 -0.0011894973066183074 0 0.020794269513127413 -0.00067740217635227655 0 0.020341659706040474 -0.0017272921677579747 0 0.01968316594722333 -0.0011894973066183074 0 0.010581812396930856 -0.0017309838010771228 0 0.010859409275705447 -0.0010469545427563096 0 0.010206555022805246 -0.0012168031886620253 0 0.011075265144343475 -0.0015738040439017744 0 0.010581812396930856 -0.0017309838010771228 0 0.010859409275705447 -0.0010469545427563096 0 0.011075265144343475 -0.0015738040439017744 0 0.011755015781011064 -0.0010996967201048436 0 0.010859409275705447 -0.0010469545427563096 0 0.010859409275705447 -0.0010469545427563096 0 0.010123768887205127 -0.00066402260476996263 0 0.010206555022805246 -0.0012168031886620253 0 0.010859409275705447 -0.0010469545427563096 0 0.010746475635472531 -0.00030546443877539398 0 0.010123768887205127 -0.00066402260476996263 0 0.010746475635472531 -0.00030546443877539398 0 0.01011589414995377 -5.0520412830712172e-05 0 0.010123768887205127 -0.00066402260476996263 0 0.010859409275705447 -0.0010469545427563096 0 0.010746475635472531 -0.00030546443877539398 0 0.0113193334519792 -0.00054845848782441513 0 0.010746475635472531 -0.00030546443877539398 0 0.0113193334519792 -0.00054845848782441513 0 0.011254726486714458 0.00012693658405780604 0 0.010746475635472531 -0.00030546443877539398 0 0.011254726486714458 0.00012693658405780604 0 0.010673875772887285 0.0003362192706017023 0 0.010746475635472531 -0.00030546443877539398 0 0.01011589414995377 -5.0520412830712172e-05 0 0.010673875772887285 0.0003362192706017023 0 0.01011589414995377 -5.0520412830712172e-05 0 0.010673875772887285 0.0003362192706017023 0 0.009940619055582512 0.00044909176719895577 0 0.012002635021820907 -0.00039179728172092376 0 0.0113193334519792 -0.00054845848782441513 0 0.011254726486714458 0.00012693658405780604 0 0.014525046933439076 -0.00036066549750594261 0 0.010359838869522841 0.00033651220950001713 0 0.014525046933439076 -0.00036066549750594261 0 0.0092293571140450118 1.3939321305700223e-05 0 0.011835549166005235 -0.00031791889547806452 0 0.011641171946081996 0.00029734037015300389 0 0.012058149693303592 0.00035148889995657785 0 0.011835549166005235 -0.00031791889547806452 0 0.011254726486714458 0.00012693658405780604 0 0.011641171946081996 0.00029734037015300389 0 0.012765527312018117 -0.00027209337512169423 0 0.012645765448794529 -0.00045159674096821215 0 0.012560781848025799 0.00015792750534927131 0 0.012321698090594857 -0.00060557380444723743 0 0.012645765448794529 -0.00045159674096821215 0 0.012560781848025799 0.00015792750534927131 0 0.010134553535136228 -1.136599268976966e-05 0 0.0092293571140450118 1.3939321305700223e-05 0 0.0055073575959936954 -0.000299136543750187 0 0.0056683953105357851 -0.00047138266755659768 0 0.0055032132953866898 -0.00047198080937530619 0 0.012765527312018117 -0.00027209337512169423 0 0.0129922565148341 -0.00031939567226131285 0 0.012560781848025799 0.00015792750534927131 0 0.012765527312018117 -0.00027209337512169423 0 0.012819847653643216 -0.00036599604526554836 0 0.0129922565148341 -0.00031939567226131285 0 0.012645765448794529 -0.00045159674096821215 0 0.012950406653191072 -0.00066683398855512841 0 0.012790027376397806 -0.00097636272220991333 0 0.012321698090594857 -0.00060557380444723743 0 0.012645765448794529 -0.00045159674096821215 0 0.012790027376397806 -0.00097636272220991333 0 0.012645765448794529 -0.00045159674096821215 0 0.012886674143815984 -0.00042195211018093048 0 0.012950406653191072 -0.00066683398855512841 0 0.012645765448794529 -0.00045159674096821215 0 0.012819847653643216 -0.00036599604526554836 0 0.012886674143815984 -0.00042195211018093048 0 0.012886674143815984 -0.00042195211018093048 0 0.012950406653191072 -0.00066683398855512841 0 0.0129922565148341 -0.00031939567226131285 0 0.012765527312018117 -0.00027209337512169423 0 0.012645765448794529 -0.00045159674096821215 0 0.012819847653643216 -0.00036599604526554836 0 0.012819847653643216 -0.00036599604526554836 0 0.012886674143815984 -0.00042195211018093048 0 0.0129922565148341 -0.00031939567226131285 0 0.014525046933439076 -0.00036066549750594261 0 0.016437283156867055 -0.0012440882353027835 0 0.012950406653191072 -0.00066683398855512841 0 0.013330963418502385 -0.00070314126180844375 0 0.013174486651741382 -0.00096254497099853903 0 0.012950406653191072 -0.00066683398855512841 0 0.013330963418502385 -0.00070314126180844375 0 0.0129922565148341 -0.00031939567226131285 0 0.01365903448113067 -0.0011681402500727256 0 0.010134553535136228 -1.136599268976966e-05 0 0.013414259063759731 -0.00035221856568587147 0 0.013454583548914458 -0.00027799291914004269 0 0.012821687247714313 -0.00018670512564629587 0 0.013330963418502385 -0.00070314126180844375 0 0.013414259063759731 -0.00035221856568587147 0 0.012821687247714313 -0.00018670512564629587 0 0.010105412062855281 -0.00045908929075271588 0 0.0098621798836366209 -0.00065699021297038101 0 0.0098621798836366209 -0.00065699021297038101 0 0.010134553535136228 -1.136599268976966e-05 0 0.0053394169699944455 -0.00029334855358556424 0 0.0054223013921615151 -0.00038815051032273814 0 0.0053236575192551682 -0.00043194749635460327 0 0.0053394169699944455 -0.00029334855358556424 0 0.0055073575959936954 -0.000299136543750187 0 0.0054223013921615151 -0.00038815051032273814 0 0.0054223013921615151 -0.00038815051032273814 0 0.0055032132953866898 -0.00047198080937530619 0 0.0053493502856643569 -0.00055162231877335568 0 0.0055073575959936954 -0.000299136543750187 0 0.0054223013921615151 -0.00038815051032273814 0 0.0055032132953866898 -0.00047198080937530619 0 0.0054223013921615151 -0.00038815051032273814 0 0.0053236575192551682 -0.00043194749635460327 0 0.0053493502856643569 -0.00055162231877335568 0 0.01513828469750754 -0.00061261781489288427 0 0.012537494637569068 3.2308403077113499e-05 0 0.0098621798836366209 -0.00065699021297038101 0 0.0076539019971279256 -0.00034702573376645541 0 0.0053394169699944455 -0.00029334855358556424 0 0.0053236575192551682 -0.00043194749635460327 0 0.005244578575222039 -0.00047027219313718386 0 0.0049773683045406646 -0.00078557226707640668 0 0.0076539019971279256 -0.00034702573376645541 0 0.01151730713588503 -0.00059365793427253351 0 0.011517294693375108 -0.00026578372617373466 0 0.011739645663470556 -0.00018682427798236067 0 0.01134140809694866 -0.00056966324665964462 0 0.01151730713588503 -0.00059365793427253351 0 0.011517294693375108 -0.00026578372617373466 0 0.016377969159669648 -0.00017692767605966231 0 0.015536815812214036 -0.00060259103078969564 0 0.016153784243466529 0.00051474315835634379 0 0.016866133102744679 0.00015890136735495044 0 0.016377969159669648 -0.00017692767605966231 0 0.016153784243466529 0.00051474315835634379 0 0.016951235160892201 -0.00078180646703202386 0 0.016377969159669648 -0.00017692767605966231 0 0.015536815812214036 -0.00060259103078969564 0 0.018267384448998402 -0.00073057921066934652 0 0.018109186010571668 -0.00079652685908924569 0 0.01793844134451332 -0.00064409997817187962 0 0.017989333013191319 -0.00077422724860862517 0 0.01513828469750754 -0.00061261781489288427 0 0.018109186010571668 -0.00079652685908924569 0 0.01793844134451332 -0.00064409997817187962 0 0.017823897651426623 -0.00083242963860972617 0 0.013330963418502385 -0.00070314126180844375 0 0.013414259063759731 -0.00035221856568587147 0 0.013811099447562761 -0.00034886459648410131 0 0.013414259063759731 -0.00035221856568587147 0 0.013450460772927681 -0.00028988949583251208 0 0.013811099447562761 -0.00034886459648410131 0 0.0098621798836366209 -0.00065699021297038101 0 0.01513828469750754 -0.00061261781489288427 0 0.01513828469750754 -0.00061261781489288427 0 0.015636290794728031 -0.00092477554484123536 0 0.013330963418502385 -0.00070314126180844375 0 0.013811099447562761 -0.00034886459648410131 0 0.013505610666314874 -0.00089313052762286392 0 0.018109186010571668 -0.00079652685908924569 0 0.017823897651426623 -0.00083242963860972617 0 0.017905209554187312 -0.00096083905308570934 0 0.018016000603062344 -0.00087331295392941647 0 0.018341136015159389 -0.00088373943361902375 0 0.018109186010571668 -0.00079652685908924569 0 0.017928265289126666 -0.00098324902549813665 0 0.017905209554187312 -0.00096083905308570934 0 0.017823897651426623 -0.00083242963860972617 0 0.017837836377125681 -0.00097989532645648223 0 0.017905209554187312 -0.00096083905308570934 0 0.017927786683019652 -0.00098198524657752998 0 0.017837836377125681 -0.00097989532645648223 0 0.017905209554187312 -0.00096083905308570934 0 0.018341136015159389 -0.00088373943361902375 0 0.018293868924234815 -0.00086420499588293984 0 0.018256253686000791 -0.00085902245617864681 0 0.018109186010571668 -0.00079652685908924569 0 0.018155118076400925 -0.00089567300404359937 0 0.018109186010571668 -0.00079652685908924569 0 0.018036139518250605 -0.00088290819352583767 0 0.018155118076400925 -0.00089567300404359937 0 0.019168321208236378 -0.00067358907883725936 0 0.01910246430171467 -0.00071980629368132744 0 0.019009108484613336 -0.00052490390678804966 0 0.018724085003696454 -0.00082619630594666402 0 0.018341136015159389 -0.00088373943361902375 0 0.018175500402193043 -0.0010149254583615641 0 0.018036139518250605 -0.00088290819352583767 0 0.018155118076400925 -0.00089567300404359937 0 0.019809662645050016 -0.00019463728394557945 0 0.019050052598011073 -0.00062877757531698292 0 0.01910246430171467 -0.00071980629368132744 0 0.019009108484613336 -0.00052490390678804966 0 0.018940190755991751 -0.00059643676947404372 0 0.017927786683019652 -0.00098198524657752998 0 0.017837836377125681 -0.00097989532645648223 0 0.017813793358481888 -0.0010977285439569199 0 0.018341136015159389 -0.00088373943361902375 0 0.019050052598011073 -0.00062877757531698292 0 0.019847963095865742 0.00025853702188556208 0 0.019050052598011073 -0.00062877757531698292 0 0.017837836377125681 -0.00097989532645648223 0 0.017813793358481888 -0.0010977285439569199 0 0.017717387957876928 -0.0010258028853550355 0 0.01814972535256856 -0.00066109979809802317 0 0.018742567280630579 -0.0011354144426185663 0 0.019403395105530574 4.8375987221180303e-05 0 0.019050052598011073 -0.00062877757531698292 0 0.016817611232833773 -0.0009011552146327539 0 0.016817611232833773 -0.0009011552146327539 0 0.019384157379326285 0.00015125988831273359 0 0.019093330205781318 0.00029438368973166111 0 0.01814972535256856 -0.00066109979809802317 0 0.019403395105530574 4.8375987221180303e-05 0 0.01898184934858228 -0.0006415823645364038 0 0.019355163907320772 1.2342314933841184e-05 0 0.01988229299162975 -0.00038212338283367107 0 0.019834901205784915 0.00016665957091201015 0 0.019355163907320772 1.2342314933841184e-05 0 0.01988229299162975 -0.00038212338283367107 0 0.019834901205784915 0.00016665957091201015 0 0.020362292542871401 0.00026293909871813708 0 0.01988229299162975 -0.00038212338283367107 0 0.01898184934858228 -0.0006415823645364038 0 0.01988229299162975 -0.00038212338283367107 0 0.01968316594722333 -0.0011894973066183074 0 0.012950406653191072 -0.00066683398855512841 0 0.012790027376397806 -0.00097636272220991333 0 0.013174486651741382 -0.00096254497099853903 0 0.013330963418502385 -0.00070314126180844375 0 0.013505610666314874 -0.00089313052762286392 0 0.013174486651741382 -0.00096254497099853903 0 0.013505610666314874 -0.00089313052762286392 0 0.013266810394720129 -0.001345767798886319 0 0.013174486651741382 -0.00096254497099853903 0 0.015636290794728031 -0.00092477554484123536 0 0.016817611232833773 -0.0009011552146327539 0 0.017823897651426623 -0.00083242963860972617 0 0.017837836377125681 -0.00097989532645648223 0 0.017717387957876928 -0.0010258028853550355 0 0.016817611232833773 -0.0009011552146327539 0 0.016437283156867055 -0.0012440882353027835 0 0.013266810394720129 -0.001345767798886319 0 0.012790027376397806 -0.00097636272220991333 0 0.013174486651741382 -0.00096254497099853903 0 0.022308116100132658 0.00094269964430312666 0 0.018857871140941802 0.00061402602945558721 0 0.021692612105661504 0.00079219834924463889 0 0.022311580586456572 0.0017223121114259892 0 0.023063790350949086 0.00090644996671730173 0 0.022308116100132658 0.00094269964430312666 0 0.022857295109207889 0.00091593912425790795 0 0.022577554135546088 0.00063254805854715749 0 0.023063790350949086 0.00090644996671730173 0 0.023016509979307414 0.0002854736232924146 0 0.022315232787445877 0.0011076185206948805 0 0.022577554135546088 0.00063254805854715749 0 0.023063790350949086 0.00090644996671730173 0 0.022451068821489346 0.00031947018481335101 0 0.022577554135546088 0.00063254805854715749 0 0.023016509979307414 0.0002854736232924146 0 0.022451068821489346 0.00031947018481335101 0 0.022577554135546088 0.00063254805854715749 0 0.022180206234028173 0.0005062047460875071 0 0.022451068821489346 0.00031947018481335101 0 0.022180206234028173 0.0005062047460875071 0 0.02221956492422502 0.0002961602577109394 0 0.022315232787445877 0.0011076185206948805 0 0.022577554135546088 0.00063254805854715749 0 0.022084064257868026 0.00077581277532003253 0 0.022577554135546088 0.00063254805854715749 0 0.022084064257868026 0.00077581277532003253 0 0.022180206234028173 0.0005062047460875071 0 0.022084064257868026 0.00077581277532003253 0 0.022180206234028173 0.0005062047460875071 0 0.021730332301823103 0.00064425201858109597 0 0.022315232787445877 0.0011076185206948805 0 0.022084064257868026 0.00077581277532003253 0 0.021485557806825772 0.00091558756190975737 0 0.022180206234028173 0.0005062047460875071 0 0.021847835189678973 0.00041375905066088492 0 0.021730332301823103 0.00064425201858109597 0 0.022180206234028173 0.0005062047460875071 0 0.02221956492422502 0.0002961602577109394 0 0.021847835189678973 0.00041375905066088492 0 0.021730332301823103 0.00064425201858109597 0 0.021485557806825772 0.00091558756190975737 0 0.020812607630998511 0.00051436914751346269 0 0.021425406761602633 0.00022925935124676287 0 0.021316787293784684 0.00044222625826050846 0 0.022238587960284436 8.4946552014669119e-05 0 0.021847835189678973 0.00041375905066088492 0 0.020812607630998511 0.00051436914751346269 0 0.022238587960284436 8.4946552014669119e-05 0 0.021749484178995245 0.0004866781198571864 0 0.021895712058440046 0.00013619863074579197 0 0.021847835189678973 0.00041375905066088492 0 0.021730332301823103 0.00064425201858109597 0 0.020812607630998511 0.00051436914751346269 0 0.021485557806825772 0.00091558756190975737 0 0.020812607630998511 0.00051436914751346269 0 0.020886692092321787 0.00091490051693930035 0 0.021485557806825772 0.00091558756190975737 0 0.020886692092321787 0.00091490051693930035 0 0.020851688012408158 0.0013299940503703046 0 0.022084064257868026 0.00077581277532003253 0 0.021730332301823103 0.00064425201858109597 0 0.021485557806825772 0.00091558756190975737 0 0.022789626551385972 6.9363176372198293e-05 0 0.022005158825625468 -0.0003677916145410801 0 0.020812607630998511 0.00051436914751346269 0 0.019904022075621513 0.0010423407455602744 0 0.018879950901562883 0.0013605388955595515 0 0.021425406761602633 0.00022925935124676287 0 0.021316787293784684 0.00044222625826050846 0 0.020426764633893618 0.000493790416702769 0 0.024107521085511695 -0.00021381168644774153 0 0.024087467493508471 -0.00020512790046652685 0 0.02404198167476981 -0.00018034236469565798 0 0.021749484178995245 0.0004866781198571864 0 0.016360824795281816 0.00031378080556768829 0 0.020812607630998511 0.00051436914751346269 0 0.020615442752431986 0.00094956055028057903 0 0.019904022075621513 0.0010423407455602744 0 0.020812607630998511 0.00051436914751346269 0 0.020886692092321787 0.00091490051693930035 0 0.020615442752431986 0.00094956055028057903 0 0.019904022075621513 0.0010423407455602744 0 0.020851688012408158 0.0013299940503703046 0 0.018879950901562883 0.0013605388955595515 0 0.017507276246316594 0.0014592662332150715 0 0.016360824795281816 0.00031378080556768829 0 0.014034878269809136 0.0015902064546742076 0 0.014356867765249751 0.0014372444513809271 0 0.014699283483063166 0.0015711613609429385 0 0.020615442752431986 0.00094956055028057903 0 0.019904022075621513 0.0010423407455602744 0 0.020851688012408158 0.0013299940503703046 0 0.020886692092321787 0.00091490051693930035 0 0.020615442752431986 0.00094956055028057903 0 0.020851688012408158 0.0013299940503703046 0 0.014034878269809136 0.0015902064546742076 0 0.014142722004437889 0.0013491711752164368 0 0.01391809401667354 0.0012960758308017495 0 0.014034878269809136 0.0015902064546742076 0 0.014142722004437889 0.0013491711752164368 0 0.014356867765249751 0.0014372444513809271 0 0.018857871140941802 0.00061402602945558721 0 0.017248076207668883 0.0014506794577052102 0 0.022315232787445877 0.0011076185206948805 0 0.021485557806825772 0.00091558756190975737 0 0.021460336202910341 0.0012547925848552979 0 0.013804314599357345 0.0015897242983007227 0 0.013622856092255388 0.0010731614091939587 0 0.01391809401667354 0.0012960758308017495 0 0.021692612105661504 0.00079219834924463889 0 0.020911430336859591 0.00078476372700523049 0 0.021165666169227174 0.0018176770013709424 0 0.021485557806825772 0.00091558756190975737 0 0.020851688012408158 0.0013299940503703046 0 0.021460336202910341 0.0012547925848552979 0 0.017507276246316594 0.0014592662332150715 0 0.018857871140941802 0.00061402602945558721 0 0.014034878269809136 0.0015902064546742076 0 0.013804314599357345 0.0015897242983007227 0 0.01391809401667354 0.0012960758308017495 0 0.013622856092255388 0.0010731614091939587 0 0.01391809401667354 0.0012960758308017495 0 0.01426189756009903 0.0010729470633628955 0 0.014142722004437889 0.0013491711752164368 0 0.014356867765249751 0.0014372444513809271 0 0.01426189756009903 0.0010729470633628955 0 0.014142722004437889 0.0013491711752164368 0 0.01391809401667354 0.0012960758308017495 0 0.01426189756009903 0.0010729470633628955 0 0.012305893156311837 -0.00071553266809970333 0 0.012303830587074009 -0.0003277938644105265 0 0.012747371834459349 -0.00025470395297905781 0 0.012805852126704763 2.9954129016829608e-06 0 0.013364026250392286 0.00025555397325519648 0 0.013622856092255388 0.0010731614091939587 0 0.01426189756009903 0.0010729470633628955 0 0.013800373688714193 0.00060689176939905101 0 0.013622856092255388 0.0010731614091939587 0 0.013800373688714193 0.00060689176939905101 0 0.013439870417781588 0.0005853678002097465 0 0.021755334128746334 0.0021950016690796192 0 0.02246988626485449 0.0027575468482072571 0 0.021387021566499541 0.0027768099823625384 0 0.021165666169227174 0.0018176770013709424 0 0.021755334128746334 0.0021950016690796192 0 0.021387021566499541 0.0027768099823625384 0 0.017248076207668883 0.0014506794577052102 0 0.017725721826305996 0.0019475199509483851 0 0.021692612105661504 0.00079219834924463889 0 0.021165666169227174 0.0018176770013709424 0 0.022311580586456572 0.0017223121114259892 0 0.021165666169227174 0.0018176770013709424 0 0.021755334128746334 0.0021950016690796192 0 0.022311580586456572 0.0017223121114259892 0 0.021755334128746334 0.0021950016690796192 0 0.022311580586456572 0.0017223121114259892 0 0.02246988626485449 0.0027575468482072571 0 0.022311580586456572 0.0017223121114259892 0 0.02246988626485449 0.0027575468482072571 0 0.023360846071151915 0.0017085115814601082 0 0.0088521627623138859 0.00028653556686274417 0 0.0088756266052527014 0.0001441017381502402 0 0.0088038560308990287 -0.00021415942626031359 0 0.015895361209578556 0.0015668952720918215 0 0.016045477124494459 0.00074187523911032141 0 0.0088756266052527014 0.0001441017381502402 0 0.0093715923613176995 0.00012701946205410236 0 0.008889795721639936 0.0003031167357754232 0 0.0088756266052527014 0.0001441017381502402 0 0.0088038560308990287 -0.00021415942626031359 0 0.0094116342162744431 -0.00026789432930495236 0 0.0088038560308990287 -0.00021415942626031359 0 0.0094116342162744431 -0.00026789432930495236 0 0.0093168829328177018 -0.00098565445074766129 0 0.022311580586456572 0.0017223121114259892 0 0.023360846071151915 0.0017085115814601082 0 0.023063790350949086 0.00090644996671730173 0 0.01011589414995377 -5.0520412830712172e-05 0 0.0093715923613176995 0.00012701946205410236 0 0.0094116342162744431 -0.00026789432930495236 0 0.01011589414995377 -5.0520412830712172e-05 0 0.0093715923613176995 0.00012701946205410236 0 0.009940619055582512 0.00044909176719895577 0 0.0088756266052527014 0.0001441017381502402 0 0.0093715923613176995 0.00012701946205410236 0 0.0094116342162744431 -0.00026789432930495236 0 0.01011589414995377 -5.0520412830712172e-05 0 0.0094116342162744431 -0.00026789432930495236 0 0.010123768887205127 -0.00066402260476996263 0 0.010123768887205127 -0.00066402260476996263 0 0.0093168829328177018 -0.00098565445074766129 0 0.010206555022805246 -0.0012168031886620253 0 0.0094116342162744431 -0.00026789432930495236 0 0.010123768887205127 -0.00066402260476996263 0 0.0093168829328177018 -0.00098565445074766129 0 0.02389452757260933 0.00082144870587013731 0 0.02377910782878077 0.000266475065048373 0 0.024053201874872272 0.00033774871140583953 0 0.016665768468308546 -7.0685224992744018e-05 0 0.016635311645393794 -0.00074901997860887413 0 0.010581812396930856 -0.0017309838010771228 0 0.010206555022805246 -0.0012168031886620253 0 0.0099667306580015387 -0.0016925290129584708 0 0.0093168829328177018 -0.00098565445074766129 0 0.010206555022805246 -0.0012168031886620253 0 0.0099667306580015387 -0.0016925290129584708 0 0.023360846071151915 0.0017085115814601082 0 0.02389452757260933 0.00082144870587013731 0 0.023063790350949086 0.00090644996671730173 0 0.016045477124494459 0.00074187523911032141 0 0.016665768468308546 -7.0685224992744018e-05 0 0.02389452757260933 0.00082144870587013731 0 0.023063790350949086 0.00090644996671730173 0 0.023458482116308504 0.00044463186227718939 0 0.02389452757260933 0.00082144870587013731 0 0.023458482116308504 0.00044463186227718939 0 0.02377910782878077 0.000266475065048373 0 0.023063790350949086 0.00090644996671730173 0 0.023458482116308504 0.00044463186227718939 0 0.023016509979307414 0.0002854736232924146 0 0.023458482116308504 0.00044463186227718939 0 0.023490371005918546 3.5936464691078737e-05 0 0.023016509979307414 0.0002854736232924146 0 0.023458482116308504 0.00044463186227718939 0 0.023490371005918546 3.5936464691078737e-05 0 0.02377910782878077 0.000266475065048373 0 0.02377910782878077 0.000266475065048373 0 0.023807670667458636 7.2721169980779029e-05 0 0.023938907569359513 0.00015133012331688251 0 0.023490371005918546 3.5936464691078737e-05 0 0.02377910782878077 0.000266475065048373 0 0.023807670667458636 7.2721169980779029e-05 0 0.023490371005918546 3.5936464691078737e-05 0 0.023776277748001659 4.9917374289144068e-05 0 0.023774958702176757 6.6693315020576851e-05 0 0.023490371005918546 3.5936464691078737e-05 0 0.023807670667458636 7.2721169980779029e-05 0 0.023776277748001659 4.9917374289144068e-05 0 0.019745433181545202 -6.733831476462292e-05 0 0.016635311645393794 -0.00074901997860887413 0 0.02377910782878077 0.000266475065048373 0 0.024053201874872272 0.00033774871140583953 0 0.023938907569359513 0.00015133012331688251 0 0.023807670667458636 7.2721169980779029e-05 0 0.023938907569359513 0.00015133012331688251 0 0.024001518255654247 6.3166814611990017e-05 0 0.024110169146162271 0.00015589935855893233 0 0.024053201874872272 0.00033774871140583953 0 0.024044583593070601 9.3892963465969822e-05 0 0.024053201874872272 0.00033774871140583953 0 0.023938907569359513 0.00015133012331688251 0 0.024044583593070601 9.3892963465969822e-05 0 0.019745433181545202 -6.733831476462292e-05 0 0.024631357516478266 0.00047226265845318768 0 0.024171319865132775 0.00011083206426634416 0 0.024105796908581868 0.00014987519030467035 0 0.024118826800317867 5.3197564970488123e-05 0 0.024105796908581868 0.00014987519030467035 0 0.024001518255654247 6.3166814611990017e-05 0 0.024118826800317867 5.3197564970488123e-05 0 0.024631357516478266 0.00047226265845318768 0 0.023828063687860692 -2.6026451162623046e-05 0 0.023938907569359513 0.00015133012331688251 0 0.024044583593070601 9.3892963465969822e-05 0 0.024001518255654247 6.3166814611990017e-05 0 0.024070779772645965 -4.279166722499839e-06 0 0.023968787612273095 1.2022521520042659e-05 0 0.024063467640859832 -5.4178191045101365e-05 0 0.024001518255654247 6.3166814611990017e-05 0 0.024070779772645965 -4.279166722499839e-06 0 0.024118826800317867 5.3197564970488123e-05 0 0.024001518255654247 6.3166814611990017e-05 0 0.024070779772645965 -4.279166722499839e-06 0 0.023968787612273095 1.2022521520042659e-05 0 0.024070779772645965 -4.279166722499839e-06 0 0.024118826800317867 5.3197564970488123e-05 0 0.024157917279268221 -9.2378242974280899e-06 0 0.024202836570781053 4.4558793918317904e-05 0 0.024118826800317867 5.3197564970488123e-05 0 0.024157917279268221 -9.2378242974280899e-06 0 0.023807670667458636 7.2721169980779029e-05 0 0.023776277748001659 4.9917374289144068e-05 0 0.023889452529579573 1.3265221137388168e-05 0 0.023776277748001659 4.9917374289144068e-05 0 0.023891013917449282 6.9217492374968542e-06 0 0.023774958702176757 6.6693315020576851e-05 0 0.023776277748001659 4.9917374289144068e-05 0 0.023891013917449282 6.9217492374968542e-06 0 0.023889452529579573 1.3265221137388168e-05 0 0.023807670667458636 7.2721169980779029e-05 0 0.023968787612273095 1.2022521520042659e-05 0 0.023889452529579573 1.3265221137388168e-05 0 0.023807670667458636 7.2721169980779029e-05 0 0.024001518255654247 6.3166814611990017e-05 0 0.023968787612273095 1.2022521520042659e-05 0 0.023968787612273095 1.2022521520042659e-05 0 0.023889452529579573 1.3265221137388168e-05 0 0.023999513972440399 -5.8395718714343823e-05 0 0.023891013917449282 6.9217492374968542e-06 0 0.023889452529579573 1.3265221137388168e-05 0 0.023999513972440399 -5.8395718714343823e-05 0 0.023891013917449282 6.9217492374968542e-06 0 0.023825170725266784 2.4993283469562937e-05 0 0.023774958702176757 6.6693315020576851e-05 0 0.023891013917449282 6.9217492374968542e-06 0 0.023825170725266784 2.4993283469562937e-05 0 0.024058508353898601 -0.00011514452168970224 0 0.024129815988942972 -0.0002152684123456135 0 0.024154420033054461 -0.00022408029066487439 0 0.024145537339360711 -0.00016698328216331504 0 0.024154420033054461 -0.00022408029066487439 0 0.024194437959855885 -0.00016134109273751741 0 0.024145537339360711 -0.00016698328216331504 0 0.024129815988942972 -0.0002152684123456135 0 0.024138900486879965 -0.00021308428378939625 0 0.024154420033054461 -0.00022408029066487439 0 0.023825170725266784 2.4993283469562937e-05 0 0.023789030187994404 5.8348968897552498e-05 0 0.023834697462293788 6.7871599389729312e-05 0 0.024138900486879965 -0.00021308428378939625 0 0.024100591722234044 -0.00020144003397690527 0 0.024154420033054461 -0.00022408029066487439 0 0.023985470223337489 -8.6801574548012544e-05 0 0.023985352298355266 -8.4751803995594563e-05 0 0.023825170725266784 2.4993283469562937e-05 0 0.023774958702176757 6.6693315020576851e-05 0 0.023789030187994404 5.8348968897552498e-05 0 0.023490371005918546 3.5936464691078737e-05 0 0.023774958702176757 6.6693315020576851e-05 0 0.023736297932959737 1.9376396421277913e-05 0 0.023774958702176757 6.6693315020576851e-05 0 0.023736297932959737 1.9376396421277913e-05 0 0.023789030187994404 5.8348968897552498e-05 0 0.023736297932959737 1.9376396421277913e-05 0 0.023789030187994404 5.8348968897552498e-05 0 0.023802376269996931 3.3074956809545008e-05 0 0.023834697462293788 6.7871599389729312e-05 0 0.023861094902020954 -4.5791548329205713e-05 0 0.023999925794305189 -0.00018142144018040127 0 0.023985352298355266 -8.4751803995594563e-05 0 0.024005949694156942 -0.00018289546794801983 0 0.024138900486879965 -0.00021308428378939625 0 0.023999925794305189 -0.00018142144018040127 0 0.024100591722234044 -0.00020144003397690527 0 0.023789030187994404 5.8348968897552498e-05 0 0.023802376269996931 3.3074956809545008e-05 0 0.023834697462293788 6.7871599389729312e-05 0 0.023736297932959737 1.9376396421277913e-05 0 0.023802376269996931 3.3074956809545008e-05 0 0.023861094902020954 -4.5791548329205713e-05 0 0.023802376269996931 3.3074956809545008e-05 0 0.023834697462293788 6.7871599389729312e-05 0 0.023861094902020954 -4.5791548329205713e-05 0 0.023736297932959737 1.9376396421277913e-05 0 0.023861094902020954 -4.5791548329205713e-05 0 0.023895243241425401 -0.0001769969986647729 0 0.021425406761602633 0.00022925935124676287 0 0.022238587960284436 8.4946552014669119e-05 0 0.022353256116447846 3.5065134966537123e-05 0 0.023861094902020954 -4.5791548329205713e-05 0 0.023895243241425401 -0.0001769969986647729 0 0.023999925794305189 -0.00018142144018040127 0 0.02221956492422502 0.0002961602577109394 0 0.021847835189678973 0.00041375905066088492 0 0.022238587960284436 8.4946552014669119e-05 0 0.02221956492422502 0.0002961602577109394 0 0.022238587960284436 8.4946552014669119e-05 0 0.022308434353793906 0.00018022150388602743 0 0.022238587960284436 8.4946552014669119e-05 0 0.022353256116447846 3.5065134966537123e-05 0 0.022308434353793906 0.00018022150388602743 0 0.022451068821489346 0.00031947018481335101 0 0.02221956492422502 0.0002961602577109394 0 0.022308434353793906 0.00018022150388602743 0 0.022451068821489346 0.00031947018481335101 0 0.022353256116447846 3.5065134966537123e-05 0 0.022308434353793906 0.00018022150388602743 0 0.023490371005918546 3.5936464691078737e-05 0 0.022353256116447846 3.5065134966537123e-05 0 0.023016509979307414 0.0002854736232924146 0 0.022451068821489346 0.00031947018481335101 0 0.022353256116447846 3.5065134966537123e-05 0 0.023016509979307414 0.0002854736232924146 0 0.023448918971112696 6.0348150424116152e-06 0 0.023120010269313492 -5.5809900039817219e-05 0 0.023490371005918546 3.5936464691078737e-05 0 0.023736297932959737 1.9376396421277913e-05 0 0.023895243241425401 -0.0001769969986647729 0 0.024087467493508471 -0.00020512790046652685 0 0.024091334797937788 -0.00019398053543428126 0 0.024079452199394374 -0.00021378878477220641 0 0.024087467493508471 -0.00020512790046652685 0 0.024087420735232356 -0.00019744301198668595 0 0.024091334797937788 -0.00019398053543428126 0 0.024107521085511695 -0.00021381168644774153 0 0.024087467493508471 -0.00020512790046652685 0 0.024087420735232356 -0.00019744301198668595 0 0.024107521085511695 -0.00021381168644774153 0 0.024087420735232356 -0.00019744301198668595 0 0.023999925794305189 -0.00018142144018040127 0 0.024107521085511695 -0.00021381168644774153 0 0.023895243241425401 -0.0001769969986647729 0 0.023999925794305189 -0.00018142144018040127 0 0.022789626551385972 6.9363176372198293e-05 0 0.023120010269313492 -5.5809900039817219e-05 0 0.023999925794305189 -0.00018142144018040127 0 0.024091334797937788 -0.00019398053543428126 0 0.024100591722234044 -0.00020144003397690527 0 0.024087420735232356 -0.00019744301198668595 0 0.023999925794305189 -0.00018142144018040127 0 0.024091334797937788 -0.00019398053543428126 0 0.024091334797937788 -0.00019398053543428126 0 0.02410593907540115 -0.0002114174741566942 0 0.024100591722234044 -0.00020144003397690527 0 0.02410593907540115 -0.0002114174741566942 0 0.024100591722234044 -0.00020144003397690527 0 0.024121141023514502 -0.00023250435004646737 0 0.02410593907540115 -0.0002114174741566942 0 0.024121141023514502 -0.00023250435004646737 0 0.024079452199394374 -0.00021378878477220641 0 0.024091334797937788 -0.00019398053543428126 0 0.02410593907540115 -0.0002114174741566942 0 0.024079452199394374 -0.00021378878477220641 0 0.024121141023514502 -0.00023250435004646737 0 0.024124427682977321 -0.00028313381665855488 0 0.024079452199394374 -0.00021378878477220641 0 0.024192921323525601 -0.00037514871854117779 0 0.024533498178060976 -0.00048939248370563008 0 0.024117531842503936 -0.00020919885385235426 0 0.024174832265772769 -0.00025434789741658531 0 0.024100591722234044 -0.00020144003397690527 0 0.024121141023514502 -0.00023250435004646737 0 0.024205145261270159 -0.00028306484938771671 0 0.024121141023514502 -0.00023250435004646737 0 0.024124427682977321 -0.00028313381665855488 0 0.024205145261270159 -0.00028306484938771671 0 0.024124427682977321 -0.00028313381665855488 0 0.024205145261270159 -0.00028306484938771671 0 0.024216224454247461 -0.00033168083864302601 0 0.024205145261270159 -0.00028306484938771671 0 0.024216224454247461 -0.00033168083864302601 0 0.024265153871477697 -0.00037608651164581001 0 0.024174832265772769 -0.00025434789741658531 0 0.02422829374567103 -0.00026744889693735381 0 0.024124427682977321 -0.00028313381665855488 0 0.024216224454247461 -0.00033168083864302601 0 0.024296475517948533 -0.00038090157368744825 0 0.024192921323525601 -0.00037514871854117779 0 0.02429876460208175 -0.00038847315285402763 0 0.024351651045562753 -0.0005246714435747158 0 0.024296475517948533 -0.00038090157368744825 0 0.024425765459037137 -0.00044131115042243325 0 0.024296475517948533 -0.00038090157368744825 0 0.024425765459037137 -0.00044131115042243325 0 0.024408527197981904 -0.00036651975360802488 0 0.024296475517948533 -0.00038090157368744825 0 0.024377833419368566 -0.00032319777878034951 0 0.024299224759995873 -0.00029487643459383294 0 0.024296475517948533 -0.00038090157368744825 0 0.024377833419368566 -0.00032319777878034951 0 0.024408527197981904 -0.00036651975360802488 0 0.024377833419368566 -0.00032319777878034951 0 0.024436117696182157 -0.00025022889942797829 0 0.024456041821807311 -0.00032611700044872532 0 0.024296475517948533 -0.00038090157368744825 0 0.024265153871477697 -0.00037608651164581001 0 0.024299224759995873 -0.00029487643459383294 0 0.024194437959855885 -0.00016134109273751741 0 0.024182715422215728 -0.00012473267347094935 0 0.024242619916070924 -0.00012121400715401269 0 0.02422829374567103 -0.00026744889693735381 0 0.024276237065173744 -0.00020510542701232673 0 0.024216224454247461 -0.00033168083864302601 0 0.024296475517948533 -0.00038090157368744825 0 0.024265153871477697 -0.00037608651164581001 0 0.024145537339360711 -0.00016698328216331504 0 0.024058508353898601 -0.00011514452168970224 0 0.024182715422215728 -0.00012473267347094935 0 0.024194437959855885 -0.00016134109273751741 0 0.024145537339360711 -0.00016698328216331504 0 0.024182715422215728 -0.00012473267347094935 0 0.024129815988942972 -0.0002152684123456135 0 0.024145537339360711 -0.00016698328216331504 0 0.024058508353898601 -0.00011514452168970224 0 0.023985470223337489 -8.6801574548012544e-05 0 0.02403942407404485 -0.00010605155011058751 0 0.024058508353898601 -0.00011514452168970224 0 0.024182715422215728 -0.00012473267347094935 0 0.02417907306933615 -0.00011220418124711817 0 0.024058508353898601 -0.00011514452168970224 0 0.02417907306933615 -0.00011220418124711817 0 0.024113916159702532 -0.00010619099914077345 0 0.024182715422215728 -0.00012473267347094935 0 0.024268320530393774 -0.00012165613056176583 0 0.024242619916070924 -0.00012121400715401269 0 0.024182715422215728 -0.00012473267347094935 0 0.024268320530393774 -0.00012165613056176583 0 0.02417907306933615 -0.00011220418124711817 0 0.02417907306933615 -0.00011220418124711817 0 0.024113916159702532 -0.00010619099914077345 0 0.024211910693032763 -0.00011054828582847837 0 0.02417907306933615 -0.00011220418124711817 0 0.024281296518501066 -0.00010506642485580149 0 0.024211910693032763 -0.00011054828582847837 0 0.024281296518501066 -0.00010506642485580149 0 0.024211910693032763 -0.00011054828582847837 0 0.024298221196571993 -9.4797281909773188e-05 0 0.024268320530393774 -0.00012165613056176583 0 0.02417907306933615 -0.00011220418124711817 0 0.024281296518501066 -0.00010506642485580149 0 0.024268320530393774 -0.00012165613056176583 0 0.024281296518501066 -0.00010506642485580149 0 0.024346716846791096 -0.00014052542924583431 0 0.024346716846791096 -0.00014052542924583431 0 0.024436117696182157 -0.00025022889942797829 0 0.024513330045349342 -0.00015957351738597785 0 0.024377833419368566 -0.00032319777878034951 0 0.024436117696182157 -0.00025022889942797829 0 0.024299224759995873 -0.00029487643459383294 0 0.024268320530393774 -0.00012165613056176583 0 0.024346716846791096 -0.00014052542924583431 0 0.024242619916070924 -0.00012121400715401269 0 0.024332052375011112 -0.00013962535282161726 0 0.024276237065173744 -0.00020510542701232673 0 0.024346716846791096 -0.00014052542924583431 0 0.024436117696182157 -0.00025022889942797829 0 0.024299224759995873 -0.00029487643459383294 0 0.024225894843165272 -1.4349985376324547e-05 0 0.024194662468824749 -5.6308971201877726e-05 0 0.024157917279268221 -9.2378242974280899e-06 0 0.024194662468824749 -5.6308971201877726e-05 0 0.024157917279268221 -9.2378242974280899e-06 0 0.024125405222776505 -5.3656044805474363e-05 0 0.024194662468824749 -5.6308971201877726e-05 0 0.024125405222776505 -5.3656044805474363e-05 0 0.024155581302022791 -8.174521784221986e-05 0 0.024070779772645965 -4.279166722499839e-06 0 0.024157917279268221 -9.2378242974280899e-06 0 0.024125405222776505 -5.3656044805474363e-05 0 0.024070779772645965 -4.279166722499839e-06 0 0.024125405222776505 -5.3656044805474363e-05 0 0.024063467640859832 -5.4178191045101365e-05 0 0.024125405222776505 -5.3656044805474363e-05 0 0.024127457248067002 -9.157899369508952e-05 0 0.024063467640859832 -5.4178191045101365e-05 0 0.024125405222776505 -5.3656044805474363e-05 0 0.024127457248067002 -9.157899369508952e-05 0 0.024155581302022791 -8.174521784221986e-05 0 0.024076527183181744 -8.005878975347022e-05 0 0.024127457248067002 -9.157899369508952e-05 0 0.024063467640859832 -5.4178191045101365e-05 0 0.024076527183181744 -8.005878975347022e-05 0 0.024127457248067002 -9.157899369508952e-05 0 0.024113916159702532 -0.00010619099914077345 0 0.023968787612273095 1.2022521520042659e-05 0 0.024063467640859832 -5.4178191045101365e-05 0 0.023999513972440399 -5.8395718714343823e-05 0 0.024076527183181744 -8.005878975347022e-05 0 0.024063467640859832 -5.4178191045101365e-05 0 0.023999513972440399 -5.8395718714343823e-05 0 0.023891013917449282 6.9217492374968542e-06 0 0.024058508353898601 -0.00011514452168970224 0 0.023999513972440399 -5.8395718714343823e-05 0 0.024076527183181744 -8.005878975347022e-05 0 0.023999513972440399 -5.8395718714343823e-05 0 0.024113916159702532 -0.00010619099914077345 0 0.024058508353898601 -0.00011514452168970224 0 0.023999513972440399 -5.8395718714343823e-05 0 0.024113916159702532 -0.00010619099914077345 0 0.024113916159702532 -0.00010619099914077345 0 0.024211910693032763 -0.00011054828582847837 0 0.024175997462234439 -0.00011215772615431459 0 0.024211910693032763 -0.00011054828582847837 0 0.024175997462234439 -0.00011215772615431459 0 0.024244022334809923 -0.00011186536034425258 0 0.024175997462234439 -0.00011215772615431459 0 0.024200045723111484 -0.00011647022344203332 0 0.024222144297131241 -0.00011892373524166204 0 0.024175997462234439 -0.00011215772615431459 0 0.024222144297131241 -0.00011892373524166204 0 0.024244022334809923 -0.00011186536034425258 0 0.024127457248067002 -9.157899369508952e-05 0 0.024175997462234439 -0.00011215772615431459 0 0.024171258649296302 -0.0001017828343631026 0 0.024127457248067002 -9.157899369508952e-05 0 0.024113916159702532 -0.00010619099914077345 0 0.024175997462234439 -0.00011215772615431459 0 0.024127457248067002 -9.157899369508952e-05 0 0.024155581302022791 -8.174521784221986e-05 0 0.024171258649296302 -0.0001017828343631026 0 0.024155581302022791 -8.174521784221986e-05 0 0.024171258649296302 -0.0001017828343631026 0 0.024192292563035893 -8.7270547541940766e-05 0 0.024171258649296302 -0.0001017828343631026 0 0.024204763093861319 -0.00010702469339963161 0 0.024192292563035893 -8.7270547541940766e-05 0 0.024175997462234439 -0.00011215772615431459 0 0.024171258649296302 -0.0001017828343631026 0 0.024200045723111484 -0.00011647022344203332 0 0.024200045723111484 -0.00011647022344203332 0 0.024204763093861319 -0.00010702469339963161 0 0.024217813593707966 -0.00012050310618963473 0 0.024171258649296302 -0.0001017828343631026 0 0.024200045723111484 -0.00011647022344203332 0 0.024204763093861319 -0.00010702469339963161 0 0.024241923764316272 -8.5555055648732723e-05 0 0.024204763093861319 -0.00010702469339963161 0 0.024231999568749066 -0.00011593164328129122 0 0.024204763093861319 -0.00010702469339963161 0 0.024217813593707966 -0.00012050310618963473 0 0.024231999568749066 -0.00011593164328129122 0 0.024194662468824749 -5.6308971201877726e-05 0 0.024155581302022791 -8.174521784221986e-05 0 0.024192292563035893 -8.7270547541940766e-05 0 0.024241923764316272 -8.5555055648732723e-05 0 0.024204763093861319 -0.00010702469339963161 0 0.024192292563035893 -8.7270547541940766e-05 0 0.024241923764316272 -8.5555055648732723e-05 0 0.024194662468824749 -5.6308971201877726e-05 0 0.024192292563035893 -8.7270547541940766e-05 0 0.024269523440381229 -0.00017340483491002308 0 0.024244498701899091 -0.00015347704095676541 0 0.024234916447332687 -0.00016375989073828725 0 0.024269523440381229 -0.00017340483491002308 0 0.024244498701899091 -0.00015347704095676541 0 0.024255165633789644 -0.0001492799848456644 0 0.024244498701899091 -0.00015347704095676541 0 0.024238638714657711 -0.00014187089934199827 0 0.024234916447332687 -0.00016375989073828725 0 0.024244498701899091 -0.00015347704095676541 0 0.024238638714657711 -0.00014187089934199827 0 0.024235573640616834 -0.00013487328300165939 0 0.024244498701899091 -0.00015347704095676541 0 0.02423783238452441 -0.00013958707371253943 0 0.024235573640616834 -0.00013487328300165939 0 0.024244498701899091 -0.00015347704095676541 0 0.02423783238452441 -0.00013958707371253943 0 0.024255165633789644 -0.0001492799848456644 0 0.024260966680963864 -0.00013198827914734785 0 0.024255165633789644 -0.0001492799848456644 0 0.024234836308800817 -0.00013134712118130615 0 0.02423783238452441 -0.00013958707371253943 0 0.024255165633789644 -0.0001492799848456644 0 0.024234836308800817 -0.00013134712118130615 0 0.024260966680963864 -0.00013198827914734785 0 0.024231999568749066 -0.00011593164328129122 0 0.024234836308800817 -0.00013134712118130615 0 0.024217813593707966 -0.00012050310618963473 0 0.024231999568749066 -0.00011593164328129122 0 0.024234836308800817 -0.00013134712118130615 0 0.024217813593707966 -0.00012050310618963473 0 0.024234836308800817 -0.00013134712118130615 0 0.024224573533957586 -0.00012746458709458729 0 0.02423783238452441 -0.00013958707371253943 0 0.024234836308800817 -0.00013134712118130615 0 0.024224573533957586 -0.00012746458709458729 0 0.024200045723111484 -0.00011647022344203332 0 0.024217813593707966 -0.00012050310618963473 0 0.024224573533957586 -0.00012746458709458729 0 0.024200045723111484 -0.00011647022344203332 0 0.024224573533957586 -0.00012746458709458729 0 0.024222144297131241 -0.00011892373524166204 0 0.024224573533957586 -0.00012746458709458729 0 0.024244419475610419 -0.00012063218290996278 0 0.024222144297131241 -0.00011892373524166204 0 0.02423783238452441 -0.00013958707371253943 0 0.024224573533957586 -0.00012746458709458729 0 0.024235573640616834 -0.00013487328300165939 0 0.024224573533957586 -0.00012746458709458729 0 0.024244419475610419 -0.00012063218290996278 0 0.024235573640616834 -0.00013487328300165939 0 0.024238638714657711 -0.00014187089934199827 0 0.024235573640616834 -0.00013487328300165939 0 0.024248522258731375 -0.00011248649174778871 0 0.024244419475610419 -0.00012063218290996278 0 0.024235573640616834 -0.00013487328300165939 0 0.024248522258731375 -0.00011248649174778871 0 0.024244419475610419 -0.00012063218290996278 0 0.024248522258731375 -0.00011248649174778871 0 0.02428664083162687 -9.559972941093869e-05 0 0.02428664083162687 -9.559972941093869e-05 0 0.024262134403802104 -0.0001114725850255402 0 0.024311288172361493 -9.630636003559591e-05 0 0.024244419475610419 -0.00012063218290996278 0 0.02428664083162687 -9.559972941093869e-05 0 0.024262134403802104 -0.0001114725850255402 0 0.024244419475610419 -0.00012063218290996278 0 0.024222144297131241 -0.00011892373524166204 0 0.024262134403802104 -0.0001114725850255402 0 0.024222144297131241 -0.00011892373524166204 0 0.024262134403802104 -0.0001114725850255402 0 0.024244022334809923 -0.00011186536034425258 0 0.024244022334809923 -0.00011186536034425258 0 0.024311288172361493 -9.630636003559591e-05 0 0.024298221196571993 -9.4797281909773188e-05 0 0.024262134403802104 -0.0001114725850255402 0 0.024244022334809923 -0.00011186536034425258 0 0.024311288172361493 -9.630636003559591e-05 0 0.024211910693032763 -0.00011054828582847837 0 0.024244022334809923 -0.00011186536034425258 0 0.024298221196571993 -9.4797281909773188e-05 0 0.024311288172361493 -9.630636003559591e-05 0 0.024298221196571993 -9.4797281909773188e-05 0 0.024380607230760316 -6.799162599330028e-05 0 0.02428664083162687 -9.559972941093869e-05 0 0.024311288172361493 -9.630636003559591e-05 0 0.024379464374408556 -6.8724480110611953e-05 0 0.024311288172361493 -9.630636003559591e-05 0 0.024379464374408556 -6.8724480110611953e-05 0 0.024380607230760316 -6.799162599330028e-05 0 0.024379464374408556 -6.8724480110611953e-05 0 0.024380607230760316 -6.799162599330028e-05 0 0.024474422342651368 -3.7098638594356949e-05 0 0.024379464374408556 -6.8724480110611953e-05 0 0.02444521715841878 -4.1558295618518919e-05 0 0.024335012231418273 -3.8272285715005876e-05 0 0.02444521715841878 -4.1558295618518919e-05 0 0.024474422342651368 -3.7098638594356949e-05 0 0.024626933541141375 -8.8630206963482993e-06 0 0.024379464374408556 -6.8724480110611953e-05 0 0.02444521715841878 -4.1558295618518919e-05 0 0.024474422342651368 -3.7098638594356949e-05 0 0.02444521715841878 -4.1558295618518919e-05 0 0.024358477408700716 5.0344441119785547e-05 0 0.024626933541141375 -8.8630206963482993e-06 0 0.025018933218618863 8.4312373993564896e-06 0 0.025000175281637057 2.5529519838914209e-08 0 0.024999503500458993 -4.5575418447924327e-08 0 0.02444521715841878 -4.1558295618518919e-05 0 0.024358477408700716 5.0344441119785547e-05 0 0.024335012231418273 -3.8272285715005876e-05 0 0.024358477408700716 5.0344441119785547e-05 0 0.024304778179121814 2.804542450921777e-05 0 0.024335012231418273 -3.8272285715005876e-05 0 0.024304778179121814 2.804542450921777e-05 0 0.024270607424051811 -6.708693361733294e-05 0 0.024240071262270388 -2.9957770524649468e-05 0 0.025001901984133507 -7.5798691507133442e-07 0 0.025000175281637057 2.5529519838914209e-08 0 0.025000469570945347 -3.8583542349969252e-07 0 0.024719092392350477 -6.1789458200197223e-06 0 0.024994864589850396 -6.5633858602736862e-06 0 0.025018933218618863 8.4312373993564896e-06 0 0.025001901984133507 -7.5798691507133442e-07 0 0.025000175281637057 2.5529519838914209e-08 0 0.024693273996416302 1.9556304531050771e-05 0 0.024719092392350477 -6.1789458200197223e-06 0 0.024248522258731375 -0.00011248649174778871 0 0.02428664083162687 -9.559972941093869e-05 0 0.024270607424051811 -6.708693361733294e-05 0 0.024304778179121814 2.804542450921777e-05 0 0.024335012231418273 -3.8272285715005876e-05 0 0.024270607424051811 -6.708693361733294e-05 0 0.02428664083162687 -9.559972941093869e-05 0 0.024379464374408556 -6.8724480110611953e-05 0 0.024335012231418273 -3.8272285715005876e-05 0 0.02428664083162687 -9.559972941093869e-05 0 0.024335012231418273 -3.8272285715005876e-05 0 0.024270607424051811 -6.708693361733294e-05 0 0.024297259368211664 -7.2136585270891351e-05 0 0.024184998919781729 -0.00010693873385604227 0 0.024270607424051811 -6.708693361733294e-05 0 0.024240071262270388 -2.9957770524649468e-05 0 0.024230918766944502 -4.2095771968903978e-05 0 0.024248522258731375 -0.00011248649174778871 0 0.024270607424051811 -6.708693361733294e-05 0 0.024234916447332687 -0.00016375989073828725 0 0.024719092392350477 -6.1789458200197223e-06 0 0.024562193336125786 -1.3433517283212121e-05 0 0.025000175281637057 2.5529519838914209e-08 0 0.025000469570945347 -3.8583542349969252e-07 0 0.024999949337166864 -8.688085510312008e-09 0 0.024863166727503144 -7.4634567196969319e-06 0 0.024925005542578337 -1.1680770489566827e-05 0 0.024933824043191125 8.7401110254523368e-06 0 0.024980218625321762 -3.0695692973160307e-06 0 0.024994864589850396 -6.5633858602736862e-06 0 0.024996504746878732 -2.6914134092052225e-06 0 0.024933824043191125 8.7401110254523368e-06 0 0.024985480259552058 1.6092957657592571e-05 0 0.024996504746878732 -2.6914134092052225e-06 0 0.024925005542578337 -1.1680770489566827e-05 0 0.024933824043191125 8.7401110254523368e-06 0 0.024996504746878732 -2.6914134092052225e-06 0 0.025000469570945347 -3.8583542349969252e-07 0 0.024999949337166864 -8.688085510312008e-09 0 0.024238638714657711 -0.00014187089934199827 0 0.024248522258731375 -0.00011248649174778871 0 0.024234916447332687 -0.00016375989073828725 0 0.024562193336125786 -1.3433517283212121e-05 0 0.024635920096051915 -4.9392878079706335e-06 0 0.024240071262270388 -2.9957770524649468e-05 0 0.024238721989027854 -4.6209348910606954e-05 0 0.024230918766944502 -4.2095771968903978e-05 0 0.02442287807102584 -4.9281329009309087e-05 0 0.024357190411632017 -7.8824451533509492e-05 0 0.024403252950464225 -2.3376033011843311e-05 0 0.02442287807102584 -4.9281329009309087e-05 0 0.024403252950464225 -2.3376033011843311e-05 0 0.024438133950099045 -5.5753880183344666e-06 0 0.02442287807102584 -4.9281329009309087e-05 0 0.02451783056248864 -3.393605880009419e-05 0 0.024438133950099045 -5.5753880183344666e-06 0 0.02442287807102584 -4.9281329009309087e-05 0 0.02451783056248864 -3.393605880009419e-05 0 0.024479398242923795 -9.4869129144115868e-05 0 0.02442287807102584 -4.9281329009309087e-05 0 0.024479398242923795 -9.4869129144115868e-05 0 0.024397461413353642 -9.1170188685457012e-05 0 0.024346716846791096 -0.00014052542924583431 0 0.024479398242923795 -9.4869129144115868e-05 0 0.024513330045349342 -0.00015957351738597785 0 0.024346716846791096 -0.00014052542924583431 0 0.024397461413353642 -9.1170188685457012e-05 0 0.024357190411632017 -7.8824451533509492e-05 0 0.024346716846791096 -0.00014052542924583431 0 0.024479398242923795 -9.4869129144115868e-05 0 0.024397461413353642 -9.1170188685457012e-05 0 0.02442287807102584 -4.9281329009309087e-05 0 0.024397461413353642 -9.1170188685457012e-05 0 0.024357190411632017 -7.8824451533509492e-05 0 0.024281296518501066 -0.00010506642485580149 0 0.024346716846791096 -0.00014052542924583431 0 0.024357190411632017 -7.8824451533509492e-05 0 0.024281296518501066 -0.00010506642485580149 0 0.024357190411632017 -7.8824451533509492e-05 0 0.024357840714409978 -6.7317060349137789e-05 0 0.024281296518501066 -0.00010506642485580149 0 0.024298221196571993 -9.4797281909773188e-05 0 0.024357840714409978 -6.7317060349137789e-05 0 0.024298221196571993 -9.4797281909773188e-05 0 0.024357840714409978 -6.7317060349137789e-05 0 0.024380607230760316 -6.799162599330028e-05 0 0.024357840714409978 -6.7317060349137789e-05 0 0.024380607230760316 -6.799162599330028e-05 0 0.024423328096288412 -3.4668649738304657e-05 0 0.024357190411632017 -7.8824451533509492e-05 0 0.024357840714409978 -6.7317060349137789e-05 0 0.024403252950464225 -2.3376033011843311e-05 0 0.024357840714409978 -6.7317060349137789e-05 0 0.024403252950464225 -2.3376033011843311e-05 0 0.024423328096288412 -3.4668649738304657e-05 0 0.024403252950464225 -2.3376033011843311e-05 0 0.024464857576029932 -1.1408988434686999e-05 0 0.024395584443319095 -1.7635605831299525e-05 0 0.024403252950464225 -2.3376033011843311e-05 0 0.024423328096288412 -3.4668649738304657e-05 0 0.024464857576029932 -1.1408988434686999e-05 0 0.024380607230760316 -6.799162599330028e-05 0 0.024423328096288412 -3.4668649738304657e-05 0 0.024474422342651368 -3.7098638594356949e-05 0 0.024423328096288412 -3.4668649738304657e-05 0 0.024464857576029932 -1.1408988434686999e-05 0 0.024474422342651368 -3.7098638594356949e-05 0 0.024464857576029932 -1.1408988434686999e-05 0 0.024474422342651368 -3.7098638594356949e-05 0 0.024626933541141375 -8.8630206963482993e-06 0 0.024693273996416302 1.9556304531050771e-05 0 0.024839594900904184 2.1216561491339594e-05 0 0.024358477408700716 5.0344441119785547e-05 0 0.024851250423191959 1.7521404504707298e-05 0 0.024626933541141375 -8.8630206963482993e-06 0 0.024851250423191959 1.7521404504707298e-05 0 0.024626933541141375 -8.8630206963482993e-06 0 0.02506228735212666 -3.4171175338756422e-05 0 0.025018933218618863 8.4312373993564896e-06 0 0.024851250423191959 1.7521404504707298e-05 0 0.024999503500458993 -4.5575418447924327e-08 0 0.024630401632862838 -1.2826038881821942e-05 0 0.024726790411925176 -1.7789000859016477e-05 0 0.024851250423191959 1.7521404504707298e-05 0 0.024999503500458993 -4.5575418447924327e-08 0 0.025000122522804851 5.7680491389409407e-08 0 0.024464857576029932 -1.1408988434686999e-05 0 0.024626933541141375 -8.8630206963482993e-06 0 0.024395584443319095 -1.7635605831299525e-05 0 0.024851250423191959 1.7521404504707298e-05 0 0.02506228735212666 -3.4171175338756422e-05 0 0.025000122522804851 5.7680491389409407e-08 0 0.02506228735212666 -3.4171175338756422e-05 0 0.025000122522804851 5.7680491389409407e-08 0 0.025018498039922454 -1.1027686141051746e-05 0 0.024726790411925176 -1.7789000859016477e-05 0 0.024763467243776292 4.2006026400158058e-05 0 0.02506228735212666 -3.4171175338756422e-05 0 0.025018498039922454 -1.1027686141051746e-05 0 0.024997223317603966 1.5371484304560521e-05 0 0.025000122522804851 5.7680491389409407e-08 0 0.025018498039922454 -1.1027686141051746e-05 0 0.025000057948188357 -2.7235437158093848e-08 0 0.024403252950464225 -2.3376033011843311e-05 0 0.024395584443319095 -1.7635605831299525e-05 0 0.024438133950099045 -5.5753880183344666e-06 0 0.024395584443319095 -1.7635605831299525e-05 0 0.024438133950099045 -5.5753880183344666e-06 0 0.024518460910072298 8.3795536332853854e-05 0 0.02451783056248864 -3.393605880009419e-05 0 0.024438133950099045 -5.5753880183344666e-06 0 0.024518460910072298 8.3795536332853854e-05 0 0.025018498039922454 -1.1027686141051746e-05 0 0.024997223317603966 1.5371484304560521e-05 0 0.025000057948188357 -2.7235437158093848e-08 0 0.024763467243776292 4.2006026400158058e-05 0 0.024885013089568829 4.2057088483395728e-05 0 0.024997223317603966 1.5371484304560521e-05 0 0.025000057948188357 -2.7235437158093848e-08 0 0.024999791400376718 1.455797521030443e-08 0 0.024999791400376718 1.455797521030443e-08 0 0.02489544046957122 3.9167881912850514e-05 0 0.024926926600524663 1.32974728688904e-05 0 0.024997223317603966 1.5371484304560521e-05 0 0.024999791400376718 1.455797521030443e-08 0 0.02489544046957122 3.9167881912850514e-05 0 0.02489544046957122 3.9167881912850514e-05 0 0.024783792151668226 -2.7279076964300914e-05 0 0.024663823867155921 -1.864990146426181e-05 0 0.02489544046957122 3.9167881912850514e-05 0 0.024783792151668226 -2.7279076964300914e-05 0 0.024856871262781414 -1.8798227625463063e-05 0 0.024518460910072298 8.3795536332853854e-05 0 0.02489544046957122 3.9167881912850514e-05 0 0.024663823867155921 -1.864990146426181e-05 0 0.02451783056248864 -3.393605880009419e-05 0 0.024518460910072298 8.3795536332853854e-05 0 0.024663823867155921 -1.864990146426181e-05 0 0.02451783056248864 -3.393605880009419e-05 0 0.024663823867155921 -1.864990146426181e-05 0 0.024640733083836103 -9.0556597292605693e-05 0 0.02451783056248864 -3.393605880009419e-05 0 0.024479398242923795 -9.4869129144115868e-05 0 0.024640733083836103 -9.0556597292605693e-05 0 0.024783792151668226 -2.7279076964300914e-05 0 0.024663823867155921 -1.864990146426181e-05 0 0.024640733083836103 -9.0556597292605693e-05 0 0.024783792151668226 -2.7279076964300914e-05 0 0.024640733083836103 -9.0556597292605693e-05 0 0.024768907062205549 -6.8372116407801139e-05 0 0.024640733083836103 -9.0556597292605693e-05 0 0.024768907062205549 -6.8372116407801139e-05 0 0.024715635688546681 -0.00012498163126528478 0 0.024621508709463585 -0.00015859197652581621 0 0.024715635688546681 -0.00012498163126528478 0 0.02466257057105049 -0.00019930750025051944 0 0.024640733083836103 -9.0556597292605693e-05 0 0.024621508709463585 -0.00015859197652581621 0 0.024715635688546681 -0.00012498163126528478 0 0.024479398242923795 -9.4869129144115868e-05 0 0.024640733083836103 -9.0556597292605693e-05 0 0.024513330045349342 -0.00015957351738597785 0 0.024640733083836103 -9.0556597292605693e-05 0 0.024621508709463585 -0.00015859197652581621 0 0.024513330045349342 -0.00015957351738597785 0 0.02483734326774948 -0.00010814515823531021 0 0.024746013101944193 -0.00015251467748986943 0 0.024801779091034839 -8.9739427794839161e-05 0 0.02483734326774948 -0.00010814515823531021 0 0.024839025849668721 -0.00017136884879334461 0 0.024785823726905049 -0.00017138696304524348 0 0.02483734326774948 -0.00010814515823531021 0 0.024746013101944193 -0.00015251467748986943 0 0.024785823726905049 -0.00017138696304524348 0 0.024715635688546681 -0.00012498163126528478 0 0.024746013101944193 -0.00015251467748986943 0 0.02466257057105049 -0.00019930750025051944 0 0.024715635688546681 -0.00012498163126528478 0 0.024746013101944193 -0.00015251467748986943 0 0.024801779091034839 -8.9739427794839161e-05 0 0.024801779091034839 -8.9739427794839161e-05 0 0.024884598745685313 -3.4928548925092638e-05 0 0.024856871262781414 -1.8798227625463063e-05 0 0.024768907062205549 -6.8372116407801139e-05 0 0.024801779091034839 -8.9739427794839161e-05 0 0.024856871262781414 -1.8798227625463063e-05 0 0.024768907062205549 -6.8372116407801139e-05 0 0.024715635688546681 -0.00012498163126528478 0 0.024801779091034839 -8.9739427794839161e-05 0 0.024783792151668226 -2.7279076964300914e-05 0 0.024768907062205549 -6.8372116407801139e-05 0 0.024856871262781414 -1.8798227625463063e-05 0 0.02483734326774948 -0.00010814515823531021 0 0.024801779091034839 -8.9739427794839161e-05 0 0.024884598745685313 -3.4928548925092638e-05 0 0.02483734326774948 -0.00010814515823531021 0 0.024884598745685313 -3.4928548925092638e-05 0 0.024912571225496016 -4.8701650776631104e-05 0 0.024884598745685313 -3.4928548925092638e-05 0 0.024926926600524663 1.32974728688904e-05 0 0.024954594482099739 -3.206111086859347e-06 0 0.024884598745685313 -3.4928548925092638e-05 0 0.024954594482099739 -3.206111086859347e-06 0 0.024912571225496016 -4.8701650776631104e-05 0 0.024884598745685313 -3.4928548925092638e-05 0 0.024856871262781414 -1.8798227625463063e-05 0 0.024926926600524663 1.32974728688904e-05 0 0.02489544046957122 3.9167881912850514e-05 0 0.024856871262781414 -1.8798227625463063e-05 0 0.024926926600524663 1.32974728688904e-05 0 0.024999791400376718 1.455797521030443e-08 0 0.024926926600524663 1.32974728688904e-05 0 0.024999888192367186 1.8248551290188613e-08 0 0.024926926600524663 1.32974728688904e-05 0 0.024954594482099739 -3.206111086859347e-06 0 0.024999888192367186 1.8248551290188613e-08 0 0.024954594482099739 -3.206111086859347e-06 0 0.024999942027819692 -2.9451710773743289e-09 0 0.024962086887411822 -1.4975464325983043e-05 0 0.024954594482099739 -3.206111086859347e-06 0 0.024999888192367186 1.8248551290188613e-08 0 0.024999942027819692 -2.9451710773743289e-09 0 0.024999982036947029 -4.0541226739088e-09 0 0.024966223390457117 -1.8743688358338893e-05 0 0.0249999854225148 -4.4083619466113438e-09 0 0.024968832804600525 -2.1222074001199572e-05 0 0.024990335945539816 -1.6845350318342723e-05 0 0.02499996331153655 -7.3357925199546465e-09 0 0.0249999854225148 -4.4083619466113438e-09 0 0.024968832804600525 -2.1222074001199572e-05 0 0.024966223390457117 -1.8743688358338893e-05 0 0.024942507719642543 -6.9783595226204879e-05 0 0.024968832804600525 -2.1222074001199572e-05 0 0.024990335945539816 -1.6845350318342723e-05 0 0.024943350662168948 -6.7563418298841545e-05 0 0.024954594482099739 -3.206111086859347e-06 0 0.024962086887411822 -1.4975464325983043e-05 0 0.024912571225496016 -4.8701650776631104e-05 0 0.024999980424372167 7.1632668390981665e-10 0 0.024999975998231297 1.2688523918327399e-09 0 0.024981037136665784 1.7080573046294797e-06 0 0.024999995631088852 -1.407760563524059e-09 0 0.024998192812552045 -2.3136783198227653e-05 0 0.025000025968664154 6.3424726961403611e-09 0 0.024990335945539816 -1.6845350318342723e-05 0 0.02501294940701013 -3.5263970026488338e-05 0 0.0249999854225148 -4.4083619466113438e-09 0 0.025000025968664154 6.3424726961403611e-09 0 0.024990335945539816 -1.6845350318342723e-05 0 0.024990335945539816 -1.6845350318342723e-05 0 0.02501294940701013 -3.5263970026488338e-05 0 0.024943350662168948 -6.7563418298841545e-05 0 0.024999980424372167 7.1632668390981665e-10 0 0.024975352275610384 1.9616594131817875e-06 0 0.024981037136665784 1.7080573046294797e-06 0 0.024975352275610384 1.9616594131817875e-06 0 0.024981037136665784 1.7080573046294797e-06 0 0.024960975099304485 2.2826825633286307e-06 0 0.024975352275610384 1.9616594131817875e-06 0 0.024946273350406303 9.8554666938576265e-07 0 0.024960975099304485 2.2826825633286307e-06 0 0.024998192812552045 -2.3136783198227653e-05 0 0.024940194561621297 -4.1799710447231769e-05 0 0.02501294940701013 -3.5263970026488338e-05 0 0.025010682573760108 -0.00011977635796743987 0 0.024943350662168948 -6.7563418298841545e-05 0 0.025010682573760108 -0.00011977635796743987 0 0.024943350662168948 -6.7563418298841545e-05 0 0.024927022076077731 -0.0001428255509797264 0 0.024946273350406303 9.8554666938576265e-07 0 0.024960975099304485 2.2826825633286307e-06 0 0.024940967015197719 7.994972606124167e-08 0 0.024962086887411822 -1.4975464325983043e-05 0 0.024912571225496016 -4.8701650776631104e-05 0 0.024940809981640506 -6.7231933806419851e-05 0 0.02483734326774948 -0.00010814515823531021 0 0.024912571225496016 -4.8701650776631104e-05 0 0.024889391927492906 -0.0001075307501441358 0 0.024912571225496016 -4.8701650776631104e-05 0 0.024940809981640506 -6.7231933806419851e-05 0 0.024889391927492906 -0.0001075307501441358 0 0.024940809981640506 -6.7231933806419851e-05 0 0.024927022076077731 -0.0001428255509797264 0 0.024889391927492906 -0.0001075307501441358 0 0.024942507719642543 -6.9783595226204879e-05 0 0.024933390488584631 -0.00013488725347026513 0 0.024927022076077731 -0.0001428255509797264 0 0.024889391927492906 -0.0001075307501441358 0 0.024839025849668721 -0.00017136884879334461 0 0.02483734326774948 -0.00010814515823531021 0 0.024889391927492906 -0.0001075307501441358 0 0.024839025849668721 -0.00017136884879334461 0 0.024839025849668721 -0.00017136884879334461 0 0.024809696582404624 -0.0002530439141586541 0 0.02477849063686724 -0.00021642190072392934 0 0.024839025849668721 -0.00017136884879334461 0 0.024889144903507437 -0.00021829227686365456 0 0.024809696582404624 -0.0002530439141586541 0 0.024927022076077731 -0.0001428255509797264 0 0.024839025849668721 -0.00017136884879334461 0 0.024889144903507437 -0.00021829227686365456 0 0.024889144903507437 -0.00021829227686365456 0 0.024878123236487863 -0.00028990396627279918 0 0.024809696582404624 -0.0002530439141586541 0 0.024878123236487863 -0.00028990396627279918 0 0.024809696582404624 -0.0002530439141586541 0 0.024792801215887023 -0.0003193378964276109 0 0.024754774089847682 -0.00030716022501891198 0 0.024809696582404624 -0.0002530439141586541 0 0.024730288065000994 -0.00027658389843678743 0 0.024754774089847682 -0.00030716022501891198 0 0.024809696582404624 -0.0002530439141586541 0 0.024792801215887023 -0.0003193378964276109 0 0.024946273350406303 9.8554666938576265e-07 0 0.024914033002556707 -7.8348842135545156e-06 0 0.024940967015197719 7.994972606124167e-08 0 0.024940194561621297 -4.1799710447231769e-05 0 0.025253612094177428 -0.00020634614689808305 0 0.025010682573760108 -0.00011977635796743987 0 0.024927022076077731 -0.0001428255509797264 0 0.02500115343845807 -0.00024177000352048136 0 0.024927022076077731 -0.0001428255509797264 0 0.024889144903507437 -0.00021829227686365456 0 0.02500115343845807 -0.00024177000352048136 0 0.024878123236487863 -0.00028990396627279918 0 0.02500115343845807 -0.00024177000352048136 0 0.024926668771457106 -0.00034817303204324302 0 0.024889144903507437 -0.00021829227686365456 0 0.024878123236487863 -0.00028990396627279918 0 0.02500115343845807 -0.00024177000352048136 0 0.025253612094177428 -0.00020634614689808305 0 0.022618524614434005 0.00011674569252915915 0 0.022618524614434005 0.00011674569252915915 0 0.022664294352229632 0.00064031976113465745 0 0.024914033002556707 -7.8348842135545156e-06 0 0.024880974928507882 -2.7809330727421426e-05 0 0.024910299225682175 -1.6792544119977202e-05 0 0.02500115343845807 -0.00024177000352048136 0 0.024926668771457106 -0.00034817303204324302 0 0.024988310004594477 -0.00039624958753755186 0 0.024926668771457106 -0.00034817303204324302 0 0.024920856831783477 -0.00044579031441628007 0 0.024988310004594477 -0.00039624958753755186 0 0.024926668771457106 -0.00034817303204324302 0 0.024920856831783477 -0.00044579031441628007 0 0.024834213620536935 -0.00038199447751762763 0 0.016590006071290818 0.0012606207931664523 0 0.01671740120215346 0.001261501589923657 0 0.016549709603575925 0.0011021013170729624 0 0.016590006071290818 0.0012606207931664523 0 0.016429266903956515 0.0011791822705372653 0 0.016549709603575925 0.0011021013170729624 0 0.022050850869259644 -2.1499708090340528e-05 0 0.022618524614434005 0.00011674569252915915 0 0.021590130520372338 8.1134418798142107e-05 0 0.021043473518535475 -0.0002167370573663861 0 0.021031364267106112 7.9353015466318599e-05 0 0.022050850869259644 -2.1499708090340528e-05 0 0.018315946713523622 0.00092200101389005445 0 0.020157473151190673 0.0010743007619877418 0 0.020153835227983644 0.00098849601997263157 0 0.020500402467307204 0.00099559066562142579 0 0.022618524614434005 0.00011674569252915915 0 0.018315946713523622 0.00092200101389005445 0 0.024761483639075859 -0.00038508352618563119 0 0.024731508718551735 -0.00035785972391049918 0 0.024792801215887023 -0.0003193378964276109 0 0.024761483639075859 -0.00038508352618563119 0 0.024792801215887023 -0.0003193378964276109 0 0.024834213620536935 -0.00038199447751762763 0 0.024761483639075859 -0.00038508352618563119 0 0.024731508718551735 -0.00035785972391049918 0 0.024689560182294495 -0.0004154359410068185 0 0.024754774089847682 -0.00030716022501891198 0 0.024731508718551735 -0.00035785972391049918 0 0.024792801215887023 -0.0003193378964276109 0 0.024878123236487863 -0.00028990396627279918 0 0.024926668771457106 -0.00034817303204324302 0 0.024834213620536935 -0.00038199447751762763 0 0.024878123236487863 -0.00028990396627279918 0 0.024792801215887023 -0.0003193378964276109 0 0.024834213620536935 -0.00038199447751762763 0 0.024136562266738406 -0.00053474397887620542 0 0.02444773536854215 -0.00035991984773720248 0 0.02471493967697181 -0.00046019347226253416 0 0.024920856831783477 -0.00044579031441628007 0 0.024834213620536935 -0.00038199447751762763 0 0.02471493967697181 -0.00046019347226253416 0 0.022050850869259644 -2.1499708090340528e-05 0 0.025759341459321895 -0.00057574171860819211 0 0.022050850869259644 -2.1499708090340528e-05 0 0.020108024789020448 0.0001610505149927908 0 0.02444773536854215 -0.00035991984773720248 0 0.024592600981544532 -0.0003885545131136251 0 0.02471493967697181 -0.00046019347226253416 0 0.024592600981544532 -0.0003885545131136251 0 0.02471493967697181 -0.00046019347226253416 0 0.024691560921353217 -0.00043363290403526509 0 0.024761483639075859 -0.00038508352618563119 0 0.024834213620536935 -0.00038199447751762763 0 0.02471493967697181 -0.00046019347226253416 0 0.024761483639075859 -0.00038508352618563119 0 0.02471493967697181 -0.00046019347226253416 0 0.024689560182294495 -0.0004154359410068185 0 0.024691560921353217 -0.00043363290403526509 0 0.024689560182294495 -0.0004154359410068185 0 0.024651062129799523 -0.00044567803806688051 0 0.02471493967697181 -0.00046019347226253416 0 0.024691560921353217 -0.00043363290403526509 0 0.024689560182294495 -0.0004154359410068185 0 0.024626972753279745 -0.00042991266670067949 0 0.024689560182294495 -0.0004154359410068185 0 0.024651062129799523 -0.00044567803806688051 0 0.024626972753279745 -0.00042991266670067949 0 0.024653931419733401 -0.00039022743824856796 0 0.024689560182294495 -0.0004154359410068185 0 0.024653931419733401 -0.00039022743824856796 0 0.024689560182294495 -0.0004154359410068185 0 0.024692518671899845 -0.00034481966708951433 0 0.024731508718551735 -0.00035785972391049918 0 0.024689560182294495 -0.0004154359410068185 0 0.024692518671899845 -0.00034481966708951433 0 0.024653931419733401 -0.00039022743824856796 0 0.024692518671899845 -0.00034481966708951433 0 0.024632754914428949 -0.00036307036462945776 0 0.024692518671899845 -0.00034481966708951433 0 0.024660241993716595 -0.00031796695678846718 0 0.024632754914428949 -0.00036307036462945776 0 0.024692518671899845 -0.00034481966708951433 0 0.024660241993716595 -0.00031796695678846718 0 0.024730288065000994 -0.00027658389843678743 0 0.024754774089847682 -0.00030716022501891198 0 0.024692518671899845 -0.00034481966708951433 0 0.024730288065000994 -0.00027658389843678743 0 0.024754774089847682 -0.00030716022501891198 0 0.024731508718551735 -0.00035785972391049918 0 0.024692518671899845 -0.00034481966708951433 0 0.024610559860324104 -0.00031455891967312335 0 0.024660241993716595 -0.00031796695678846718 0 0.024632754914428949 -0.00036307036462945776 0 0.024610559860324104 -0.00031455891967312335 0 0.024632754914428949 -0.00036307036462945776 0 0.024568545680459689 -0.00036399697541989931 0 0.024632754914428949 -0.00036307036462945776 0 0.024595534597230264 -0.00040338672262365594 0 0.024568545680459689 -0.00036399697541989931 0 0.024626972753279745 -0.00042991266670067949 0 0.024653931419733401 -0.00039022743824856796 0 0.024595534597230264 -0.00040338672262365594 0 0.024653931419733401 -0.00039022743824856796 0 0.024632754914428949 -0.00036307036462945776 0 0.024595534597230264 -0.00040338672262365594 0 0.024626972753279745 -0.00042991266670067949 0 0.024595534597230264 -0.00040338672262365594 0 0.02456270979242791 -0.00045870273829533954 0 0.024595534597230264 -0.00040338672262365594 0 0.024517087971018908 -0.00042934044470469072 0 0.02456270979242791 -0.00045870273829533954 0 0.024517087971018908 -0.00042934044470469072 0 0.024425765459037137 -0.00044131115042243325 0 0.02446547020147544 -0.00047353316195588712 0 0.024517087971018908 -0.00042934044470469072 0 0.024492290844740753 -0.00037496274872013998 0 0.024568545680459689 -0.00036399697541989931 0 0.024595534597230264 -0.00040338672262365594 0 0.024517087971018908 -0.00042934044470469072 0 0.024568545680459689 -0.00036399697541989931 0 0.024517087971018908 -0.00042934044470469072 0 0.024425765459037137 -0.00044131115042243325 0 0.024492290844740753 -0.00037496274872013998 0 0.024425765459037137 -0.00044131115042243325 0 0.024408527197981904 -0.00036651975360802488 0 0.024492290844740753 -0.00037496274872013998 0 0.024492290844740753 -0.00037496274872013998 0 0.024456041821807311 -0.00032611700044872532 0 0.024547572544347064 -0.00030018520500045787 0 0.024377833419368566 -0.00032319777878034951 0 0.024408527197981904 -0.00036651975360802488 0 0.024456041821807311 -0.00032611700044872532 0 0.024408527197981904 -0.00036651975360802488 0 0.024492290844740753 -0.00037496274872013998 0 0.024456041821807311 -0.00032611700044872532 0 0.024492290844740753 -0.00037496274872013998 0 0.024568545680459689 -0.00036399697541989931 0 0.024547572544347064 -0.00030018520500045787 0 0.024610559860324104 -0.00031455891967312335 0 0.024568545680459689 -0.00036399697541989931 0 0.024547572544347064 -0.00030018520500045787 0 0.024547572544347064 -0.00030018520500045787 0 0.02459949912473499 -0.00025658728147989919 0 0.02455818961471215 -0.00022590855763989426 0 0.024610559860324104 -0.00031455891967312335 0 0.024547572544347064 -0.00030018520500045787 0 0.02459949912473499 -0.00025658728147989919 0 0.02459949912473499 -0.00025658728147989919 0 0.02466257057105049 -0.00019930750025051944 0 0.024645482308886298 -0.00026555039153618702 0 0.024436117696182157 -0.00025022889942797829 0 0.024456041821807311 -0.00032611700044872532 0 0.024499836943961895 -0.00027585619856451547 0 0.024547572544347064 -0.00030018520500045787 0 0.024499836943961895 -0.00027585619856451547 0 0.02455818961471215 -0.00022590855763989426 0 0.024436117696182157 -0.00025022889942797829 0 0.024499836943961895 -0.00027585619856451547 0 0.02455818961471215 -0.00022590855763989426 0 0.024456041821807311 -0.00032611700044872532 0 0.024547572544347064 -0.00030018520500045787 0 0.024499836943961895 -0.00027585619856451547 0 0.024621508709463585 -0.00015859197652581621 0 0.02455818961471215 -0.00022590855763989426 0 0.024513330045349342 -0.00015957351738597785 0 0.024436117696182157 -0.00025022889942797829 0 0.02455818961471215 -0.00022590855763989426 0 0.024513330045349342 -0.00015957351738597785 0 0.024621508709463585 -0.00015859197652581621 0 0.02455818961471215 -0.00022590855763989426 0 0.02466257057105049 -0.00019930750025051944 0 0.02459949912473499 -0.00025658728147989919 0 0.02455818961471215 -0.00022590855763989426 0 0.02466257057105049 -0.00019930750025051944 0 0.02466257057105049 -0.00019930750025051944 0 0.024730673824547342 -0.00021841983790464267 0 0.024645482308886298 -0.00026555039153618702 0 0.024746013101944193 -0.00015251467748986943 0 0.02466257057105049 -0.00019930750025051944 0 0.024730673824547342 -0.00021841983790464267 0 0.024746013101944193 -0.00015251467748986943 0 0.024785823726905049 -0.00017138696304524348 0 0.024730673824547342 -0.00021841983790464267 0 0.024839025849668721 -0.00017136884879334461 0 0.024785823726905049 -0.00017138696304524348 0 0.02477849063686724 -0.00021642190072392934 0 0.024785823726905049 -0.00017138696304524348 0 0.02477849063686724 -0.00021642190072392934 0 0.024730673824547342 -0.00021841983790464267 0 0.024730673824547342 -0.00021841983790464267 0 0.024730288065000994 -0.00027658389843678743 0 0.024691225329906353 -0.00027285904415549862 0 0.024809696582404624 -0.0002530439141586541 0 0.02477849063686724 -0.00021642190072392934 0 0.024730288065000994 -0.00027658389843678743 0 0.02477849063686724 -0.00021642190072392934 0 0.024730673824547342 -0.00021841983790464267 0 0.024730288065000994 -0.00027658389843678743 0 0.024660241993716595 -0.00031796695678846718 0 0.024730288065000994 -0.00027658389843678743 0 0.024691225329906353 -0.00027285904415549862 0 0.024660241993716595 -0.00031796695678846718 0 0.024691225329906353 -0.00027285904415549862 0 0.024645482308886298 -0.00026555039153618702 0 0.024610559860324104 -0.00031455891967312335 0 0.02459949912473499 -0.00025658728147989919 0 0.024645482308886298 -0.00026555039153618702 0 0.024610559860324104 -0.00031455891967312335 0 0.024660241993716595 -0.00031796695678846718 0 0.024645482308886298 -0.00026555039153618702 0 0.024730673824547342 -0.00021841983790464267 0 0.024691225329906353 -0.00027285904415549862 0 0.024645482308886298 -0.00026555039153618702 0 0.022592502944603188 2.8164399420067079e-05 0 0.023468209882886778 0.00025492504120314574 0 0.023524655570454186 0.0010232374227135107 0 0.02247958500226262 6.2137124644320098e-05 0 0.022188268023888989 0.0004320440974943278 0 0.022592502944603188 2.8164399420067079e-05 0 0.020920951739275467 3.7222620080109496e-05 0 0.021648238914324734 1.1949846313616633e-07 0 0.022592502944603188 2.8164399420067079e-05 0 0.02284451609833945 9.953094734191758e-08 0 0.021648238914324734 1.1949846313616633e-07 0 0.022592502944603188 2.8164399420067079e-05 0 0.023468209882886778 0.00025492504120314574 0 0.023210191009091396 -0.00016162595636038285 0 0.023468209882886778 0.00025492504120314574 0 0.023927436441745675 0.00049665132841927211 0 0.023963237045121662 -0.00027685961540054738 0 0.023468209882886778 0.00025492504120314574 0 0.023927436441745675 0.00049665132841927211 0 0.023524655570454186 0.0010232374227135107 0 0.023468209882886778 0.00025492504120314574 0 0.023963237045121662 -0.00027685961540054738 0 0.023210191009091396 -0.00016162595636038285 0 0.023963237045121662 -0.00027685961540054738 0 0.023210191009091396 -0.00016162595636038285 0 0.023438099194538348 -0.00099104609063540238 0 0.023210191009091396 -0.00016162595636038285 0 0.02284451609833945 9.953094734191758e-08 0 0.023438099194538348 -0.00099104609063540238 0 0.022845805455862418 -3.8337113320764018e-07 0 0.024316251248834863 -0.00019566713579821467 0 0.022592502944603188 2.8164399420067079e-05 0 0.023210191009091396 -0.00016162595636038285 0 0.02284451609833945 9.953094734191758e-08 0 0.022847546978885566 2.2614968700965366e-07 0 0.024999550202510459 -1.5269769483084531e-07 0 0.024183857177065393 -1.3542135363476925e-06 0 0.025000024219385266 2.2572642203149278e-07 0 0.024316251248834863 -0.00019566713579821467 0 0.024999550202510459 -1.5269769483084531e-07 0 0.024999125741746012 7.3822293483948094e-08 0 0.024183857177065393 -1.3542135363476925e-06 0 0.024316251248834863 -0.00019566713579821467 0 0.025000305471649269 2.8529254322443111e-08 0 0.024999996907136921 -2.6702540963158778e-09 0 0.024995284065657222 -2.6107129026259978e-06 0 0.024999992732836075 -5.6409215593862658e-11 0 0.024295449919506856 -3.783740573903739e-05 0 0.024316251248834863 -0.00019566713579821467 0 0.024696136229419519 0.00025660356092051793 0 0.024715689882275918 0.00010334022212916578 0 0.024882257072517025 0.00010124335550254298 0 0.024715689882275918 0.00010334022212916578 0 0.024882257072517025 0.00010124335550254298 0 0.02499939595432709 -3.8683934286226941e-08 0 0.024882257072517025 0.00010124335550254298 0 0.02499939595432709 -3.8683934286226941e-08 0 0.024972486292644289 3.5374620616776995e-05 0 0.02499939595432709 -3.8683934286226941e-08 0 0.024972486292644289 3.5374620616776995e-05 0 0.025000301710521151 5.6908299239795651e-08 0 0.024972486292644289 3.5374620616776995e-05 0 0.025019730369936065 9.4411132604417004e-05 0 0.025000301710521151 5.6908299239795651e-08 0 0.024882257072517025 0.00010124335550254298 0 0.025019730369936065 9.4411132604417004e-05 0 0.024855827305717077 0.0002251065870350458 0 0.024882257072517025 0.00010124335550254298 0 0.024972486292644289 3.5374620616776995e-05 0 0.025019730369936065 9.4411132604417004e-05 0 0.024987324018027897 7.745000027960552e-05 0 0.02507937767553824 3.1723217330842803e-05 0 0.025019730369936065 9.4411132604417004e-05 0 0.024988271758746024 0.00029990583794029549 0 0.024855827305717077 0.0002251065870350458 0 0.024988271758746024 0.00029990583794029549 0 0.024855827305717077 0.0002251065870350458 0 0.024819712255808403 0.00042650720172455998 0 0.024696136229419519 0.00025660356092051793 0 0.024882257072517025 0.00010124335550254298 0 0.024855827305717077 0.0002251065870350458 0 0.024696136229419519 0.00025660356092051793 0 0.024855827305717077 0.0002251065870350458 0 0.024819712255808403 0.00042650720172455998 0 0.024696136229419519 0.00025660356092051793 0 0.024582788344598872 0.00055296114480345084 0 0.024819712255808403 0.00042650720172455998 0 0.024295449919506856 -3.783740573903739e-05 0 0.024599906640434974 0.00054278612167610069 0 0.023927436441745675 0.00049665132841927211 0 0.023963237045121662 -0.00027685961540054738 0 0.024582788344598872 0.00055296114480345084 0 0.023927436441745675 0.00049665132841927211 0 0.024582788344598872 0.00055296114480345084 0 0.024121498571239144 0.00092037697097249044 0 0.024582788344598872 0.00055296114480345084 0 0.024869168590568046 0.00069383200492072758 0 0.024587272432609431 0.0008700493919457994 0 0.024582788344598872 0.00055296114480345084 0 0.024869168590568046 0.00069383200492072758 0 0.024819712255808403 0.00042650720172455998 0 0.02507937767553824 3.1723217330842803e-05 0 0.023625549512388475 0.00091155827274387526 0 0.024988271758746024 0.00029990583794029549 0 0.024819712255808403 0.00042650720172455998 0 0.024968275807730814 0.00074321001187062548 0 0.024869168590568046 0.00069383200492072758 0 0.024819712255808403 0.00042650720172455998 0 0.024968275807730814 0.00074321001187062548 0 0.024960200088940787 5.6996800310840061e-06 0 0.024956306335526229 4.4757065406550637e-06 0 0.024945380985366312 9.3942197317056397e-06 0 0.024956306335526229 4.4757065406550637e-06 0 0.024965166194987631 3.2961485728446304e-06 0 0.024946555171468029 1.7691277834864036e-06 0 0.024968209487749117 3.755918698115887e-06 0 0.02498352555618908 1.605871087531452e-06 0 0.024965166194987631 3.2961485728446304e-06 0 0.024956306335526229 4.4757065406550637e-06 0 0.024968209487749117 3.755918698115887e-06 0 0.024965166194987631 3.2961485728446304e-06 0 0.024978364965409366 2.1501294651073771e-06 0 0.024960200088940787 5.6996800310840061e-06 0 0.024968209487749117 3.755918698115887e-06 0 0.024960200088940787 5.6996800310840061e-06 0 0.024956306335526229 4.4757065406550637e-06 0 0.024968209487749117 3.755918698115887e-06 0 0.024978364965409366 2.1501294651073771e-06 0 0.024968209487749117 3.755918698115887e-06 0 0.02498352555618908 1.605871087531452e-06 0 0.024978364965409366 2.1501294651073771e-06 0 0.02499996883221112 -3.420858411256683e-10 0 0.02498352555618908 1.605871087531452e-06 0 0.024987324018027897 7.745000027960552e-05 0 0.025000005861956172 -1.2379455197316758e-08 0 0.02499996883221112 -3.420858411256683e-10 0 0.024999980749916304 1.363100122027401e-09 0 0.02498352555618908 1.605871087531452e-06 0 0.024999980749916304 1.363100122027401e-09 0 0.02498352555618908 1.605871087531452e-06 0 0.02498785851073422 1.2167892140666337e-06 0 0.02498785851073422 1.2167892140666337e-06 0 0.024981037136665784 1.7080573046294797e-06 0 0.024965166194987631 3.2961485728446304e-06 0 0.02498352555618908 1.605871087531452e-06 0 0.02498785851073422 1.2167892140666337e-06 0 0.024965166194987631 3.2961485728446304e-06 0 0.024999980749916304 1.363100122027401e-09 0 0.02498785851073422 1.2167892140666337e-06 0 0.024999975998231297 1.2688523918327399e-09 0 0.02498785851073422 1.2167892140666337e-06 0 0.024999975998231297 1.2688523918327399e-09 0 0.024981037136665784 1.7080573046294797e-06 0 0.024981037136665784 1.7080573046294797e-06 0 0.024960975099304485 2.2826825633286307e-06 0 0.024965166194987631 3.2961485728446304e-06 0 0.024965166194987631 3.2961485728446304e-06 0 0.024940967015197719 7.994972606124167e-08 0 0.024946555171468029 1.7691277834864036e-06 0 0.024960975099304485 2.2826825633286307e-06 0 0.024965166194987631 3.2961485728446304e-06 0 0.024940967015197719 7.994972606124167e-08 0 0.024914033002556707 -7.8348842135545156e-06 0 0.024940967015197719 7.994972606124167e-08 0 0.024910299225682175 -1.6792544119977202e-05 0 0.024940967015197719 7.994972606124167e-08 0 0.024928412246158341 -7.2864812877589204e-06 0 0.024910299225682175 -1.6792544119977202e-05 0 0.024940967015197719 7.994972606124167e-08 0 0.024946555171468029 1.7691277834864036e-06 0 0.024928412246158341 -7.2864812877589204e-06 0 0.02282335636274371 0.00068139535265436633 0 0.022664294352229632 0.00064031976113465745 0 0.020157473151190673 0.0010743007619877418 0 0.020419683814902292 0.0012185079682649335 0 0.020500402467307204 0.00099559066562142579 0 0.020419683814902292 0.0012185079682649335 0 0.020500402467307204 0.00099559066562142579 0 0.02061384494598778 0.0011439565752513568 0 0.018315946713523622 0.00092200101389005445 0 0.018065523431383086 0.0011529758783073287 0 0.020500402467307204 0.00099559066562142579 0 0.02061384494598778 0.0011439565752513568 0 0.020852363833518739 0.001000440258973951 0 0.018065523431383086 0.0011529758783073287 0 0.018872969301377662 0.0011028153421797136 0 0.015943816882599906 0.0012533854017124564 0 0.016392559716764621 0.0012718088257550554 0 0.016227349132012341 0.00096383169117683718 0 0.020683910774053543 0.00136078055579308 0 0.020419683814902292 0.0012185079682649335 0 0.02061384494598778 0.0011439565752513568 0 0.020683910774053543 0.00136078055579308 0 0.02061384494598778 0.0011439565752513568 0 0.020852363833518739 0.001000440258973951 0 0.020683910774053543 0.00136078055579308 0 0.020852363833518739 0.001000440258973951 0 0.021042797900636536 0.0011755453324546875 0 0.018872969301377662 0.0011028153421797136 0 0.018024522003667522 0.0013908034501142513 0 0.020852363833518739 0.001000440258973951 0 0.021042797900636536 0.0011755453324546875 0 0.021195866824929094 0.0010086181013405958 0 0.016392559716764621 0.0012718088257550554 0 0.016866076148377141 0.0012871266968558109 0 0.016569522366048559 0.00094168385167334634 0 0.021042797900636536 0.0011755453324546875 0 0.020950814287514993 0.0015018382089346267 0 0.021234227772245897 0.0013444039977145127 0 0.020683910774053543 0.00136078055579308 0 0.021042797900636536 0.0011755453324546875 0 0.020950814287514993 0.0015018382089346267 0 0.02282335636274371 0.00068139535265436633 0 0.02284382252621504 0.00071405760335992781 0 0.024946555171468029 1.7691277834864036e-06 0 0.024928412246158341 -7.2864812877589204e-06 0 0.024940123579080785 2.4709728513766214e-06 0 0.024956306335526229 4.4757065406550637e-06 0 0.024946555171468029 1.7691277834864036e-06 0 0.024940123579080785 2.4709728513766214e-06 0 0.02284382252621504 0.00071405760335992781 0 0.023625549512388475 0.00091155827274387526 0 0.024956306335526229 4.4757065406550637e-06 0 0.024940123579080785 2.4709728513766214e-06 0 0.024945380985366312 9.3942197317056397e-06 0 0.020950814287514993 0.0015018382089346267 0 0.021227005807453306 0.0016420728241121228 0 0.021234227772245897 0.0013444039977145127 0 0.024782768788211267 0.001027821624358351 0 0.025037829171279065 0.0007969087216124261 0 0.024883389884833122 0.0016397675073377286 0 0.023625549512388475 0.00091155827274387526 0 0.023233283506160482 0.0015612545686488663 0 0.024293168573850325 0.0010683372897693471 0 0.023625549512388475 0.00091155827274387526 0 0.024869168590568046 0.00069383200492072758 0 0.024782768788211267 0.001027821624358351 0 0.024587272432609431 0.0008700493919457994 0 0.024869168590568046 0.00069383200492072758 0 0.024782768788211267 0.001027821624358351 0 0.025037829171279065 0.0007969087216124261 0 0.024582788344598872 0.00055296114480345084 0 0.024587272432609431 0.0008700493919457994 0 0.024121498571239144 0.00092037697097249044 0 0.024587272432609431 0.0008700493919457994 0 0.024121498571239144 0.00092037697097249044 0 0.024475250062778432 0.0011809704438516099 0 0.024121498571239144 0.00092037697097249044 0 0.024475250062778432 0.0011809704438516099 0 0.024233012554361409 0.0017267873115411577 0 0.024782768788211267 0.001027821624358351 0 0.024587272432609431 0.0008700493919457994 0 0.024475250062778432 0.0011809704438516099 0 0.024475250062778432 0.0011809704438516099 0 0.024233012554361409 0.0017267873115411577 0 0.024883389884833122 0.0016397675073377286 0 0.024782768788211267 0.001027821624358351 0 0.024475250062778432 0.0011809704438516099 0 0.024883389884833122 0.0016397675073377286 0 0.023233283506160482 0.0015612545686488663 0 0.020569315329671357 0.0015450552348026071 0 0.021042797900636536 0.0011755453324546875 0 0.021234227772245897 0.0013444039977145127 0 0.021234654150486681 0.0010526361247629723 0 0.024233012554361409 0.0017267873115411577 0 0.024883389884833122 0.0016397675073377286 0 0.024741781182333205 0.0023781842232410821 0 0.021042797900636536 0.0011755453324546875 0 0.021195866824929094 0.0010086181013405958 0 0.021234654150486681 0.0010526361247629723 0 0.012631815172845494 0.0035717189570384595 0 0.01275845533954423 0.0035712175258703566 0 0.012803916290253329 0.0027582077203655788 0 0.017145757388931288 0.0014947116046396284 0 0.017371547646599868 0.0014947480844887263 0 0.017170162603807753 0.0011024556117618597 0 0.02081629201769826 0.00014866285530026584 0 0.020808505213906103 0.0001903001114098911 0 0.02067395058511386 0.00018318046277295263 0 0.018024522003667522 0.0013908034501142513 0 0.020569315329671357 0.0015450552348026071 0 0.019277459672852951 0.0012200613335861187 0 0.019564367894375764 0.0015778423862565238 0 0.019601237971608329 0.0012245146019954039 0 0.020569315329671357 0.0015450552348026071 0 0.018225222839361448 0.0019131090793443677 0 0.018024522003667522 0.0013908034501142513 0 0.018225222839361448 0.0019131090793443677 0 0.020711772216905754 0.0002526887193213869 0 0.020632200994527807 5.1120613072848278e-05 0 0.02036159805770368 0.00027582218027294246 0 0.02081629201769826 0.00014866285530026584 0 0.02067395058511386 0.00018318046277295263 0 0.020632200994527807 5.1120613072848278e-05 0 0.018225222839361448 0.0019131090793443677 0 0.018799673341082502 0.00060887280496547394 0 0.018799673341082502 0.00060887280496547394 0 0.02017113280541289 0.00038232268168208631 0 0.02061776439172119 -0.0001040443342249325 0 0.02081629201769826 0.00014866285530026584 0 0.020632200994527807 5.1120613072848278e-05 0 0.022772253042952717 0.0008737940487058653 0 0.020569315329671357 0.0015450552348026071 0 0.02061776439172119 -0.0001040443342249325 0 0.020632200994527807 5.1120613072848278e-05 0 0.020471771448475264 -9.3667191255589419e-05 0 0.020632200994527807 5.1120613072848278e-05 0 0.020471771448475264 -9.3667191255589419e-05 0 0.02036159805770368 0.00027582218027294246 0 0.018799673341082502 0.00060887280496547394 0 0.01893989609963655 0.00038094027679541175 0 0.016777190774496485 0.00060857587832949592 0 0.017566631285730862 0.00063366975406871362 0 0.017076846376439095 0.00018405302691244164 0 0.017566631285730862 0.00063366975406871362 0 0.017800089923326583 2.2590640415170837e-05 0 0.017076846376439095 0.00018405302691244164 0 0.020471771448475264 -9.3667191255589419e-05 0 0.02036159805770368 0.00027582218027294246 0 0.019254976282913533 9.4289070584794082e-07 0 0.017566631285730862 0.00063366975406871362 0 0.019250453824732949 1.91436405936953e-06 0 0.017800089923326583 2.2590640415170837e-05 0 0.01893989609963655 0.00038094027679541175 0 0.019252608249680305 2.4206137763099026e-07 0 0.020471771448475264 -9.3667191255589419e-05 0 0.019254976282913533 9.4289070584794082e-07 0 0.020449878843926843 -6.4376755334534509e-07 0 0.020449878843926843 -6.4376755334534509e-07 0 0.020752507784949855 -9.6610649525510659e-05 0 0.021648238914324734 1.1949846313616633e-07 0 0.020471771448475264 -9.3667191255589419e-05 0 0.020449878843926843 -6.4376755334534509e-07 0 0.020752507784949855 -9.6610649525510659e-05 0 0.02061776439172119 -0.0001040443342249325 0 0.020752507784949855 -9.6610649525510659e-05 0 0.020920951739275467 3.7222620080109496e-05 0 0.02061776439172119 -0.0001040443342249325 0 0.020471771448475264 -9.3667191255589419e-05 0 0.020752507784949855 -9.6610649525510659e-05 0 0.022772253042952717 0.0008737940487058653 0 0.022188268023888989 0.0004320440974943278 0 0.024121498571239144 0.00092037697097249044 0 0.024233012554361409 0.0017267873115411577 0 0.023524655570454186 0.0010232374227135107 0 0.023927436441745675 0.00049665132841927211 0 0.024121498571239144 0.00092037697097249044 0 0.023524655570454186 0.0010232374227135107 0 0.020752507784949855 -9.6610649525510659e-05 0 0.020920951739275467 3.7222620080109496e-05 0 0.021648238914324734 1.1949846313616633e-07 0 0.016365852159016838 -1.1562870055986434e-07 0 0.016574299266553474 -0.00017078531743368918 0 0.015495301579159881 6.5571763068609913e-05 0 0.016574299266553474 -0.00017078531743368918 0 0.016452238822911192 -0.00024534028292488337 0 0.015495301579159881 6.5571763068609913e-05 0 0.016574299266553474 -0.00017078531743368918 0 0.01687796550239979 -0.00014405970669634691 0 0.016452238822911192 -0.00024534028292488337 0 0.016365852159016838 -1.1562870055986434e-07 0 0.016574299266553474 -0.00017078531743368918 0 0.017809401990129946 -8.1984138764560202e-07 0 0.017809401990129946 -8.1984138764560202e-07 0 0.017800089923326583 2.2590640415170837e-05 0 0.01687796550239979 -0.00014405970669634691 0 0.019250453824732949 1.91436405936953e-06 0 0.017809401990129946 -8.1984138764560202e-07 0 0.017800089923326583 2.2590640415170837e-05 0 0.017800089923326583 2.2590640415170837e-05 0 0.017076846376439095 0.00018405302691244164 0 0.01687796550239979 -0.00014405970669634691 0 0.016574299266553474 -0.00017078531743368918 0 0.017809401990129946 -8.1984138764560202e-07 0 0.01687796550239979 -0.00014405970669634691 0 0.01687796550239979 -0.00014405970669634691 0 0.016529203286311748 1.4343028950258757e-05 0 0.016530846255913868 -0.00025978730044198833 0 0.01687796550239979 -0.00014405970669634691 0 0.016530846255913868 -0.00025978730044198833 0 0.016452238822911192 -0.00024534028292488337 0 0.016777190774496485 0.00060857587832949592 0 0.017076846376439095 0.00018405302691244164 0 0.016529203286311748 1.4343028950258757e-05 0 0.017076846376439095 0.00018405302691244164 0 0.01687796550239979 -0.00014405970669634691 0 0.016529203286311748 1.4343028950258757e-05 0 0.018799673341082502 0.00060887280496547394 0 0.014932460086619866 0.0014791968152489323 0 0.018225222839361448 0.0019131090793443677 0 0.014932460086619866 0.0014791968152489323 0 0.012631815172845494 0.0035717189570384595 0 0.012803916290253329 0.0027582077203655788 0 0.011934021866187593 0.0028023191318571677 0 0.014932460086619866 0.0014791968152489323 0 0.012777600279999732 0.0015290355035274586 0 0.013930855345151176 0.0016474291107262552 0 0.013621803534651724 0.0010093110671817172 0 0.013980729484633551 0.0011020317800133528 0 0.012803916290253329 0.0027582077203655788 0 0.012313933468828595 0.0018451885667764417 0 0.011934021866187593 0.0028023191318571677 0 0.014932460086619866 0.0014791968152489323 0 0.015281622131971763 0.00029896368739616052 0 0.013621803534651724 0.0010093110671817172 0 0.013720530198881583 0.00068731929240017247 0 0.013395806196509737 0.00054258486194993388 0 0.013980729484633551 0.0011020317800133528 0 0.014036880152189653 0.00055485497171566705 0 0.013720530198881583 0.00068731929240017247 0 0.013621803534651724 0.0010093110671817172 0 0.013980729484633551 0.0011020317800133528 0 0.013720530198881583 0.00068731929240017247 0 0.016530846255913868 -0.00025978730044198833 0 0.016452238822911192 -0.00024534028292488337 0 0.016506309564168983 -0.00014859736274407004 0 0.015281622131971763 0.00029896368739616052 0 0.015290546760435423 0.00022353110131099915 0 0.016452238822911192 -0.00024534028292488337 0 0.016506309564168983 -0.00014859736274407004 0 0.015495301579159881 6.5571763068609913e-05 0 0.014036880152189653 0.00055485497171566705 0 0.01374641126507057 0.00038630694989018306 0 0.014097402723387243 -7.5210848663657378e-07 0 0.01374641126507057 0.00038630694989018306 0 0.013395806196509737 0.00054258486194993388 0 0.013627260591575022 0.00011546453376203407 0 0.01374641126507057 0.00038630694989018306 0 0.013720530198881583 0.00068731929240017247 0 0.013395806196509737 0.00054258486194993388 0 0.014036880152189653 0.00055485497171566705 0 0.01374641126507057 0.00038630694989018306 0 0.013720530198881583 0.00068731929240017247 0 0.011948794698713246 0.0011903126649732627 0 0.011808698534246502 0.00094482844022679413 0 0.011674972816674865 0.0016063760853259484 0 0.011808698534246502 0.00094482844022679413 0 0.011242410603315526 0.0011628380527898671 0 0.011674972816674865 0.0016063760853259484 0 0.012571437475271664 0.00086386709059336824 0 0.012266589786048457 0.00086421452311669967 0 0.011808698534246502 0.00094482844022679413 0 0.011242410603315526 0.0011628380527898671 0 0.011408700232164032 0.00080357571406690874 0 0.011242410603315526 0.0011628380527898671 0 0.011002196026645534 0.00057713602066331298 0 0.011408700232164032 0.00080357571406690874 0 0.011242410603315526 0.0011628380527898671 0 0.010565427054498203 0.0012597963344311244 0 0.011002196026645534 0.00057713602066331298 0 0.011242410603315526 0.0011628380527898671 0 0.011674972816674865 0.0016063760853259484 0 0.011241739831568523 0.0020326889470269221 0 0.011242410603315526 0.0011628380527898671 0 0.011241739831568523 0.0020326889470269221 0 0.010565427054498203 0.0012597963344311244 0 0.011674972816674865 0.0016063760853259484 0 0.011790877786480526 0.0020715676507362369 0 0.011241739831568523 0.0020326889470269221 0 0.012777600279999732 0.0015290355035274586 0 0.012571437475271664 0.00086386709059336824 0 0.012313933468828595 0.0018451885667764417 0 0.011948794698713246 0.0011903126649732627 0 0.011674972816674865 0.0016063760853259484 0 0.012313933468828595 0.0018451885667764417 0 0.011674972816674865 0.0016063760853259484 0 0.011790877786480526 0.0020715676507362369 0 0.012313933468828595 0.0018451885667764417 0 0.011790877786480526 0.0020715676507362369 0 0.011934021866187593 0.0028023191318571677 0 0.011790877786480526 0.0020715676507362369 0 0.011934021866187593 0.0028023191318571677 0 0.011241739831568523 0.0020326889470269221 0 0.018024522003667522 0.0013908034501142513 0 0.0137961558064334 0.0018867256606515815 0 0.016392559716764621 0.0012718088257550554 0 0.016569522366048559 0.00094168385167334634 0 0.016227349132012341 0.00096383169117683718 0 0.0137961558064334 0.0018867256606515815 0 0.01382962244277631 0.0013397616151589679 0 0.016569522366048559 0.00094168385167334634 0 0.016227349132012341 0.00096383169117683718 0 0.016280297425116285 0.00061126301281769267 0 0.016227349132012341 0.00096383169117683718 0 0.016280297425116285 0.00061126301281769267 0 0.01591386504568992 0.00082574629979671938 0 0.015943816882599906 0.0012533854017124564 0 0.016227349132012341 0.00096383169117683718 0 0.01591386504568992 0.00082574629979671938 0 0.015513438795984777 0.0012442949248281578 0 0.015943816882599906 0.0012533854017124564 0 0.01591386504568992 0.00082574629979671938 0 0.01591386504568992 0.00082574629979671938 0 0.015705277759497482 0.00049858613645253132 0 0.015489770346730087 0.000796896653100364 0 0.016280297425116285 0.00061126301281769267 0 0.01591386504568992 0.00082574629979671938 0 0.015998289282934893 0.00028254673410581834 0 0.01591386504568992 0.00082574629979671938 0 0.015705277759497482 0.00049858613645253132 0 0.015998289282934893 0.00028254673410581834 0 0.01382962244277631 0.0013397616151589679 0 0.013271797142875644 0.00076748927420231558 0 0.013271797142875644 0.00076748927420231558 0 0.012812368492663494 0.00017880166858158078 0 0.015998289282934893 0.00028254673410581834 0 0.01567115340626038 0.00024485426482709767 0 0.015714646005797594 -6.0827918114173431e-05 0 0.015705277759497482 0.00049858613645253132 0 0.015998289282934893 0.00028254673410581834 0 0.01567115340626038 0.00024485426482709767 0 0.01567115340626038 0.00024485426482709767 0 0.015714646005797594 -6.0827918114173431e-05 0 0.015552537438970726 7.5815758716632251e-05 0 0.010565427054498203 0.0012597963344311244 0 0.010458237265627635 0.00014455709000929068 0 0.011002196026645534 0.00057713602066331298 0 0.010565427054498203 0.0012597963344311244 0 0.0099081188746372225 0.00047667651345328899 0 0.010458237265627635 0.00014455709000929068 0 0.010458237265627635 0.00014455709000929068 0 0.010815063487979754 -0.00033499171564549364 0 0.011002196026645534 0.00057713602066331298 0 0.010458237265627635 0.00014455709000929068 0 0.0098877791673422782 -8.3661477463416688e-05 0 0.010815063487979754 -0.00033499171564549364 0 0.0099081188746372225 0.00047667651345328899 0 0.010458237265627635 0.00014455709000929068 0 0.0098877791673422782 -8.3661477463416688e-05 0 0.0099081188746372225 0.00047667651345328899 0 0.0098877791673422782 -8.3661477463416688e-05 0 0.0095011202709521601 -0.00023295516813765074 0 0.0098877791673422782 -8.3661477463416688e-05 0 0.0097131655448063695 -0.00051029873868817547 0 0.010815063487979754 -0.00033499171564549364 0 0.0098877791673422782 -8.3661477463416688e-05 0 0.0097131655448063695 -0.00051029873868817547 0 0.0096811794439160964 -0.0003860174136251181 0 0.0090273665500296731 -0.00028828798833136957 0 0.0092937934305130279 0.00021881616170393948 0 0.0097131655448063695 -0.00051029873868817547 0 0.0095521146967914392 -0.00034689758410392569 0 0.0090755343910353288 -0.00046266464806179628 0 0.0097131655448063695 -0.00051029873868817547 0 0.0095521146967914392 -0.00034689758410392569 0 0.0097050543404402986 -0.00049991035198800298 0 0.0085463586816613632 -0.00016815234740588978 0 0.0085828194395185468 -0.00012103662208877674 0 0.0086156345535172603 -0.00019786660983833531 0 0.0085463586816613632 -0.00016815234740588978 0 0.0085828194395185468 -0.00012103662208877674 0 0.0085101455265341516 -9.9110647525108231e-05 0 0.0095521146967914392 -0.00034689758410392569 0 0.0090755343910353288 -0.00046266464806179628 0 0.0087556667358115684 -0.00019029485109621204 0 0.0085828194395185468 -0.00012103662208877674 0 0.0087556667358115684 -0.00019029485109621204 0 0.0086156345535172603 -0.00019786660983833531 0 0.0090273665500296731 -0.00028828798833136957 0 0.0087947090766411357 -0.00017862583870613408 0 0.0097131655448063695 -0.00051029873868817547 0 0.0089900385528637744 -0.00076741498825129374 0 0.0090755343910353288 -0.00046266464806179628 0 0.0098946392021077422 -0.00046260822810121824 0 0.0095496274877305103 -0.00066577828648354978 0 0.0089900385528637744 -0.00076741498825129374 0 0.0090755343910353288 -0.00046266464806179628 0 0.008480826201103308 -0.00043063508249908104 0 0.0090755343910353288 -0.00046266464806179628 0 0.0087556667358115684 -0.00019029485109621204 0 0.008480826201103308 -0.00043063508249908104 0 0.0087556667358115684 -0.00019029485109621204 0 0.008480826201103308 -0.00043063508249908104 0 0.0085792700910558208 -0.00014990974698109185 0 0.013210571165323428 0.00045906706127079032 0 0.013369103822228119 0.00023760247457832513 0 0.013209342899423566 0.00019111898400665323 0 0.01076559277431116 -2.1440421405273335e-05 0 0.010903216088146964 1.063030667756443e-05 0 0.01076559277431116 -2.1440421405273335e-05 0 0.011725445728487455 3.682063578072981e-05 0 0.0089900385528637744 -0.00076741498825129374 0 0.008480826201103308 -0.00043063508249908104 0 0.0085003261076970569 -0.00093367133551633332 0 0.013210571165323428 0.00045906706127079032 0 0.013216644884834946 0.00071679330641563849 0 0.013399753190231373 0.00065078279774723094 0 0.010815063487979754 -0.00033499171564549364 0 0.011002196026645534 0.00057713602066331298 0 0.011506006496581678 0.00045105211487617765 0 0.010815063487979754 -0.00033499171564549364 0 0.011874039801525424 3.8802537570019612e-05 0 0.011506006496581678 0.00045105211487617765 0 0.0095496274877305103 -0.00066577828648354978 0 0.011725445728487455 3.682063578072981e-05 0 0.011002196026645534 0.00057713602066331298 0 0.011408700232164032 0.00080357571406690874 0 0.011506006496581678 0.00045105211487617765 0 0.012571437475271664 0.00086386709059336824 0 0.011725445728487455 3.682063578072981e-05 0 0.011808698534246502 0.00094482844022679413 0 0.011874039801525424 3.8802537570019612e-05 0 0.011506006496581678 0.00045105211487617765 0 0.013395806196509737 0.00054258486194993388 0 0.01337026664940209 -0.00029377147175089666 0 0.013627260591575022 0.00011546453376203407 0 0.011929913547437235 0.001192991048658806 0 0.011808698534246502 0.00094482844022679413 0 0.011874039801525424 3.8802537570019612e-05 0 0.011808698534246502 0.00094482844022679413 0 0.011408700232164032 0.00080357571406690874 0 0.011506006496581678 0.00045105211487617765 0 0.01374641126507057 0.00038630694989018306 0 0.013627260591575022 0.00011546453376203407 0 0.014097402723387243 -7.5210848663657378e-07 0 0.01337026664940209 -0.00029377147175089666 0 0.013627260591575022 0.00011546453376203407 0 0.014097402723387243 -7.5210848663657378e-07 0 0.011725445728487455 3.682063578072981e-05 0 0.014726756155699744 0.00027870945984955262 0 0.014726756155699744 0.00027870945984955262 0 0.015728081728971961 0.00015942921547929524 0 0.016506309564168983 -0.00014859736274407004 0 0.016351933066203281 0.00052701034669002235 0 0.015495301579159881 6.5571763068609913e-05 0 0.015290546760435423 0.00022353110131099915 0 0.014726756155699744 0.00027870945984955262 0 0.014726756155699744 0.00027870945984955262 0 0.013758676402109773 0.00020154804575093851 0 0.013501425362253575 0.00082383792064763691 0 0.013399753190231373 0.00065078279774723094 0 0.013531789187451545 0.00054779772638959283 0 0.01455914399280353 -1.5048197867467679e-05 0 0.014188820007380408 -0.00018404271723396806 0 0.014486295619941317 -0.0001556761146835004 0 0.013216644884834946 0.00071679330641563849 0 0.013501425362253575 0.00082383792064763691 0 0.013399753190231373 0.00065078279774723094 0 0.013210571165323428 0.00045906706127079032 0 0.013399753190231373 0.00065078279774723094 0 0.013459412947250267 0.00038753049784672811 0 0.013210571165323428 0.00045906706127079032 0 0.013459412947250267 0.00038753049784672811 0 0.013369103822228119 0.00023760247457832513 0 0.014188820007380408 -0.00018404271723396806 0 0.013775611577523791 -8.023151913922538e-05 0 0.01363620439639315 0.00022632207577043435 0 0.013459412947250267 0.00038753049784672811 0 0.013531789187451545 0.00054779772638959283 0 0.01363620439639315 0.00022632207577043435 0 0.013758676402109773 0.00020154804575093851 0 0.01370210323030794 0.00018063285266581663 0 0.013399753190231373 0.00065078279774723094 0 0.013459412947250267 0.00038753049784672811 0 0.013531789187451545 0.00054779772638959283 0 0.014188820007380408 -0.00018404271723396806 0 0.013775611577523791 -8.023151913922538e-05 0 0.014486295619941317 -0.0001556761146835004 0 0.013775611577523791 -8.023151913922538e-05 0 0.013212425801541463 -1.7017268938373788e-05 0 0.01363620439639315 0.00022632207577043435 0 0.013479400764040287 -8.0623400031826489e-07 0 0.012039381473441876 1.4725946571079655e-06 0 0.013212425801541463 -1.7017268938373788e-05 0 0.013775611577523791 -8.023151913922538e-05 0 0.013479400764040287 -8.0623400031826489e-07 0 0.013212425801541463 -1.7017268938373788e-05 0 0.013775611577523791 -8.023151913922538e-05 0 0.013479400764040287 -8.0623400031826489e-07 0 0.014486295619941317 -0.0001556761146835004 0 0.013479400764040287 -8.0623400031826489e-07 0 0.014486295619941317 -0.0001556761146835004 0 0.014923310845851492 5.7824581967233605e-08 0 0.01455914399280353 -1.5048197867467679e-05 0 0.014486295619941317 -0.0001556761146835004 0 0.015495301579159881 6.5571763068609913e-05 0 0.016365852159016838 -1.1562870055986434e-07 0 0.015495301579159881 6.5571763068609913e-05 0 0.014923310845851492 5.7824581967233605e-08 0 0.014486295619941317 -0.0001556761146835004 0 0.015495301579159881 6.5571763068609913e-05 0 0.014923310845851492 5.7824581967233605e-08 0 0.020667752400067092 0.00019135396622451732 0 0.020007592529733286 0.00015638979266971201 0 0.024461334552875334 -0.00065567364178469967 0 0.024455591563402157 -0.00057935904550614496 0 0.024575197010395681 -0.00055832283619034948 0 0.0161446867236863 0.00089216183254025932 0 0.016266423448626121 0.00093939496111235959 0 0.016125832866099907 0.00085172739322367979 0 0.0161446867236863 0.00089216183254025932 0 0.016092018044827745 0.0009782300740812011 0 0.016138181238236578 0.00082697961752643118 0 0.0161446867236863 0.00089216183254025932 0 0.016125832866099907 0.00085172739322367979 0 0.016138181238236578 0.00082697961752643118 0 0.0161446867236863 0.00089216183254025932 0 0.016092018044827745 0.0009782300740812011 0 0.016266423448626121 0.00093939496111235959 0 0.016092018044827745 0.0009782300740812011 0 0.016266423448626121 0.00093939496111235959 0 0.01622776860673384 0.001088915840612962 0 0.024461334552875334 -0.00065567364178469967 0 0.024390334199822835 -0.00066934604938176769 0 0.024354094360437208 -0.00072778592526385024 0 0.024461334552875334 -0.00065567364178469967 0 0.024390334199822835 -0.00066934604938176769 0 0.024455591563402157 -0.00057935904550614496 0 0.024087467493508471 -0.00020512790046652685 0 0.024079452199394374 -0.00021378878477220641 0 0.02404198167476981 -0.00018034236469565798 0 0.024533498178060976 -0.00048939248370563008 0 0.022005158825625468 -0.0003677916145410801 0 0.024390334199822835 -0.00066934604938176769 0 0.02435486128467497 -0.00062325706272623133 0 0.024333445450209754 -0.00071666507493455499 0 0.02435486128467497 -0.00062325706272623133 0 0.024455591563402157 -0.00057935904550614496 0 0.024424344946794452 -0.0005261239346325959 0 0.024390334199822835 -0.00066934604938176769 0 0.02435486128467497 -0.00062325706272623133 0 0.024455591563402157 -0.00057935904550614496 0 0.024455591563402157 -0.00057935904550614496 0 0.024493857431491569 -0.00049521211074057608 0 0.024548160912410487 -0.0005131702022730996 0 0.024455591563402157 -0.00057935904550614496 0 0.024424344946794452 -0.0005261239346325959 0 0.024493857431491569 -0.00049521211074057608 0 0.024351651045562753 -0.0005246714435747158 0 0.02435486128467497 -0.00062325706272623133 0 0.024424344946794452 -0.0005261239346325959 0 0.024425765459037137 -0.00044131115042243325 0 0.024424344946794452 -0.0005261239346325959 0 0.02446547020147544 -0.00047353316195588712 0 0.024351651045562753 -0.0005246714435747158 0 0.024425765459037137 -0.00044131115042243325 0 0.024424344946794452 -0.0005261239346325959 0 0.024424344946794452 -0.0005261239346325959 0 0.024493857431491569 -0.00049521211074057608 0 0.02446547020147544 -0.00047353316195588712 0 0.024517087971018908 -0.00042934044470469072 0 0.024493857431491569 -0.00049521211074057608 0 0.02446547020147544 -0.00047353316195588712 0 0.024517087971018908 -0.00042934044470469072 0 0.024493857431491569 -0.00049521211074057608 0 0.02456270979242791 -0.00045870273829533954 0 0.024626972753279745 -0.00042991266670067949 0 0.02456270979242791 -0.00045870273829533954 0 0.024595864075992614 -0.00047232338848494357 0 0.02456270979242791 -0.00045870273829533954 0 0.024548160912410487 -0.0005131702022730996 0 0.024595864075992614 -0.00047232338848494357 0 0.024493857431491569 -0.00049521211074057608 0 0.02456270979242791 -0.00045870273829533954 0 0.024548160912410487 -0.0005131702022730996 0 0.024455591563402157 -0.00057935904550614496 0 0.024548160912410487 -0.0005131702022730996 0 0.024575197010395681 -0.00055832283619034948 0 0.020007592529733286 0.00015638979266971201 0 0.022365126774340636 -0.0002562311594341144 0 0.024575197010395681 -0.00055832283619034948 0 0.024598932090861236 -0.00051155427626853767 0 0.024605620878358873 -0.00048277682064808061 0 0.024548160912410487 -0.0005131702022730996 0 0.024575197010395681 -0.00055832283619034948 0 0.024598932090861236 -0.00051155427626853767 0 0.024598932090861236 -0.00051155427626853767 0 0.024651062129799523 -0.00044567803806688051 0 0.024677787996447358 -0.00043634486652578247 0 0.024598932090861236 -0.00051155427626853767 0 0.024595864075992614 -0.00047232338848494357 0 0.024651062129799523 -0.00044567803806688051 0 0.024548160912410487 -0.0005131702022730996 0 0.024598932090861236 -0.00051155427626853767 0 0.024595864075992614 -0.00047232338848494357 0 0.024626972753279745 -0.00042991266670067949 0 0.024595864075992614 -0.00047232338848494357 0 0.024651062129799523 -0.00044567803806688051 0 0.016275597977586435 0.0010882004623943883 0 0.01639494544363233 0.0010466127090576211 0 0.016267442654305998 0.00092558451347686608 0 0.024691560921353217 -0.00043363290403526509 0 0.024651062129799523 -0.00044567803806688051 0 0.024677787996447358 -0.00043634486652578247 0 0.025113197535406521 -0.00017450526585588525 0 0.022365126774340636 -0.0002562311594341144 0 0.02444773536854215 -0.00035991984773720248 0 0.024592600981544532 -0.0003885545131136251 0 0.024710199800343009 -0.00022223902389394349 0 0.024592600981544532 -0.0003885545131136251 0 0.024691560921353217 -0.00043363290403526509 0 0.024677787996447358 -0.00043634486652578247 0 0.024360212734052193 0.00012355593975972215 0 0.022365126774340636 -0.0002562311594341144 0 0.020108024789020448 0.0001610505149927908 0 0.022365126774340636 -0.0002562311594341144 0 0.016429266903956515 0.0011791822705372653 0 0.016275597977586435 0.0010882004623943883 0 0.01639494544363233 0.0010466127090576211 0 0.01639494544363233 0.0010466127090576211 0 0.01645835797815607 0.00093495632960772146 0 0.016549709603575925 0.0011021013170729624 0 0.016429266903956515 0.0011791822705372653 0 0.01639494544363233 0.0010466127090576211 0 0.016549709603575925 0.0011021013170729624 0 0.01645835797815607 0.00093495632960772146 0 0.016267442654305998 0.00092558451347686608 0 0.01634786776269927 0.00078171481863793357 0 0.01639494544363233 0.0010466127090576211 0 0.01645835797815607 0.00093495632960772146 0 0.016267442654305998 0.00092558451347686608 0 0.016125832866099907 0.00085172739322367979 0 0.016267442654305998 0.00092558451347686608 0 0.016138181238236578 0.00082697961752643118 0 0.016125832866099907 0.00085172739322367979 0 0.016275597977586435 0.0010882004623943883 0 0.016267442654305998 0.00092558451347686608 0 0.018315946713523622 0.00092200101389005445 0 0.015775262897580453 0.00096886696582921346 0 0.015513438795984777 0.0012442949248281578 0 0.01591386504568992 0.00082574629979671938 0 0.015489770346730087 0.000796896653100364 0 0.01671740120215346 0.001261501589923657 0 0.016549709603575925 0.0011021013170729624 0 0.016680109429597828 0.00097451577403491214 0 0.01645835797815607 0.00093495632960772146 0 0.016680109429597828 0.00097451577403491214 0 0.01652477461589482 0.00079716785377663109 0 0.01645835797815607 0.00093495632960772146 0 0.016549709603575925 0.0011021013170729624 0 0.016680109429597828 0.00097451577403491214 0 0.015775262897580453 0.00096886696582921346 0 0.016201909127662402 0.00048408005686946661 0 0.015705277759497482 0.00049858613645253132 0 0.015489770346730087 0.000796896653100364 0 0.015458405269528923 0.00033676357773591484 0 0.015705277759497482 0.00049858613645253132 0 0.01567115340626038 0.00024485426482709767 0 0.015458405269528923 0.00033676357773591484 0 0.016680109429597828 0.00097451577403491214 0 0.01652477461589482 0.00079716785377663109 0 0.016647798428521068 0.00068885152311812974 0 0.016487474844594164 0.00061010048789117671 0 0.016647798428521068 0.00068885152311812974 0 0.01661986349272607 0.00042657824058900601 0 0.01652477461589482 0.00079716785377663109 0 0.016487474844594164 0.00061010048789117671 0 0.016647798428521068 0.00068885152311812974 0 0.01567115340626038 0.00024485426482709767 0 0.015458405269528923 0.00033676357773591484 0 0.015552537438970726 7.5815758716632251e-05 0 0.016201909127662402 0.00048408005686946661 0 0.015212668778301491 0.00019462161223201863 0 0.016129970654503716 0.00081428778593439896 0 0.016056670369531959 0.00081534383047481105 0 0.016138181238236578 0.00082697961752643118 0 0.01634786776269927 0.00078171481863793357 0 0.016308811450057952 0.00061623014627180559 0 0.016267442654305998 0.00092558451347686608 0 0.016138181238236578 0.00082697961752643118 0 0.01634786776269927 0.00078171481863793357 0 0.01652477461589482 0.00079716785377663109 0 0.016487474844594164 0.00061010048789117671 0 0.01634786776269927 0.00078171481863793357 0 0.01645835797815607 0.00093495632960772146 0 0.01652477461589482 0.00079716785377663109 0 0.01634786776269927 0.00078171481863793357 0 0.016487474844594164 0.00061010048789117671 0 0.016308811450057952 0.00061623014627180559 0 0.016431479115535667 0.00045143560532812511 0 0.016487474844594164 0.00061010048789117671 0 0.01634786776269927 0.00078171481863793357 0 0.016308811450057952 0.00061623014627180559 0 0.016092018044827745 0.0009782300740812011 0 0.016138181238236578 0.00082697961752643118 0 0.015867155980494919 0.00094798822167642806 0 0.016092018044827745 0.0009782300740812011 0 0.015867155980494919 0.00094798822167642806 0 0.015888145774656255 0.0011509013052021495 0 0.016056670369531959 0.00081534383047481105 0 0.0162274887192661 0.00073103505025831563 0 0.015867155980494919 0.00094798822167642806 0 0.015888145774656255 0.0011509013052021495 0 0.015629208481679986 0.001130072563017822 0 0.015645550934090049 0.0013022192403483355 0 0.015821421369886034 0.0013681014221750827 0 0.015462318700179705 0.0014830497194703617 0 0.015888145774656255 0.0011509013052021495 0 0.015629208481679986 0.001130072563017822 0 0.015645550934090049 0.0013022192403483355 0 0.015888145774656255 0.0011509013052021495 0 0.015645550934090049 0.0013022192403483355 0 0.015821421369886034 0.0013681014221750827 0 0.011786374219624975 0.00065716926659896695 0 0.011545052062946662 0.00063394935122200642 0 0.015888145774656255 0.0011509013052021495 0 0.015821421369886034 0.0013681014221750827 0 0.016106492465241075 0.0012480418935616501 0 0.015714646005797594 -6.0827918114173431e-05 0 0.015552537438970726 7.5815758716632251e-05 0 0.015384756318500673 -0.00015327719988675889 0 0.015458405269528923 0.00033676357773591484 0 0.015552537438970726 7.5815758716632251e-05 0 0.015437351304711988 -0.00011579547383088994 0 0.015454605764138804 2.3968519843314681e-05 0 0.015212668778301491 0.00019462161223201863 0 0.016487474844594164 0.00061010048789117671 0 0.016431479115535667 0.00045143560532812511 0 0.01661986349272607 0.00042657824058900601 0 0.015645550934090049 0.0013022192403483355 0 0.01540293036141357 0.0013605291772800965 0 0.015462318700179705 0.0014830497194703617 0 0.016431479115535667 0.00045143560532812511 0 0.01661986349272607 0.00042657824058900601 0 0.016528607227563791 0.00029350258103670764 0 0.0162274887192661 0.00073103505025831563 0 0.014250145969629738 0.00059279757145277903 0 0.015629208481679986 0.001130072563017822 0 0.015645550934090049 0.0013022192403483355 0 0.01540293036141357 0.0013605291772800965 0 0.012812368492663494 0.00017880166858158078 0 0.012440709058640014 -0.0001698976681610562 0 0.015212668778301491 0.00019462161223201863 0 0.014250145969629738 0.00059279757145277903 0 0.013666982961458499 0.00042706551707627521 0 0.013500509959438132 0.00015314528936099438 0 0.013661537708588082 0.00015809039645066781 0 0.015714646005797594 -6.0827918114173431e-05 0 0.015384756318500673 -0.00015327719988675889 0 0.015368402771526454 -0.00046287623895276608 0 0.0098877791673422782 -8.3661477463416688e-05 0 0.0095011202709521601 -0.00023295516813765074 0 0.0096811794439160964 -0.0003860174136251181 0 0.015212668778301491 0.00019462161223201863 0 0.012440709058640014 -0.0001698976681610562 0 0.0097131655448063695 -0.00051029873868817547 0 0.0096811794439160964 -0.0003860174136251181 0 0.0097050543404402986 -0.00049991035198800298 0 0.0095011202709521601 -0.00023295516813765074 0 0.0096811794439160964 -0.0003860174136251181 0 0.0097050543404402986 -0.00049991035198800298 0 0.011016413998522422 -1.5996309641486151e-06 0 0.011133662484326873 0.0001525261074585658 0 0.010995332267149613 0.00033690674111285434 0 0.012440709058640014 -0.0001698976681610562 0 0.0092937934305130279 0.00021881616170393948 0 0.013500509959438132 0.00015314528936099438 0 0.013661537708588082 0.00015809039645066781 0 0.013569806344604685 4.8736579154191065e-05 0 0.012440709058640014 -0.0001698976681610562 0 0.011779689298146453 0.0003769868871089308 0 0.011779689298146453 0.0003769868871089308 0 0.0092937934305130279 0.00021881616170393948 0 0.0092937934305130279 0.00021881616170393948 0 0.010072655928744919 0.0003304102766010776 0 0.0078497567258951004 0.00019525893650061254 0 0.0077599580484680793 0.00022929704338872208 0 0.0077782119573864064 0.00015092361443444879 0 0.010537808997955658 -2.8692530991639949e-05 0 0.01011786068650072 0.00055650232167160564 0 0.010807160051011826 0.00031282386016277591 0 0.0098847927181387948 0.00078064857644209631 0 0.0094738515854284871 0.00091077368901280539 0 0.0090489041967081393 -0.00024416851239951806 0 0.010072655928744919 0.0003304102766010776 0 0.011474894864697367 0.00055287742197561581 0 0.014250145969629738 0.00059279757145277903 0 0.011474894864697367 0.00055287742197561581 0 0.011779689298146453 0.0003769868871089308 0 0.010072655928744919 0.0003304102766010776 0 0.012253397002745515 0.00040048585627966969 0 0.012124011143623149 0.00024084182623586379 0 0.011926608872959302 0.00030377702193987551 0 0.012106978067858742 0.00061452143453077273 0 0.012253397002745515 0.00040048585627966969 0 0.011926608872959302 0.00030377702193987551 0 0.014250145969629738 0.00059279757145277903 0 0.011779689298146453 0.0003769868871089308 0 0.011474894864697367 0.00055287742197561581 0 0.0081327534595529247 -0.00042001959184451008 0 0.0094738515854284871 0.00091077368901280539 0 0.0090489041967081393 -0.00024416851239951806 0 0.0088465981337225458 -0.00017985286270134394 0 0.010072655928744919 0.0003304102766010776 0 0.0082506709418462276 -0.0001763915095877834 0 0.0077423331891246739 5.7360482061473502e-05 0 0.0078350503153866661 2.9475220680170221e-05 0 0.0077190280461001716 -3.2848885276472972e-05 0 0.0076332882898129256 8.3937636939140664e-05 0 0.0077423331891246739 5.7360482061473502e-05 0 0.0077190280461001716 -3.2848885276472972e-05 0 0.0077599580484680793 0.00022929704338872208 0 0.0076332882898129256 8.3937636939140664e-05 0 0.0077782119573864064 0.00015092361443444879 0 0.0076332882898129256 8.3937636939140664e-05 0 0.0077423331891246739 5.7360482061473502e-05 0 0.0077782119573864064 0.00015092361443444879 0 0.0081357955824420888 3.4613111348231836e-06 0 0.0092937934305130279 0.00021881616170393948 0 0.0079678086473285795 7.7348354596494141e-05 0 0.0078443163869354928 0.00026016300227332849 0 0.0078364761984757517 9.1991203663609571e-05 0 0.0078497567258951004 0.00019525893650061254 0 0.0077782119573864064 0.00015092361443444879 0 0.0078350503153866661 2.9475220680170221e-05 0 0.0092937934305130279 0.00021881616170393948 0 0.0078651999282309988 6.6920336986635905e-05 0 0.0077423331891246739 5.7360482061473502e-05 0 0.0077782119573864064 0.00015092361443444879 0 0.0078350503153866661 2.9475220680170221e-05 0 0.0075909307629936102 -4.943536236831161e-05 0 0.0075536769168121536 -0.0001551075900348049 0 0.0074999228101659899 -0.00010247758339826 0 0.0075909307629936102 -4.943536236831161e-05 0 0.0077646531049155197 -7.0864121513185518e-05 0 0.0076798309796317198 -0.00016075581865200217 0 0.011786374219624975 0.00065716926659896695 0 0.011474894864697367 0.00055287742197561581 0 0.0075909307629936102 -4.943536236831161e-05 0 0.0076798309796317198 -0.00016075581865200217 0 0.0075536769168121536 -0.0001551075900348049 0 0.0076798309796317198 -0.00016075581865200217 0 0.0075819112244572022 -0.00019453441244678704 0 0.0075536769168121536 -0.0001551075900348049 0 0.0081327534595529247 -0.00042001959184451008 0 0.0078401707577351251 -0.00043980751749022175 0 0.0082506709418462276 -0.0001763915095877834 0 0.0078401707577351251 -0.00043980751749022175 0 0.0090489041967081393 -0.00024416851239951806 0 0.0088465981337225458 -0.00017985286270134394 0 0.0082292505129207792 -0.0012180379795618328 0 0.0076798309796317198 -0.00016075581865200217 0 0.0075819112244572022 -0.00019453441244678704 0 0.00759555652876839 -0.00023887654238796867 0 0.0075819112244572022 -0.00019453441244678704 0 0.0075536769168121536 -0.0001551075900348049 0 0.0074990230495103095 -0.0002232609427063298 0 0.0075536769168121536 -0.0001551075900348049 0 0.0074527646797963283 -0.00018417541971305708 0 0.0074990230495103095 -0.0002232609427063298 0 0.0075536769168121536 -0.0001551075900348049 0 0.0074527646797963283 -0.00018417541971305708 0 0.0074999228101659899 -0.00010247758339826 0 0.0074527646797963283 -0.00018417541971305708 0 0.0074438231558296803 -0.00014103749259752223 0 0.0074999228101659899 -0.00010247758339826 0 0.0074527646797963283 -0.00018417541971305708 0 0.0074438231558296803 -0.00014103749259752223 0 0.0073829728656344823 -0.00020387448201899389 0 0.0074438231558296803 -0.00014103749259752223 0 0.0073769721133357087 -0.00015658073137037059 0 0.0073829728656344823 -0.00020387448201899389 0 0.0074438231558296803 -0.00014103749259752223 0 0.0075018145020862379 -7.0728498357624107e-05 0 0.0073769721133357087 -0.00015658073137037059 0 0.0075018145020862379 -7.0728498357624107e-05 0 0.0074272123668217135 -2.626009449428651e-05 0 0.0073769721133357087 -0.00015658073137037059 0 0.0075018145020862379 -7.0728498357624107e-05 0 0.0074999228101659899 -0.00010247758339826 0 0.0075005051807198004 -9.5986718251420686e-05 0 0.0074438231558296803 -0.00014103749259752223 0 0.0075018145020862379 -7.0728498357624107e-05 0 0.0074999228101659899 -0.00010247758339826 0 0.0075909307629936102 -4.943536236831161e-05 0 0.0074999228101659899 -0.00010247758339826 0 0.0075005051807198004 -9.5986718251420686e-05 0 0.0075018145020862379 -7.0728498357624107e-05 0 0.0075005051807198004 -9.5986718251420686e-05 0 0.0076656247675377463 -0.00010350597148343919 0 0.011545052062946662 0.00063394935122200642 0 0.013214807979795302 0.00030322116693820984 0 0.0075005051807198004 -9.5986718251420686e-05 0 0.0077038688066627305 -0.00018862056900441351 0 0.0076656247675377463 -0.00010350597148343919 0 0.0067766754561590257 0.00029294527861989752 0 0.010351916098591108 8.2049217207856803e-05 0 0.016106492465241075 0.0012480418935616501 0 0.01622776860673384 0.001088915840612962 0 0.016345925553245277 0.0011521405225880005 0 0.016266423448626121 0.00093939496111235959 0 0.01622776860673384 0.001088915840612962 0 0.016359726913927848 0.0010871329417649056 0 0.016092018044827745 0.0009782300740812011 0 0.016106492465241075 0.0012480418935616501 0 0.01622776860673384 0.001088915840612962 0 0.016092018044827745 0.0009782300740812011 0 0.015888145774656255 0.0011509013052021495 0 0.016106492465241075 0.0012480418935616501 0 0.021316787293784684 0.00044222625826050846 0 0.020426764633893618 0.000493790416702769 0 0.02028566496011891 0.0009062522643495342 0 0.024390334199822835 -0.00066934604938176769 0 0.024333445450209754 -0.00071666507493455499 0 0.024354094360437208 -0.00072778592526385024 0 0.022005158825625468 -0.0003677916145410801 0 0.016360824795281816 0.00031378080556768829 0 0.019247326693555899 -8.0035728582846332e-05 0 0.018630970932548896 0.00011487603111570497 0 0.019021587635166481 0.00062217428123174164 0 0.022005158825625468 -0.0003677916145410801 0 0.018841396442287797 0.00036627981666997975 0 0.020667752400067092 0.00019135396622451732 0 0.018841396442287797 0.00036627981666997975 0 0.016266423448626121 0.00093939496111235959 0 0.016359726913927848 0.0010871329417649056 0 0.016407449358934557 0.0011263459578705476 0 0.01622776860673384 0.001088915840612962 0 0.016359726913927848 0.0010871329417649056 0 0.016345925553245277 0.0011521405225880005 0 0.014315574021785136 0.00083992575559955443 0 0.013214807979795302 0.00030322116693820984 0 0.016359726913927848 0.0010871329417649056 0 0.016348724263898402 0.0011379400672867704 0 0.016407449358934557 0.0011263459578705476 0 0.014140568545429751 -0.00027963580475556267 0 0.015057588780311503 -0.00057579824651831225 0 0.014891711271837539 3.1213458910029559e-05 0 0.013214807979795302 0.00030322116693820984 0 0.018841396442287797 0.00036627981666997975 0 0.014479741768800264 0.00049118750475519914 0 0.013978676861998222 0.0014662774642545185 0 0.015881851486531942 0.00053257164191269934 0 0.014850372463585681 0.00040430391425447866 0 0.016360824795281816 0.00031378080556768829 0 0.014891711271837539 3.1213458910029559e-05 0 0.014479741768800264 0.00049118750475519914 0 0.015941358859356949 0.00054859371248174764 0 0.010351916098591108 8.2049217207856803e-05 0 0.016360824795281816 0.00031378080556768829 0 0.015057588780311503 -0.00057579824651831225 0 0.014891711271837539 3.1213458910029559e-05 0 0.015941358859356949 0.00054859371248174764 0 0.014140568545429751 -0.00027963580475556267 0 0.014891711271837539 3.1213458910029559e-05 0 0.014479741768800264 0.00049118750475519914 0 0.014140568545429751 -0.00027963580475556267 0 0.014479741768800264 0.00049118750475519914 0 0.013978676861998222 0.0014662774642545185 0 0.013214807979795302 0.00030322116693820984 0 0.010351916098591108 8.2049217207856803e-05 0 0.011606767739308833 -0.0010288260647677728 0 0.01188797256907242 -0.00098585746332887432 0 0.01195190307174032 -0.0011816231617750078 0 0.012805852126704763 2.9954129016829608e-06 0 0.016360824795281816 0.00031378080556768829 0 0.012305893156311837 -0.00071553266809970333 0 0.01188797256907242 -0.00098585746332887432 0 0.01194499773857312 -0.0011680120788503834 0 0.014214009658619159 -0.00049748479456802246 0 0.016360824795281816 0.00031378080556768829 0 0.014356867765249751 0.0014372444513809271 0 0.01426189756009903 0.0010729470633628955 0 0.014699283483063166 0.0015711613609429385 0 0.018841396442287797 0.00036627981666997975 0 0.016360824795281816 0.00031378080556768829 0 0.012305893156311837 -0.00071553266809970333 0 0.01188797256907242 -0.00098585746332887432 0 0.01190583484076565 -0.0006043731812495083 0 0.011606767739308833 -0.0010288260647677728 0 0.01190583484076565 -0.0006043731812495083 0 0.011503446934127023 -0.00043727687450316699 0 0.011606767739308833 -0.0010288260647677728 0 0.01188797256907242 -0.00098585746332887432 0 0.01190583484076565 -0.0006043731812495083 0 0.010351916098591108 8.2049217207856803e-05 0 0.0093514076929517957 -0.00042147043338138326 0 0.01190583484076565 -0.0006043731812495083 0 0.011503446934127023 -0.00043727687450316699 0 0.012001905648910753 -0.00012435084814862874 0 0.012305893156311837 -0.00071553266809970333 0 0.012303830587074009 -0.0003277938644105265 0 0.01190583484076565 -0.0006043731812495083 0 0.012303830587074009 -0.0003277938644105265 0 0.01190583484076565 -0.0006043731812495083 0 0.012001905648910753 -0.00012435084814862874 0 0.012001905648910753 -0.00012435084814862874 0 0.01140012322658541 0.00022010264643186722 0 0.012056311865928791 0.00031979530047726416 0 0.012001905648910753 -0.00012435084814862874 0 0.012056311865928791 0.00031979530047726416 0 0.012437129437766705 2.1569661315710448e-05 0 0.011503446934127023 -0.00043727687450316699 0 0.012001905648910753 -0.00012435084814862874 0 0.01140012322658541 0.00022010264643186722 0 0.0093514076929517957 -0.00042147043338138326 0 0.0093528847112985033 -7.4347820231089158e-06 0 0.01140012322658541 0.00022010264643186722 0 0.012056311865928791 0.00031979530047726416 0 0.011653702484648278 0.00071351839012655704 0 0.0093528847112985033 -7.4347820231089158e-06 0 0.0092900357404941316 0.00013994247599871979 0 0.01140012322658541 0.00022010264643186722 0 0.011653702484648278 0.00071351839012655704 0 0.011410012190523632 0.00074716013444947463 0 0.012056311865928791 0.00031979530047726416 0 0.011653702484648278 0.00071351839012655704 0 0.012231923920730615 0.00077612869763339881 0 0.011596078900297138 0.00065480423168112702 0 0.01183486799393154 0.0012413206014290263 0 0.011653702484648278 0.00071351839012655704 0 0.011915751012266657 0.0012678567802667752 0 0.012231923920730615 0.00077612869763339881 0 0.011653702484648278 0.00071351839012655704 0 0.011486222618680582 0.00078651958920764021 0 0.011490730745959245 0.00078544961422684302 0 0.011653702484648278 0.00071351839012655704 0 0.011486222618680582 0.00078651958920764021 0 0.011410012190523632 0.00074716013444947463 0 0.011486222618680582 0.00078651958920764021 0 0.011410012190523632 0.00074716013444947463 0 0.011445215031294356 0.00078443090961972006 0 0.011486222618680582 0.00078651958920764021 0 0.011450740807072453 0.00077653851988184516 0 0.011445215031294356 0.00078443090961972006 0 0.011486222618680582 0.00078651958920764021 0 0.011490730745959245 0.00078544961422684302 0 0.011450740807072453 0.00077653851988184516 0 0.011490730745959245 0.00078544961422684302 0 0.011440447991055281 0.00077018307857543069 0 0.011450740807072453 0.00077653851988184516 0 0.01183486799393154 0.0012413206014290263 0 0.010623148431410866 0.00026994663560290258 0 0.0072479113725572456 -0.00059479847954736905 0 0.0073238168637097031 -0.00042433661744001506 0 0.0073911322361866457 -0.00055620220286539787 0 0.0092900357404941316 0.00013994247599871979 0 0.0092512064258498169 2.5977948717302993e-05 0 0.0072479113725572456 -0.00059479847954736905 0 0.0071678501427047256 -0.00043568226894995639 0 0.0070776173349454373 -0.00066562988731617317 0 0.0071678501427047256 -0.00043568226894995639 0 0.0073238168637097031 -0.00042433661744001506 0 0.0072875239223285258 -0.00035056973863434304 0 0.0072479113725572456 -0.00059479847954736905 0 0.0071678501427047256 -0.00043568226894995639 0 0.0073238168637097031 -0.00042433661744001506 0 0.0073238168637097031 -0.00042433661744001506 0 0.0072875239223285258 -0.00035056973863434304 0 0.0073853741070615628 -0.00027222763547865618 0 0.0073238168637097031 -0.00042433661744001506 0 0.0073853741070615628 -0.00027222763547865618 0 0.0074380553035796812 -0.00029911425376450969 0 0.0072791789425273763 -0.00027041362969074556 0 0.0072875239223285258 -0.00035056973863434304 0 0.0073853741070615628 -0.00027222763547865618 0 0.0072791789425273763 -0.00027041362969074556 0 0.0071678501427047256 -0.00043568226894995639 0 0.0072875239223285258 -0.00035056973863434304 0 0.0073769721133357087 -0.00015658073137037059 0 0.0072791789425273763 -0.00027041362969074556 0 0.0073829728656344823 -0.00020387448201899389 0 0.0072791789425273763 -0.00027041362969074556 0 0.0073829728656344823 -0.00020387448201899389 0 0.0073853741070615628 -0.00027222763547865618 0 0.0074527646797963283 -0.00018417541971305708 0 0.0073829728656344823 -0.00020387448201899389 0 0.0073853741070615628 -0.00027222763547865618 0 0.0074527646797963283 -0.00018417541971305708 0 0.0073853741070615628 -0.00027222763547865618 0 0.0074990230495103095 -0.0002232609427063298 0 0.0078401707577351251 -0.00043980751749022175 0 0.00742524778525047 -0.00023394908059307752 0 0.0073853741070615628 -0.00027222763547865618 0 0.0074990230495103095 -0.0002232609427063298 0 0.0074380553035796812 -0.00029911425376450969 0 0.0074990230495103095 -0.0002232609427063298 0 0.00759555652876839 -0.00023887654238796867 0 0.0074380553035796812 -0.00029911425376450969 0 0.0075819112244572022 -0.00019453441244678704 0 0.0074990230495103095 -0.0002232609427063298 0 0.00759555652876839 -0.00023887654238796867 0 0.0075075715697980319 -7.9216760361320925e-05 0 0.0075213009385242729 -0.00016834195960909083 0 0.0074380553035796812 -0.00029911425376450969 0 0.0076332882898129256 8.3937636939140664e-05 0 0.0075075715697980319 -7.9216760361320925e-05 0 0.0075829783492366194 -0.00010706308688260791 0 0.0075829783492366194 -0.00010706308688260791 0 0.0075339623863332015 -0.00024505811158506875 0 0.0076505774380555237 -0.00015706579024357648 0 0.0075829783492366194 -0.00010706308688260791 0 0.0075213009385242729 -0.00016834195960909083 0 0.0075339623863332015 -0.00024505811158506875 0 0.0075075715697980319 -7.9216760361320925e-05 0 0.0075829783492366194 -0.00010706308688260791 0 0.0075287631009656438 -0.00011129759323543029 0 0.0075829783492366194 -0.00010706308688260791 0 0.0075287631009656438 -0.00011129759323543029 0 0.0075213009385242729 -0.00016834195960909083 0 0.0075075715697980319 -7.9216760361320925e-05 0 0.0075287631009656438 -0.00011129759323543029 0 0.0075213009385242729 -0.00016834195960909083 0 0.0075213009385242729 -0.00016834195960909083 0 0.0075339623863332015 -0.00024505811158506875 0 0.0074380553035796812 -0.00029911425376450969 0 0.0075339623863332015 -0.00024505811158506875 0 0.0074380553035796812 -0.00029911425376450969 0 0.0074637902306748704 -0.00039198520476665797 0 0.0075339623863332015 -0.00024505811158506875 0 0.0076505774380555237 -0.00015706579024357648 0 0.0076004419724110903 -0.00031534529996344007 0 0.0075339623863332015 -0.00024505811158506875 0 0.0076004419724110903 -0.00031534529996344007 0 0.0074637902306748704 -0.00039198520476665797 0 0.0078651999282309988 6.6920336986635905e-05 0 0.0078332444333395878 -8.0568083447207916e-05 0 0.0079678086473285795 7.7348354596494141e-05 0 0.0078283395930658223 -9.8250218944907766e-05 0 0.0079519573084972355 -0.00015030343201943245 0 0.0079678086473285795 7.7348354596494141e-05 0 0.0078364761984757517 9.1991203663609571e-05 0 0.0078283395930658223 -9.8250218944907766e-05 0 0.0078350503153866661 2.9475220680170221e-05 0 0.0078283395930658223 -9.8250218944907766e-05 0 0.0077190280461001716 -3.2848885276472972e-05 0 0.0078283395930658223 -9.8250218944907766e-05 0 0.0077190280461001716 -3.2848885276472972e-05 0 0.0076505774380555237 -0.00015706579024357648 0 0.0076332882898129256 8.3937636939140664e-05 0 0.0075829783492366194 -0.00010706308688260791 0 0.0077190280461001716 -3.2848885276472972e-05 0 0.0075829783492366194 -0.00010706308688260791 0 0.0077190280461001716 -3.2848885276472972e-05 0 0.0076505774380555237 -0.00015706579024357648 0 0.0078283395930658223 -9.8250218944907766e-05 0 0.0076505774380555237 -0.00015706579024357648 0 0.0077541211671185934 -0.00022807265830088495 0 0.0076505774380555237 -0.00015706579024357648 0 0.0076004419724110903 -0.00031534529996344007 0 0.0077541211671185934 -0.00022807265830088495 0 0.0077541211671185934 -0.00022807265830088495 0 0.0078755845931560327 -0.00029801778635680013 0 0.0079519573084972355 -0.00015030343201943245 0 0.0078283395930658223 -9.8250218944907766e-05 0 0.0077541211671185934 -0.00022807265830088495 0 0.0079519573084972355 -0.00015030343201943245 0 0.0078755845931560327 -0.00029801778635680013 0 0.0077243836769353771 -0.00038821488011769352 0 0.0079182469906099208 -0.0004385789056139738 0 0.0077541211671185934 -0.00022807265830088495 0 0.0078755845931560327 -0.00029801778635680013 0 0.0077243836769353771 -0.00038821488011769352 0 0.0076004419724110903 -0.00031534529996344007 0 0.0077243836769353771 -0.00038821488011769352 0 0.0075614943495187536 -0.00051206768521694617 0 0.0076004419724110903 -0.00031534529996344007 0 0.0077541211671185934 -0.00022807265830088495 0 0.0077243836769353771 -0.00038821488011769352 0 0.0077243836769353771 -0.00038821488011769352 0 0.0075614943495187536 -0.00051206768521694617 0 0.0077605130992499148 -0.0005648217044492953 0 0.0075614943495187536 -0.00051206768521694617 0 0.0077605130992499148 -0.0005648217044492953 0 0.0075850739134905058 -0.00074781645887619192 0 0.0077243836769353771 -0.00038821488011769352 0 0.0077605130992499148 -0.0005648217044492953 0 0.0079182469906099208 -0.0004385789056139738 0 0.0073238168637097031 -0.00042433661744001506 0 0.0074380553035796812 -0.00029911425376450969 0 0.0074637902306748704 -0.00039198520476665797 0 0.0073238168637097031 -0.00042433661744001506 0 0.0074637902306748704 -0.00039198520476665797 0 0.0073911322361866457 -0.00055620220286539787 0 0.0075614943495187536 -0.00051206768521694617 0 0.0074637902306748704 -0.00039198520476665797 0 0.0073911322361866457 -0.00055620220286539787 0 0.0076004419724110903 -0.00031534529996344007 0 0.0075614943495187536 -0.00051206768521694617 0 0.0074637902306748704 -0.00039198520476665797 0 0.0075614943495187536 -0.00051206768521694617 0 0.0073911322361866457 -0.00055620220286539787 0 0.0074565183506889289 -0.00067811704011892966 0 0.0072479113725572456 -0.00059479847954736905 0 0.0073911322361866457 -0.00055620220286539787 0 0.0073325568647647065 -0.00072912148737628191 0 0.0073325568647647065 -0.00072912148737628191 0 0.0072882214128496617 -0.00090723283506383037 0 0.0072016926507652594 -0.00079356582666633899 0 0.0073911322361866457 -0.00055620220286539787 0 0.0073325568647647065 -0.00072912148737628191 0 0.0074565183506889289 -0.00067811704011892966 0 0.0073325568647647065 -0.00072912148737628191 0 0.0074565183506889289 -0.00067811704011892966 0 0.0074243637317365409 -0.00085252234182008079 0 0.0073325568647647065 -0.00072912148737628191 0 0.0074243637317365409 -0.00085252234182008079 0 0.0072882214128496617 -0.00090723283506383037 0 0.0074243637317365409 -0.00085252234182008079 0 0.007457073580988887 -0.001008838669645929 0 0.0073225902281682182 -0.0010642538781267059 0 0.0074243637317365409 -0.00085252234182008079 0 0.0072882214128496617 -0.00090723283506383037 0 0.0073225902281682182 -0.0010642538781267059 0 0.0077605130992499148 -0.0005648217044492953 0 0.0077813293664435465 -0.00072927567278068201 0 0.0075850739134905058 -0.00074781645887619192 0 0.0077813293664435465 -0.00072927567278068201 0 0.0075850739134905058 -0.00074781645887619192 0 0.007672333838345949 -0.00092034778990574722 0 0.0077605130992499148 -0.0005648217044492953 0 0.0077813293664435465 -0.00072927567278068201 0 0.0079704664803217831 -0.00060468273179772273 0 0.0074565183506889289 -0.00067811704011892966 0 0.0074243637317365409 -0.00085252234182008079 0 0.0075850739134905058 -0.00074781645887619192 0 0.0075614943495187536 -0.00051206768521694617 0 0.0074565183506889289 -0.00067811704011892966 0 0.0075850739134905058 -0.00074781645887619192 0 0.0075850739134905058 -0.00074781645887619192 0 0.007672333838345949 -0.00092034778990574722 0 0.007457073580988887 -0.001008838669645929 0 0.0074243637317365409 -0.00085252234182008079 0 0.0075850739134905058 -0.00074781645887619192 0 0.007457073580988887 -0.001008838669645929 0 0.007672333838345949 -0.00092034778990574722 0 0.0074638352248746652 -0.0011853629735878752 0 0.0076944093582061602 -0.0010729351302647585 0 0.007672333838345949 -0.00092034778990574722 0 0.007457073580988887 -0.001008838669645929 0 0.0074638352248746652 -0.0011853629735878752 0 0.0074638352248746652 -0.0011853629735878752 0 0.0075751956490403985 -0.001201078193945963 0 0.0076944093582061602 -0.0010729351302647585 0 0.007457073580988887 -0.001008838669645929 0 0.0073022721693795601 -0.0012370979812934759 0 0.0073225902281682182 -0.0010642538781267059 0 0.007457073580988887 -0.001008838669645929 0 0.0073022721693795601 -0.0012370979812934759 0 0.0074638352248746652 -0.0011853629735878752 0 0.0073022721693795601 -0.0012370979812934759 0 0.0074638352248746652 -0.0011853629735878752 0 0.0072247796850520869 -0.0013998096960514447 0 0.0074638352248746652 -0.0011853629735878752 0 0.0073891690950180751 -0.001347294684019741 0 0.0072247796850520869 -0.0013998096960514447 0 0.0074638352248746652 -0.0011853629735878752 0 0.0073891690950180751 -0.001347294684019741 0 0.0075751956490403985 -0.001201078193945963 0 0.0072882214128496617 -0.00090723283506383037 0 0.007232601997155079 -0.0010739170598291431 0 0.0071821990653375941 -0.00095374086972536108 0 0.0072882214128496617 -0.00090723283506383037 0 0.007232601997155079 -0.0010739170598291431 0 0.0073225902281682182 -0.0010642538781267059 0 0.007232601997155079 -0.0010739170598291431 0 0.0073225902281682182 -0.0010642538781267059 0 0.0072387458868117434 -0.0012191122624965651 0 0.007232601997155079 -0.0010739170598291431 0 0.0071900215902487756 -0.0011703470651096776 0 0.0071393344516011824 -0.001104185591350796 0 0.0073022721693795601 -0.0012370979812934759 0 0.0073225902281682182 -0.0010642538781267059 0 0.0072387458868117434 -0.0012191122624965651 0 0.0072387458868117434 -0.0012191122624965651 0 0.0071900215902487756 -0.0011703470651096776 0 0.0071551035495438344 -0.001248564385695991 0 0.007232601997155079 -0.0010739170598291431 0 0.0072387458868117434 -0.0012191122624965651 0 0.0071900215902487756 -0.0011703470651096776 0 0.0071393344516011824 -0.001104185591350796 0 0.0070101931872928137 -0.0011587645458225745 0 0.0071551035495438344 -0.001248564385695991 0 0.0071900215902487756 -0.0011703470651096776 0 0.0071393344516011824 -0.001104185591350796 0 0.0071551035495438344 -0.001248564385695991 0 0.0070101931872928137 -0.0011587645458225745 0 0.0070963785060810984 -0.0012968728221792135 0 0.0071551035495438344 -0.001248564385695991 0 0.0071393344516011824 -0.001104185591350796 0 0.0071821990653375941 -0.00095374086972536108 0 0.0070254728427106084 -0.00092129914041662406 0 0.007232601997155079 -0.0010739170598291431 0 0.0071393344516011824 -0.001104185591350796 0 0.0071821990653375941 -0.00095374086972536108 0 0.011371431159174951 0.00063097287622169724 0 0.011384357578687275 0.0007066924403214029 0 0.01141685195318836 0.00071606967122087462 0 0.0071393344516011824 -0.001104185591350796 0 0.0070101931872928137 -0.0011587645458225745 0 0.0070254728427106084 -0.00092129914041662406 0 0.0082985522118967821 -0.00094393037511458506 0 0.0093143643226143349 3.7160215460678999e-05 0 0.0058115716210598569 -0.0023381482358497243 0 0.0058136367490700452 -0.002393152063264709 0 0.0061015089165382189 -0.0027269824493734714 0 0.0058130146067939918 -0.0023382246024759193 0 0.0056894748774642418 -0.0024069519786180465 0 0.0055551766725202862 -0.0023701895872400179 0 0.0082985522118967821 -0.00094393037511458506 0 0.0038954871576652979 -0.0027707401992634983 0 0.0082985522118967821 -0.00094393037511458506 0 0.008183972457688593 -0.0011819046781607833 0 0.0058136367490700452 -0.002393152063264709 0 0.0056667725054096157 -0.0025387716021600774 0 0.0057728895979389039 -0.0026946047598337404 0 0.0056894748774642418 -0.0024069519786180465 0 0.0056667725054096157 -0.0025387716021600774 0 0.0055551766725202862 -0.0023701895872400179 0 0.0058130146067939918 -0.0023382246024759193 0 0.0056894748774642418 -0.0024069519786180465 0 0.0058136367490700452 -0.002393152063264709 0 0.0056894748774642418 -0.0024069519786180465 0 0.0058136367490700452 -0.002393152063264709 0 0.0056667725054096157 -0.0025387716021600774 0 0.0055551766725202862 -0.0023701895872400179 0 0.0052097390641623453 -0.0023613182029266402 0 0.0054557917961868428 -0.0018628624189626045 0 0.0056667725054096157 -0.0025387716021600774 0 0.0055551766725202862 -0.0023701895872400179 0 0.0055085476553726771 -0.0027061144312576632 0 0.0058130146067939918 -0.0023382246024759193 0 0.0055551766725202862 -0.0023701895872400179 0 0.0054557917961868428 -0.0018628624189626045 0 0.0055551766725202862 -0.0023701895872400179 0 0.0052097390641623453 -0.0023613182029266402 0 0.0055085476553726771 -0.0027061144312576632 0 0.0052097390641623453 -0.0023613182029266402 0 0.0050022815962242079 -0.001915384600594892 0 0.0048557739699935333 -0.0023538576013503423 0 0.0052097390641623453 -0.0023613182029266402 0 0.0049237292094476094 -0.002593546370966952 0 0.0048557739699935333 -0.0023538576013503423 0 0.0052097390641623453 -0.0023613182029266402 0 0.0051312121443474112 -0.0027120137672626667 0 0.0049237292094476094 -0.002593546370966952 0 0.0052097390641623453 -0.0023613182029266402 0 0.0050022815962242079 -0.001915384600594892 0 0.0054557917961868428 -0.0018628624189626045 0 0.0082985522118967821 -0.00094393037511458506 0 0.0084119081144120155 -0.00061188269779969748 0 0.011384357578687275 0.0007066924403214029 0 0.011420124746080777 0.00074808457710663352 0 0.01141685195318836 0.00071606967122087462 0 0.011384357578687275 0.0007066924403214029 0 0.011420124746080777 0.00074808457710663352 0 0.011416174737138745 0.0007566653599343562 0 0.0050022815962242079 -0.001915384600594892 0 0.0050915979147139901 -0.0013806641199593189 0 0.0048423668256286989 -0.0014873728508512747 0 0.011384357578687275 0.0007066924403214029 0 0.011411405064587682 0.00075512615893217293 0 0.011416174737138745 0.0007566653599343562 0 0.0050022815962242079 -0.001915384600594892 0 0.0054557917961868428 -0.0018628624189626045 0 0.0050915979147139901 -0.0013806641199593189 0 0.0084119081144120155 -0.00061188269779969748 0 0.0086760158102661793 3.3061078236221682e-06 0 0.0086760158102661793 3.3061078236221682e-06 0 0.0076715505176359767 -0.0013540487417309974 0 0.011490730745959245 0.00078544961422684302 0 0.011440447991055281 0.00077018307857543069 0 0.011413192269046085 0.00076487620526311732 0 0.0096230963784067081 -0.00044052052674472251 0 0.0091002499942912478 0.00018812121470377006 0 0.0085892380430860997 -0.00089566056530618213 0 0.011416174737138745 0.0007566653599343562 0 0.011440447991055281 0.00077018307857543069 0 0.011413192269046085 0.00076487620526311732 0 0.0086760158102661793 3.3061078236221682e-06 0 0.010623148431410866 0.00026994663560290258 0 0.0086760158102661793 3.3061078236221682e-06 0 0.0092588505160015652 0.00023055543044194632 0 0.011412212418762899 0.00075521273021720659 0 0.011416174737138745 0.0007566653599343562 0 0.011413192269046085 0.00076487620526311732 0 0.011416174737138745 0.0007566653599343562 0 0.011431583356077579 0.00076326969326897729 0 0.011440447991055281 0.00077018307857543069 0 0.011431583356077579 0.00076326969326897729 0 0.011440447991055281 0.00077018307857543069 0 0.011450740807072453 0.00077653851988184516 0 0.011420124746080777 0.00074808457710663352 0 0.011416174737138745 0.0007566653599343562 0 0.011431583356077579 0.00076326969326897729 0 0.011420124746080777 0.00074808457710663352 0 0.011431583356077579 0.00076326969326897729 0 0.011450740807072453 0.00077653851988184516 0 0.011420124746080777 0.00074808457710663352 0 0.011450740807072453 0.00077653851988184516 0 0.011445215031294356 0.00078443090961972006 0 0.0092512064258498169 2.5977948717302993e-05 0 0.0093143643226143349 3.7160215460678999e-05 0 0.0070776173349454373 -0.00066562988731617317 0 0.0072016926507652594 -0.00079356582666633899 0 0.0070254728427106084 -0.00092129914041662406 0 0.0072479113725572456 -0.00059479847954736905 0 0.0073325568647647065 -0.00072912148737628191 0 0.0072016926507652594 -0.00079356582666633899 0 0.0072479113725572456 -0.00059479847954736905 0 0.0070776173349454373 -0.00066562988731617317 0 0.0072016926507652594 -0.00079356582666633899 0 0.0072016926507652594 -0.00079356582666633899 0 0.0071821990653375941 -0.00095374086972536108 0 0.0070254728427106084 -0.00092129914041662406 0 0.0072882214128496617 -0.00090723283506383037 0 0.0072016926507652594 -0.00079356582666633899 0 0.0071821990653375941 -0.00095374086972536108 0 0.011420124746080777 0.00074808457710663352 0 0.011445215031294356 0.00078443090961972006 0 0.01141685195318836 0.00071606967122087462 0 0.0095114189530512289 1.1314800018318611e-07 0 0.0094627533591289947 9.2196378484531838e-05 0 0.0085927338883581578 -1.18775272996208e-05 0 0.0095114189530512289 1.1314800018318611e-07 0 0.0094627533591289947 9.2196378484531838e-05 0 0.010022206767357574 1.734131353652735e-05 0 0.009307743763715565 0.00013009548476778561 0 0.0083685248664950741 9.6795454705386215e-05 0 0.0094627533591289947 9.2196378484531838e-05 0 0.0094726553117993086 5.4284387556792421e-05 0 0.009050967192877778 -2.0697038679088424e-05 0 0.0094627533591289947 9.2196378484531838e-05 0 0.0098516834786855131 2.9812118070310956e-05 0 0.0094726553117993086 5.4284387556792421e-05 0 0.0098516834786855131 2.9812118070310956e-05 0 0.0097096713187674235 0.00033571021725684389 0 0.0094726553117993086 5.4284387556792421e-05 0 0.0098516834786855131 2.9812118070310956e-05 0 0.010498268051637401 6.6181338412329364e-05 0 0.0097096713187674235 0.00033571021725684389 0 0.0095114189530512289 1.1314800018318611e-07 0 0.010022206767357574 1.734131353652735e-05 0 0.010774469811654145 5.1959861967489035e-08 0 0.0098516834786855131 2.9812118070310956e-05 0 0.010498268051637401 6.6181338412329364e-05 0 0.010022206767357574 1.734131353652735e-05 0 0.0094627533591289947 9.2196378484531838e-05 0 0.0098516834786855131 2.9812118070310956e-05 0 0.010022206767357574 1.734131353652735e-05 0 0.010498268051637401 6.6181338412329364e-05 0 0.010022206767357574 1.734131353652735e-05 0 0.010774469811654145 5.1959861967489035e-08 0 0.010498268051637401 6.6181338412329364e-05 0 0.010774469811654145 5.1959861967489035e-08 0 0.01174264735749604 0.00010559739973351198 0 0.010774469811654145 5.1959861967489035e-08 0 0.012033793674138121 7.2661961706102498e-07 0 0.01174264735749604 0.00010559739973351198 0 0.010498268051637401 6.6181338412329364e-05 0 0.01174264735749604 0.00010559739973351198 0 0.0097096713187674235 0.00033571021725684389 0 0.012033793674138121 7.2661961706102498e-07 0 0.01174264735749604 0.00010559739973351198 0 0.011916720068893305 5.7485656549433536e-05 0 0.01203658599623586 5.1834698188131911e-08 0 0.01277239703251459 0.00019119701616060911 0 0.012039381473441876 1.4725946571079655e-06 0 0.013212425801541463 -1.7017268938373788e-05 0 0.013632545021341385 0.00035470957345000128 0 0.013212425801541463 -1.7017268938373788e-05 0 0.013632545021341385 0.00035470957345000128 0 0.01363620439639315 0.00022632207577043435 0 0.011572389495266311 0.00017324832805989843 0 0.010843677607294088 0.00026520349800058461 0 0.01174264735749604 0.00010559739973351198 0 0.011916720068893305 5.7485656549433536e-05 0 0.011921204290366992 0.00035265787757367837 0 0.011916720068893305 5.7485656549433536e-05 0 0.012570561584805746 0.00037845754675578985 0 0.013182224435373523 0.00017688195224472772 0 0.011916720068893305 5.7485656549433536e-05 0 0.011921204290366992 0.00035265787757367837 0 0.012570561584805746 0.00037845754675578985 0 0.01277239703251459 0.00019119701616060911 0 0.013169011599268348 0.00019470116256580953 0 0.013632545021341385 0.00035470957345000128 0 0.01363620439639315 0.00022632207577043435 0 0.013369103822228119 0.00023760247457832513 0 0.013459412947250267 0.00038753049784672811 0 0.01363620439639315 0.00022632207577043435 0 0.013369103822228119 0.00023760247457832513 0 0.013632545021341385 0.00035470957345000128 0 0.013369103822228119 0.00023760247457832513 0 0.013182224435373523 0.00017688195224472772 0 0.013369103822228119 0.00023760247457832513 0 0.013182224435373523 0.00017688195224472772 0 0.013209342899423566 0.00019111898400665323 0 0.012570561584805746 0.00037845754675578985 0 0.013182224435373523 0.00017688195224472772 0 0.013025130976996386 0.00048406837178561617 0 0.013182224435373523 0.00017688195224472772 0 0.013025130976996386 0.00048406837178561617 0 0.013330665995092666 0.00037692091844400123 0 0.013025130976996386 0.00048406837178561617 0 0.013129721569914748 0.00067640480380675122 0 0.012742006821845812 0.00077845746351872772 0 0.013129721569914748 0.00067640480380675122 0 0.012742006821845812 0.00077845746351872772 0 0.013356454911754162 0.0010927842602883383 0 0.012570561584805746 0.00037845754675578985 0 0.013025130976996386 0.00048406837178561617 0 0.012742006821845812 0.00077845746351872772 0 0.0097096713187674235 0.00033571021725684389 0 0.0091277370003209485 0.00012876333553558865 0 0.0094726553117993086 5.4284387556792421e-05 0 0.010843677607294088 0.00026520349800058461 0 0.010979955343092122 0.00052203862352869477 0 0.011921204290366992 0.00035265787757367837 0 0.012570561584805746 0.00037845754675578985 0 0.012742006821845812 0.00077845746351872772 0 0.0094726553117993086 5.4284387556792421e-05 0 0.008543735231875519 0.00017633884117554326 0 0.009050967192877778 -2.0697038679088424e-05 0 0.0091277370003209485 0.00012876333553558865 0 0.0094726553117993086 5.4284387556792421e-05 0 0.0090423432684808638 -0.00052187395631044518 0 0.0093861056955677705 4.1288139232531546e-05 0 0.0087728820084428429 -0.00019578910775271642 0 0.0091277370003209485 0.00012876333553558865 0 0.0087994988100313608 -0.00026920120323445189 0 0.0086004378401373597 -0.00027767286447661136 0 0.010979955343092122 0.00052203862352869477 0 0.010810185834886092 -5.9495979985401827e-05 0 0.0091277370003209485 0.00012876333553558865 0 0.0089249637759635878 -0.00028361866310880741 0 0.0090423432684808638 -0.00052187395631044518 0 0.0088411638067782961 -0.00040239360488367594 0 0.0089249637759635878 -0.00028361866310880741 0 0.0090423432684808638 -0.00052187395631044518 0 0.0088411638067782961 -0.00040239360488367594 0 0.0089249637759635878 -0.00028361866310880741 0 0.0087994988100313608 -0.00026920120323445189 0 0.0091277370003209485 0.00012876333553558865 0 0.0089249637759635878 -0.00028361866310880741 0 0.0087994988100313608 -0.00026920120323445189 0 0.0085565151805109714 -0.00041002917928247571 0 0.0085540402993992924 -0.00035364364802267095 0 0.0085926619821036082 -0.00042196676225979859 0 0.0085565151805109714 -0.00041002917928247571 0 0.0085540402993992924 -0.00035364364802267095 0 0.008487536483615889 -0.00040353596202981313 0 0.0086736970065146857 -0.00034891091038633101 0 0.0087994988100313608 -0.00026920120323445189 0 0.0086004378401373597 -0.00027767286447661136 0 0.0086736970065146857 -0.00034891091038633101 0 0.008600843223674888 -0.00041603501470128726 0 0.0086004378401373597 -0.00027767286447661136 0 0.0086736970065146857 -0.00034891091038633101 0 0.0087994988100313608 -0.00026920120323445189 0 0.0087050371052100478 -0.00041484420611371132 0 0.0088411638067782961 -0.00040239360488367594 0 0.0087994988100313608 -0.00026920120323445189 0 0.0087050371052100478 -0.00041484420611371132 0 0.0086736970065146857 -0.00034891091038633101 0 0.0087050371052100478 -0.00041484420611371132 0 0.008600843223674888 -0.00041603501470128726 0 0.0087050371052100478 -0.00041484420611371132 0 0.008600843223674888 -0.00041603501470128726 0 0.0086253894101601218 -0.00049750643683053061 0 0.0085630850020066568 -0.00046895816924918694 0 0.008600843223674888 -0.00041603501470128726 0 0.0086253894101601218 -0.00049750643683053061 0 0.0085630850020066568 -0.00046895816924918694 0 0.0085784872655837174 -0.0004292837042847093 0 0.008547046664718198 -0.00044272047456692115 0 0.0085630850020066568 -0.00046895816924918694 0 0.008600843223674888 -0.00041603501470128726 0 0.0085784872655837174 -0.0004292837042847093 0 0.0085565151805109714 -0.00041002917928247571 0 0.0085711774610477704 -0.00042090322788278711 0 0.0085926619821036082 -0.00042196676225979859 0 0.008600843223674888 -0.00041603501470128726 0 0.0085784872655837174 -0.0004292837042847093 0 0.0085926619821036082 -0.00042196676225979859 0 0.010504226010936717 -0.00022052979685575718 0 0.010810185834886092 -5.9495979985401827e-05 0 0.0085784872655837174 -0.0004292837042847093 0 0.0085711774610477704 -0.00042090322788278711 0 0.008547046664718198 -0.00044272047456692115 0 0.0085784872655837174 -0.0004292837042847093 0 0.0085711774610477704 -0.00042090322788278711 0 0.0085926619821036082 -0.00042196676225979859 0 0.0085565151805109714 -0.00041002917928247571 0 0.008547046664718198 -0.00044272047456692115 0 0.0084924564951914493 -0.00046825210537560495 0 0.0085565151805109714 -0.00041002917928247571 0 0.0085711774610477704 -0.00042090322788278711 0 0.008547046664718198 -0.00044272047456692115 0 0.0085630850020066568 -0.00046895816924918694 0 0.008547046664718198 -0.00044272047456692115 0 0.0084924564951914493 -0.00046825210537560495 0 0.0085630850020066568 -0.00046895816924918694 0 0.0084924564951914493 -0.00046825210537560495 0 0.0085257795370781812 -0.00053922332490116839 0 0.0084924564951914493 -0.00046825210537560495 0 0.0083793084040014731 -0.00049154567902142906 0 0.008487536483615889 -0.00040353596202981313 0 0.0084924564951914493 -0.00046825210537560495 0 0.0083793084040014731 -0.00049154567902142906 0 0.0084304000512876384 -0.0005524223571927475 0 0.0085565151805109714 -0.00041002917928247571 0 0.0084924564951914493 -0.00046825210537560495 0 0.008487536483615889 -0.00040353596202981313 0 0.0083793084040014731 -0.00049154567902142906 0 0.0082090984498534424 -0.00054015945934491585 0 0.0083087814171914059 -0.00061549420460687405 0 0.0083793084040014731 -0.00049154567902142906 0 0.008487536483615889 -0.00040353596202981313 0 0.0083683701168942477 -0.00037768442238919999 0 0.008487536483615889 -0.00040353596202981313 0 0.0085189740874542404 -0.00031691389770271505 0 0.0083683701168942477 -0.00037768442238919999 0 0.0085540402993992924 -0.00035364364802267095 0 0.008487536483615889 -0.00040353596202981313 0 0.0085189740874542404 -0.00031691389770271505 0 0.0085189740874542404 -0.00031691389770271505 0 0.0083683701168942477 -0.00037768442238919999 0 0.0085081554477770063 -0.00025002905030987782 0 0.0083683701168942477 -0.00037768442238919999 0 0.0085081554477770063 -0.00025002905030987782 0 0.0083863687878410094 -0.00025228112441406155 0 0.0085189740874542404 -0.00031691389770271505 0 0.0085081554477770063 -0.00025002905030987782 0 0.0085995969193560767 -0.00022685125483245253 0 0.010810185834886092 -5.9495979985401827e-05 0 0.010975036609023478 0.00016856010746138254 0 0.013129721569914748 0.00067640480380675122 0 0.013356454911754162 0.0010927842602883383 0 0.013330665995092666 0.00037692091844400123 0 0.0085540402993992924 -0.00035364364802267095 0 0.0085926619821036082 -0.00042196676225979859 0 0.0085995969193560767 -0.00022685125483245253 0 0.0085540402993992924 -0.00035364364802267095 0 0.0085189740874542404 -0.00031691389770271505 0 0.0085995969193560767 -0.00022685125483245253 0 0.013025130976996386 0.00048406837178561617 0 0.013129721569914748 0.00067640480380675122 0 0.013330665995092666 0.00037692091844400123 0 0.0085995969193560767 -0.00022685125483245253 0 0.0085792700910558208 -0.00014990974698109185 0 0.0085670050389092499 -0.0001820233649095407 0 0.010975036609023478 0.00016856010746138254 0 0.010903216088146964 1.063030667756443e-05 0 0.013182224435373523 0.00017688195224472772 0 0.013330665995092666 0.00037692091844400123 0 0.013209342899423566 0.00019111898400665323 0 0.0087556667358115684 -0.00019029485109621204 0 0.0085670050389092499 -0.0001820233649095407 0 0.0086156345535172603 -0.00019786660983833531 0 0.0087556667358115684 -0.00019029485109621204 0 0.0085792700910558208 -0.00014990974698109185 0 0.0085670050389092499 -0.0001820233649095407 0 0.0085081554477770063 -0.00025002905030987782 0 0.0085670050389092499 -0.0001820233649095407 0 0.0083863687878410094 -0.00025228112441406155 0 0.0085081554477770063 -0.00025002905030987782 0 0.0085995969193560767 -0.00022685125483245253 0 0.0085670050389092499 -0.0001820233649095407 0 0.0081177114912961822 -8.2241029725641667e-05 0 0.0081095190674168958 -0.00030375530526977296 0 0.0083863687878410094 -0.00025228112441406155 0 0.0083584792421680567 -0.00017341652569396123 0 0.0083908898735158954 -0.00025024214598591272 0 0.0085670050389092499 -0.0001820233649095407 0 0.0085576961512104435 -0.00021095080357638878 0 0.0083863687878410094 -0.00025228112441406155 0 0.0085670050389092499 -0.0001820233649095407 0 0.0085576961512104435 -0.00021095080357638878 0 0.0086156345535172603 -0.00019786660983833531 0 0.0081357955824420888 3.4613111348231836e-06 0 0.0083584792421680567 -0.00017341652569396123 0 0.0085463586816613632 -0.00016815234740588978 0 0.0085576961512104435 -0.00021095080357638878 0 0.0086156345535172603 -0.00019786660983833531 0 0.0079678086473285795 7.7348354596494141e-05 0 0.0081177114912961822 -8.2241029725641667e-05 0 0.0079519573084972355 -0.00015030343201943245 0 0.0081177114912961822 -8.2241029725641667e-05 0 0.0079519573084972355 -0.00015030343201943245 0 0.0081095190674168958 -0.00030375530526977296 0 0.0078755845931560327 -0.00029801778635680013 0 0.0079519573084972355 -0.00015030343201943245 0 0.0081095190674168958 -0.00030375530526977296 0 0.0078755845931560327 -0.00029801778635680013 0 0.0081095190674168958 -0.00030375530526977296 0 0.0079182469906099208 -0.0004385789056139738 0 0.0081095190674168958 -0.00030375530526977296 0 0.0079182469906099208 -0.0004385789056139738 0 0.0080885007033926482 -0.00046124193842584868 0 0.0083683701168942477 -0.00037768442238919999 0 0.0081095190674168958 -0.00030375530526977296 0 0.0080885007033926482 -0.00046124193842584868 0 0.0083683701168942477 -0.00037768442238919999 0 0.0081095190674168958 -0.00030375530526977296 0 0.0083863687878410094 -0.00025228112441406155 0 0.0083683701168942477 -0.00037768442238919999 0 0.0082090984498534424 -0.00054015945934491585 0 0.0080885007033926482 -0.00046124193842584868 0 0.0083793084040014731 -0.00049154567902142906 0 0.0083683701168942477 -0.00037768442238919999 0 0.0082090984498534424 -0.00054015945934491585 0 0.0082090984498534424 -0.00054015945934491585 0 0.0080885007033926482 -0.00046124193842584868 0 0.0079704664803217831 -0.00060468273179772273 0 0.0079182469906099208 -0.0004385789056139738 0 0.0080885007033926482 -0.00046124193842584868 0 0.0079704664803217831 -0.00060468273179772273 0 0.0077605130992499148 -0.0005648217044492953 0 0.0079182469906099208 -0.0004385789056139738 0 0.0079704664803217831 -0.00060468273179772273 0 0.0079704664803217831 -0.00060468273179772273 0 0.0081234035479610372 -0.00069570333039796668 0 0.0079052576493918517 -0.00081926381336261465 0 0.0077813293664435465 -0.00072927567278068201 0 0.0079704664803217831 -0.00060468273179772273 0 0.0079052576493918517 -0.00081926381336261465 0 0.0082090984498534424 -0.00054015945934491585 0 0.0079704664803217831 -0.00060468273179772273 0 0.0081234035479610372 -0.00069570333039796668 0 0.0082090984498534424 -0.00054015945934491585 0 0.0081234035479610372 -0.00069570333039796668 0 0.0083087814171914059 -0.00061549420460687405 0 0.0081234035479610372 -0.00069570333039796668 0 0.0082765371947276511 -0.00075928042921330756 0 0.0083087814171914059 -0.00061549420460687405 0 0.0081234035479610372 -0.00069570333039796668 0 0.0081032993627974479 -0.00086201999088089177 0 0.0079052576493918517 -0.00081926381336261465 0 0.0081032993627974479 -0.00086201999088089177 0 0.0082405793612252993 -0.00089676151532896227 0 0.0082765371947276511 -0.00075928042921330756 0 0.0081234035479610372 -0.00069570333039796668 0 0.0081032993627974479 -0.00086201999088089177 0 0.0082765371947276511 -0.00075928042921330756 0 0.0081032993627974479 -0.00086201999088089177 0 0.0081262750181232118 -0.0010156273308277487 0 0.0082405793612252993 -0.00089676151532896227 0 0.0081032993627974479 -0.00086201999088089177 0 0.0079052576493918517 -0.00081926381336261465 0 0.007914669959835554 -0.00099710552827903085 0 0.0081032993627974479 -0.00086201999088089177 0 0.007914669959835554 -0.00099710552827903085 0 0.0081262750181232118 -0.0010156273308277487 0 0.0077813293664435465 -0.00072927567278068201 0 0.007672333838345949 -0.00092034778990574722 0 0.0079052576493918517 -0.00081926381336261465 0 0.0079052576493918517 -0.00081926381336261465 0 0.0077942793686640154 -0.00095053936003522172 0 0.007914669959835554 -0.00099710552827903085 0 0.007672333838345949 -0.00092034778990574722 0 0.0077942793686640154 -0.00095053936003522172 0 0.0076944093582061602 -0.0010729351302647585 0 0.007672333838345949 -0.00092034778990574722 0 0.0079052576493918517 -0.00081926381336261465 0 0.0077942793686640154 -0.00095053936003522172 0 0.0077942793686640154 -0.00095053936003522172 0 0.0076944093582061602 -0.0010729351302647585 0 0.007914669959835554 -0.00099710552827903085 0 0.0076944093582061602 -0.0010729351302647585 0 0.007914669959835554 -0.00099710552827903085 0 0.0077850731624791638 -0.0011358874052810771 0 0.0077850731624791638 -0.0011358874052810771 0 0.0077233780959013324 -0.0012620369782824587 0 0.0079344662824823668 -0.0011640341431278427 0 0.007914669959835554 -0.00099710552827903085 0 0.0077850731624791638 -0.0011358874052810771 0 0.0079344662824823668 -0.0011640341431278427 0 0.0075751956490403985 -0.001201078193945963 0 0.0076944093582061602 -0.0010729351302647585 0 0.0077850731624791638 -0.0011358874052810771 0 0.0073891690950180751 -0.001347294684019741 0 0.0075751956490403985 -0.001201078193945963 0 0.0077233780959013324 -0.0012620369782824587 0 0.0077233780959013324 -0.0012620369782824587 0 0.007814560588189131 -0.001477950439149294 0 0.0079344662824823668 -0.0011640341431278427 0 0.0073891690950180751 -0.001347294684019741 0 0.0077233780959013324 -0.0012620369782824587 0 0.007705919276343026 -0.0013886777635705044 0 0.0075751956490403985 -0.001201078193945963 0 0.0077850731624791638 -0.0011358874052810771 0 0.0077233780959013324 -0.0012620369782824587 0 0.0075744409310916569 -0.0014355107922786557 0 0.0069915455140557563 -0.0012107201630589515 0 0.007814560588189131 -0.001477950439149294 0 0.0079344662824823668 -0.0011640341431278427 0 0.0082239069723942619 -0.0011663315007459656 0 0.0060663814769788505 -0.00035772753111547773 0 0.0061133046813161363 -0.000356359981447273 0 0.0061525188016442597 -0.00033029048770289755 0 0.0069915455140557563 -0.0012107201630589515 0 0.0072074192410773018 -0.00071894246341774849 0 0.0079344662824823668 -0.0011640341431278427 0 0.0081262750181232118 -0.0010156273308277487 0 0.0082239069723942619 -0.0011663315007459656 0 0.007914669959835554 -0.00099710552827903085 0 0.0079344662824823668 -0.0011640341431278427 0 0.0081262750181232118 -0.0010156273308277487 0 0.0064055955342039103 -0.00037667078344845602 0 0.0061525188016442597 -0.00033029048770289755 0 0.0072246735524843994 -0.00016667816735884113 0 0.0082239069723942619 -0.0011663315007459656 0 0.008585708007872549 -0.0009060245729286924 0 0.0083144575886446165 -0.00096501205875486828 0 0.0072074192410773018 -0.00071894246341774849 0 0.0078818657093151327 -0.00056089494383434199 0 0.0081262750181232118 -0.0010156273308277487 0 0.0082239069723942619 -0.0011663315007459656 0 0.0083144575886446165 -0.00096501205875486828 0 0.0064055955342039103 -0.00037667078344845602 0 0.0061525188016442597 -0.00033029048770289755 0 0.0062521698562820064 -0.00036605566341961048 0 0.0061133046813161363 -0.000356359981447273 0 0.0061525188016442597 -0.00033029048770289755 0 0.0062521698562820064 -0.00036605566341961048 0 0.0064055955342039103 -0.00037667078344845602 0 0.0062521698562820064 -0.00036605566341961048 0 0.0063582791351170995 -0.00035013262046777532 0 0.0062521698562820064 -0.00036605566341961048 0 0.0062917630508873661 -0.00033110845499836319 0 0.0061252437703557955 -0.00034411430774700986 0 0.0061133046813161363 -0.000356359981447273 0 0.0062521698562820064 -0.00036605566341961048 0 0.0061252437703557955 -0.00034411430774700986 0 0.0062917630508873661 -0.00033110845499836319 0 0.0064639366433215609 -0.00034629761999585248 0 0.006418696316963954 -0.00031808443497497834 0 0.0062521698562820064 -0.00036605566341961048 0 0.0062917630508873661 -0.00033110845499836319 0 0.0063582791351170995 -0.00035013262046777532 0 0.0062917630508873661 -0.00033110845499836319 0 0.0063582791351170995 -0.00035013262046777532 0 0.0064639366433215609 -0.00034629761999585248 0 0.0064055955342039103 -0.00037667078344845602 0 0.0064639366433215609 -0.00034629761999585248 0 0.0065484675907412195 -0.00010663059597772765 0 0.0064055955342039103 -0.00037667078344845602 0 0.0063582791351170995 -0.00035013262046777532 0 0.0064639366433215609 -0.00034629761999585248 0 0.0065046869791414155 -0.00037503089935172362 0 0.0071949829665134725 -0.00020867596284967693 0 0.0064055955342039103 -0.00037667078344845602 0 0.0072246735524843994 -0.00016667816735884113 0 0.0077951682317238691 -0.00036480829753792263 0 0.008585708007872549 -0.0009060245729286924 0 0.0087042364306728175 -0.00065331213055085525 0 0.008544632483157396 -0.00073312193322090928 0 0.008585708007872549 -0.0009060245729286924 0 0.0083944061349787713 -0.00083861221456064873 0 0.008544632483157396 -0.00073312193322090928 0 0.008585708007872549 -0.0009060245729286924 0 0.0083144575886446165 -0.00096501205875486828 0 0.0083944061349787713 -0.00083861221456064873 0 0.0083144575886446165 -0.00096501205875486828 0 0.0082405793612252993 -0.00089676151532896227 0 0.0083944061349787713 -0.00083861221456064873 0 0.0081262750181232118 -0.0010156273308277487 0 0.0083144575886446165 -0.00096501205875486828 0 0.0082405793612252993 -0.00089676151532896227 0 0.0082405793612252993 -0.00089676151532896227 0 0.0083944061349787713 -0.00083861221456064873 0 0.0082765371947276511 -0.00075928042921330756 0 0.0083944061349787713 -0.00083861221456064873 0 0.0084490389039676376 -0.00066609509575069157 0 0.0082765371947276511 -0.00075928042921330756 0 0.0083944061349787713 -0.00083861221456064873 0 0.0084490389039676376 -0.00066609509575069157 0 0.008544632483157396 -0.00073312193322090928 0 0.0084490389039676376 -0.00066609509575069157 0 0.0082765371947276511 -0.00075928042921330756 0 0.0083087814171914059 -0.00061549420460687405 0 0.0083793084040014731 -0.00049154567902142906 0 0.0083087814171914059 -0.00061549420460687405 0 0.0084304000512876384 -0.0005524223571927475 0 0.0084490389039676376 -0.00066609509575069157 0 0.0084304000512876384 -0.0005524223571927475 0 0.0085257795370781812 -0.00053922332490116839 0 0.0084490389039676376 -0.00066609509575069157 0 0.0083087814171914059 -0.00061549420460687405 0 0.0084304000512876384 -0.0005524223571927475 0 0.0084924564951914493 -0.00046825210537560495 0 0.0084304000512876384 -0.0005524223571927475 0 0.0085257795370781812 -0.00053922332490116839 0 0.0084490389039676376 -0.00066609509575069157 0 0.0085257795370781812 -0.00053922332490116839 0 0.0086031154958016703 -0.00059973414661279372 0 0.008585708007872549 -0.0009060245729286924 0 0.0087042364306728175 -0.00065331213055085525 0 0.0090423432684808638 -0.00052187395631044518 0 0.0085630850020066568 -0.00046895816924918694 0 0.0085257795370781812 -0.00053922332490116839 0 0.0086253894101601218 -0.00049750643683053061 0 0.0085257795370781812 -0.00053922332490116839 0 0.0086031154958016703 -0.00059973414661279372 0 0.0086253894101601218 -0.00049750643683053061 0 0.0087050371052100478 -0.00041484420611371132 0 0.0086253894101601218 -0.00049750643683053061 0 0.0087408999316343512 -0.00051871363535998583 0 0.0088411638067782961 -0.00040239360488367594 0 0.0087050371052100478 -0.00041484420611371132 0 0.0087408999316343512 -0.00051871363535998583 0 0.0086031154958016703 -0.00059973414661279372 0 0.0087408999316343512 -0.00051871363535998583 0 0.0087042364306728175 -0.00065331213055085525 0 0.0086031154958016703 -0.00059973414661279372 0 0.0086253894101601218 -0.00049750643683053061 0 0.0087408999316343512 -0.00051871363535998583 0 0.0086031154958016703 -0.00059973414661279372 0 0.0087042364306728175 -0.00065331213055085525 0 0.008544632483157396 -0.00073312193322090928 0 0.0084490389039676376 -0.00066609509575069157 0 0.0086031154958016703 -0.00059973414661279372 0 0.008544632483157396 -0.00073312193322090928 0 0.0078818657093151327 -0.00056089494383434199 0 0.0087728820084428429 -0.00019578910775271642 0 0.008543735231875519 0.00017633884117554326 0 0.009050967192877778 -2.0697038679088424e-05 0 0.0077951682317238691 -0.00036480829753792263 0 0.0088411638067782961 -0.00040239360488367594 0 0.0087408999316343512 -0.00051871363535998583 0 0.0090423432684808638 -0.00052187395631044518 0 0.0087408999316343512 -0.00051871363535998583 0 0.0087042364306728175 -0.00065331213055085525 0 0.0090423432684808638 -0.00052187395631044518 0 0.0076764945001983062 0.00030791390628614166 0 0.0071454032842658407 -0.00013107931872251123 0 0.0078984136847247838 -6.4633267645528301e-05 0 0.0071454032842658407 -0.00013107931872251123 0 0.0076269540404209704 -0.00018016753454982521 0 0.0078984136847247838 -6.4633267645528301e-05 0 0.0083685248664950741 9.6795454705386215e-05 0 0.0071949829665134725 -0.00020867596284967693 0 0.0076764945001983062 0.00030791390628614166 0 0.0071454032842658407 -0.00013107931872251123 0 0.0065484675907412195 -0.00010663059597772765 0 0.0072246735524843994 -0.00016667816735884113 0 0.008543735231875519 0.00017633884117554326 0 0.0077951682317238691 -0.00036480829753792263 0 0.0071454032842658407 -0.00013107931872251123 0 0.0065484675907412195 -0.00010663059597772765 0 0.0066099065976722698 -0.00030381827968369447 0 0.0064639366433215609 -0.00034629761999585248 0 0.0066099065976722698 -0.00030381827968369447 0 0.0067903745182969696 -0.00041429763390626569 0 0.0064639366433215609 -0.00034629761999585248 0 0.0067903745182969696 -0.00041429763390626569 0 0.006418696316963954 -0.00031808443497497834 0 0.0064639366433215609 -0.00034629761999585248 0 0.0065484675907412195 -0.00010663059597772765 0 0.0066099065976722698 -0.00030381827968369447 0 0.0071454032842658407 -0.00013107931872251123 0 0.0066099065976722698 -0.00030381827968369447 0 0.0067903745182969696 -0.00041429763390626569 0 0.0062917630508873661 -0.00033110845499836319 0 0.006418696316963954 -0.00031808443497497834 0 0.0062370819827226283 -0.00026963738852869086 0 0.0067903745182969696 -0.00041429763390626569 0 0.006418696316963954 -0.00031808443497497834 0 0.0062382115185025825 -0.00021766717749484508 0 0.006418696316963954 -0.00031808443497497834 0 0.0062382115185025825 -0.00021766717749484508 0 0.0062235792873919131 -0.00024186592822703757 0 0.0067903745182969696 -0.00041429763390626569 0 0.0076269540404209704 -0.00018016753454982521 0 0.0079994999763289363 -0.00026494908556848107 0 0.0067903745182969696 -0.00041429763390626569 0 0.0062382115185025825 -0.00021766717749484508 0 0.0061637945732616025 -0.00019623889232109695 0 0.0067978897240966027 -0.00036495443357749467 0 0.0070691719808985221 -0.00023626951731348656 0 0.0071454032842658407 -0.00013107931872251123 0 0.0067903745182969696 -0.00041429763390626569 0 0.0076269540404209704 -0.00018016753454982521 0 0.0076269540404209704 -0.00018016753454982521 0 0.0079994999763289363 -0.00026494908556848107 0 0.0081109953746080089 -0.00018593871047075994 0 0.0062382115185025825 -0.00021766717749484508 0 0.0061637945732616025 -0.00019623889232109695 0 0.0061217069150529277 -0.00020765912399542519 0 0.0061637945732616025 -0.00019623889232109695 0 0.0069850305584216168 1.1802986796297074e-07 0 0.0061217069150529277 -0.00020765912399542519 0 0.0079994999763289363 -0.00026494908556848107 0 0.0069892219147957967 2.2736953661269571e-07 0 0.0081109953746080089 -0.00018593871047075994 0 0.0069892219147957967 2.2736953661269571e-07 0 0.0082491321056958073 -4.8933848549363711e-07 0 0.0081109953746080089 -0.00018593871047075994 0 0.0070691719808985221 -0.00023626951731348656 0 0.0069872036343864678 -1.037922968607139e-07 0 0.0082491321056958073 -4.8933848549363711e-07 0 0.0081109953746080089 -0.00018593871047075994 0 0.0085927338883581578 -1.18775272996208e-05 0 0.0081109953746080089 -0.00018593871047075994 0 0.0078984136847247838 -6.4633267645528301e-05 0 0.0085927338883581578 -1.18775272996208e-05 0 0.0076269540404209704 -0.00018016753454982521 0 0.0081109953746080089 -0.00018593871047075994 0 0.0078984136847247838 -6.4633267645528301e-05 0 0.0076764945001983062 0.00030791390628614166 0 0.0078984136847247838 -6.4633267645528301e-05 0 0.0085927338883581578 -1.18775272996208e-05 0 0.0094627533591289947 9.2196378484531838e-05 0 0.0076764945001983062 0.00030791390628614166 0 0.0085927338883581578 -1.18775272996208e-05 0 0.0095114189530512289 1.1314800018318611e-07 0 0.0082491321056958073 -4.8933848549363711e-07 0 0.0085927338883581578 -1.18775272996208e-05 0 0.0025734817628961927 -0.00020927769788036256 0 0.0040207359510275572 8.4515926181078269e-07 0 0.0025514477328380781 -9.7114437264909609e-07 0 0.0046038125352382405 -0.00015884671293735141 0 0.0045464875826529434 -0.00016110289863456158 0 0.0040251907450944372 5.3159516804469546e-07 0 0.0035860853975837434 -0.00022147754996036247 0 0.0040227367222132855 -1.1664968464326118e-07 0 0.0046038125352382405 -0.00015884671293735141 0 0.0045464875826529434 -0.00016110289863456158 0 0.0044965625549177489 -0.00019862912707903336 0 0.0048431059794576186 -2.275999382450123e-05 0 0.005247974190739131 -8.2543947874314235e-05 0 0.0048155296878902168 -7.3438761690296008e-07 0 0.0057460998794671269 -0.00014637214005347335 0 0.0060426807512625295 6.5447316755558346e-05 0 0.0045464875826529434 -0.00016110289863456158 0 0.0048155296878902168 -7.3438761690296008e-07 0 0.0044965625549177489 -0.00019862912707903336 0 0.0045464875826529434 -0.00016110289863456158 0 0.0048155296878902168 -7.3438761690296008e-07 0 0.0040251907450944372 5.3159516804469546e-07 0 0.0048155296878902168 -7.3438761690296008e-07 0 0.0056071165296372712 -0.00014115597263215427 0 0.0057460998794671269 -0.00014637214005347335 0 0.0048155296878902168 -7.3438761690296008e-07 0 0.0040251907450944372 5.3159516804469546e-07 0 0.0055052809935868217 -7.8232723731627271e-07 0 0.0048155296878902168 -7.3438761690296008e-07 0 0.0056071165296372712 -0.00014115597263215427 0 0.0055052809935868217 -7.8232723731627271e-07 0 0.0069850305584216168 1.1802986796297074e-07 0 0.0055052809935868217 -7.8232723731627271e-07 0 0.0061217069150529277 -0.00020765912399542519 0 0.0056071165296372712 -0.00014115597263215427 0 0.0055052809935868217 -7.8232723731627271e-07 0 0.0061217069150529277 -0.00020765912399542519 0 0.0062382115185025825 -0.00021766717749484508 0 0.0061217069150529277 -0.00020765912399542519 0 0.0060113373544222999 -0.00023555252172237302 0 0.0056071165296372712 -0.00014115597263215427 0 0.0061217069150529277 -0.00020765912399542519 0 0.0060113373544222999 -0.00023555252172237302 0 0.0056071165296372712 -0.00014115597263215427 0 0.0060113373544222999 -0.00023555252172237302 0 0.0057460998794671269 -0.00014637214005347335 0 0.0057460998794671269 -0.00014637214005347335 0 0.00615933277738281 -0.00016833453518359993 0 0.0060426807512625295 6.5447316755558346e-05 0 0.0060113373544222999 -0.00023555252172237302 0 0.0057460998794671269 -0.00014637214005347335 0 0.00615933277738281 -0.00016833453518359993 0 0.0060113373544222999 -0.00023555252172237302 0 0.00615933277738281 -0.00016833453518359993 0 0.0062235792873919131 -0.00024186592822703757 0 0.0062382115185025825 -0.00021766717749484508 0 0.0060113373544222999 -0.00023555252172237302 0 0.0062235792873919131 -0.00024186592822703757 0 0.00615933277738281 -0.00016833453518359993 0 0.0062235792873919131 -0.00024186592822703757 0 0.0062370819827226283 -0.00026963738852869086 0 0.006418696316963954 -0.00031808443497497834 0 0.0062235792873919131 -0.00024186592822703757 0 0.0062370819827226283 -0.00026963738852869086 0 0.00615933277738281 -0.00016833453518359993 0 0.0062370819827226283 -0.00026963738852869086 0 0.0061182046389503487 -0.000244209601076699 0 0.00615933277738281 -0.00016833453518359993 0 0.0061182046389503487 -0.000244209601076699 0 0.0061117827802289384 -0.00030880626408540817 0 0.0053574261707265538 -0.00035826508567676427 0 0.005247974190739131 -8.2543947874314235e-05 0 0.0045970958658455106 -0.00043975876415883197 0 0.0044965625549177489 -0.00019862912707903336 0 0.0045431003683629517 -0.00025918037601571495 0 0.00615933277738281 -0.00016833453518359993 0 0.0061117827802289384 -0.00030880626408540817 0 0.0060426807512625295 6.5447316755558346e-05 0 0.0046038125352382405 -0.00015884671293735141 0 0.0044965625549177489 -0.00019862912707903336 0 0.0045431003683629517 -0.00025918037601571495 0 0.0046038125352382405 -0.00015884671293735141 0 0.0045431003683629517 -0.00025918037601571495 0 0.0045682171830783618 -0.00027254595724046014 0 0.0045970958658455106 -0.00043975876415883197 0 0.0045431003683629517 -0.00025918037601571495 0 0.0046481524301335243 -0.00029737095996898628 0 0.0045970958658455106 -0.00043975876415883197 0 0.005385766638518235 -0.00050234086471820816 0 0.0046481524301335243 -0.00029737095996898628 0 0.0053574261707265538 -0.00035826508567676427 0 0.0053955115762741902 -0.00048044402997616777 0 0.0056717007046756685 -0.00077147729641910585 0 0.0051186464160825826 -0.00043741872345856315 0 0.005385766638518235 -0.00050234086471820816 0 0.0055985982161195717 -0.00047713579966890716 0 0.0049799278589022691 -0.00032084245003086327 0 0.0057366367465574494 -0.0010393140444383596 0 0.0057696355812061175 -0.00070369903904172852 0 0.0052465312613573633 -0.00053687273521288567 0 0.005385766638518235 -0.00050234086471820816 0 0.0057040305833885177 -0.00038173722530829003 0 0.0055985982161195717 -0.00047713579966890716 0 0.0057040305833885177 -0.00038173722530829003 0 0.0059389005660036966 -0.00035071678401166185 0 0.0055985982161195717 -0.00047713579966890716 0 0.0061182046389503487 -0.000244209601076699 0 0.0061117827802289384 -0.00030880626408540817 0 0.0059551098409447193 -0.0002922264347242209 0 0.0061117827802289384 -0.00030880626408540817 0 0.005385766638518235 -0.00050234086471820816 0 0.0057040305833885177 -0.00038173722530829003 0 0.0061117827802289384 -0.00030880626408540817 0 0.0057040305833885177 -0.00038173722530829003 0 0.0059551098409447193 -0.0002922264347242209 0 0.0062370819827226283 -0.00026963738852869086 0 0.0061182046389503487 -0.000244209601076699 0 0.0061103693030132699 -0.00029616623081317635 0 0.0061182046389503487 -0.000244209601076699 0 0.0059551098409447193 -0.0002922264347242209 0 0.0061103693030132699 -0.00029616623081317635 0 0.0062917630508873661 -0.00033110845499836319 0 0.0062370819827226283 -0.00026963738852869086 0 0.0061103693030132699 -0.00029616623081317635 0 0.0062917630508873661 -0.00033110845499836319 0 0.0061103693030132699 -0.00029616623081317635 0 0.0061252437703557955 -0.00034411430774700986 0 0.0061252437703557955 -0.00034411430774700986 0 0.0059711148330759238 -0.00032807015944934047 0 0.0060434247849571535 -0.00035168688203946787 0 0.0061103693030132699 -0.00029616623081317635 0 0.0061252437703557955 -0.00034411430774700986 0 0.0059711148330759238 -0.00032807015944934047 0 0.0061133046813161363 -0.000356359981447273 0 0.0061252437703557955 -0.00034411430774700986 0 0.0060434247849571535 -0.00035168688203946787 0 0.0057040305833885177 -0.00038173722530829003 0 0.0059551098409447193 -0.0002922264347242209 0 0.0059711148330759238 -0.00032807015944934047 0 0.0057040305833885177 -0.00038173722530829003 0 0.0059711148330759238 -0.00032807015944934047 0 0.0059389005660036966 -0.00035071678401166185 0 0.0059551098409447193 -0.0002922264347242209 0 0.0061103693030132699 -0.00029616623081317635 0 0.0059711148330759238 -0.00032807015944934047 0 0.0059711148330759238 -0.00032807015944934047 0 0.0059389005660036966 -0.00035071678401166185 0 0.0060434247849571535 -0.00035168688203946787 0 0.0060663814769788505 -0.00035772753111547773 0 0.0059389005660036966 -0.00035071678401166185 0 0.0060434247849571535 -0.00035168688203946787 0 0.0060663814769788505 -0.00035772753111547773 0 0.0061133046813161363 -0.000356359981447273 0 0.0060434247849571535 -0.00035168688203946787 0 0.0069915455140557563 -0.0012107201630589515 0 0.0059090628223668245 -0.00091852365883686481 0 0.0073891690950180751 -0.001347294684019741 0 0.007705919276343026 -0.0013886777635705044 0 0.0070400055328174137 -0.0014943088338801422 0 0.0069915455140557563 -0.0012107201630589515 0 0.0070453235255183433 -0.001698520240682969 0 0.0063976997680993113 -0.0021699086830684836 0 0.0060934011900867016 -0.0014838939253980156 0 0.0070400055328174137 -0.0014943088338801422 0 0.0060934011900867016 -0.0014838939253980156 0 0.0065741024883514175 -0.0011810344454252436 0 0.0070400055328174137 -0.0014943088338801422 0 0.0060934011900867016 -0.0014838939253980156 0 0.0065741024883514175 -0.0011810344454252436 0 0.0061442908144872261 -0.00096999336119410571 0 0.0060934011900867016 -0.0014838939253980156 0 0.0057366367465574494 -0.0010393140444383596 0 0.0061442908144872261 -0.00096999336119410571 0 0.0059090628223668245 -0.00091852365883686481 0 0.0056717007046756685 -0.00077147729641910585 0 0.0061442908144872261 -0.00096999336119410571 0 0.0060813604011257698 -0.0005907262615563577 0 0.0057696355812061175 -0.00070369903904172852 0 0.0057366367465574494 -0.0010393140444383596 0 0.0061442908144872261 -0.00096999336119410571 0 0.0057696355812061175 -0.00070369903904172852 0 0.0065741024883514175 -0.0011810344454252436 0 0.0061442908144872261 -0.00096999336119410571 0 0.0065718942263448604 -0.00078465441095907805 0 0.0061442908144872261 -0.00096999336119410571 0 0.0060813604011257698 -0.0005907262615563577 0 0.0065718942263448604 -0.00078465441095907805 0 0.0060813604011257698 -0.0005907262615563577 0 0.0065718942263448604 -0.00078465441095907805 0 0.0064057948603646773 4.611994232082874e-06 0 0.0057696355812061175 -0.00070369903904172852 0 0.0056915650589350027 -0.0003869927170497089 0 0.0052465312613573633 -0.00053687273521288567 0 0.0060813604011257698 -0.0005907262615563577 0 0.0057696355812061175 -0.00070369903904172852 0 0.0056915650589350027 -0.0003869927170497089 0 0.0056915650589350027 -0.0003869927170497089 0 0.0055045671158603163 4.4670622768355581e-06 0 0.0064057948603646773 4.611994232082874e-06 0 0.0056915650589350027 -0.0003869927170497089 0 0.0055045671158603163 4.4670622768355581e-06 0 0.0052465312613573633 -0.00053687273521288567 0 0.0060813604011257698 -0.0005907262615563577 0 0.0056915650589350027 -0.0003869927170497089 0 0.0064057948603646773 4.611994232082874e-06 0 0.0055045671158603163 4.4670622768355581e-06 0 0.0057989221761784275 0.00067829640280600155 0 0.0064057948603646773 4.611994232082874e-06 0 -0.0039019604301019227 -0.0019093162609371374 0 -0.0039597244212773624 -0.0021001720132660757 0 -0.0034761779088791737 -0.0019163399696745663 0 -0.0039678068486167393 -0.0021264570193110185 0 -0.0039837596468749693 -0.0021386971150033521 0 -0.0040941453890687915 -0.0020478070949402857 0 -0.0042236123915520918 -0.0019874796432458801 0 -0.0039837596468749693 -0.0021386971150033521 0 -0.0034761779088791737 -0.0019163399696745663 0 -0.0034662434495233625 -0.0019145519484125523 0 -0.0039678068486167393 -0.0021264570193110185 0 0.0011638516791220117 -0.0006349753481751058 0 0.0012439872105529193 -0.0010711769542928586 0 -0.0040941453890687915 -0.0020478070949402857 0 -0.0041340131216866119 -0.001999725409185494 0 -0.0042236123915520918 -0.0019874796432458801 0 -0.0040941453890687915 -0.0020478070949402857 0 -0.0041340131216866119 -0.001999725409185494 0 -0.0040876946253007966 -0.0020158386922686303 0 -0.0041089789521814102 -0.0019803830695475214 0 -0.0041340131216866119 -0.001999725409185494 0 -0.0040876946253007966 -0.0020158386922686303 0 -0.0041089789521814102 -0.0019803830695475214 0 -0.0041340131216866119 -0.001999725409185494 0 -0.0041537764292312578 -0.0019611085612432177 0 -0.0041340131216866119 -0.001999725409185494 0 -0.0042236123915520918 -0.0019874796432458801 0 -0.0041537764292312578 -0.0019611085612432177 0 -0.0042180225819554665 -0.0018357453167450655 0 -0.0042236123915520918 -0.0019874796432458801 0 -0.0041841613422107862 -0.0019204102953841954 0 -0.0041522263630104873 -0.0018939954736254072 0 -0.0041841613422107862 -0.0019204102953841954 0 -0.0041537764292312578 -0.0019611085612432177 0 -0.0042180225819554665 -0.0018357453167450655 0 -0.0041522263630104873 -0.0018939954736254072 0 -0.0041841613422107862 -0.0019204102953841954 0 -0.0041522263630104873 -0.0018939954736254072 0 -0.0041197180364456066 -0.0019406671055350051 0 -0.0041013708169450221 -0.0019129499105200989 0 -0.0041522263630104873 -0.0018939954736254072 0 -0.0041197180364456066 -0.0019406671055350051 0 -0.0041537764292312578 -0.0019611085612432177 0 -0.0041089789521814102 -0.0019803830695475214 0 -0.0041197180364456066 -0.0019406671055350051 0 -0.0041537764292312578 -0.0019611085612432177 0 -0.0042236123915520918 -0.0019874796432458801 0 -0.0041841613422107862 -0.0019204102953841954 0 -0.0041537764292312578 -0.0019611085612432177 0 0.00075688990934732667 -5.9520573175519254e-05 0 0.0011638516791220117 -0.0006349753481751058 0 0.0050548067784439623 0.0015500450795035354 0 0.0057989221761784275 0.00067829640280600155 0 0.0049298357999857179 0.00072174446673429777 0 0.0057989221761784275 0.00067829640280600155 0 0.0052001689892937266 0.00034679625698691809 0 0.0049298357999857179 0.00072174446673429777 0 -0.0033853170632338471 -0.0015831883566315053 0 -0.0034761779088791737 -0.0019163399696745663 0 -0.0034662434495233625 -0.0019145519484125523 0 0.0055045671158603163 4.4670622768355581e-06 0 0.0057989221761784275 0.00067829640280600155 0 0.0052001689892937266 0.00034679625698691809 0 0.0052001689892937266 0.00034679625698691809 0 0.0049298357999857179 0.00072174446673429777 0 0.0046734727744400942 0.00010195026759030888 0 0.0055045671158603163 4.4670622768355581e-06 0 0.0052001689892937266 0.00034679625698691809 0 0.0046734727744400942 0.00010195026759030888 0 0.0050548067784439623 0.0015500450795035354 0 0.0049298357999857179 0.00072174446673429777 0 0.0039342671402494422 0.00093526904229366224 0 0.0039914346985528391 0.00091071483826072198 0 0.0045188650351242884 0.00010918053988396533 0 0.0049298357999857179 0.00072174446673429777 0 0.0039342671402494422 0.00093526904229366224 0 0.0046734727744400942 0.00010195026759030888 0 0.0039342671402494422 0.00093526904229366224 0 0.0043717732671318104 6.5115816236111784e-05 0 0.0038688350887735156 6.3854891258692935e-05 0 0.0043717732671318104 6.5115816236111784e-05 0 0.0043246944189171679 -0.00026212010849803604 0 0.0049799278589022691 -0.00032084245003086327 0 0.0043717732671318104 6.5115816236111784e-05 0 0.0038688350887735156 6.3854891258692935e-05 0 0.0043246944189171679 -0.00026212010849803604 0 0.0045188650351242884 0.00010918053988396533 0 0.0051186464160825826 -0.00043741872345856315 0 0.0055045671158603163 4.4670622768355581e-06 0 0.0046734727744400942 0.00010195026759030888 0 0.0052465312613573633 -0.00053687273521288567 0 0.005385766638518235 -0.00050234086471820816 0 0.0049799278589022691 -0.00032084245003086327 0 0.0046481524301335243 -0.00029737095996898628 0 0.0043246944189171679 -0.00026212010849803604 0 0.0049799278589022691 -0.00032084245003086327 0 0.0046481524301335243 -0.00029737095996898628 0 0.0043246944189171679 -0.00026212010849803604 0 0.0046481524301335243 -0.00029737095996898628 0 0.0045682171830783618 -0.00027254595724046014 0 0.0045431003683629517 -0.00025918037601571495 0 0.0046481524301335243 -0.00029737095996898628 0 0.0045682171830783618 -0.00027254595724046014 0 0.0035860853975837434 -0.00022147754996036247 0 0.0037317370673569631 -0.0004154929972808175 0 0.0030271524847728833 -0.00015128295345466324 0 0.0024315535009893615 9.3487716413471686e-05 0 0.0021919101709337811 -0.00028642350226757882 0 0.0028066123622426651 -0.00063774388997909202 0 0.0030271524847728833 -0.00015128295345466324 0 0.0021919101709337811 -0.00028642350226757882 0 0.0038688350887735156 6.3854891258692935e-05 0 0.0043246944189171679 -0.00026212010849803604 0 0.0030271524847728833 -0.00015128295345466324 0 0.0042966928288608866 -0.00025058168858322629 0 0.0037317370673569631 -0.0004154929972808175 0 0.0043246944189171679 -0.00026212010849803604 0 0.0028066123622426651 -0.00063774388997909202 0 0.0030271524847728833 -0.00015128295345466324 0 0.0038688350887735156 6.3854891258692935e-05 0 0.0030271524847728833 -0.00015128295345466324 0 0.0032783050412355545 0.00018201165970687134 0 0.0039342671402494422 0.00093526904229366224 0 0.0038688350887735156 6.3854891258692935e-05 0 0.0032783050412355545 0.00018201165970687134 0 0.0029623881741981874 0.0011409009342848997 0 0.0039342671402494422 0.00093526904229366224 0 0.0029222418390390942 0.00060297014201282249 0 0.0039342671402494422 0.00093526904229366224 0 0.0032783050412355545 0.00018201165970687134 0 0.0029222418390390942 0.00060297014201282249 0 0.0020062935109601589 0.00072777913612674769 0 0.0029222418390390942 0.00060297014201282249 0 0.0024315535009893615 9.3487716413471686e-05 0 0.0029623881741981874 0.0011409009342848997 0 0.0020062935109601589 0.00072777913612674769 0 0.0029222418390390942 0.00060297014201282249 0 0.0032783050412355545 0.00018201165970687134 0 0.0029222418390390942 0.00060297014201282249 0 0.0024315535009893615 9.3487716413471686e-05 0 0.0030271524847728833 -0.00015128295345466324 0 0.0032783050412355545 0.00018201165970687134 0 0.0024315535009893615 9.3487716413471686e-05 0 0.0024315535009893615 9.3487716413471686e-05 0 0.0014692184417311727 0.00011972891914266014 0 0.0021919101709337811 -0.00028642350226757882 0 0.0020062935109601589 0.00072777913612674769 0 0.0024315535009893615 9.3487716413471686e-05 0 0.0014692184417311727 0.00011972891914266014 0 0.0020062935109601589 0.00072777913612674769 0 0.00040906529829384092 0.00032403557785791649 0 0.0014692184417311727 0.00011972891914266014 0 -0.00039172084256340866 1.1913871392283279e-06 0 0.00040906529829384092 0.00032403557785791649 0 0.0010794688695850993 -2.7921636256542209e-07 0 0.00040906529829384092 0.00032403557785791649 0 0.0014692184417311727 0.00011972891914266014 0 0.0010794688695850993 -2.7921636256542209e-07 0 0.0014692184417311727 0.00011972891914266014 0 0.0010794688695850993 -2.7921636256542209e-07 0 0.0021919101709337811 -0.00028642350226757882 0 0.0010794688695850993 -2.7921636256542209e-07 0 0.0021919101709337811 -0.00028642350226757882 0 0.0025514477328380781 -9.7114437264909609e-07 0 0.0025734817628961927 -0.00020927769788036256 0 0.0021919101709337811 -0.00028642350226757882 0 0.0025514477328380781 -9.7114437264909609e-07 0 0.0025734817628961927 -0.00020927769788036256 0 0.0028066123622426651 -0.00063774388997909202 0 0.0021919101709337811 -0.00028642350226757882 0 -0.00019945290102802189 -0.0037966024579122147 0 -0.0013434073712995686 -0.004306522659133602 0 -0.00086634944719731974 -0.0033200650152998934 0 -0.00019945290102802189 -0.0037966024579122147 0 -0.0013434073712995686 -0.004306522659133602 0 -0.00035816424785611466 -0.0048394683444090208 0 -0.0013434073712995686 -0.004306522659133602 0 -0.00086634944719731974 -0.0033200650152998934 0 -0.002501228269383233 -0.0030723710790769424 0 -0.00086634944719731974 -0.0033200650152998934 0 -0.002501228269383233 -0.0030723710790769424 0 -0.0018477102307905004 -0.0022685248787904823 0 -0.00019945290102802189 -0.0037966024579122147 0 -0.00086634944719731974 -0.0033200650152998934 0 0.00044768574311204398 -0.0030283043561766467 0 -0.00079348231737151902 -0.003298352302151079 0 0.00033923436038890752 -0.0030368872690069684 0 -0.00086634944719731974 -0.0033200650152998934 0 0.00018655579687785253 -0.0030688618969644133 0 2.4466547177614653e-05 -0.0025244439830301602 0 0.00018655579687785253 -0.0030688618969644133 0 0.00066025575310229114 -0.0026024033438663344 0 2.4466547177614653e-05 -0.0025244439830301602 0 0.00018655579687785253 -0.0030688618969644133 0 0.00066025575310229114 -0.0026024033438663344 0 0.0012234070390566101 -0.0028520013356054899 0 0.00033923436038890752 -0.0030368872690069684 0 0.0013233687488223888 -0.0029958219995353495 0 0.00044768574311204398 -0.0030283043561766467 0 0.0017649850769230833 -0.0027660058397918847 0 0.0018152942847890845 -0.0029982425164546984 0 0.00044768574311204398 -0.0030283043561766467 0 0.00071505328580091277 -0.0039461124061130788 0 0.0018152942847890845 -0.0029982425164546984 0 0.00066025575310229114 -0.0026024033438663344 0 0.0012019832868057827 -0.0027529690831058599 0 0.0012234070390566101 -0.0028520013356054899 0 0.0052337294787651693 -0.0034874263534055237 0 0.0047845150683547902 -0.0038617346319882646 0 0.0046923889182516323 -0.0033172584119033222 0 0.0031543199325779789 -0.0036187338242370088 0 0.0026044116476677741 -0.0033903713934113114 0 -0.00019945290102802189 -0.0037966024579122147 0 0.00071505328580091277 -0.0039461124061130788 0 -0.00035816424785611466 -0.0048394683444090208 0 -0.00019945290102802189 -0.0037966024579122147 0 0.00044768574311204398 -0.0030283043561766467 0 0.00071505328580091277 -0.0039461124061130788 0 0.0052337294787651693 -0.0034874263534055237 0 0.0052873281115399578 -0.0030174597970197229 0 0.0056719668527428465 -0.0031093584297509666 0 0.0031543199325779789 -0.0036187338242370088 0 0.0023086921209261695 -0.0042849235631020203 0 0.0052873281115399578 -0.0030174597970197229 0 0.0055085476553726771 -0.0027061144312576632 0 0.0056719668527428465 -0.0031093584297509666 0 0.0052337294787651693 -0.0034874263534055237 0 0.0048883060722266199 -0.0030722699456415172 0 0.0046923889182516323 -0.0033172584119033222 0 0.0052873281115399578 -0.0030174597970197229 0 0.0048883060722266199 -0.0030722699456415172 0 0.0051312121443474112 -0.0027120137672626667 0 0.0052337294787651693 -0.0034874263534055237 0 0.0052873281115399578 -0.0030174597970197229 0 0.0048883060722266199 -0.0030722699456415172 0 0.0048883060722266199 -0.0030722699456415172 0 0.0051312121443474112 -0.0027120137672626667 0 0.0048168539472250539 -0.002774227905332086 0 0.0051312121443474112 -0.0027120137672626667 0 0.0049237292094476094 -0.002593546370966952 0 0.0048168539472250539 -0.002774227905332086 0 0.0052873281115399578 -0.0030174597970197229 0 0.0051312121443474112 -0.0027120137672626667 0 0.0055085476553726771 -0.0027061144312576632 0 0.0052097390641623453 -0.0023613182029266402 0 0.0051312121443474112 -0.0027120137672626667 0 0.0055085476553726771 -0.0027061144312576632 0 0.0055085476553726771 -0.0027061144312576632 0 0.0057728895979389039 -0.0026946047598337404 0 0.0056719668527428465 -0.0031093584297509666 0 0.0023086921209261695 -0.0042849235631020203 0 0.0038954871576652979 -0.0027707401992634983 0 0.0057728895979389039 -0.0026946047598337404 0 0.0056719668527428465 -0.0031093584297509666 0 0.0061015089165382189 -0.0027269824493734714 0 0.0056667725054096157 -0.0025387716021600774 0 0.0055085476553726771 -0.0027061144312576632 0 0.0057728895979389039 -0.0026946047598337404 0 0.0058136367490700452 -0.002393152063264709 0 0.0057728895979389039 -0.0026946047598337404 0 0.0061015089165382189 -0.0027269824493734714 0 -0.0013434073712995686 -0.004306522659133602 0 -0.00035816424785611466 -0.0048394683444090208 0 -0.0013521981808216088 -0.0057000466647011763 0 -0.0013434073712995686 -0.004306522659133602 0 -0.0013521981808216088 -0.0057000466647011763 0 -0.0024054911921752875 -0.0045281645100581098 0 0.0038954871576652979 -0.0027707401992634983 0 0.0022672981015798748 -0.0029874060575532236 0 0.0071252344835609242 -0.0012896649915193441 0 0.0071551035495438344 -0.001248564385695991 0 0.0072002037418511973 -0.0012906758646612983 0 0.0038954871576652979 -0.0027707401992634983 0 0.006913217655484861 -0.00084125438743042243 0 0.0072387458868117434 -0.0012191122624965651 0 0.0071551035495438344 -0.001248564385695991 0 0.0072002037418511973 -0.0012906758646612983 0 0.0071252344835609242 -0.0012896649915193441 0 0.0072002037418511973 -0.0012906758646612983 0 0.007232022175314194 -0.0012910504330617312 0 0.0072387458868117434 -0.0012191122624965651 0 0.0072002037418511973 -0.0012906758646612983 0 0.0072159836021298829 -0.0013505351370774925 0 0.0073022721693795601 -0.0012370979812934759 0 0.0072387458868117434 -0.0012191122624965651 0 0.0072159836021298829 -0.0013505351370774925 0 0.0072002037418511973 -0.0012906758646612983 0 0.0072159836021298829 -0.0013505351370774925 0 0.007232022175314194 -0.0012910504330617312 0 0.0072159836021298829 -0.0013505351370774925 0 0.0072247796850520869 -0.0013998096960514447 0 0.0069906716724461183 -0.0012310426816090033 0 0.0072247796850520869 -0.0013998096960514447 0 0.0070400055328174137 -0.0014943088338801422 0 0.0069906716724461183 -0.0012310426816090033 0 0.0073891690950180751 -0.001347294684019741 0 0.0072247796850520869 -0.0013998096960514447 0 0.0070400055328174137 -0.0014943088338801422 0 0.0073022721693795601 -0.0012370979812934759 0 0.0072159836021298829 -0.0013505351370774925 0 0.0072247796850520869 -0.0013998096960514447 0 0.0069906716724461183 -0.0012310426816090033 0 0.0071952730586240131 -0.0010754190137883177 0 0.0068946251075065208 -0.00057451951212228263 0 0.0072159836021298829 -0.0013505351370774925 0 0.0069906716724461183 -0.0012310426816090033 0 0.0071952730586240131 -0.0010754190137883177 0 0.0069906716724461183 -0.0012310426816090033 0 0.0065718942263448604 -0.00078465441095907805 0 0.0068946251075065208 -0.00057451951212228263 0 0.0065741024883514175 -0.0011810344454252436 0 0.0070400055328174137 -0.0014943088338801422 0 0.0069906716724461183 -0.0012310426816090033 0 0.0065741024883514175 -0.0011810344454252436 0 0.0069906716724461183 -0.0012310426816090033 0 0.0065718942263448604 -0.00078465441095907805 0 -0.0034834297559028947 -0.002759454087994597 0 -0.0034871751841421736 -0.0033045294883799754 0 -0.0039916154363766644 -0.0024678872259655277 0 0.001879539050689067 -0.0021757697693013142 0 0.001453267083426346 -0.0015320342316854534 0 0.0072159836021298829 -0.0013505351370774925 0 0.007232022175314194 -0.0012910504330617312 0 0.0071952730586240131 -0.0010754190137883177 0 -0.0024054911921752875 -0.0045281645100581098 0 -0.0034871751841421736 -0.0033045294883799754 0 -0.002501228269383233 -0.0030723710790769424 0 -0.0013434073712995686 -0.004306522659133602 0 -0.0024054911921752875 -0.0045281645100581098 0 -0.002501228269383233 -0.0030723710790769424 0 0.0022672981015798748 -0.0029874060575532236 0 0.001879539050689067 -0.0021757697693013142 0 -0.0034834297559028947 -0.002759454087994597 0 -0.0034871751841421736 -0.0033045294883799754 0 -0.002501228269383233 -0.0030723710790769424 0 -0.0034834297559028947 -0.002759454087994597 0 -0.002501228269383233 -0.0030723710790769424 0 -0.0018477102307905004 -0.0022685248787904823 0 -0.0034834297559028947 -0.002759454087994597 0 -0.0034747619543443594 -0.0023798383054228897 0 -0.0030162630899359154 -0.0027227264362005383 0 -0.003416473131499384 -0.0027378529106592709 0 -0.0024561807881307565 -0.0025177192859449885 0 -0.0034834297559028947 -0.002759454087994597 0 -0.0037048338452863399 -0.0024529347434942604 0 -0.0034747619543443594 -0.0023798383054228897 0 -0.0037048338452863399 -0.0024529347434942604 0 -0.0034747619543443594 -0.0023798383054228897 0 -0.0039192271659317102 -0.0021220591664671664 0 -0.0034747619543443594 -0.0023798383054228897 0 -0.0039192271659317102 -0.0021220591664671664 0 -0.0035368057848341981 -0.0019420770154227314 0 -0.0034747619543443594 -0.0023798383054228897 0 -0.0035368057848341981 -0.0019420770154227314 0 -0.0030927438211331088 -0.0021642237339849859 0 -0.0034747619543443594 -0.0023798383054228897 0 -0.0030927438211331088 -0.0021642237339849859 0 -0.0030162630899359154 -0.0027227264362005383 0 0.0065718942263448604 -0.00078465441095907805 0 0.0068946251075065208 -0.00057451951212228263 0 0.0064057948603646773 4.611994232082874e-06 0 -0.0034834297559028947 -0.002759454087994597 0 -0.0037048338452863399 -0.0024529347434942604 0 -0.0039916154363766644 -0.0024678872259655277 0 -0.0037048338452863399 -0.0024529347434942604 0 -0.0039916154363766644 -0.0024678872259655277 0 -0.0039496377707323848 -0.0022431942677485738 0 -0.0037048338452863399 -0.0024529347434942604 0 -0.0039496377707323848 -0.0022431942677485738 0 -0.0039192271659317102 -0.0021220591664671664 0 -0.0039496377707323848 -0.0022431942677485738 0 -0.0039686285996244734 -0.0021374326674896615 0 -0.0039192271659317102 -0.0021220591664671664 0 -0.0039496377707323848 -0.0022431942677485738 0 -0.0039837596468749693 -0.0021386971150033521 0 -0.0039686285996244734 -0.0021374326674896615 0 0.001453267083426346 -0.0015320342316854534 0 0.0012439872105529193 -0.0010711769542928586 0 -0.0039916154363766644 -0.0024678872259655277 0 -0.0039678068486167393 -0.0021264570193110185 0 -0.0039837596468749693 -0.0021386971150033521 0 -0.0039916154363766644 -0.0024678872259655277 0 -0.0039496377707323848 -0.0022431942677485738 0 -0.0039837596468749693 -0.0021386971150033521 0 -0.0040941453890687915 -0.0020478070949402857 0 -0.0040628595099824949 -0.0020463206909324201 0 -0.0040554675304866859 -0.0020657517336646297 0 -0.0040941453890687915 -0.0020478070949402857 0 -0.0040628595099824949 -0.0020463206909324201 0 -0.0040876946253007966 -0.0020158386922686303 0 -0.0040628595099824949 -0.0020463206909324201 0 -0.0040304215358888326 -0.0020760291115242708 0 -0.0040554675304866859 -0.0020657517336646297 0 -0.0040339315934078161 -0.0020528593086470526 0 -0.0040304215358888326 -0.0020760291115242708 0 -0.0040051355958878225 -0.0020730347362778816 0 -0.0040628595099824949 -0.0020463206909324201 0 -0.0040339315934078161 -0.0020528593086470526 0 -0.0040545005656776835 -0.0020265567338117354 0 -0.0040339315934078161 -0.0020528593086470526 0 -0.0040165612519928503 -0.002043376186541929 0 -0.0040545005656776835 -0.0020265567338117354 0 -0.0040628595099824949 -0.0020463206909324201 0 -0.0040339315934078161 -0.0020528593086470526 0 -0.0040304215358888326 -0.0020760291115242708 0 -0.0040304215358888326 -0.0020760291115242708 0 -0.0040034820572049821 -0.0020950522552161338 0 -0.0040051355958878225 -0.0020730347362778816 0 -0.0040304215358888326 -0.0020760291115242708 0 -0.0040085406937694704 -0.0021020692192490085 0 -0.0040034820572049821 -0.0020950522552161338 0 -0.0040304215358888326 -0.0020760291115242708 0 -0.0040323358936920411 -0.0020927485342784997 0 -0.0040085406937694704 -0.0021020692192490085 0 -0.0040941453890687915 -0.0020478070949402857 0 -0.0040554675304866859 -0.0020657517336646297 0 -0.0040323358936920411 -0.0020927485342784997 0 -0.0040304215358888326 -0.0020760291115242708 0 -0.0040554675304866859 -0.0020657517336646297 0 -0.0040323358936920411 -0.0020927485342784997 0 -0.0040941453890687915 -0.0020478070949402857 0 -0.0039837596468749693 -0.0021386971150033521 0 -0.0040323358936920411 -0.0020927485342784997 0 -0.0039837596468749693 -0.0021386971150033521 0 -0.0040323358936920411 -0.0020927485342784997 0 -0.0040028753621547597 -0.0021140078393836023 0 -0.0039837596468749693 -0.0021386971150033521 0 -0.0040028753621547597 -0.0021140078393836023 0 -0.0039886156233186303 -0.0021206981163515493 0 -0.0040028753621547597 -0.0021140078393836023 0 -0.0040085406937694704 -0.0021020692192490085 0 -0.0039886156233186303 -0.0021206981163515493 0 -0.0040085406937694704 -0.0021020692192490085 0 -0.0039886156233186303 -0.0021206981163515493 0 -0.0040034820572049821 -0.0020950522552161338 0 -0.0040323358936920411 -0.0020927485342784997 0 -0.0040028753621547597 -0.0021140078393836023 0 -0.0040085406937694704 -0.0021020692192490085 0 -0.0039837596468749693 -0.0021386971150033521 0 -0.0039886156233186303 -0.0021206981163515493 0 -0.0039686285996244734 -0.0021374326674896615 0 -0.0039886156233186303 -0.0021206981163515493 0 -0.0039865362418418189 -0.0020995926789353241 0 -0.0040034820572049821 -0.0020950522552161338 0 -0.0039886156233186303 -0.0021206981163515493 0 -0.0039686285996244734 -0.0021374326674896615 0 -0.0039865362418418189 -0.0020995926789353241 0 -0.0039686285996244734 -0.0021374326674896615 0 -0.0039865362418418189 -0.0020995926789353241 0 -0.0039636039570595596 -0.0020653552206364926 0 -0.0039865362418418189 -0.0020995926789353241 0 -0.0040051355958878225 -0.0020730347362778816 0 -0.0039636039570595596 -0.0020653552206364926 0 -0.0039865362418418189 -0.0020995926789353241 0 -0.0040034820572049821 -0.0020950522552161338 0 -0.0040051355958878225 -0.0020730347362778816 0 -0.0040051355958878225 -0.0020730347362778816 0 -0.0039636039570595596 -0.0020653552206364926 0 -0.0040165612519928503 -0.002043376186541929 0 -0.0040339315934078161 -0.0020528593086470526 0 -0.0040051355958878225 -0.0020730347362778816 0 -0.0040165612519928503 -0.002043376186541929 0 -0.0039192271659317102 -0.0021220591664671664 0 -0.0042077745001868738 -0.0015793413194539921 0 -0.0039102638688692966 -0.0016823015962376209 0 -0.0039636039570595596 -0.0020653552206364926 0 -0.0039192271659317102 -0.0021220591664671664 0 -0.0039233009653554998 -0.0019953529420659749 0 -0.0039192271659317102 -0.0021220591664671664 0 -0.0042077745001868738 -0.0015793413194539921 0 -0.0046533170843378767 -0.0014651759585679683 0 -0.0039623023538728269 -0.0020942380399249366 0 -0.0042888288808863272 -0.001714979270249927 0 -0.0039686285996244734 -0.0021374326674896615 0 -0.0039636039570595596 -0.0020653552206364926 0 -0.0039192271659317102 -0.0021220591664671664 0 -0.0042077745001868738 -0.0015793413194539921 0 -0.0044151422043567888 -0.0012908301873945157 0 -0.0041160896642966462 -0.0013111198488908495 0 -0.0047445994218632236 -0.0011172914875817504 0 -0.0045935503629481404 -0.0012451682250269884 0 -0.0046533170843378767 -0.0014651759585679683 0 -0.0042077745001868738 -0.0015793413194539921 0 -0.0044151422043567888 -0.0012908301873945157 0 -0.0046533170843378767 -0.0014651759585679683 0 -0.0044151422043567888 -0.0012908301873945157 0 -0.0045935503629481404 -0.0012451682250269884 0 -0.0046533170843378767 -0.0014651759585679683 0 -0.0039636039570595596 -0.0020653552206364926 0 -0.0039233009653554998 -0.0019953529420659749 0 -0.0039896669043930294 -0.0020108053490307904 0 -0.0039636039570595596 -0.0020653552206364926 0 -0.0040054100870917774 -0.0020241493825814043 0 -0.0039896669043930294 -0.0020108053490307904 0 -0.0039636039570595596 -0.0020653552206364926 0 -0.0040165612519928503 -0.002043376186541929 0 -0.0040054100870917774 -0.0020241493825814043 0 -0.0040165612519928503 -0.002043376186541929 0 -0.0040408746197760775 -0.0020084432722602525 0 -0.0040054100870917774 -0.0020241493825814043 0 -0.0040408746197760775 -0.0020084432722602525 0 -0.0040054100870917774 -0.0020241493825814043 0 -0.0040559630466909663 -0.0019687233499155678 0 -0.0040559630466909663 -0.0019687233499155678 0 -0.0039896669043930294 -0.0020108053490307904 0 -0.0040596263015717391 -0.0019404013076928851 0 -0.0040054100870917774 -0.0020241493825814043 0 -0.0040559630466909663 -0.0019687233499155678 0 -0.0039896669043930294 -0.0020108053490307904 0 -0.0040408746197760775 -0.0020084432722602525 0 -0.0040559630466909663 -0.0019687233499155678 0 -0.0040627869954379505 -0.001978028755448346 0 -0.0039233009653554998 -0.0019953529420659749 0 -0.0039896669043930294 -0.0020108053490307904 0 -0.0040596263015717391 -0.0019404013076928851 0 -0.0043739497570872976 -0.0015848296642069389 0 -0.0039233009653554998 -0.0019953529420659749 0 -0.0040596263015717391 -0.0019404013076928851 0 -0.0040559630466909663 -0.0019687233499155678 0 -0.0040596263015717391 -0.0019404013076928851 0 -0.0041013708169450221 -0.0019129499105200989 0 -0.0040559630466909663 -0.0019687233499155678 0 -0.0040851164171579902 -0.0019571114985841988 0 -0.0041013708169450221 -0.0019129499105200989 0 -0.0041197180364456066 -0.0019406671055350051 0 -0.0040851164171579902 -0.0019571114985841988 0 -0.0041013708169450221 -0.0019129499105200989 0 -0.0041089789521814102 -0.0019803830695475214 0 -0.0041197180364456066 -0.0019406671055350051 0 -0.0040851164171579902 -0.0019571114985841988 0 -0.0041089789521814102 -0.0019803830695475214 0 -0.0040851164171579902 -0.0019571114985841988 0 -0.0040740344124831733 -0.0019932102802027213 0 -0.0041089789521814102 -0.0019803830695475214 0 -0.0040740344124831733 -0.0019932102802027213 0 -0.0040876946253007966 -0.0020158386922686303 0 -0.0040559630466909663 -0.0019687233499155678 0 -0.0040851164171579902 -0.0019571114985841988 0 -0.0040627869954379505 -0.001978028755448346 0 -0.0040851164171579902 -0.0019571114985841988 0 -0.0040627869954379505 -0.001978028755448346 0 -0.0040740344124831733 -0.0019932102802027213 0 -0.0040408746197760775 -0.0020084432722602525 0 -0.0040627869954379505 -0.001978028755448346 0 -0.0040740344124831733 -0.0019932102802027213 0 -0.0040408746197760775 -0.0020084432722602525 0 -0.0040740344124831733 -0.0019932102802027213 0 -0.0040545005656776835 -0.0020265567338117354 0 -0.0040165612519928503 -0.002043376186541929 0 -0.0040408746197760775 -0.0020084432722602525 0 -0.0040545005656776835 -0.0020265567338117354 0 -0.0040628595099824949 -0.0020463206909324201 0 -0.0040545005656776835 -0.0020265567338117354 0 -0.0040876946253007966 -0.0020158386922686303 0 -0.0040740344124831733 -0.0019932102802027213 0 -0.0040545005656776835 -0.0020265567338117354 0 -0.0040876946253007966 -0.0020158386922686303 0 -0.0031516832071769563 -0.0017913628196070126 0 -0.0035368057848341981 -0.0019420770154227314 0 -0.0030927438211331088 -0.0021642237339849859 0 -0.0031516832071769563 -0.0017913628196070126 0 -0.0035368057848341981 -0.0019420770154227314 0 -0.0033620039470060909 -0.0015052814603041384 0 -0.0039192271659317102 -0.0021220591664671664 0 -0.0035368057848341981 -0.0019420770154227314 0 -0.0039102638688692966 -0.0016823015962376209 0 -0.0035368057848341981 -0.0019420770154227314 0 -0.0039102638688692966 -0.0016823015962376209 0 -0.0037274513511577345 -0.0014611402497992584 0 -0.0039102638688692966 -0.0016823015962376209 0 -0.0041160896642966462 -0.0013111198488908495 0 -0.0037274513511577345 -0.0014611402497992584 0 -0.0042077745001868738 -0.0015793413194539921 0 -0.0039102638688692966 -0.0016823015962376209 0 -0.0041160896642966462 -0.0013111198488908495 0 -0.003902990122915184 -0.0010922600692414588 0 -0.0041160896642966462 -0.0013111198488908495 0 -0.0037274513511577345 -0.0014611402497992584 0 -0.0035368057848341981 -0.0019420770154227314 0 -0.0037274513511577345 -0.0014611402497992584 0 -0.0033620039470060909 -0.0015052814603041384 0 -0.0035475166727713574 -0.0011341680254126668 0 -0.0037274513511577345 -0.0014611402497992584 0 -0.0033620039470060909 -0.0015052814603041384 0 -0.0031516832071769563 -0.0017913628196070126 0 -0.0033620039470060909 -0.0015052814603041384 0 -0.0030097628973079862 -0.001515347564266661 0 -0.0031466537134953901 -0.001156847279456812 0 -0.0035475166727713574 -0.0011341680254126668 0 -0.0033620039470060909 -0.0015052814603041384 0 -0.0031466537134953901 -0.001156847279456812 0 -0.0033620039470060909 -0.0015052814603041384 0 -0.0030097628973079862 -0.001515347564266661 0 -0.0031466537134953901 -0.001156847279456812 0 -0.0030097628973079862 -0.001515347564266661 0 -0.0026641391832603737 -0.0012563481722549011 0 -0.0030097628973079862 -0.001515347564266661 0 -0.0026641391832603737 -0.0012563481722549011 0 -0.0026353711224027399 -0.001734523340800505 0 -0.0026641391832603737 -0.0012563481722549011 0 -0.0026353711224027399 -0.001734523340800505 0 -0.0020771458500562709 -0.001256596972641017 0 -0.0026353711224027399 -0.001734523340800505 0 -0.0019634924998209948 -0.0017923886177019436 0 -0.0020771458500562709 -0.001256596972641017 0 -0.0026353711224027399 -0.001734523340800505 0 -0.0025398111058400376 -0.0022327388621311331 0 -0.0019634924998209948 -0.0017923886177019436 0 -0.0026353711224027399 -0.001734523340800505 0 -0.0030927438211331088 -0.0021642237339849859 0 -0.0025398111058400376 -0.0022327388621311331 0 -0.0031516832071769563 -0.0017913628196070126 0 -0.0026353711224027399 -0.001734523340800505 0 -0.0030927438211331088 -0.0021642237339849859 0 -0.0031516832071769563 -0.0017913628196070126 0 -0.0030097628973079862 -0.001515347564266661 0 -0.0026353711224027399 -0.001734523340800505 0 -0.0030927438211331088 -0.0021642237339849859 0 -0.0025398111058400376 -0.0022327388621311331 0 -0.0030162630899359154 -0.0027227264362005383 0 -0.0025398111058400376 -0.0022327388621311331 0 -0.0021728914923294486 -0.002647434620866139 0 -0.0030162630899359154 -0.0027227264362005383 0 -0.0025398111058400376 -0.0022327388621311331 0 -0.0021728914923294486 -0.002647434620866139 0 -0.0018692264280722548 -0.0022147206625352076 0 -0.00086634944719731974 -0.0033200650152998934 0 -0.00036606346698105882 -0.001969063376937261 0 2.4466547177614653e-05 -0.0025244439830301602 0 -0.00086634944719731974 -0.0033200650152998934 0 -0.00036606346698105882 -0.001969063376937261 0 -0.0018477102307905004 -0.0022685248787904823 0 -0.001181156221331937 -0.002231086509626392 0 -0.0024561807881307565 -0.0025177192859449885 0 0.00071142698033296468 -0.001846423685334926 0 0.00096007964668260771 -0.0016808814265331902 0 0.0011751647582236111 -0.0027455400421009055 0 0.00076981819361766196 -0.0018909752535815928 0 0.00099215600949062802 -0.0028885545088689676 0 0.00066025575310229114 -0.0026024033438663344 0 2.4466547177614653e-05 -0.0025244439830301602 0 0.00071142698033296468 -0.001846423685334926 0 0.00066025575310229114 -0.0026024033438663344 0 0.00071142698033296468 -0.001846423685334926 0 0.0012019832868057827 -0.0027529690831058599 0 -0.00049674151557874938 -0.0025278264040376943 0 0.00099215600949062802 -0.0028885545088689676 0 -0.0010208056578701807 -0.0027657650262752462 0 -0.00083074336174440483 -0.0032182235916849026 0 -0.00081798544900081062 -0.0037101275424615862 0 -0.0010208056578701807 -0.0027657650262752462 0 -0.00077811419976266626 -0.0029116832973060439 0 -0.00083074336174440483 -0.0032182235916849026 0 -0.00036606346698105882 -0.001969063376937261 0 2.4466547177614653e-05 -0.0025244439830301602 0 0.00071142698033296468 -0.001846423685334926 0 -0.001181156221331937 -0.002231086509626392 0 -0.00049674151557874938 -0.0025278264040376943 0 -0.0021728914923294486 -0.002647434620866139 0 -0.0018692264280722548 -0.0022147206625352076 0 -0.0012622107716436337 -0.0024720552143954809 0 -0.0010478935701180821 -0.0027784764212824388 0 -0.0012278211371086695 -0.0020693933438912866 0 -0.00080353006474422582 -0.0022533580802846279 0 -0.00036606346698105882 -0.001969063376937261 0 0.00071142698033296468 -0.001846423685334926 0 0.00096007964668260771 -0.0016808814265331902 0 -0.00049674151557874938 -0.0025278264040376943 0 -0.0013090472987068731 -0.0019741522452004106 0 -0.0018692264280722548 -0.0022147206625352076 0 -0.0012622107716436337 -0.0024720552143954809 0 -0.0013711243801714846 -0.0019251636017722285 0 -0.0013090472987068731 -0.0019741522452004106 0 -0.0014172088670241919 -0.0014402112048773751 0 -0.0013711243801714846 -0.0019251636017722285 0 -0.0019634924998209948 -0.0017923886177019436 0 -0.0014303868400899417 -0.0013765999165008412 0 -0.0012278211371086695 -0.0020693933438912866 0 -0.00078843111731633408 -0.0016667522331355671 0 -0.00080353006474422582 -0.0022533580802846279 0 -0.0025398111058400376 -0.0022327388621311331 0 -0.0018692264280722548 -0.0022147206625352076 0 -0.0019634924998209948 -0.0017923886177019436 0 -0.0018692264280722548 -0.0022147206625352076 0 -0.0013711243801714846 -0.0019251636017722285 0 -0.0019634924998209948 -0.0017923886177019436 0 -0.0019634924998209948 -0.0017923886177019436 0 -0.0020771458500562709 -0.001256596972641017 0 -0.0014303868400899417 -0.0013765999165008412 0 -0.00081422815058023541 -0.00079464297787051506 0 -0.0014303868400899417 -0.0013765999165008412 0 -0.00078843111731633408 -0.0016667522331355671 0 -0.0012278211371086695 -0.0020693933438912866 0 -0.0014303868400899417 -0.0013765999165008412 0 -0.00078843111731633408 -0.0016667522331355671 0 -0.0007520088101771557 -0.00083629182137227225 0 -0.00016594464563607892 -0.0015257908760004555 0 -0.00081422815058023541 -0.00079464297787051506 0 -0.00078843111731633408 -0.0016667522331355671 0 -4.9707869068722047e-06 -0.0015638486307755378 0 -4.9707869068722047e-06 -0.0015638486307755378 0 6.4438514938438795e-05 -0.0022930567680248628 0 0.00075283042156247483 -0.0023817006656792839 0 -0.00016594464563607892 -0.0015257908760004555 0 0.00086718384375937551 -0.0021743744766384867 0 -4.9707869068722047e-06 -0.0015638486307755378 0 6.4438514938438795e-05 -0.0022930567680248628 0 -0.00037497866202782426 -0.0020969290029978229 0 -0.00078843111731633408 -0.0016667522331355671 0 -4.9707869068722047e-06 -0.0015638486307755378 0 -0.00037497866202782426 -0.0020969290029978229 0 -0.00078843111731633408 -0.0016667522331355671 0 -0.00037497866202782426 -0.0020969290029978229 0 -0.00080353006474422582 -0.0022533580802846279 0 0.0020389807857996052 -0.00067204866905896618 0 0.0025497484202864715 -0.0011310752460365755 0 0.0037540924133698966 -0.00056364369713815705 0 0.0037648371132226193 -0.00064253774512862719 0 0.0038325493180764347 -0.00062918000650588157 0 0.003690171602268848 -0.00055565804898463503 0 0.0025497484202864715 -0.0011310752460365755 0 0.0032563102455826103 -0.00063987187570376197 0 0.0034622402613296356 -0.00078799856469207276 0 0.0032764826354941771 -0.0010949887817710276 0 6.3036986225928395e-05 -0.00090445002191906054 0 0.00066871175373993971 -0.0007460270246665492 0 0.00073613169654125339 -0.0015645464124154523 0 6.3036986225928395e-05 -0.00090445002191906054 0 -0.00022037842705597069 -0.0014859402923988435 0 0.00073613169654125339 -0.0015645464124154523 0 0.0025497484202864715 -0.0011310752460365755 0 0.00086718384375937551 -0.0021743744766384867 0 0.0023456728345628134 -0.0011507042592971502 0 0.0023699561527363512 -0.0015135408671276777 0 0.0021129674577894382 -0.0015504676783786669 0 -0.00022037842705597069 -0.0014859402923988435 0 0.00073613169654125339 -0.0015645464124154523 0 0.00038435396411496889 -0.0021826830781056456 0 0.0037648371132226193 -0.00064253774512862719 0 0.0038041156235029574 -0.00072673360416346732 0 0.0038959036110123722 -0.00072011407431099269 0 0.0025497484202864715 -0.0011310752460365755 0 0.0030692428863196906 -0.0010506803621424144 0 0.0037648371132226193 -0.00064253774512862719 0 0.0038959036110123722 -0.00072011407431099269 0 0.0038325493180764347 -0.00062918000650588157 0 0.0038041156235029574 -0.00072673360416346732 0 0.003837632345416289 -0.00082019372295599974 0 0.0038959036110123722 -0.00072011407431099269 0 0.0023699561527363512 -0.0015135408671276777 0 0.0021129674577894382 -0.0015504676783786669 0 0.0023975178271191237 -0.0018742148046514754 0 0.0030692428863196906 -0.0010506803621424144 0 0.0028869667050735568 -0.0015915001719065372 0 0.003837632345416289 -0.00082019372295599974 0 0.0039573741874198527 -0.00082384957169017044 0 0.0038959036110123722 -0.00072011407431099269 0 0.00086718384375937551 -0.0021743744766384867 0 0.00037721320894371329 -0.003191435173832833 0 0.00095425817555630532 -0.0022790834922765046 0 0.0010081848570853921 -0.0029467231886337398 0 0.00036930376989499153 -0.0031849332424876008 0 0.00075283042156247483 -0.0023817006656792839 0 0.00032079645946868921 -0.0026371973378208056 0 0.00036930376989499153 -0.0031849332424876008 0 0.00086718384375937551 -0.0021743744766384867 0 0.0028869667050735568 -0.0015915001719065372 0 0.00095425817555630532 -0.0022790834922765046 0 0.0010081848570853921 -0.0029467231886337398 0 0.0014540998276227034 -0.0030146276196093293 0 0.0012433150282032995 -0.0033318885874360957 0 0.00082112256384252657 -0.0034598476138100625 0 0.00128522373810198 -0.003298028047349087 0 0.00036930376989499153 -0.0031849332424876008 0 0.00033589633601834208 -0.0035738885153713228 0 0.00128522373810198 -0.003298028047349087 0 0.0010081848570853921 -0.0029467231886337398 0 0.00036930376989499153 -0.0031849332424876008 0 0.00128522373810198 -0.003298028047349087 0 0.0010081848570853921 -0.0029467231886337398 0 0.0014540998276227034 -0.0030146276196093293 0 0.0035912706664127068 -0.00051317284381752041 0 0.0036162932437199227 -0.0011310244679352138 0 0.0039600127098662714 -0.00091909270002632699 0 0.0028869667050735568 -0.0015915001719065372 0 0.0024847992108657118 -0.0023214484589776261 0 0.00128522373810198 -0.003298028047349087 0 0.0014540998276227034 -0.0030146276196093293 0 0.0013892549299732986 -0.0034591813703861809 0 0.0028869667050735568 -0.0015915001719065372 0 0.0039730314276361957 -0.0007852134394643192 0 0.003837632345416289 -0.00082019372295599974 0 0.0039600127098662714 -0.00091909270002632699 0 0.0039573741874198527 -0.00082384957169017044 0 -0.00034822418769409541 -0.0028933322546905826 0 -0.00065597358725577744 -0.0026809003105574183 0 -0.00013147245166021895 -0.0026569872691900032 0 -0.00034822418769409541 -0.0028933322546905826 0 -0.00013147245166021895 -0.0026569872691900032 0 -0.00011050237659141854 -0.0029821305317198768 0 -0.00034822418769409541 -0.0028933322546905826 0 -0.00065597358725577744 -0.0026809003105574183 0 -0.00060802306134713079 -0.0029897714661083256 0 -0.00049674151557874938 -0.0025278264040376943 0 -0.00081232857716264186 -0.0026689893394696235 0 -0.0010208056578701807 -0.0027657650262752462 0 -0.00077811419976266626 -0.0029116832973060439 0 -0.00065597358725577744 -0.0026809003105574183 0 -0.00077811419976266626 -0.0029116832973060439 0 -0.00065597358725577744 -0.0026809003105574183 0 -0.00060802306134713079 -0.0029897714661083256 0 -0.00037497866202782426 -0.0020969290029978229 0 -0.00080353006474422582 -0.0022533580802846279 0 -0.00065597358725577744 -0.0026809003105574183 0 -0.0010478935701180821 -0.0027784764212824388 0 -0.00080353006474422582 -0.0022533580802846279 0 -0.00065597358725577744 -0.0026809003105574183 0 -0.00037497866202782426 -0.0020969290029978229 0 -0.00065597358725577744 -0.0026809003105574183 0 -0.00013147245166021895 -0.0026569872691900032 0 6.4438514938438795e-05 -0.0022930567680248628 0 0.00032079645946868921 -0.0026371973378208056 0 -0.00013147245166021895 -0.0026569872691900032 0 6.4438514938438795e-05 -0.0022930567680248628 0 -0.00037497866202782426 -0.0020969290029978229 0 -0.00013147245166021895 -0.0026569872691900032 0 6.4438514938438795e-05 -0.0022930567680248628 0 0.00075283042156247483 -0.0023817006656792839 0 0.00032079645946868921 -0.0026371973378208056 0 0.00032079645946868921 -0.0026371973378208056 0 0.00010042201921243909 -0.0028321021380296619 0 0.00028054659278526451 -0.0030594862428246898 0 -0.00013147245166021895 -0.0026569872691900032 0 0.00010042201921243909 -0.0028321021380296619 0 -0.00011050237659141854 -0.0029821305317198768 0 0.00032079645946868921 -0.0026371973378208056 0 -0.00013147245166021895 -0.0026569872691900032 0 0.00010042201921243909 -0.0028321021380296619 0 -7.0501220925429787e-05 -0.003230496798237583 0 0.00046632522783563297 -0.0036461016356394964 0 -0.00011050237659141854 -0.0029821305317198768 0 0.00028054659278526451 -0.0030594862428246898 0 -0.0003207942444863783 -0.0032460019921814478 0 0.00028054659278526451 -0.0030594862428246898 0 -0.00037310301245246967 -0.0034426417810916785 0 -0.0003207942444863783 -0.0032460019921814478 0 0.00010042201921243909 -0.0028321021380296619 0 -0.00011050237659141854 -0.0029821305317198768 0 0.00028054659278526451 -0.0030594862428246898 0 0.00028054659278526451 -0.0030594862428246898 0 0.00033589633601834208 -0.0035738885153713228 0 -0.00044486689328876358 -0.0037309617540746075 0 0.00032079645946868921 -0.0026371973378208056 0 0.00036930376989499153 -0.0031849332424876008 0 0.00028054659278526451 -0.0030594862428246898 0 0.00036930376989499153 -0.0031849332424876008 0 0.00028054659278526451 -0.0030594862428246898 0 0.00033589633601834208 -0.0035738885153713228 0 0.00028054659278526451 -0.0030594862428246898 0 -0.00037310301245246967 -0.0034426417810916785 0 -0.00051744533211924113 -0.0037505751825927364 0 -0.00037310301245246967 -0.0034426417810916785 0 -0.0003207942444863783 -0.0032460019921814478 0 -0.00062383054294347774 -0.0034664501708536852 0 -0.0003207942444863783 -0.0032460019921814478 0 -0.00061065250058090935 -0.0032484362762109044 0 -0.00062383054294347774 -0.0034664501708536852 0 -0.0003207942444863783 -0.0032460019921814478 0 -0.00040627481311959637 -0.0031042486430119657 0 -0.00061065250058090935 -0.0032484362762109044 0 -0.00034822418769409541 -0.0028933322546905826 0 -0.00040627481311959637 -0.0031042486430119657 0 -0.00060802306134713079 -0.0029897714661083256 0 -0.00011050237659141854 -0.0029821305317198768 0 -0.0003207942444863783 -0.0032460019921814478 0 -0.00040627481311959637 -0.0031042486430119657 0 -0.00034822418769409541 -0.0028933322546905826 0 -0.00011050237659141854 -0.0029821305317198768 0 -0.00040627481311959637 -0.0031042486430119657 0 -0.00077811419976266626 -0.0029116832973060439 0 -0.00060802306134713079 -0.0029897714661083256 0 -0.00083074336174440483 -0.0032182235916849026 0 -0.00040627481311959637 -0.0031042486430119657 0 -0.00060802306134713079 -0.0029897714661083256 0 -0.00061065250058090935 -0.0032484362762109044 0 -0.00060802306134713079 -0.0029897714661083256 0 -0.00061065250058090935 -0.0032484362762109044 0 -0.00083074336174440483 -0.0032182235916849026 0 -0.00083074336174440483 -0.0032182235916849026 0 -0.00074435625994497586 -0.0034263497767298076 0 -0.00081798544900081062 -0.0037101275424615862 0 -0.00061065250058090935 -0.0032484362762109044 0 -0.00083074336174440483 -0.0032182235916849026 0 -0.00074435625994497586 -0.0034263497767298076 0 -0.00061065250058090935 -0.0032484362762109044 0 -0.00074435625994497586 -0.0034263497767298076 0 -0.00062383054294347774 -0.0034664501708536852 0 -0.00062383054294347774 -0.0034664501708536852 0 -0.00072678636972896261 -0.0035622519583442631 0 -0.00066420136216728543 -0.0036846022383413037 0 -0.00037310301245246967 -0.0034426417810916785 0 -0.00062383054294347774 -0.0034664501708536852 0 -0.00066420136216728543 -0.0036846022383413037 0 -0.00074435625994497586 -0.0034263497767298076 0 -0.00072678636972896261 -0.0035622519583442631 0 -0.00081798544900081062 -0.0037101275424615862 0 -0.00074435625994497586 -0.0034263497767298076 0 -0.00062383054294347774 -0.0034664501708536852 0 -0.00072678636972896261 -0.0035622519583442631 0 0.00099215600949062802 -0.0028885545088689676 0 0.0013233687488223888 -0.0029958219995353495 0 -0.00081798544900081062 -0.0037101275424615862 0 -0.00066420136216728543 -0.0036846022383413037 0 -0.0007979982080827759 -0.0037967896022757163 0 -0.00072678636972896261 -0.0035622519583442631 0 -0.00081798544900081062 -0.0037101275424615862 0 -0.00066420136216728543 -0.0036846022383413037 0 0.0013233687488223888 -0.0029958219995353495 0 0.00046632522783563297 -0.0036461016356394964 0 -0.00066420136216728543 -0.0036846022383413037 0 -0.0007979982080827759 -0.0037967896022757163 0 -0.00051744533211924113 -0.0037505751825927364 0 0.00046632522783563297 -0.0036461016356394964 0 0.0026044116476677741 -0.0033903713934113114 0 0.002004966119773318 -0.0035682425749989127 0 0.0010698021473726457 -0.0037552132178802749 0 0.0018934347012135651 -0.0030396592336214816 0 0.0013233687488223888 -0.0029958219995353495 0 0.0026044116476677741 -0.0033903713934113114 0 0.0012757520273983471 -0.0033906169366475394 0 0.0012888389133180295 -0.0034081942809084695 0 0.0012948637914324821 -0.0033962487885291349 0 -0.00037310301245246967 -0.0034426417810916785 0 -0.00066420136216728543 -0.0036846022383413037 0 -0.00051744533211924113 -0.0037505751825927364 0 0.0012757520273983471 -0.0033906169366475394 0 0.0012888389133180295 -0.0034081942809084695 0 0.0012660923519810122 -0.0033988588397059795 0 0.0012888389133180295 -0.0034081942809084695 0 0.0012660923519810122 -0.0033988588397059795 0 0.0013013830087983172 -0.0034511632963708265 0 0.0026044116476677741 -0.0033903713934113114 0 0.0020531302295073071 -0.0033049586293111251 0 0.0033280791895870161 -0.003241999014526886 0 0.0033212569168220582 -0.0031371324893933183 0 0.0032802852901167184 -0.0031373992400370969 0 0.0026044116476677741 -0.0033903713934113114 0 0.0041226181781950956 -0.0033189096813397217 0 0.0013013830087983172 -0.0034511632963708265 0 0.0013296836801602583 -0.0034244437705448199 0 0.0013046187761916168 -0.0034122514490888402 0 0.0012888389133180295 -0.0034081942809084695 0 0.0013013830087983172 -0.0034511632963708265 0 0.0013046187761916168 -0.0034122514490888402 0 0.0013013830087983172 -0.0034511632963708265 0 0.0013296836801602583 -0.0034244437705448199 0 0.0013591194722966146 -0.0034717035626653367 0 0.0013296836801602583 -0.0034244437705448199 0 0.001310214669065272 -0.0033988660798843452 0 0.0013046187761916168 -0.0034122514490888402 0 0.001299615020368014 -0.0033787483607827708 0 0.0012757520273983471 -0.0033906169366475394 0 0.0012948637914324821 -0.0033962487885291349 0 0.00082112256384252657 -0.0034598476138100625 0 0.00046632522783563297 -0.0036461016356394964 0 0.001310214669065272 -0.0033988660798843452 0 0.0013046187761916168 -0.0034122514490888402 0 0.0012948637914324821 -0.0033962487885291349 0 0.0012888389133180295 -0.0034081942809084695 0 0.0013046187761916168 -0.0034122514490888402 0 0.0012948637914324821 -0.0033962487885291349 0 0.001299615020368014 -0.0033787483607827708 0 0.001310214669065272 -0.0033988660798843452 0 0.0013190258117806578 -0.0033941329712630845 0 0.001299615020368014 -0.0033787483607827708 0 0.001310214669065272 -0.0033988660798843452 0 0.0012948637914324821 -0.0033962487885291349 0 0.00128522373810198 -0.003298028047349087 0 0.001299615020368014 -0.0033787483607827708 0 0.0013190258117806578 -0.0033941329712630845 0 0.00128522373810198 -0.003298028047349087 0 0.0013190258117806578 -0.0033941329712630845 0 0.0013892549299732986 -0.0034591813703861809 0 0.0013190258117806578 -0.0033941329712630845 0 0.0013892549299732986 -0.0034591813703861809 0 0.0013929990453620423 -0.0034282803093230113 0 0.0013296836801602583 -0.0034244437705448199 0 0.001310214669065272 -0.0033988660798843452 0 0.0013190258117806578 -0.0033941329712630845 0 0.0036162932437199227 -0.0011310244679352138 0 0.0039263957925596074 -0.0011481437373007147 0 0.0039600127098662714 -0.00091909270002632699 0 0.0036162932437199227 -0.0011310244679352138 0 0.0039653321311839788 -0.0015149644489295692 0 0.0039263957925596074 -0.0011481437373007147 0 0.0036162932437199227 -0.0011310244679352138 0 0.0036121463053763901 -0.0020345166150047213 0 0.0039653321311839788 -0.0015149644489295692 0 0.0024847992108657118 -0.0023214484589776261 0 0.0023510760881010895 -0.0027038864914661538 0 0.0013892549299732986 -0.0034591813703861809 0 0.0013929990453620423 -0.0034282803093230113 0 0.0013668722971946227 -0.0033575498164931279 0 0.0013929990453620423 -0.0034282803093230113 0 0.0015269584220908375 -0.0033122041492889653 0 0.0013668722971946227 -0.0033575498164931279 0 0.0013296836801602583 -0.0034244437705448199 0 0.0013929990453620423 -0.0034282803093230113 0 0.0013591194722966146 -0.0034717035626653367 0 0.0014508860434275699 -0.0033349989089663319 0 0.0012668745640148696 -0.0036057764932606066 0 0.0013296836801602583 -0.0034244437705448199 0 0.0013190258117806578 -0.0033941329712630845 0 0.0013929990453620423 -0.0034282803093230113 0 0.0012668745640148696 -0.0036057764932606066 0 0.0036900396956903231 -0.0028565471959544602 0 0.0023510760881010895 -0.0027038864914661538 0 0.0041376948695308084 -0.0030537348208924476 0 0.0036121463053763901 -0.0020345166150047213 0 0.0036824179581230738 -0.0031665094862415818 0 0.0043862705024402373 -0.0026881481072461061 0 0.0015269584220908375 -0.0033122041492889653 0 0.0013668722971946227 -0.0033575498164931279 0 0.0013804613681125653 -0.0031458275893073168 0 0.0041376948695308084 -0.0030537348208924476 0 0.0056075138486396271 -0.0028124147662812664 0 0.0041376948695308084 -0.0030537348208924476 0 0.0036900396956903231 -0.0028565471959544602 0 0.0059490172467004431 -0.0026260422754307419 0 0.0053875414784614528 -0.0025984888787318073 0 0.0056962081729620209 -0.0027801267490173607 0 0.0015269584220908375 -0.0033122041492889653 0 0.0013804613681125653 -0.0031458275893073168 0 0.0016320206975240098 -0.0031531163532579069 0 0.0036900396956903231 -0.0028565471959544602 0 0.0042346460068240933 -0.0027345259945551993 0 0.0049237292094476094 -0.002593546370966952 0 0.0046160499240051828 -0.0027648172256738691 0 0.0048557739699935333 -0.0023538576013503423 0 0.0049237292094476094 -0.002593546370966952 0 0.0048168539472250539 -0.002774227905332086 0 0.0046160499240051828 -0.0027648172256738691 0 0.0048883060722266199 -0.0030722699456415172 0 0.0048168539472250539 -0.002774227905332086 0 0.0045942831597636175 -0.002765724527302229 0 0.0047587278537886855 -0.0027649725555188307 0 0.0042346460068240933 -0.0027345259945551993 0 0.0048883060722266199 -0.0030722699456415172 0 0.0046923889182516323 -0.0033172584119033222 0 0.0045942831597636175 -0.002765724527302229 0 0.0033212569168220582 -0.0031371324893933183 0 0.0032802852901167184 -0.0031373992400370969 0 0.0033095789473154601 -0.0030313460454962655 0 0.0041226181781950956 -0.0033189096813397217 0 0.0042346460068240933 -0.0027345259945551993 0 0.0020531302295073071 -0.0033049586293111251 0 0.0036900396956903231 -0.0028565471959544602 0 0.0013013830087983172 -0.0034511632963708265 0 0.0013591194722966146 -0.0034717035626653367 0 0.001355653159272758 -0.0035057921183987051 0 0.0032802852901167184 -0.0031373992400370969 0 0.0032338885169981911 -0.0030275719237902133 0 0.0033095789473154601 -0.0030313460454962655 0 0.0058178315946713624 -0.0025257430022009308 0 0.0060855279703317441 -0.002266383638405675 0 0.0053194909250759937 -0.0021187602019587561 0 0.0058178315946713624 -0.0025257430022009308 0 0.0060855279703317441 -0.002266383638405675 0 0.0063235429043594056 -0.0025644254753478283 0 0.0058178315946713624 -0.0025257430022009308 0 0.0063235429043594056 -0.0025644254753478283 0 0.0061900059957128283 -0.0026961009903678983 0 0.0060855279703317441 -0.002266383638405675 0 0.0065136668116964813 -0.0024730141120817058 0 0.0065376857100509084 -0.002246995380998696 0 0.0065136668116964813 -0.0024730141120817058 0 0.0065376857100509084 -0.002246995380998696 0 0.0064560630974309459 -0.0025418095554387184 0 0.0065136668116964813 -0.0024730141120817058 0 0.0063235429043594056 -0.0025644254753478283 0 0.0065447057756248834 -0.0026514410951978913 0 0.0060855279703317441 -0.002266383638405675 0 0.0065136668116964813 -0.0024730141120817058 0 0.0063235429043594056 -0.0025644254753478283 0 0.0063235429043594056 -0.0025644254753478283 0 0.0064550402715813967 -0.0027048883598960881 0 0.0065447057756248834 -0.0026514410951978913 0 0.0064550402715813967 -0.0027048883598960881 0 0.0065447057756248834 -0.0026514410951978913 0 0.0065748393500585532 -0.0027434958765456749 0 0.0064550402715813967 -0.0027048883598960881 0 0.0066173687157477894 -0.0028367297535550028 0 0.0061900059957128283 -0.0026961009903678983 0 0.0065136668116964813 -0.0024730141120817058 0 0.0065447057756248834 -0.0026514410951978913 0 0.006511851899186254 -0.0025937465213425044 0 0.0065447057756248834 -0.0026514410951978913 0 0.0065799920659043321 -0.0026958221845120728 0 0.0065367530467552674 -0.0026395766693662194 0 0.0065799920659043321 -0.0026958221845120728 0 0.0065932653337452546 -0.0026704582602901138 0 0.0065367530467552674 -0.0026395766693662194 0 0.0065799920659043321 -0.0026958221845120728 0 0.0066370220799476 -0.0027435816844711999 0 0.0065748393500585532 -0.0027434958765456749 0 0.0065447057756248834 -0.0026514410951978913 0 0.0065799920659043321 -0.0026958221845120728 0 0.0065748393500585532 -0.0027434958765456749 0 0.0065799920659043321 -0.0026958221845120728 0 0.0066370220799476 -0.0027435816844711999 0 0.0065932653337452546 -0.0026704582602901138 0 0.0064550402715813967 -0.0027048883598960881 0 0.0066173687157477894 -0.0028367297535550028 0 0.0065748393500585532 -0.0027434958765456749 0 0.0066370220799476 -0.0027435816844711999 0 0.0066173687157477894 -0.0028367297535550028 0 0.0065748393500585532 -0.0027434958765456749 0 0.0066370220799476 -0.0027435816844711999 0 0.0066173687157477894 -0.0028367297535550028 0 0.0067081763526107537 -0.0028283477245269269 0 0.0066173687157477894 -0.0028367297535550028 0 0.0061900059957128283 -0.0026961009903678983 0 0.005672914004416941 -0.0028680741433894041 0 0.0066173687157477894 -0.0028367297535550028 0 0.0063910052573866354 -0.0027421293570180339 0 0.0067081763526107537 -0.0028283477245269269 0 0.0066173687157477894 -0.0028367297535550028 0 0.005672914004416941 -0.0028680741433894041 0 0.0050670649975259208 -0.0032197331730402759 0 0.0064721621194445472 -0.002870804798660647 0 0.0058873541691971806 -0.0029475430837654151 0 0.0063235429043594056 -0.0025644254753478283 0 0.0064550402715813967 -0.0027048883598960881 0 0.0061900059957128283 -0.0026961009903678983 0 0.0058178315946713624 -0.0025257430022009308 0 0.0061900059957128283 -0.0026961009903678983 0 0.005672914004416941 -0.0028680741433894041 0 0.0050670649975259208 -0.0032197331730402759 0 0.0043862705024402373 -0.0026881481072461061 0 0.0051812514592846524 -0.0025839350142405574 0 0.0058178315946713624 -0.0025257430022009308 0 0.005672914004416941 -0.0028680741433894041 0 0.0051812514592846524 -0.0025839350142405574 0 0.005672914004416941 -0.0028680741433894041 0 0.0050670649975259208 -0.0032197331730402759 0 0.0051812514592846524 -0.0025839350142405574 0 0.0059572292582630833 -0.0026952451609031174 0 0.0063910052573866354 -0.0027421293570180339 0 0.0060987947208198477 -0.0028115465213990713 0 0.0036824179581230738 -0.0031665094862415818 0 0.0050670649975259208 -0.0032197331730402759 0 0.0043862705024402373 -0.0026881481072461061 0 0.0041376948695308084 -0.0030537348208924476 0 0.0058873541691971806 -0.0029475430837654151 0 0.0063910052573866354 -0.0027421293570180339 0 0.0060987947208198477 -0.0028115465213990713 0 0.006208280668091583 -0.0028631152852619302 0 0.0036121463053763901 -0.0020345166150047213 0 0.0043862705024402373 -0.0026881481072461061 0 0.00447444314971133 -0.0021040536619164156 0 0.0043862705024402373 -0.0026881481072461061 0 0.00447444314971133 -0.0021040536619164156 0 0.0051812514592846524 -0.0025839350142405574 0 0.00447444314971133 -0.0021040536619164156 0 0.0051812514592846524 -0.0025839350142405574 0 0.0053194909250759937 -0.0021187602019587561 0 0.0058178315946713624 -0.0025257430022009308 0 0.0051812514592846524 -0.0025839350142405574 0 0.0053194909250759937 -0.0021187602019587561 0 0.0053194909250759937 -0.0021187602019587561 0 0.0046709539219089314 -0.001648056970671071 0 0.0056147141618811377 -0.001497568747342769 0 0.0046709539219089314 -0.001648056970671071 0 0.0041766023005119666 -0.0010531368616887593 0 0.0056147141618811377 -0.001497568747342769 0 0.00447444314971133 -0.0021040536619164156 0 0.0053194909250759937 -0.0021187602019587561 0 0.0046709539219089314 -0.001648056970671071 0 0.0036121463053763901 -0.0020345166150047213 0 0.00447444314971133 -0.0021040536619164156 0 0.0039653321311839788 -0.0015149644489295692 0 0.00447444314971133 -0.0021040536619164156 0 0.0046709539219089314 -0.001648056970671071 0 0.0039653321311839788 -0.0015149644489295692 0 0.0046709539219089314 -0.001648056970671071 0 0.0039653321311839788 -0.0015149644489295692 0 0.0041766023005119666 -0.0010531368616887593 0 0.0039653321311839788 -0.0015149644489295692 0 0.0039263957925596074 -0.0011481437373007147 0 0.0041766023005119666 -0.0010531368616887593 0 0.0041766023005119666 -0.0010531368616887593 0 0.0039600127098662714 -0.00091909270002632699 0 0.0040802968568739795 -0.00088539134404640825 0 0.0039263957925596074 -0.0011481437373007147 0 0.0041766023005119666 -0.0010531368616887593 0 0.0039600127098662714 -0.00091909270002632699 0 0.0041766023005119666 -0.0010531368616887593 0 0.0042940193531243445 -0.0013576874119783082 0 0.0042276185212990732 -0.0008968297875507705 0 0.0041766023005119666 -0.0010531368616887593 0 0.0040802968568739795 -0.00088539134404640825 0 0.0042276185212990732 -0.0008968297875507705 0 0.0042447565211468216 -0.0010794073542007875 0 0.0049514034529130153 -0.0014544236463365295 0 0.0045662479023429329 -0.0010677177730464757 0 0.0042940193531243445 -0.0013576874119783082 0 0.004965465016164898 -0.0014375700761386809 0 0.0045662479023429329 -0.0010677177730464757 0 0.0042940193531243445 -0.0013576874119783082 0 0.0042276185212990732 -0.0008968297875507705 0 0.0060855279703317441 -0.002266383638405675 0 0.0056147141618811377 -0.001497568747342769 0 0.0065376857100509084 -0.002246995380998696 0 0.0049514034529130153 -0.0014544236463365295 0 0.00582040681412491 -0.00211471005745983 0 0.0060855279703317441 -0.002266383638405675 0 0.0053194909250759937 -0.0021187602019587561 0 0.0056147141618811377 -0.001497568747342769 0 0.004965465016164898 -0.0014375700761386809 0 0.0051265468925517409 -0.002021062851889435 0 0.0059996335011283609 -0.0017066064926324189 0 0.0042940193531243445 -0.0013576874119783082 0 0.004965465016164898 -0.0014375700761386809 0 0.0051265468925517409 -0.002021062851889435 0 0.0045662479023429329 -0.0010677177730464757 0 0.0052004394176791363 -0.0010381373075873247 0 0.0044958618364587281 -0.00072978653034682631 0 0.0045662479023429329 -0.0010677177730464757 0 0.004965465016164898 -0.0014375700761386809 0 0.0052004394176791363 -0.0010381373075873247 0 0.004440136596036974 -0.00066484759754147299 0 0.0044393609240340132 -0.00068356433129944578 0 0.0044432483038999724 -0.00066531017714867259 0 0.004440136596036974 -0.00066484759754147299 0 0.0044393609240340132 -0.00068356433129944578 0 0.0044958618364587281 -0.00072978653034682631 0 0.0048661881176735649 -0.00091115186322303734 0 0.0045419581439501361 -0.00071847138107827824 0 0.0044958618364587281 -0.00072978653034682631 0 0.0044111271969162862 -0.00067195404823335188 0 0.0044256176289048143 -0.00068680175697841898 0 0.0044393609240340132 -0.00068356433129944578 0 0.0044958618364587281 -0.00072978653034682631 0 0.0044256176289048143 -0.00068680175697841898 0 0.0044958618364587281 -0.00072978653034682631 0 0.0043241099796491878 -0.00061882856428939394 0 0.0042276185212990732 -0.0008968297875507705 0 0.0045662479023429329 -0.0010677177730464757 0 0.0044958618364587281 -0.00072978653034682631 0 0.0042276185212990732 -0.0008968297875507705 0 0.0044958618364587281 -0.00072978653034682631 0 0.0043241099796491878 -0.00061882856428939394 0 0.0044111271969162862 -0.00067195404823335188 0 0.0043241099796491878 -0.00061882856428939394 0 0.0044111271969162862 -0.00067195404823335188 0 0.0043422866443258452 -0.00061664421297351443 0 0.0044111271969162862 -0.00067195404823335188 0 0.0043422866443258452 -0.00061664421297351443 0 0.0044089501737710488 -0.00066675275853289042 0 0.0039600127098662714 -0.00091909270002632699 0 0.0039573741874198527 -0.00082384957169017044 0 0.0040802968568739795 -0.00088539134404640825 0 0.0039573741874198527 -0.00082384957169017044 0 0.0040802968568739795 -0.00088539134404640825 0 0.0040493587642227982 -0.0007934901256392452 0 0.0040802968568739795 -0.00088539134404640825 0 0.0042276185212990732 -0.0008968297875507705 0 0.0040493587642227982 -0.0007934901256392452 0 0.0042042924040293656 -0.00069586294745837868 0 0.0042150060255967186 -0.00089109729478403115 0 0.004087603046041095 -0.00074694679764351945 0 0.0040493587642227982 -0.0007934901256392452 0 0.0040052421793897921 -0.00072316536462199406 0 0.004087603046041095 -0.00074694679764351945 0 0.0042276185212990732 -0.0008968297875507705 0 0.0040493587642227982 -0.0007934901256392452 0 0.0040493587642227982 -0.0007934901256392452 0 0.0038959036110123722 -0.00072011407431099269 0 0.0040052421793897921 -0.00072316536462199406 0 0.0039573741874198527 -0.00082384957169017044 0 0.0040493587642227982 -0.0007934901256392452 0 0.0038959036110123722 -0.00072011407431099269 0 0.0038959036110123722 -0.00072011407431099269 0 0.0039220950843096968 -0.00065622401814710812 0 0.0040052421793897921 -0.00072316536462199406 0 0.0038959036110123722 -0.00072011407431099269 0 0.0039220950843096968 -0.00065622401814710812 0 0.0038325493180764347 -0.00062918000650588157 0 0.0039220950843096968 -0.00065622401814710812 0 0.0040052421793897921 -0.00072316536462199406 0 0.0040489186880643497 -0.00064050633890825129 0 0.0038491867337256333 -0.00056976065083003385 0 0.0039220950843096968 -0.00065622401814710812 0 0.0040489186880643497 -0.00064050633890825129 0 0.0038491867337256333 -0.00056976065083003385 0 0.0039220950843096968 -0.00065622401814710812 0 0.0038325493180764347 -0.00062918000650588157 0 0.0038491867337256333 -0.00056976065083003385 0 0.0037540924133698966 -0.00056364369713815705 0 0.0038325493180764347 -0.00062918000650588157 0 0.0042042924040293656 -0.00069586294745837868 0 0.0041486181836513387 -0.00059494206020189078 0 0.004087603046041095 -0.00074694679764351945 0 0.0040052421793897921 -0.00072316536462199406 0 0.0040489186880643497 -0.00064050633890825129 0 0.0043241099796491878 -0.00061882856428939394 0 0.0043422866443258452 -0.00061664421297351443 0 0.0042467056951999947 -0.00057428757540977347 0 0.0043422866443258452 -0.00061664421297351443 0 0.0042467056951999947 -0.00057428757540977347 0 0.0042709596000496605 -0.0005517208376979207 0 0.0043422866443258452 -0.00061664421297351443 0 0.0042709596000496605 -0.0005517208376979207 0 0.0043496762022886349 -0.0005653912362617485 0 0.0043077083250386596 -0.00049395194273762642 0 0.0042709596000496605 -0.0005517208376979207 0 0.0043496762022886349 -0.0005653912362617485 0 0.0043933279982739356 -0.00051548786335922463 0 0.0043077083250386596 -0.00049395194273762642 0 0.0043496762022886349 -0.0005653912362617485 0 0.0043496762022886349 -0.0005653912362617485 0 0.0043891524642347838 -0.00061610886488436582 0 0.0044004197197640973 -0.0005710643547352629 0 0.0043422866443258452 -0.00061664421297351443 0 0.0043891524642347838 -0.00061610886488436582 0 0.0044089501737710488 -0.00066675275853289042 0 0.0043422866443258452 -0.00061664421297351443 0 0.0043496762022886349 -0.0005653912362617485 0 0.0043891524642347838 -0.00061610886488436582 0 0.0043891524642347838 -0.00061610886488436582 0 0.0044342092715173231 -0.00060370007825925789 0 0.0044223261393003394 -0.00064484210142168265 0 0.0043891524642347838 -0.00061610886488436582 0 0.0044089501737710488 -0.00066675275853289042 0 0.0044223261393003394 -0.00064484210142168265 0 0.0043891524642347838 -0.00061610886488436582 0 0.0044342092715173231 -0.00060370007825925789 0 0.0044004197197640973 -0.0005710643547352629 0 0.0044342092715173231 -0.00060370007825925789 0 0.0044004197197640973 -0.0005710643547352629 0 0.0044394287669293616 -0.00054816017402019551 0 0.0043933279982739356 -0.00051548786335922463 0 0.0043496762022886349 -0.0005653912362617485 0 0.0044004197197640973 -0.0005710643547352629 0 0.0043933279982739356 -0.00051548786335922463 0 0.0044004197197640973 -0.0005710643547352629 0 0.0044394287669293616 -0.00054816017402019551 0 0.0044342092715173231 -0.00060370007825925789 0 0.0044394287669293616 -0.00054816017402019551 0 0.0044937980455717124 -0.00056855787662702078 0 0.0044698417150081157 -0.00050101994235424304 0 0.0044394287669293616 -0.00054816017402019551 0 0.0044937980455717124 -0.00056855787662702078 0 0.004073411159571271 -0.00070711231691663017 0 0.0040621271143336567 -0.00072559822570723723 0 0.0037496633327807195 -0.00060930187418234134 0 0.0038101817167437483 -0.00068033638634605793 0 0.0038412785350804102 -0.00065387804451999423 0 0.0038412785350804102 -0.00065387804451999423 0 0.0038740032153810958 -0.00064379560991488147 0 0.0039039859026193144 -0.00066851770885355169 0 0.0038101817167437483 -0.00068033638634605793 0 0.0038412785350804102 -0.00065387804451999423 0 0.0039154765997438321 -0.00069135556454906597 0 0.0038412785350804102 -0.00065387804451999423 0 0.0039154765997438321 -0.00069135556454906597 0 0.0039039859026193144 -0.00066851770885355169 0 0.0043410978934277011 -0.00096196849813019053 0 0.0042738445301954376 -0.00086030640479361749 0 0.0043648838897968941 -0.00083525950815762479 0 0.0040621271143336567 -0.00072559822570723723 0 0.0041191817912490476 -0.00079984058522955114 0 0.0038101817167437483 -0.00068033638634605793 0 0.0039154765997438321 -0.00069135556454906597 0 0.0039493060913449599 -0.00072935734004728572 0 0.0044342092715173231 -0.00060370007825925789 0 0.0044627047967132792 -0.00064546777694388774 0 0.0044223261393003394 -0.00064484210142168265 0 0.0040621271143336567 -0.00072559822570723723 0 0.0044399425630161707 -0.00073907938063056419 0 0.0044342092715173231 -0.00060370007825925789 0 0.0044937980455717124 -0.00056855787662702078 0 0.0044627047967132792 -0.00064546777694388774 0 0.0044399425630161707 -0.00073907938063056419 0 0.004404031683014481 -0.00068972332011393281 0 0.0044627047967132792 -0.00064546777694388774 0 0.0044282482442875798 -0.00067458797105227487 0 0.0044240346065730221 -0.00067023662941299985 0 0.0043648838897968941 -0.00083525950815762479 0 0.0043045605890959515 -0.00076015174868666836 0 0.0043821132385547853 -0.00070842285857632158 0 0.0042738445301954376 -0.00086030640479361749 0 0.0043045605890959515 -0.00076015174868666836 0 0.0041742525695956179 -0.00073182422444995575 0 0.0042738445301954376 -0.00086030640479361749 0 0.0043648838897968941 -0.00083525950815762479 0 0.0043045605890959515 -0.00076015174868666836 0 0.0043266955383785138 -0.00068402072421447791 0 0.0041742525695956179 -0.00073182422444995575 0 0.0043212808282659908 -0.00064055938238969236 0 0.0043045605890959515 -0.00076015174868666836 0 0.0043266955383785138 -0.00068402072421447791 0 0.0041742525695956179 -0.00073182422444995575 0 0.0043045605890959515 -0.00076015174868666836 0 0.0043266955383785138 -0.00068402072421447791 0 0.0043821132385547853 -0.00070842285857632158 0 0.0043266955383785138 -0.00068402072421447791 0 0.0043821132385547853 -0.00070842285857632158 0 0.0044016615306538449 -0.00064880318715387062 0 0.0044221114252400847 -0.00067637809791993176 0 0.0044089501737710488 -0.00066675275853289042 0 0.0044240346065730221 -0.00067023662941299985 0 0.0044282482442875798 -0.00067458797105227487 0 0.0044240346065730221 -0.00067023662941299985 0 0.0044186556208598493 -0.0006681831448417672 0 0.0044221114252400847 -0.00067637809791993176 0 0.0044240346065730221 -0.00067023662941299985 0 0.0044186556208598493 -0.0006681831448417672 0 0.0044221114252400847 -0.00067637809791993176 0 0.0044256176289048143 -0.00068680175697841898 0 0.0044089501737710488 -0.00066675275853289042 0 0.0044221114252400847 -0.00067637809791993176 0 0.0044299495241323398 -0.00067769836513256504 0 0.0044281968563495934 -0.00066356211961550546 0 0.0044221114252400847 -0.00067637809791993176 0 0.0044299495241323398 -0.00067769836513256504 0 0.0044256176289048143 -0.00068680175697841898 0 0.0044393609240340132 -0.00068356433129944578 0 0.0044299495241323398 -0.00067769836513256504 0 0.0044256176289048143 -0.00068680175697841898 0 0.0044111271969162862 -0.00067195404823335188 0 0.0044256176289048143 -0.00068680175697841898 0 0.0044089501737710488 -0.00066675275853289042 0 0.0044627047967132792 -0.00064546777694388774 0 0.0044223261393003394 -0.00064484210142168265 0 0.0044240346065730221 -0.00067023662941299985 0 0.0044089501737710488 -0.00066675275853289042 0 0.0044223261393003394 -0.00064484210142168265 0 0.0044240346065730221 -0.00067023662941299985 0 0.0040413806956399231 -0.00070757024046848912 0 0.0040464947762911046 -0.00070577120884396404 0 0.0040745466218619275 -0.00070359651066652926 0 0.0040464947762911046 -0.00070577120884396404 0 0.0040300180466572152 -0.00068711747934326604 0 0.0040329988176431445 -0.00069560122409588314 0 0.0040369649096531042 -0.00070060252203746364 0 0.0040413806956399231 -0.00070757024046848912 0 0.0040464947762911046 -0.00070577120884396404 0 0.0040369649096531042 -0.00070060252203746364 0 0.0040464947762911046 -0.00070577120884396404 0 0.0040300180466572152 -0.00068711747934326604 0 0.0040369649096531042 -0.00070060252203746364 0 0.004034250932295925 -0.00067647763444471409 0 0.0040300180466572152 -0.00068711747934326604 0 0.004034250932295925 -0.00067647763444471409 0 0.0040199306616557524 -0.00066125050606526158 0 0.0040300180466572152 -0.00068711747934326604 0 0.0040269630933237625 -0.00064740572697577015 0 0.004034250932295925 -0.00067647763444471409 0 0.0040199306616557524 -0.00066125050606526158 0 0.0040199306616557524 -0.00066125050606526158 0 0.0040300180466572152 -0.00068711747934326604 0 0.0040107909344000922 -0.00066822248628659335 0 0.0040045537451924062 -0.00064214538731578166 0 0.0040199306616557524 -0.00066125050606526158 0 0.0040107909344000922 -0.00066822248628659335 0 0.0040107909344000922 -0.00066822248628659335 0 0.0040031824670254523 -0.00067480687888687844 0 0.0040329988176431445 -0.00069560122409588314 0 0.0040300180466572152 -0.00068711747934326604 0 0.0040107909344000922 -0.00066822248628659335 0 0.0040329988176431445 -0.00069560122409588314 0 0.0039929437277331599 -0.0006422723995686883 0 0.0040107909344000922 -0.00066822248628659335 0 0.0039875937345764398 -0.00065235889757559731 0 0.0040107909344000922 -0.00066822248628659335 0 0.0039875937345764398 -0.00065235889757559731 0 0.0040031824670254523 -0.00067480687888687844 0 0.0039875937345764398 -0.00065235889757559731 0 0.0040031824670254523 -0.00067480687888687844 0 0.0039785800146560461 -0.00065611967544523873 0 0.0040031824670254523 -0.00067480687888687844 0 0.0040329988176431445 -0.00069560122409588314 0 0.0040263008580512429 -0.00069888744181458181 0 0.0040329988176431445 -0.00069560122409588314 0 0.0040692286682572684 -0.00071194150673398648 0 0.0040263008580512429 -0.00069888744181458181 0 0.0040464947762911046 -0.00070577120884396404 0 0.0040329988176431445 -0.00069560122409588314 0 0.0040692286682572684 -0.00071194150673398648 0 0.0040464947762911046 -0.00070577120884396404 0 0.0040692286682572684 -0.00071194150673398648 0 0.0040745466218619275 -0.00070359651066652926 0 0.0040263008580512429 -0.00069888744181458181 0 0.004018598104631013 -0.00071295719336040685 0 0.0040859837688059846 -0.00071956926346859957 0 0.0040263008580512429 -0.00069888744181458181 0 0.0039771964445540608 -0.00068318719973452246 0 0.004018598104631013 -0.00071295719336040685 0 0.0040692286682572684 -0.00071194150673398648 0 0.0040263008580512429 -0.00069888744181458181 0 0.0040859837688059846 -0.00071956926346859957 0 0.0040031824670254523 -0.00067480687888687844 0 0.0040263008580512429 -0.00069888744181458181 0 0.0039814409247974488 -0.00066945833681994287 0 0.0040031824670254523 -0.00067480687888687844 0 0.0039814409247974488 -0.00066945833681994287 0 0.0039785800146560461 -0.00065611967544523873 0 0.0039539054676620998 -0.00064375039420757729 0 0.0039814409247974488 -0.00066945833681994287 0 0.0039785800146560461 -0.00065611967544523873 0 0.0039814409247974488 -0.00066945833681994287 0 0.0039431764036174091 -0.0006535323475751971 0 0.0039771964445540608 -0.00068318719973452246 0 0.0039539054676620998 -0.00064375039420757729 0 0.0039814409247974488 -0.00066945833681994287 0 0.0039431764036174091 -0.0006535323475751971 0 0.0040263008580512429 -0.00069888744181458181 0 0.0039814409247974488 -0.00066945833681994287 0 0.0039771964445540608 -0.00068318719973452246 0 0.0039771964445540608 -0.00068318719973452246 0 0.0039257483678586001 -0.00066310343735544327 0 0.0039615869950189878 -0.00068923643345589626 0 0.0039431764036174091 -0.0006535323475751971 0 0.0039771964445540608 -0.00068318719973452246 0 0.0039257483678586001 -0.00066310343735544327 0 0.0038977618715958281 -0.00063432600369142005 0 0.0039431764036174091 -0.0006535323475751971 0 0.0039257483678586001 -0.00066310343735544327 0 0.0038977618715958281 -0.00063432600369142005 0 0.0039257483678586001 -0.00066310343735544327 0 0.0038740032153810958 -0.00064379560991488147 0 0.0039257483678586001 -0.00066310343735544327 0 0.0038740032153810958 -0.00064379560991488147 0 0.0039039859026193144 -0.00066851770885355169 0 0.0039154765997438321 -0.00069135556454906597 0 0.0039039859026193144 -0.00066851770885355169 0 0.0039615869950189878 -0.00068923643345589626 0 0.0039257483678586001 -0.00066310343735544327 0 0.0039039859026193144 -0.00066851770885355169 0 0.0039615869950189878 -0.00068923643345589626 0 0.0039154765997438321 -0.00069135556454906597 0 0.0039615869950189878 -0.00068923643345589626 0 0.004018598104631013 -0.00071295719336040685 0 0.0039154765997438321 -0.00069135556454906597 0 0.0039493060913449599 -0.00072935734004728572 0 0.004018598104631013 -0.00071295719336040685 0 0.0039771964445540608 -0.00068318719973452246 0 0.0039615869950189878 -0.00068923643345589626 0 0.004018598104631013 -0.00071295719336040685 0 0.004018598104631013 -0.00071295719336040685 0 0.0041742525695956179 -0.00073182422444995575 0 0.0040859837688059846 -0.00071956926346859957 0 0.0039493060913449599 -0.00072935734004728572 0 0.004018598104631013 -0.00071295719336040685 0 0.0041742525695956179 -0.00073182422444995575 0 0.0041191817912490476 -0.00079984058522955114 0 0.0041466729931838638 -0.00072809779399973969 0 0.0041742525695956179 -0.00073182422444995575 0 0.0042374847083703092 -0.00065282011017887137 0 0.0043212808282659908 -0.00064055938238969236 0 0.0041380258649042359 -0.00069928730403032331 0 0.004193672826772475 -0.00064295145512288188 0 0.0042374847083703092 -0.00065282011017887137 0 0.0041742525695956179 -0.00073182422444995575 0 0.0041380258649042359 -0.00069928730403032331 0 0.0042374847083703092 -0.00065282011017887137 0 0.0040692286682572684 -0.00071194150673398648 0 0.0041380258649042359 -0.00069928730403032331 0 0.0040859837688059846 -0.00071956926346859957 0 0.0041742525695956179 -0.00073182422444995575 0 0.0041380258649042359 -0.00069928730403032331 0 0.0040859837688059846 -0.00071956926346859957 0 0.0040692286682572684 -0.00071194150673398648 0 0.0041380258649042359 -0.00069928730403032331 0 0.0040745466218619275 -0.00070359651066652926 0 0.0041380258649042359 -0.00069928730403032331 0 0.0041032150952892924 -0.00066965883358990181 0 0.0040745466218619275 -0.00070359651066652926 0 0.0041380258649042359 -0.00069928730403032331 0 0.0041032150952892924 -0.00066965883358990181 0 0.004193672826772475 -0.00064295145512288188 0 0.0040313675930041069 -0.00063909312826590796 0 0.0041032150952892924 -0.00066965883358990181 0 0.0040423424123027709 -0.00069016017798588785 0 0.0041032150952892924 -0.00066965883358990181 0 0.0040423424123027709 -0.00069016017798588785 0 0.0040745466218619275 -0.00070359651066652926 0 0.0040413806956399231 -0.00070757024046848912 0 0.0040423424123027709 -0.00069016017798588785 0 0.0040745466218619275 -0.00070359651066652926 0 0.0045276147679914475 -0.00060018411268695224 0 0.0044918998760959767 -0.00051506089791138155 0 0.0044447122333710291 -0.00061897850210639244 0 0.0041032150952892924 -0.00066965883358990181 0 0.0040813500535516233 -0.00057291798014895868 0 0.004193672826772475 -0.00064295145512288188 0 0.0040313675930041069 -0.00063909312826590796 0 0.0041032150952892924 -0.00066965883358990181 0 0.0040813500535516233 -0.00057291798014895868 0 0.0040813500535516233 -0.00057291798014895868 0 0.004193672826772475 -0.00064295145512288188 0 0.0043064838057309306 -0.00057332285458856964 0 0.0042418785255940398 -0.00055421441821984138 0 0.0043175499516536816 -0.00056300490263449458 0 0.0043064838057309306 -0.00057332285458856964 0 0.004385420148784876 -0.00061812146175419436 0 0.0044447122333710291 -0.00061897850210639244 0 0.0044918998760959767 -0.00051506089791138155 0 0.0043064838057309306 -0.00057332285458856964 0 0.0044447122333710291 -0.00061897850210639244 0 0.0043064838057309306 -0.00057332285458856964 0 0.0043368558932780172 -0.00060990947267146268 0 0.004385420148784876 -0.00061812146175419436 0 0.0043064838057309306 -0.00057332285458856964 0 0.0042374847083703092 -0.00065282011017887137 0 0.0043368558932780172 -0.00060990947267146268 0 0.004193672826772475 -0.00064295145512288188 0 0.0043064838057309306 -0.00057332285458856964 0 0.0042374847083703092 -0.00065282011017887137 0 0.0042374847083703092 -0.00065282011017887137 0 0.0043368558932780172 -0.00060990947267146268 0 0.0043212808282659908 -0.00064055938238969236 0 0.0043368558932780172 -0.00060990947267146268 0 0.0043212808282659908 -0.00064055938238969236 0 0.0043726196234048888 -0.00062474564474623428 0 0.0043368558932780172 -0.00060990947267146268 0 0.0043922502220890558 -0.00062511073171991015 0 0.0043726196234048888 -0.00062474564474623428 0 0.0043922502220890558 -0.00062511073171991015 0 0.0044226719722934632 -0.00063670806426640257 0 0.0044340227177160881 -0.00064131464370766013 0 0.0043368558932780172 -0.00060990947267146268 0 0.0043922502220890558 -0.00062511073171991015 0 0.0044226719722934632 -0.00063670806426640257 0 0.004468784312767626 -0.00065728227840586469 0 0.0044226719722934632 -0.00063670806426640257 0 0.0045060518338444471 -0.00067212359134520463 0 0.004468784312767626 -0.00065728227840586469 0 0.0044340227177160881 -0.00064131464370766013 0 0.0044714868426206575 -0.00066492725392892601 0 0.004468784312767626 -0.00065728227840586469 0 0.0044226719722934632 -0.00063670806426640257 0 0.0044340227177160881 -0.00064131464370766013 0 0.004468784312767626 -0.00065728227840586469 0 0.0044714868426206575 -0.00066492725392892601 0 0.0045071329763332361 -0.00066974216594545949 0 0.0044226719722934632 -0.00063670806426640257 0 0.0044696048097746834 -0.00065610241566483956 0 0.0045060518338444471 -0.00067212359134520463 0 0.004385420148784876 -0.00061812146175419436 0 0.0044226719722934632 -0.00063670806426640257 0 0.0044696048097746834 -0.00065610241566483956 0 0.0043368558932780172 -0.00060990947267146268 0 0.004385420148784876 -0.00061812146175419436 0 0.0044226719722934632 -0.00063670806426640257 0 0.004385420148784876 -0.00061812146175419436 0 0.0044447122333710291 -0.00061897850210639244 0 0.0044696048097746834 -0.00065610241566483956 0 0.0044447122333710291 -0.00061897850210639244 0 0.0044696048097746834 -0.00065610241566483956 0 0.0045275704254163105 -0.00064883950641994538 0 0.0044696048097746834 -0.00065610241566483956 0 0.0045275704254163105 -0.00064883950641994538 0 0.0045309367285356729 -0.0006772971819543678 0 0.0045678547996634185 -0.00068385948960234845 0 0.0045275704254163105 -0.00064883950641994538 0 0.0045309367285356729 -0.0006772971819543678 0 0.0045276147679914475 -0.00060018411268695224 0 0.0044447122333710291 -0.00061897850210639244 0 0.0045275704254163105 -0.00064883950641994538 0 0.0044101429450715372 -0.0006351974901895233 0 0.0044194072247855628 -0.00065582386793262479 0 0.0044016615306538449 -0.00064880318715387062 0 0.0044101429450715372 -0.0006351974901895233 0 0.0044297121134915986 -0.00064083522202424033 0 0.0044194072247855628 -0.00065582386793262479 0 0.004965465016164898 -0.0014375700761386809 0 0.0052004394176791363 -0.0010381373075873247 0 0.0059996335011283609 -0.0017066064926324189 0 0.0048661881176735649 -0.00091115186322303734 0 0.004958799120052074 -0.0011163232067982823 0 0.0044297121134915986 -0.00064083522202424033 0 0.0044432483038999724 -0.00066531017714867259 0 0.0044281968563495934 -0.00066356211961550546 0 0.004958799120052074 -0.0011163232067982823 0 0.0043135592401509788 -0.00047256507677485089 0 0.004440136596036974 -0.00066484759754147299 0 0.0044813190417923162 -0.0007224202408621155 0 0.0044432483038999724 -0.00066531017714867259 0 0.0044297121134915986 -0.00064083522202424033 0 0.0044281968563495934 -0.00066356211961550546 0 0.0044194072247855628 -0.00065582386793262479 0 0.0044299495241323398 -0.00067769836513256504 0 0.0044432483038999724 -0.00066531017714867259 0 0.0044281968563495934 -0.00066356211961550546 0 0.0044393609240340132 -0.00068356433129944578 0 0.0044299495241323398 -0.00067769836513256504 0 0.0044432483038999724 -0.00066531017714867259 0 0.0044221114252400847 -0.00067637809791993176 0 0.0044194072247855628 -0.00065582386793262479 0 0.0044186556208598493 -0.0006681831448417672 0 0.0044221114252400847 -0.00067637809791993176 0 0.0044281968563495934 -0.00066356211961550546 0 0.0044194072247855628 -0.00065582386793262479 0 0.0044194072247855628 -0.00065582386793262479 0 0.0044186556208598493 -0.0006681831448417672 0 0.0044016615306538449 -0.00064880318715387062 0 0.0044282482442875798 -0.00067458797105227487 0 0.0044186556208598493 -0.0006681831448417672 0 0.0044016615306538449 -0.00064880318715387062 0 0.004404031683014481 -0.00068972332011393281 0 0.0044040667308045192 -0.00064955581284708414 0 0.0044016615306538449 -0.00064880318715387062 0 0.0043212808282659908 -0.00064055938238969236 0 0.0043726196234048888 -0.00062474564474623428 0 0.0043266955383785138 -0.00068402072421447791 0 0.0044016615306538449 -0.00064880318715387062 0 0.0043212808282659908 -0.00064055938238969236 0 0.0043726196234048888 -0.00062474564474623428 0 0.0044006809551540692 -0.00062819768883758218 0 0.0044069598352954233 -0.00062825687459504319 0 0.0044016615306538449 -0.00064880318715387062 0 0.0043726196234048888 -0.00062474564474623428 0 0.0044006809551540692 -0.00062819768883758218 0 0.0044101429450715372 -0.0006351974901895233 0 0.0044016615306538449 -0.00064880318715387062 0 0.0044006809551540692 -0.00062819768883758218 0 0.0044101429450715372 -0.0006351974901895233 0 0.0044006809551540692 -0.00062819768883758218 0 0.0044041689441028592 -0.00063003263285170885 0 0.0044105110390331419 -0.00062954888367075263 0 0.0044392079550578875 -0.00064540762144973105 0 0.0043971239179134477 -0.00063314705810226337 0 0.0044006809551540692 -0.00062819768883758218 0 0.0044041689441028592 -0.00063003263285170885 0 0.0044105110390331419 -0.00062954888367075263 0 0.0044006809551540692 -0.00062819768883758218 0 0.0044105110390331419 -0.00062954888367075263 0 0.0044069598352954233 -0.00062825687459504319 0 0.0044041689441028592 -0.00063003263285170885 0 0.0044105110390331419 -0.00062954888367075263 0 0.0043971239179134477 -0.00063314705810226337 0 0.0043922502220890558 -0.00062511073171991015 0 0.0043726196234048888 -0.00062474564474623428 0 0.0044069598352954233 -0.00062825687459504319 0 0.0044069598352954233 -0.00062825687459504319 0 0.0044340227177160881 -0.00064131464370766013 0 0.0044392079550578875 -0.00064540762144973105 0 0.0044105110390331419 -0.00062954888367075263 0 0.0044069598352954233 -0.00062825687459504319 0 0.0044392079550578875 -0.00064540762144973105 0 0.0043922502220890558 -0.00062511073171991015 0 0.0044069598352954233 -0.00062825687459504319 0 0.0044340227177160881 -0.00064131464370766013 0 0.0044392079550578875 -0.00064540762144973105 0 0.0044714868426206575 -0.00066492725392892601 0 0.0044906436085788677 -0.00069218141666479093 0 0.0044340227177160881 -0.00064131464370766013 0 0.0044392079550578875 -0.00064540762144973105 0 0.0044714868426206575 -0.00066492725392892601 0 0.0046793556526351166 -0.00095458443240843617 0 0.0045953484211767644 -0.00067275593592547149 0 0.0044906436085788677 -0.00069218141666479093 0 0.0044817297349191796 -0.00074371760635351814 0 0.0045138119617773578 -0.00072161167392207259 0 0.0044392079550578875 -0.00064540762144973105 0 0.0043971239179134477 -0.00063314705810226337 0 0.0044906436085788677 -0.00069218141666479093 0 0.0064175826717329824 -0.0026189025757122346 0 0.0065269744820131434 -0.0027166925337702907 0 0.0060086494019449066 -0.0024440338999302601 0 0.0047604456625820989 -0.00093078722360736405 0 0.0046793556526351166 -0.00095458443240843617 0 0.0045953484211767644 -0.00067275593592547149 0 0.0057030659478551297 -0.0018936266582499685 0 0.005315625729441424 -0.0015527389627235624 0 0.0064465028060605653 -0.002593453678071251 0 0.0064175826717329824 -0.0026189025757122346 0 0.0063453596020591812 -0.0025194232210622425 0 0.0064465028060605653 -0.002593453678071251 0 0.0064175826717329824 -0.0026189025757122346 0 0.0064500009957891733 -0.0026225048449004095 0 0.0064175826717329824 -0.0026189025757122346 0 0.0064197969246377997 -0.0026390428091766782 0 0.0064500009957891733 -0.0026225048449004095 0 0.0064175826717329824 -0.0026189025757122346 0 0.0064197969246377997 -0.0026390428091766782 0 0.0065269744820131434 -0.0027166925337702907 0 0.004932930303828356 -0.0012367473417898634 0 0.0047604456625820989 -0.00093078722360736405 0 0.0046793556526351166 -0.00095458443240843617 0 0.0044101429450715372 -0.0006351974901895233 0 0.0044041689441028592 -0.00063003263285170885 0 0.0043971239179134477 -0.00063314705810226337 0 0.0059996335011283609 -0.0017066064926324189 0 0.0065269744820131434 -0.0027166925337702907 0 0.0063318521015662621 -0.0025153779586307018 0 0.0044101429450715372 -0.0006351974901895233 0 0.0044297121134915986 -0.00064083522202424033 0 0.0043971239179134477 -0.00063314705810226337 0 0.004958799120052074 -0.0011163232067982823 0 0.0057030659478551297 -0.0018936266582499685 0 0.004958799120052074 -0.0011163232067982823 0 0.0044817297349191796 -0.00074371760635351814 0 0.0064197969246377997 -0.0026390428091766782 0 0.0065269744820131434 -0.0027166925337702907 0 0.0063318521015662621 -0.0025153779586307018 0 0.0051265468925517409 -0.002021062851889435 0 0.0059996335011283609 -0.0017066064926324189 0 0.0063318521015662621 -0.0025153779586307018 0 0.00582040681412491 -0.00211471005745983 0 0.006293043464463687 -0.002474154450735162 0 0.0065376857100509084 -0.002246995380998696 0 0.0063318521015662621 -0.0025153779586307018 0 0.0064560630974309459 -0.0025418095554387184 0 0.0064197969246377997 -0.0026390428091766782 0 0.0063318521015662621 -0.0025153779586307018 0 0.0064560630974309459 -0.0025418095554387184 0 0.0065136668116964813 -0.0024730141120817058 0 0.0064560630974309459 -0.0025418095554387184 0 0.006511851899186254 -0.0025937465213425044 0 0.0065447057756248834 -0.0026514410951978913 0 0.006511851899186254 -0.0025937465213425044 0 0.0065367530467552674 -0.0026395766693662194 0 0.0064560630974309459 -0.0025418095554387184 0 0.006511851899186254 -0.0025937465213425044 0 0.0064911982492289232 -0.0026201287271802949 0 0.006511851899186254 -0.0025937465213425044 0 0.0064911982492289232 -0.0026201287271802949 0 0.0065367530467552674 -0.0026395766693662194 0 0.0064560630974309459 -0.0025418095554387184 0 0.0064500009957891733 -0.0026225048449004095 0 0.0064911982492289232 -0.0026201287271802949 0 0.0064197969246377997 -0.0026390428091766782 0 0.0064560630974309459 -0.0025418095554387184 0 0.0064500009957891733 -0.0026225048449004095 0 0.0064465028060605653 -0.002593453678071251 0 0.0064911982492289232 -0.0026201287271802949 0 0.0065162982510827945 -0.002596310348630441 0 0.0064465028060605653 -0.002593453678071251 0 0.0064500009957891733 -0.0026225048449004095 0 0.0064911982492289232 -0.0026201287271802949 0 0.0065367530467552674 -0.0026395766693662194 0 0.0065716284963283555 -0.0026149492025757354 0 0.0065162982510827945 -0.002596310348630441 0 0.0064911982492289232 -0.0026201287271802949 0 0.0065367530467552674 -0.0026395766693662194 0 0.0065162982510827945 -0.002596310348630441 0 0.0065932653337452546 -0.0026704582602901138 0 0.0065367530467552674 -0.0026395766693662194 0 0.0065716284963283555 -0.0026149492025757354 0 0.0065716284963283555 -0.0026149492025757354 0 0.0065825773092633641 -0.0025291257601707997 0 0.0065162982510827945 -0.002596310348630441 0 0.0065716284963283555 -0.0026149492025757354 0 0.0065825773092633641 -0.0025291257601707997 0 0.0066451556337206626 -0.0026276931464163456 0 0.0064465028060605653 -0.002593453678071251 0 0.0064370286155320585 -0.0024781284062822912 0 0.0065162982510827945 -0.002596310348630441 0 0.0065825773092633641 -0.0025291257601707997 0 0.0064370286155320585 -0.0024781284062822912 0 0.0065162982510827945 -0.002596310348630441 0 0.0064370286155320585 -0.0024781284062822912 0 0.0065842592776891628 -0.0023252356135057004 0 0.0063827252956004422 -0.0022633289803002127 0 0.0065825773092633641 -0.0025291257601707997 0 0.0064370286155320585 -0.0024781284062822912 0 0.0065842592776891628 -0.0023252356135057004 0 0.0065825773092633641 -0.0025291257601707997 0 0.0065842592776891628 -0.0023252356135057004 0 0.006768453860958314 -0.0024608923631623939 0 0.0065842592776891628 -0.0023252356135057004 0 0.0065485287182891865 -0.0020275312822965476 0 0.0063827252956004422 -0.0022633289803002127 0 0.0065842592776891628 -0.0023252356135057004 0 0.0065485287182891865 -0.0020275312822965476 0 0.006855894315059001 -0.0020639231315222302 0 0.0062865253476871745 -0.0020120452819919529 0 0.0062031180996854401 -0.0022364188153265775 0 0.0060160022175196025 -0.0020276830291056252 0 0.0065485287182891865 -0.0020275312822965476 0 0.0062865253476871745 -0.0020120452819919529 0 0.0063827252956004422 -0.0022633289803002127 0 0.0063827252956004422 -0.0022633289803002127 0 0.0062031180996854401 -0.0022364188153265775 0 0.0062878593107706269 -0.0023891049152969016 0 0.0062865253476871745 -0.0020120452819919529 0 0.0063827252956004422 -0.0022633289803002127 0 0.0062031180996854401 -0.0022364188153265775 0 0.0062031180996854401 -0.0022364188153265775 0 0.0062878593107706269 -0.0023891049152969016 0 0.0060086494019449066 -0.0024440338999302601 0 0.0062878593107706269 -0.0023891049152969016 0 0.0063453596020591812 -0.0025194232210622425 0 0.0060086494019449066 -0.0024440338999302601 0 0.0064370286155320585 -0.0024781284062822912 0 0.0063827252956004422 -0.0022633289803002127 0 0.0062878593107706269 -0.0023891049152969016 0 0.0064370286155320585 -0.0024781284062822912 0 0.0062878593107706269 -0.0023891049152969016 0 0.0063453596020591812 -0.0025194232210622425 0 0.0064465028060605653 -0.002593453678071251 0 0.0064370286155320585 -0.0024781284062822912 0 0.0063453596020591812 -0.0025194232210622425 0 0.0064175826717329824 -0.0026189025757122346 0 0.0063453596020591812 -0.0025194232210622425 0 0.0060086494019449066 -0.0024440338999302601 0 0.0045953484211767644 -0.00067275593592547149 0 0.0044906436085788677 -0.00069218141666479093 0 0.0045468248595538115 -0.00066596269999858056 0 0.0044714868426206575 -0.00066492725392892601 0 0.0044906436085788677 -0.00069218141666479093 0 0.0045223558596895023 -0.00067702112749944198 0 0.0044714868426206575 -0.00066492725392892601 0 0.0045223558596895023 -0.00067702112749944198 0 0.0045071329763332361 -0.00066974216594545949 0 0.0044906436085788677 -0.00069218141666479093 0 0.0045223558596895023 -0.00067702112749944198 0 0.0045468248595538115 -0.00066596269999858056 0 0.0045223558596895023 -0.00067702112749944198 0 0.0045468248595538115 -0.00066596269999858056 0 0.0045548125607816148 -0.00066472011495253712 0 0.0045223558596895023 -0.00067702112749944198 0 0.0045613908330481776 -0.00066906349693308562 0 0.0045548125607816148 -0.00066472011495253712 0 0.0045468248595538115 -0.00066596269999858056 0 0.0045598777795638088 -0.00066125763530809015 0 0.0045558937531831973 -0.00065762287867731392 0 0.0045468248595538115 -0.00066596269999858056 0 0.0045548125607816148 -0.00066472011495253712 0 0.0045598777795638088 -0.00066125763530809015 0 0.0045613908330481776 -0.00066906349693308562 0 0.0045696999697748099 -0.00066517355592374771 0 0.0045891916038510901 -0.00066984870688721067 0 0.0045548125607816148 -0.00066472011495253712 0 0.0045696999697748099 -0.00066517355592374771 0 0.0045598777795638088 -0.00066125763530809015 0 0.0045696999697748099 -0.00066517355592374771 0 0.0045891916038510901 -0.00066984870688721067 0 0.0045784447898579569 -0.00066890360287883018 0 0.0045696999697748099 -0.00066517355592374771 0 0.0045784447898579569 -0.00066890360287883018 0 0.0045598777795638088 -0.00066125763530809015 0 0.0045613908330481776 -0.00066906349693308562 0 0.0045548125607816148 -0.00066472011495253712 0 0.0045696999697748099 -0.00066517355592374771 0 0.0045953484211767644 -0.00067275593592547149 0 0.0045468248595538115 -0.00066596269999858056 0 0.0045558937531831973 -0.00065762287867731392 0 0.0060086494019449066 -0.0024440338999302601 0 0.0060160022175196025 -0.0020276830291056252 0 0.0056144940212968803 -0.0018605933274627499 0 0.0062031180996854401 -0.0022364188153265775 0 0.0060086494019449066 -0.0024440338999302601 0 0.0060160022175196025 -0.0020276830291056252 0 0.005315625729441424 -0.0015527389627235624 0 0.0049695371691056717 -0.0011550858829443916 0 0.0059449770320939357 -0.0017560986936907422 0 0.0056144940212968803 -0.0018605933274627499 0 0.0059940881172011254 -0.0014003667698846464 0 0.0060160022175196025 -0.0020276830291056252 0 0.0059449770320939357 -0.0017560986936907422 0 0.0061500913185720991 -0.001731710695206389 0 0.0049695371691056717 -0.0011550858829443916 0 0.005400408607014507 -0.0012784393201735241 0 0.0049443488392897994 -0.0010521213216094685 0 0.0049532477212064973 -0.0009742544465729863 0 0.005013138765890688 -0.00097581625570662906 0 0.0060160022175196025 -0.0020276830291056252 0 0.0059449770320939357 -0.0017560986936907422 0 0.0056144940212968803 -0.0018605933274627499 0 0.0059449770320939357 -0.0017560986936907422 0 0.0059940881172011254 -0.0014003667698846464 0 0.0061500913185720991 -0.001731710695206389 0 0.0049443488392897994 -0.0010521213216094685 0 0.0049532477212064973 -0.0009742544465729863 0 0.0049005234836113796 -0.00096724768566671033 0 0.0045562530731685031 -0.00066987111259755384 0 0.0046125323121789588 -0.00068183254035216649 0 0.0046412168308271988 -0.00071719927627888569 0 0.0049695371691056717 -0.0011550858829443916 0 0.004737504967656226 -0.00077243785908012307 0 0.0045891916038510901 -0.00066984870688721067 0 0.0045784447898579569 -0.00066890360287883018 0 0.0046125323121789588 -0.00068183254035216649 0 0.0045784447898579569 -0.00066890360287883018 0 0.0045562530731685031 -0.00066987111259755384 0 0.0046125323121789588 -0.00068183254035216649 0 0.0045784447898579569 -0.00066890360287883018 0 0.0045598777795638088 -0.00066125763530809015 0 0.0045562530731685031 -0.00066987111259755384 0 0.0049442403966923378 -0.0010895777234943957 0 0.0049695371691056717 -0.0011550858829443916 0 0.0049532477212064973 -0.0009742544465729863 0 0.0049005234836113796 -0.00096724768566671033 0 0.0049548162378059025 -0.00090503865651724383 0 0.0049532477212064973 -0.0009742544465729863 0 0.005013138765890688 -0.00097581625570662906 0 0.0049548162378059025 -0.00090503865651724383 0 0.0059940881172011254 -0.0014003667698846464 0 0.0063798072608247094 -0.0013630779671127359 0 0.0063938558153253198 -0.0009242686864239188 0 0.005400408607014507 -0.0012784393201735241 0 0.0066346960759528827 -0.00083276028160257838 0 0.0059940881172011254 -0.0014003667698846464 0 0.0063798072608247094 -0.0013630779671127359 0 0.0061500913185720991 -0.001731710695206389 0 0.0063798072608247094 -0.0013630779671127359 0 0.0068477527778073692 -0.001398752955335495 0 0.0064289774644929422 -0.0017154928671618487 0 0.0063798072608247094 -0.0013630779671127359 0 0.0068477527778073692 -0.001398752955335495 0 0.0063938558153253198 -0.0009242686864239188 0 0.0067573558593964677 -0.0013548119871731013 0 0.0066346960759528827 -0.00083276028160257838 0 0.0065485287182891865 -0.0020275312822965476 0 0.0068477527778073692 -0.001398752955335495 0 0.006855894315059001 -0.0020639231315222302 0 0.0065485287182891865 -0.0020275312822965476 0 0.0068477527778073692 -0.001398752955335495 0 0.0064289774644929422 -0.0017154928671618487 0 0.0065485287182891865 -0.0020275312822965476 0 0.0062865253476871745 -0.0020120452819919529 0 0.0064289774644929422 -0.0017154928671618487 0 0.0062865253476871745 -0.0020120452819919529 0 0.0061500913185720991 -0.001731710695206389 0 0.0064289774644929422 -0.0017154928671618487 0 0.0062865253476871745 -0.0020120452819919529 0 0.0060160022175196025 -0.0020276830291056252 0 0.0061500913185720991 -0.001731710695206389 0 0.0063798072608247094 -0.0013630779671127359 0 0.0061500913185720991 -0.001731710695206389 0 0.0064289774644929422 -0.0017154928671618487 0 0.0045937201005083715 -0.00070168921696390444 0 0.0045688985304736017 -0.00070054328665165519 0 0.0046199817009645429 -0.00079506521467718463 0 0.0053916677647381211 -0.00069524847389742627 0 0.0057625272014453421 -0.00014076362793118298 0 0.0046199817009645429 -0.00079506521467718463 0 0.0045688985304736017 -0.00070054328665165519 0 0.0045552648794870837 -0.00073467058225851417 0 0.0046199817009645429 -0.00079506521467718463 0 0.0051160171480661952 -0.0003527736033487095 0 0.0046543769793466151 -0.0007992937442057262 0 0.0045678547996634185 -0.00068385948960234845 0 0.0045688985304736017 -0.00070054328665165519 0 0.0045309367285356729 -0.0006772971819543678 0 0.0045688985304736017 -0.00070054328665165519 0 0.0045309367285356729 -0.0006772971819543678 0 0.004542538404184027 -0.00068886401756364408 0 0.0044696048097746834 -0.00065610241566483956 0 0.0045309367285356729 -0.0006772971819543678 0 0.004542538404184027 -0.00068886401756364408 0 0.0045688985304736017 -0.00070054328665165519 0 0.004542538404184027 -0.00068886401756364408 0 0.0045552648794870837 -0.00073467058225851417 0 0.004542538404184027 -0.00068886401756364408 0 0.0045859098789710027 -0.00069155093502059814 0 0.0046034856726752723 -0.00069631630355560371 0 0.0045494756817191116 -0.00069169369612305965 0 0.0045845271352573137 -0.00071984312970694068 0 0.0045859098789710027 -0.00069155093502059814 0 0.0046103721329627846 -0.00069083290797104465 0 0.004565625196330911 -0.00068485792620623809 0 0.0045859098789710027 -0.00069155093502059814 0 0.0046103721329627846 -0.00069083290797104465 0 0.0046118850510624152 -0.00069476213295816284 0 0.0046103721329627846 -0.00069083290797104465 0 0.004565625196330911 -0.00068485792620623809 0 0.004595409348279538 -0.00068136198195176167 0 0.004565625196330911 -0.00068485792620623809 0 0.0045500017946327647 -0.0006761977953457063 0 0.004595409348279538 -0.00068136198195176167 0 0.004542538404184027 -0.00068886401756364408 0 0.0045859098789710027 -0.00069155093502059814 0 0.004565625196330911 -0.00068485792620623809 0 0.0044696048097746834 -0.00065610241566483956 0 0.004542538404184027 -0.00068886401756364408 0 0.0045060518338444471 -0.00067212359134520463 0 0.004565625196330911 -0.00068485792620623809 0 0.0045060518338444471 -0.00067212359134520463 0 0.0045500017946327647 -0.0006761977953457063 0 0.004542538404184027 -0.00068886401756364408 0 0.004565625196330911 -0.00068485792620623809 0 0.0045060518338444471 -0.00067212359134520463 0 0.0045060518338444471 -0.00067212359134520463 0 0.0045071329763332361 -0.00066974216594545949 0 0.0045500017946327647 -0.0006761977953457063 0 0.004468784312767626 -0.00065728227840586469 0 0.0045060518338444471 -0.00067212359134520463 0 0.0045071329763332361 -0.00066974216594545949 0 0.0045223558596895023 -0.00067702112749944198 0 0.0045071329763332361 -0.00066974216594545949 0 0.0045500017946327647 -0.0006761977953457063 0 0.0045223558596895023 -0.00067702112749944198 0 0.0045613908330481776 -0.00066906349693308562 0 0.0045500017946327647 -0.0006761977953457063 0 0.0045613908330481776 -0.00066906349693308562 0 0.0045500017946327647 -0.0006761977953457063 0 0.004583784915646808 -0.00067458042116135366 0 0.0045500017946327647 -0.0006761977953457063 0 0.004595409348279538 -0.00068136198195176167 0 0.004583784915646808 -0.00067458042116135366 0 0.004595409348279538 -0.00068136198195176167 0 0.004583784915646808 -0.00067458042116135366 0 0.0046202090811609574 -0.0006759565948120114 0 0.0045891916038510901 -0.00066984870688721067 0 0.004583784915646808 -0.00067458042116135366 0 0.0046202090811609574 -0.0006759565948120114 0 0.0045613908330481776 -0.00066906349693308562 0 0.0045891916038510901 -0.00066984870688721067 0 0.004583784915646808 -0.00067458042116135366 0 0.0046125323121789588 -0.00068183254035216649 0 0.0046202090811609574 -0.0006759565948120114 0 0.0046633255170885953 -0.00068001202381582596 0 0.0045891916038510901 -0.00066984870688721067 0 0.0046125323121789588 -0.00068183254035216649 0 0.0046202090811609574 -0.0006759565948120114 0 0.004595409348279538 -0.00068136198195176167 0 0.0046202090811609574 -0.0006759565948120114 0 0.004656412632164029 -0.00068483426053936455 0 0.0046202090811609574 -0.0006759565948120114 0 0.004656412632164029 -0.00068483426053936455 0 0.0046633255170885953 -0.00068001202381582596 0 0.004656412632164029 -0.00068483426053936455 0 0.0046633255170885953 -0.00068001202381582596 0 0.0047543813287920979 -0.00068232455210642026 0 0.0046125323121789588 -0.00068183254035216649 0 0.0046412168308271988 -0.00071719927627888569 0 0.0046633255170885953 -0.00068001202381582596 0 0.004737504967656226 -0.00077243785908012307 0 0.0048509804159166479 -0.00087850412563258821 0 0.0046412168308271988 -0.00071719927627888569 0 0.0047543813287920979 -0.00068232455210642026 0 0.0048594750303951892 -0.00085522851179655769 0 0.0046412168308271988 -0.00071719927627888569 0 0.0046633255170885953 -0.00068001202381582596 0 0.0047543813287920979 -0.00068232455210642026 0 0.0047543813287920979 -0.00068232455210642026 0 0.0049448145485096245 -0.0008098041828052022 0 0.0048594750303951892 -0.00085522851179655769 0 0.0047543813287920979 -0.00068232455210642026 0 0.0046224252509631048 -0.00068303006260492911 0 0.004610207544178963 -0.00064359583931672501 0 0.0048367770458035125 -0.00071043079891243129 0 0.0046869233789409385 -0.00065497508617947623 0 0.0047543813287920979 -0.00068232455210642026 0 0.0051084428724307782 -0.00077787579799719862 0 0.0049448145485096245 -0.0008098041828052022 0 0.0047543813287920979 -0.00068232455210642026 0 0.0046519203615460365 -0.00069331753420788164 0 0.0046224252509631048 -0.00068303006260492911 0 0.0046519203615460365 -0.00069331753420788164 0 0.0046118850510624152 -0.00069476213295816284 0 0.0046224252509631048 -0.00068303006260492911 0 0.004656412632164029 -0.00068483426053936455 0 0.0047543813287920979 -0.00068232455210642026 0 0.0046519203615460365 -0.00069331753420788164 0 0.0046103721329627846 -0.00069083290797104465 0 0.004656412632164029 -0.00068483426053936455 0 0.0046519203615460365 -0.00069331753420788164 0 0.0046103721329627846 -0.00069083290797104465 0 0.004595409348279538 -0.00068136198195176167 0 0.004656412632164029 -0.00068483426053936455 0 0.0046103721329627846 -0.00069083290797104465 0 0.0046519203615460365 -0.00069331753420788164 0 0.0046118850510624152 -0.00069476213295816284 0 0.0046101348499727928 -0.00068672117414521144 0 0.0046224252509631048 -0.00068303006260492911 0 0.004597221779929328 -0.00066526008806474949 0 0.0045859098789710027 -0.00069155093502059814 0 0.0046118850510624152 -0.00069476213295816284 0 0.0046034856726752723 -0.00069631630355560371 0 0.0046118850510624152 -0.00069476213295816284 0 0.0046034856726752723 -0.00069631630355560371 0 0.0046101348499727928 -0.00068672117414521144 0 0.0046118850510624152 -0.00069476213295816284 0 0.0046101348499727928 -0.00068672117414521144 0 0.0046224252509631048 -0.00068303006260492911 0 0.0046224252509631048 -0.00068303006260492911 0 0.004610207544178963 -0.00064359583931672501 0 0.004597221779929328 -0.00066526008806474949 0 0.0046059535692458539 -0.00065853044514561975 0 0.004610207544178963 -0.00064359583931672501 0 0.004597221779929328 -0.00066526008806474949 0 0.0053562872651480506 -0.0023983740414565444 0 0.0053519309205854061 -0.0018192530062425235 0 0.0049568597581925809 -0.0015102560521367038 0 0.005619837106408644 -0.0009690725125064924 0 0.0047467991302644905 -0.001153254019961678 0 0.0055119519236743958 -0.0013780470456209216 0 0.0053519309205854061 -0.0018192530062425235 0 0.0049568597581925809 -0.0015102560521367038 0 0.0046034856726752723 -0.00069631630355560371 0 0.0046101348499727928 -0.00068672117414521144 0 0.004597221779929328 -0.00066526008806474949 0 0.0055119519236743958 -0.0013780470456209216 0 0.0049568597581925809 -0.0015102560521367038 0 0.005290892238526545 -0.0010121047347607323 0 0.0045552648794870837 -0.00073467058225851417 0 0.0049568597581925809 -0.0015102560521367038 0 0.0046199817009645429 -0.00079506521467718463 0 0.0049568597581925809 -0.0015102560521367038 0 0.005290892238526545 -0.0010121047347607323 0 0.0046199817009645429 -0.00079506521467718463 0 0.0053916677647381211 -0.00069524847389742627 0 0.005290892238526545 -0.0010121047347607323 0 0.0046199817009645429 -0.00079506521467718463 0 0.0045845271352573137 -0.00071984312970694068 0 0.0047467991302644905 -0.001153254019961678 0 0.0051192877114350785 -0.00086184950400487596 0 0.0051191600834766251 -0.00085932649351208622 0 0.005078524120126271 -0.00077734674473582622 0 0.0072857708015427076 -0.00075778823250654929 0 0.0069142252096823413 -0.00064460713639758057 0 0.0051191600834766251 -0.00085932649351208622 0 0.0051162582158395488 -0.00087170025926697344 0 0.005078524120126271 -0.00077734674473582622 0 0.0051191600834766251 -0.00085932649351208622 0 0.0051272228368182907 -0.00085411697500294961 0 0.0051162582158395488 -0.00087170025926697344 0 0.0051191600834766251 -0.00085932649351208622 0 0.0051473689857624225 -0.0008503693279494751 0 0.0051272228368182907 -0.00085411697500294961 0 0.005619837106408644 -0.0009690725125064924 0 0.0046869233789409385 -0.00065497508617947623 0 0.0051084428724307782 -0.00077787579799719862 0 0.0051473689857624225 -0.0008503693279494751 0 0.0051207423864689829 -0.00084153207886764774 0 0.0051568050127753801 -0.00085771201338643687 0 0.0051084428724307782 -0.00077787579799719862 0 0.0051473689857624225 -0.0008503693279494751 0 0.0051192877114350785 -0.00086184950400487596 0 0.0051191600834766251 -0.00085932649351208622 0 0.0051473689857624225 -0.0008503693279494751 0 0.0051272228368182907 -0.00085411697500294961 0 0.0051207423864689829 -0.00084153207886764774 0 0.0051162582158395488 -0.00087170025926697344 0 0.0051473689857624225 -0.0008503693279494751 0 0.0051272228368182907 -0.00085411697500294961 0 0.0051207423864689829 -0.00084153207886764774 0 0.0051084428724307782 -0.00077787579799719862 0 0.0050953881700929078 -0.00086035628544915395 0 0.0049448145485096245 -0.0008098041828052022 0 0.0051207423864689829 -0.00084153207886764774 0 0.0050953881700929078 -0.00086035628544915395 0 0.0051162582158395488 -0.00087170025926697344 0 0.0051084428724307782 -0.00077787579799719862 0 0.0051207423864689829 -0.00084153207886764774 0 0.0050953881700929078 -0.00086035628544915395 0 0.0050953881700929078 -0.00086035628544915395 0 0.0051162582158395488 -0.00087170025926697344 0 0.0051391678588004917 -0.00091407645904053388 0 0.0053469910458567079 -0.00088006968515162839 0 0.0048286227283105181 -0.0010241488659684373 0 0.0051391678588004917 -0.00091407645904053388 0 0.0049448145485096245 -0.0008098041828052022 0 0.0048594750303951892 -0.00085522851179655769 0 0.0050953881700929078 -0.00086035628544915395 0 0.0051391678588004917 -0.00091407645904053388 0 0.0049448145485096245 -0.0008098041828052022 0 0.0051391678588004917 -0.00091407645904053388 0 0.0048594750303951892 -0.00085522851179655769 0 0.0049079442373982408 -0.00089995143707777053 0 0.0048594750303951892 -0.00085522851179655769 0 0.0049079442373982408 -0.00089995143707777053 0 0.0049351941176651896 -0.00087016151564393992 0 0.0051391678588004917 -0.00091407645904053388 0 0.0056530423710832896 -0.00094581549080511608 0 0.0055162770093098628 -0.00072794091322120043 0 0.0056530423710832896 -0.00094581549080511608 0 0.0055162770093098628 -0.00072794091322120043 0 0.0058975363124799726 -0.00063691508680184625 0 0.0055162770093098628 -0.00072794091322120043 0 0.0056340027374015217 -0.00054882143384792418 0 0.0058975363124799726 -0.00063691508680184625 0 0.007432567974815639 -0.0010067765992055866 0 0.0092293571140450118 1.3939321305700223e-05 0 0.0056340027374015217 -0.00054882143384792418 0 0.0056683953105357851 -0.00047138266755659768 0 0.0055032132953866898 -0.00047198080937530619 0 0.0056340027374015217 -0.00054882143384792418 0 0.0055032132953866898 -0.00047198080937530619 0 0.00547198000262794 -0.00059555898824655571 0 0.0055162770093098628 -0.00072794091322120043 0 0.0056340027374015217 -0.00054882143384792418 0 0.00547198000262794 -0.00059555898824655571 0 0.00547198000262794 -0.00059555898824655571 0 0.0053493502856643569 -0.00055162231877335568 0 0.0053217835456042762 -0.00068840609171278778 0 0.0055032132953866898 -0.00047198080937530619 0 0.00547198000262794 -0.00059555898824655571 0 0.0053493502856643569 -0.00055162231877335568 0 0.0053493502856643569 -0.00055162231877335568 0 0.0053217835456042762 -0.00068840609171278778 0 0.0051664957422441959 -0.00072067008493068116 0 0.0051391678588004917 -0.00091407645904053388 0 0.0055162770093098628 -0.00072794091322120043 0 0.0053217835456042762 -0.00068840609171278778 0 0.0051391678588004917 -0.00091407645904053388 0 0.0053217835456042762 -0.00068840609171278778 0 0.0051664957422441959 -0.00072067008493068116 0 0.0055162770093098628 -0.00072794091322120043 0 0.00547198000262794 -0.00059555898824655571 0 0.0053217835456042762 -0.00068840609171278778 0 0.0051162582158395488 -0.00087170025926697344 0 0.0051391678588004917 -0.00091407645904053388 0 0.0051664957422441959 -0.00072067008493068116 0 0.0051162582158395488 -0.00087170025926697344 0 0.0051664957422441959 -0.00072067008493068116 0 0.005078524120126271 -0.00077734674473582622 0 0.0051664957422441959 -0.00072067008493068116 0 0.005155864263874519 -0.00051630507252802904 0 0.005078524120126271 -0.00077734674473582622 0 0.0053493502856643569 -0.00055162231877335568 0 0.0051664957422441959 -0.00072067008493068116 0 0.005155864263874519 -0.00051630507252802904 0 0.0053236575192551682 -0.00043194749635460327 0 0.0053493502856643569 -0.00055162231877335568 0 0.005155864263874519 -0.00051630507252802904 0 0.0076539019971279256 -0.00034702573376645541 0 0.0069142252096823413 -0.00064460713639758057 0 0.0091336145312674744 -0.00012890186750462023 0 0.0089744175681299044 -0.00019357132589018845 0 0.0089644164164659947 -0.00043858115989391192 0 0.0076539019971279256 -0.00034702573376645541 0 0.012537494637569068 3.2308403077113499e-05 0 0.012537494637569068 3.2308403077113499e-05 0 0.010693911421614587 -0.00048415120464056767 0 0.015062282671957703 0.00034807349368791538 0 0.012537494637569068 3.2308403077113499e-05 0 0.012641890698604556 -0.00028995803976094941 0 0.012726158073263414 -0.00025196148906469248 0 0.012668998573579384 -0.00035491492489478013 0 0.0089744175681299044 -0.00019357132589018845 0 0.0088492579659529488 -0.00041712797675162733 0 0.0089644164164659947 -0.00043858115989391192 0 0.0087177034810737141 -0.00064800575253687515 0 0.0088492579659529488 -0.00041712797675162733 0 0.0089644164164659947 -0.00043858115989391192 0 0.0080047304525153531 -0.00015557678105596973 0 0.0075636249267893091 -0.00023381948035015325 0 0.0079205914338558222 -0.00065693115051813607 0 0.0080047304525153531 -0.00015557678105596973 0 0.0075636249267893091 -0.00023381948035015325 0 0.0080880887062339101 0.00034552638808251466 0 0.0080047304525153531 -0.00015557678105596973 0 0.0084470364895855975 -7.7268325812251073e-05 0 0.0080880887062339101 0.00034552638808251466 0 0.0077274876565250625 -0.00010744241102506654 0 0.0066346960759528827 -0.00083276028160257838 0 0.0080047304525153531 -0.00015557678105596973 0 0.0084470364895855975 -7.7268325812251073e-05 0 0.0079205914338558222 -0.00065693115051813607 0 0.0068477527778073692 -0.001398752955335495 0 0.0063934872393469171 -0.00077752256171119893 0 0.0070060482932458538 -0.00082854150498827973 0 0.0069837416357799893 -0.0001651689185461816 0 0.0063934872393469171 -0.00077752256171119893 0 0.0070060482932458538 -0.00082854150498827973 0 0.005013138765890688 -0.00097581625570662906 0 0.005080680091035952 -0.00090616169700513162 0 0.005015662071777378 -0.00090931346646855305 0 0.0061601437024531676 -0.00043114698939301173 0 0.0066346960759528827 -0.00083276028160257838 0 0.0050245241677059141 -0.00086216401765468827 0 0.005080680091035952 -0.00090616169700513162 0 0.005015662071777378 -0.00090931346646855305 0 0.005013138765890688 -0.00097581625570662906 0 0.005015662071777378 -0.00090931346646855305 0 0.0049548162378059025 -0.00090503865651724383 0 0.0050245241677059141 -0.00086216401765468827 0 0.005015662071777378 -0.00090931346646855305 0 0.0049548162378059025 -0.00090503865651724383 0 0.0048594750303951892 -0.00085522851179655769 0 0.0049548162378059025 -0.00090503865651724383 0 0.0049351941176651896 -0.00087016151564393992 0 0.0049005234836113796 -0.00096724768566671033 0 0.0048594750303951892 -0.00085522851179655769 0 0.0049548162378059025 -0.00090503865651724383 0 0.0049079442373982408 -0.00089995143707777053 0 0.0049351941176651896 -0.00087016151564393992 0 0.0049767622887353881 -0.00082840411372822175 0 0.0050245241677059141 -0.00086216401765468827 0 0.0049351941176651896 -0.00087016151564393992 0 0.0049767622887353881 -0.00082840411372822175 0 0.0050245241677059141 -0.00086216401765468827 0 0.0049548162378059025 -0.00090503865651724383 0 0.0049351941176651896 -0.00087016151564393992 0 0.0061601437024531676 -0.00043114698939301173 0 0.0075813901714358979 -0.00021220049944308482 0 0.011409501768307366 0.0011206368497379564 0 0.011743407334360812 0.00072953597745739271 0 0.011232816745483661 0.00061285196876276085 0 0.0056530423710832896 -0.00094581549080511608 0 0.006123284078146489 -0.00087754767574288776 0 0.0058975363124799726 -0.00063691508680184625 0 0.0048286227283105181 -0.0010241488659684373 0 0.0075813901714358979 -0.00021220049944308482 0 0.0075813901714358979 -0.00021220049944308482 0 0.0088592502160383842 6.0712338386494597e-06 0 0.011641171946081996 0.00029734037015300389 0 0.012058149693303592 0.00035148889995657785 0 0.011743407334360812 0.00072953597745739271 0 0.0056340027374015217 -0.00054882143384792418 0 0.005693754962836437 -0.00041715755333646587 0 0.0058975363124799726 -0.00063691508680184625 0 0.0092293571140450118 1.3939321305700223e-05 0 0.0088592502160383842 6.0712338386494597e-06 0 0.011254726486714458 0.00012693658405780604 0 0.011641171946081996 0.00029734037015300389 0 0.011232816745483661 0.00061285196876276085 0 0.011641171946081996 0.00029734037015300389 0 0.011743407334360812 0.00072953597745739271 0 0.011232816745483661 0.00061285196876276085 0 0.011232816745483661 0.00061285196876276085 0 0.010673875772887285 0.0003362192706017023 0 0.010555227151849252 0.001004747422612143 0 0.011254726486714458 0.00012693658405780604 0 0.011232816745483661 0.00061285196876276085 0 0.010673875772887285 0.0003362192706017023 0 0.0075813901714358979 -0.00021220049944308482 0 0.0098019234779213264 0.00084839771516637325 0 0.011409501768307366 0.0011206368497379564 0 0.011232816745483661 0.00061285196876276085 0 0.010555227151849252 0.001004747422612143 0 0.0075636249267893091 -0.00023381948035015325 0 0.0072069809052106425 0.0001843432609060867 0 0.0080880887062339101 0.00034552638808251466 0 0.010673875772887285 0.0003362192706017023 0 0.010555227151849252 0.001004747422612143 0 0.009940619055582512 0.00044909176719895577 0 0.010555227151849252 0.001004747422612143 0 0.009940619055582512 0.00044909176719895577 0 0.0095376043696901291 0.00084291126812275708 0 0.009940619055582512 0.00044909176719895577 0 0.0091669237579872862 0.00039700111003140837 0 0.0095376043696901291 0.00084291126812275708 0 0.0091669237579872862 0.00039700111003140837 0 0.0095098185116541788 0.00078907836837634052 0 0.0086767860435987866 0.00046188029428053848 0 0.0093715923613176995 0.00012701946205410236 0 0.009940619055582512 0.00044909176719895577 0 0.0091669237579872862 0.00039700111003140837 0 0.0093715923613176995 0.00012701946205410236 0 0.0091669237579872862 0.00039700111003140837 0 0.008889795721639936 0.0003031167357754232 0 0.0092934826001277258 0.00063885764171303454 0 0.0088116855955105624 0.00051665463815280378 0 0.0091669237579872862 0.00039700111003140837 0 0.0086767860435987866 0.00046188029428053848 0 0.008889795721639936 0.0003031167357754232 0 0.0077045581249002596 0.00048804274963768548 0 0.0079093836415203844 -5.6957006041426145e-05 0 0.0086767860435987866 0.00046188029428053848 0 0.0088116855955105624 0.00051665463815280378 0 0.0085975055936897554 0.0005124937761984775 0 0.0077274876565250625 -0.00010744241102506654 0 0.0088116855955105624 0.00051665463815280378 0 0.0084470364895855975 -7.7268325812251073e-05 0 0.0080880887062339101 0.00034552638808251466 0 0.0089665085722656981 0.00050385166191049705 0 0.0098019234779213264 0.00084839771516637325 0 0.0088116855955105624 0.00051665463815280378 0 0.0069837416357799893 -0.0001651689185461816 0 0.0077045581249002596 0.00048804274963768548 0 0.0079093836415203844 -5.6957006041426145e-05 0 0.0069837416357799893 -0.0001651689185461816 0 0.0079093836415203844 -5.6957006041426145e-05 0 0.0074674021409216057 -0.00057238787729996016 0 0.0079093836415203844 -5.6957006041426145e-05 0 0.0074674021409216057 -0.00057238787729996016 0 0.0080922946921816678 -0.0005158452151854321 0 0.0079093836415203844 -5.6957006041426145e-05 0 0.0080922946921816678 -0.0005158452151854321 0 0.008532802585894313 1.3317146115570804e-05 0 0.0074674021409216057 -0.00057238787729996016 0 0.0080922946921816678 -0.0005158452151854321 0 0.0075462799121284114 -0.001096035243253049 0 0.0080922946921816678 -0.0005158452151854321 0 0.0075462799121284114 -0.001096035243253049 0 0.0082559294143254042 -0.00098852309746429992 0 0.0069837416357799893 -0.0001651689185461816 0 0.0074674021409216057 -0.00057238787729996016 0 0.0070060482932458538 -0.00082854150498827973 0 0.0074674021409216057 -0.00057238787729996016 0 0.0070060482932458538 -0.00082854150498827973 0 0.0075462799121284114 -0.001096035243253049 0 0.0085343595084945625 -0.00049507293505998879 0 0.0082559294143254042 -0.00098852309746429992 0 0.0088443464409592408 -0.0009788862021604713 0 0.0085343595084945625 -0.00049507293505998879 0 0.0089315444326563097 -0.00047387261197819232 0 0.0088443464409592408 -0.0009788862021604713 0 0.0085343595084945625 -0.00049507293505998879 0 0.0080922946921816678 -0.0005158452151854321 0 0.0082559294143254042 -0.00098852309746429992 0 0.0085343595084945625 -0.00049507293505998879 0 0.0080922946921816678 -0.0005158452151854321 0 0.008532802585894313 1.3317146115570804e-05 0 0.0085343595084945625 -0.00049507293505998879 0 0.0087828060832338545 -8.7203868183460736e-05 0 0.008532802585894313 1.3317146115570804e-05 0 0.0085343595084945625 -0.00049507293505998879 0 0.0087828060832338545 -8.7203868183460736e-05 0 0.0089315444326563097 -0.00047387261197819232 0 0.0087828060832338545 -8.7203868183460736e-05 0 0.0090008388005452817 -0.00018979463460175138 0 0.0089315444326563097 -0.00047387261197819232 0 0.0087828060832338545 -8.7203868183460736e-05 0 0.0087647901182776322 0.00030189920300497048 0 0.0089984142085061617 8.2661762447073739e-05 0 0.0087828060832338545 -8.7203868183460736e-05 0 0.008532802585894313 1.3317146115570804e-05 0 0.0087647901182776322 0.00030189920300497048 0 0.0079093836415203844 -5.6957006041426145e-05 0 0.008532802585894313 1.3317146115570804e-05 0 0.0086767860435987866 0.00046188029428053848 0 0.008532802585894313 1.3317146115570804e-05 0 0.0086767860435987866 0.00046188029428053848 0 0.0087647901182776322 0.00030189920300497048 0 0.0088756266052527014 0.0001441017381502402 0 0.008889795721639936 0.0003031167357754232 0 0.0087647901182776322 0.00030189920300497048 0 0.0086767860435987866 0.00046188029428053848 0 0.008889795721639936 0.0003031167357754232 0 0.0087647901182776322 0.00030189920300497048 0 0.0088521627623138859 0.00028653556686274417 0 0.0087647901182776322 0.00030189920300497048 0 0.0089984142085061617 8.2661762447073739e-05 0 0.0088521627623138859 0.00028653556686274417 0 0.0088756266052527014 0.0001441017381502402 0 0.0087647901182776322 0.00030189920300497048 0 0.0088521627623138859 0.00028653556686274417 0 0.0093203409690975885 0.0001056334813650163 0 0.0089984142085061617 8.2661762447073739e-05 0 0.015895361209578556 0.0015668952720918215 0 0.01398332147405692 0.0011790301364041794 0 0.017725721826305996 0.0019475199509483851 0 0.01398332147405692 0.0011790301364041794 0 0.013439870417781588 0.0005853678002097465 0 0.013327525592607328 0.00034158472421560928 0 0.013307126879779625 0.00034564395346665293 0 0.02246988626485449 0.0027575468482072571 0 0.021387021566499541 0.0027768099823625384 0 0.021550687236680157 0.003716003820915437 0 0.01398332147405692 0.0011790301364041794 0 0.011126864290722417 0.00036393618183110484 0 0.013327525592607328 0.00034158472421560928 0 0.013307126879779625 0.00034564395346665293 0 0.012998467194840272 0.00048755423049010179 0 0.0093203409690975885 0.0001056334813650163 0 0.0089984142085061617 8.2661762447073739e-05 0 0.0093065898125466659 -0.00030994799900434711 0 0.0087828060832338545 -8.7203868183460736e-05 0 0.0089984142085061617 8.2661762447073739e-05 0 0.0090008388005452817 -0.00018979463460175138 0 0.012303830587074009 -0.0003277938644105265 0 0.012747371834459349 -0.00025470395297905781 0 0.012437129437766705 2.1569661315710448e-05 0 0.012303830587074009 -0.0003277938644105265 0 0.012001905648910753 -0.00012435084814862874 0 0.012437129437766705 2.1569661315710448e-05 0 0.012437129437766705 2.1569661315710448e-05 0 0.012884727381466765 0.00014031326367585679 0 0.012605680623869112 0.00038082885196018658 0 0.013364026250392286 0.00025555397325519648 0 0.013291800543189822 0.00031052654778621568 0 0.012747371834459349 -0.00025470395297905781 0 0.013307126879779625 0.00034564395346665293 0 0.012884727381466765 0.00014031326367585679 0 0.013800373688714193 0.00060689176939905101 0 0.013439870417781588 0.0005853678002097465 0 0.013307126879779625 0.00034564395346665293 0 0.012747371834459349 -0.00025470395297905781 0 0.012437129437766705 2.1569661315710448e-05 0 0.012884727381466765 0.00014031326367585679 0 0.013327525592607328 0.00034158472421560928 0 0.012998467194840272 0.00048755423049010179 0 0.012984116590803337 0.00084253143288046768 0 0.013307126879779625 0.00034564395346665293 0 0.012884727381466765 0.00014031326367585679 0 0.012993369633222221 0.00032794728695824431 0 0.013307126879779625 0.00034564395346665293 0 0.012993369633222221 0.00032794728695824431 0 0.012998467194840272 0.00048755423049010179 0 0.012998467194840272 0.00048755423049010179 0 0.012605680623869112 0.00038082885196018658 0 0.012629886598404706 0.00069792693194013636 0 0.012993369633222221 0.00032794728695824431 0 0.012998467194840272 0.00048755423049010179 0 0.012605680623869112 0.00038082885196018658 0 0.012884727381466765 0.00014031326367585679 0 0.012993369633222221 0.00032794728695824431 0 0.012605680623869112 0.00038082885196018658 0 0.012056311865928791 0.00031979530047726416 0 0.012605680623869112 0.00038082885196018658 0 0.012231923920730615 0.00077612869763339881 0 0.012056311865928791 0.00031979530047726416 0 0.012437129437766705 2.1569661315710448e-05 0 0.012605680623869112 0.00038082885196018658 0 0.012605680623869112 0.00038082885196018658 0 0.012231923920730615 0.00077612869763339881 0 0.012629886598404706 0.00069792693194013636 0 0.012231923920730615 0.00077612869763339881 0 0.012629886598404706 0.00069792693194013636 0 0.012557323189128626 0.0013045914333623598 0 0.011126864290722417 0.00036393618183110484 0 0.011404263233503438 0.00029718239377035812 0 0.012629886598404706 0.00069792693194013636 0 0.012984116590803337 0.00084253143288046768 0 0.012557323189128626 0.0013045914333623598 0 0.012998467194840272 0.00048755423049010179 0 0.012629886598404706 0.00069792693194013636 0 0.012984116590803337 0.00084253143288046768 0 0.0097850985016817785 -0.00022523706432214774 0 0.0097196992979853465 -0.00064901941326823986 0 0.010060974119323546 -0.00062265341773448343 0 0.0097196992979853465 -0.00064901941326823986 0 0.010060974119323546 -0.00062265341773448343 0 0.0097862486894831676 -0.00099934103385162045 0 0.011915751012266657 0.0012678567802667752 0 0.012146030201384829 0.0017614292788689075 0 0.012557323189128626 0.0013045914333623598 0 0.011915751012266657 0.0012678567802667752 0 0.012231923920730615 0.00077612869763339881 0 0.012557323189128626 0.0013045914333623598 0 0.010623148431410866 0.00026994663560290258 0 0.011404263233503438 0.00029718239377035812 0 0.0090008388005452817 -0.00018979463460175138 0 0.0093065898125466659 -0.00030994799900434711 0 0.0089315444326563097 -0.00047387261197819232 0 0.0089984142085061617 8.2661762447073739e-05 0 0.0090008388005452817 -0.00018979463460175138 0 0.0093065898125466659 -0.00030994799900434711 0 0.0094696661811109438 0.00020020299654157234 0 0.0097850985016817785 -0.00022523706432214774 0 0.0093065898125466659 -0.00030994799900434711 0 0.01398332147405692 0.0011790301364041794 0 0.0087027061259619017 -0.0009427840430907211 0 0.0097850985016817785 -0.00022523706432214774 0 0.0093065898125466659 -0.00030994799900434711 0 0.0093967256685337213 -0.00063497031699436229 0 0.0097850985016817785 -0.00022523706432214774 0 0.0097196992979853465 -0.00064901941326823986 0 0.0093967256685337213 -0.00063497031699436229 0 0.0093065898125466659 -0.00030994799900434711 0 0.0093967256685337213 -0.00063497031699436229 0 0.0091258170200835768 -0.00073581937680851828 0 0.0097196992979853465 -0.00064901941326823986 0 0.0093967256685337213 -0.00063497031699436229 0 0.0093417207328218288 -0.0010346187155644514 0 0.0093967256685337213 -0.00063497031699436229 0 0.0091258170200835768 -0.00073581937680851828 0 0.0093417207328218288 -0.0010346187155644514 0 0.0093065898125466659 -0.00030994799900434711 0 0.0091258170200835768 -0.00073581937680851828 0 0.0089315444326563097 -0.00047387261197819232 0 0.0091258170200835768 -0.00073581937680851828 0 0.0089315444326563097 -0.00047387261197819232 0 0.0088443464409592408 -0.0009788862021604713 0 0.0093417207328218288 -0.0010346187155644514 0 0.0090421434716664532 -0.0013527260462281162 0 0.0088443464409592408 -0.0009788862021604713 0 0.0091324265313638998 -0.0014844378569690304 0 0.0088497509243597502 -0.0010017390664176268 0 0.0091258170200835768 -0.00073581937680851828 0 0.0093417207328218288 -0.0010346187155644514 0 0.0088443464409592408 -0.0009788862021604713 0 0.0097196992979853465 -0.00064901941326823986 0 0.0093417207328218288 -0.0010346187155644514 0 0.0097991287403716449 -0.001079814460034747 0 0.0093417207328218288 -0.0010346187155644514 0 0.0095724014282114554 -0.0013334007286839018 0 0.0097991287403716449 -0.001079814460034747 0 0.0093417207328218288 -0.0010346187155644514 0 0.0093156698819277031 -0.0014410601229179463 0 0.0095724014282114554 -0.0013334007286839018 0 0.0093156698819277031 -0.0014410601229179463 0 0.0095724014282114554 -0.0013334007286839018 0 0.0094738059691422752 -0.0016558882088756881 0 0.0093156698819277031 -0.0014410601229179463 0 0.0092366768367344639 -0.0017505839396704103 0 0.0094738059691422752 -0.0016558882088756881 0 0.0093156698819277031 -0.0014410601229179463 0 0.0090421434716664532 -0.0013527260462281162 0 0.0092366768367344639 -0.0017505839396704103 0 0.0089212777472372148 -0.0018901758560487788 0 0.0090941266057713733 -0.001513934028795669 0 0.0093591578969581379 -0.0020429383046521709 0 0.0093417207328218288 -0.0010346187155644514 0 0.0093156698819277031 -0.0014410601229179463 0 0.0090421434716664532 -0.0013527260462281162 0 0.0091324265313638998 -0.0014844378569690304 0 0.0072648892381616268 -0.0024553433163165862 0 0.0089212777472372148 -0.0018901758560487788 0 0.0090941266057713733 -0.001513934028795669 0 0.0086832790835252409 -0.0017168662275702429 0 0.010322591362217743 -0.00096196602829878603 0 0.010060974119323546 -0.00062265341773448343 0 0.010057193857955352 -0.00097597587079863667 0 0.010623148431410866 0.00026994663560290258 0 0.0076715505176359767 -0.0013540487417309974 0 0.010322591362217743 -0.00096196602829878603 0 0.010057193857955352 -0.00097597587079863667 0 0.010212159745965645 -0.0011909569491570925 0 0.010060974119323546 -0.00062265341773448343 0 0.010057193857955352 -0.00097597587079863667 0 0.0097862486894831676 -0.00099934103385162045 0 0.0097245343634875872 -0.00068907071579567096 0 0.0097852400001266111 -0.0010576574555273017 0 0.010057193857955352 -0.00097597587079863667 0 0.0097862486894831676 -0.00099934103385162045 0 0.0098480923313169922 -0.0013534158977959426 0 0.0097852400001266111 -0.0010576574555273017 0 0.0084345896548092339 -0.0015823048507807502 0 0.0095724014282114554 -0.0013334007286839018 0 0.0098729019852851416 -0.0014949698926636863 0 0.0094738059691422752 -0.0016558882088756881 0 0.0095724014282114554 -0.0013334007286839018 0 0.0097991287403716449 -0.001079814460034747 0 0.0098729019852851416 -0.0014949698926636863 0 0.0084345896548092339 -0.0015823048507807502 0 0.0078981661306924619 -0.0019962177443949799 0 0.010057193857955352 -0.00097597587079863667 0 0.0098480923313169922 -0.0013534158977959426 0 0.010212159745965645 -0.0011909569491570925 0 0.0069250055954210568 -0.0015389373592278194 0 0.0074672058227489378 -0.0013015413683618018 0 0.0070491022913848657 -0.0021725051321669895 0 0.0084345896548092339 -0.0015823048507807502 0 0.0076715505176359767 -0.0013540487417309974 0 0.0050022815962242079 -0.001915384600594892 0 0.0045090787059774325 -0.0021485155808921158 0 0.0048557739699935333 -0.0023538576013503423 0 0.0050022815962242079 -0.001915384600594892 0 0.0048423668256286989 -0.0014873728508512747 0 0.0045090787059774325 -0.0021485155808921158 0 0.0076715505176359767 -0.0013540487417309974 0 0.0056477645787968217 -0.0022067311265401624 0 0.0065462718032036253 -0.0023687781963210378 0 0.0064139614432530993 -0.002315074715909447 0 0.0063343297641623398 -0.0024502288148937857 0 0.0065214296393986439 -0.0021594777218525095 0 0.0064139614432530993 -0.002315074715909447 0 0.0063520727145056468 -0.0022307804736411661 0 0.0065214296393986439 -0.0021594777218525095 0 0.0065462718032036253 -0.0023687781963210378 0 0.0064139614432530993 -0.002315074715909447 0 0.0084345896548092339 -0.0015823048507807502 0 0.0056477645787968217 -0.0022067311265401624 0 0.0036900396956903231 -0.0028565471959544602 0 0.0056477645787968217 -0.0022067311265401624 0 0.0064060106225955048 -0.0026285861345938075 0 0.0065462718032036253 -0.0023687781963210378 0 0.0063343297641623398 -0.0024502288148937857 0 0.0043160971144257324 -0.0028013579465484125 0 0.0047352283982002256 -0.002819164659110382 0 0.0046076492294376183 -0.0021725070208331765 0 0.0046160499240051828 -0.0027648172256738691 0 0.0045090787059774325 -0.0021485155808921158 0 0.0048557739699935333 -0.0023538576013503423 0 0.0042346460068240933 -0.0027345259945551993 0 0.0056477645787968217 -0.0022067311265401624 0 0.0060652919376044528 -0.0031003224401957531 0 0.0058976590956061892 -0.0031840843122016476 0 0.0061466240751416549 -0.0030812657887280348 0 0.0072648892381616268 -0.0024553433163165862 0 0.0074649956805326783 -0.0027117545538342855 0 0.0088886219188420382 -0.0020744453744531298 0 0.0093591578969581379 -0.0020429383046521709 0 0.0086565217879368116 -0.0023445076005062064 0 0.0060652919376044528 -0.0031003224401957531 0 0.0057874388920959056 -0.0032575328865617295 0 0.0058698871464035636 -0.0030152227370108002 0 0.0055787159176463041 -0.0033443998501701965 0 0.0072648892381616268 -0.0024553433163165862 0 0.0089212777472372148 -0.0018901758560487788 0 0.0088886219188420382 -0.0020744453744531298 0 0.0093591578969581379 -0.0020429383046521709 0 0.0064139614432530993 -0.002315074715909447 0 0.0062575924399617903 -0.0022714075525453524 0 0.0063343297641623398 -0.0024502288148937857 0 0.0057874388920959056 -0.0032575328865617295 0 0.0055879350905245814 -0.0029331420570058307 0 0.0058698871464035636 -0.0030152227370108002 0 0.0064139614432530993 -0.002315074715909447 0 0.0062575924399617903 -0.0022714075525453524 0 0.0063520727145056468 -0.0022307804736411661 0 0.0072648892381616268 -0.0024553433163165862 0 0.0078981661306924619 -0.0019962177443949799 0 0.0072648892381616268 -0.0024553433163165862 0 0.0060289488936546513 -0.0027595483473877619 0 0.0053875414784614528 -0.0025984888787318073 0 0.0055879350905245814 -0.0029331420570058307 0 0.0056962081729620209 -0.0027801267490173607 0 0.0036900396956903231 -0.0028565471959544602 0 0.0060289488936546513 -0.0027595483473877619 0 0.0055879350905245814 -0.0029331420570058307 0 0.0056962081729620209 -0.0027801267490173607 0 0.0058698871464035636 -0.0030152227370108002 0 0.0056962081729620209 -0.0027801267490173607 0 0.0058698871464035636 -0.0030152227370108002 0 0.0059754860533615464 -0.0028887420226322976 0 0.0059490172467004431 -0.0026260422754307419 0 0.0056962081729620209 -0.0027801267490173607 0 0.0059754860533615464 -0.0028887420226322976 0 0.0058698871464035636 -0.0030152227370108002 0 0.0059754860533615464 -0.0028887420226322976 0 0.0060799800264904119 -0.0029725755749310831 0 0.0060652919376044528 -0.0031003224401957531 0 0.0058698871464035636 -0.0030152227370108002 0 0.0060799800264904119 -0.0029725755749310831 0 0.0059754860533615464 -0.0028887420226322976 0 0.0060987947208198477 -0.0028115465213990713 0 0.0060799800264904119 -0.0029725755749310831 0 0.0059572292582630833 -0.0026952451609031174 0 0.0059754860533615464 -0.0028887420226322976 0 0.0060987947208198477 -0.0028115465213990713 0 0.0062243268868392414 -0.0029636453612944041 0 0.0061466240751416549 -0.0030812657887280348 0 0.0064634643574130041 -0.0029354964526941327 0 0.0060987947208198477 -0.0028115465213990713 0 0.006208280668091583 -0.0028631152852619302 0 0.0060799800264904119 -0.0029725755749310831 0 0.006208280668091583 -0.0028631152852619302 0 0.0062243268868392414 -0.0029636453612944041 0 0.0060799800264904119 -0.0029725755749310831 0 0.0062243268868392414 -0.0029636453612944041 0 0.0060799800264904119 -0.0029725755749310831 0 0.0061466240751416549 -0.0030812657887280348 0 0.0060652919376044528 -0.0031003224401957531 0 0.0060799800264904119 -0.0029725755749310831 0 0.0061466240751416549 -0.0030812657887280348 0 0.0086565217879368116 -0.0023445076005062064 0 0.0086118202134623425 -0.0020175361272599533 0 0.008234276572632749 -0.0021686674738476139 0 0.0086118202134623425 -0.0020175361272599533 0 0.008234276572632749 -0.0021686674738476139 0 0.0082822849704692232 -0.0018115829978808326 0 0.0089212777472372148 -0.0018901758560487788 0 0.0088886219188420382 -0.0020744453744531298 0 0.0086118202134623425 -0.0020175361272599533 0 0.0088886219188420382 -0.0020744453744531298 0 0.0086565217879368116 -0.0023445076005062064 0 0.0086118202134623425 -0.0020175361272599533 0 0.0086565217879368116 -0.0023445076005062064 0 0.008234276572632749 -0.0021686674738476139 0 0.0078556924599347249 -0.0026414608556367767 0 0.0077880054952524517 -0.0020029638848176757 0 0.008234276572632749 -0.0021686674738476139 0 0.0078556924599347249 -0.0026414608556367767 0 0.0077880054952524517 -0.0020029638848176757 0 0.008234276572632749 -0.0021686674738476139 0 0.0082822849704692232 -0.0018115829978808326 0 0.0074649956805326783 -0.0027117545538342855 0 0.0071357467381458831 -0.0027798548836834979 0 0.0063910052573866354 -0.0027421293570180339 0 0.006208280668091583 -0.0028631152852619302 0 0.0064634643574130041 -0.0029354964526941327 0 0.006208280668091583 -0.0028631152852619302 0 0.0062243268868392414 -0.0029636453612944041 0 0.0064634643574130041 -0.0029354964526941327 0 0.0063910052573866354 -0.0027421293570180339 0 0.0064634643574130041 -0.0029354964526941327 0 0.0067081763526107537 -0.0028283477245269269 0 0.0078556924599347249 -0.0026414608556367767 0 0.0069969192291101752 -0.0025572168922505618 0 0.0067081763526107537 -0.0028283477245269269 0 0.0071357467381458831 -0.0027798548836834979 0 0.0067712044351868608 -0.0028372928562108725 0 0.0078556924599347249 -0.0026414608556367767 0 0.0069969192291101752 -0.0025572168922505618 0 0.0071977871083746623 -0.0022317195026760727 0 0.0065825773092633641 -0.0025291257601707997 0 0.0066451556337206626 -0.0026276931464163456 0 0.006768453860958314 -0.0024608923631623939 0 0.0066451556337206626 -0.0026276931464163456 0 0.0067314544934679518 -0.0026559692963826786 0 0.006768453860958314 -0.0024608923631623939 0 0.0065932653337452546 -0.0026704582602901138 0 0.0065716284963283555 -0.0026149492025757354 0 0.0066451556337206626 -0.0026276931464163456 0 0.0066370220799476 -0.0027435816844711999 0 0.0065932653337452546 -0.0026704582602901138 0 0.0066451556337206626 -0.0026276931464163456 0 0.0066370220799476 -0.0027435816844711999 0 0.0066451556337206626 -0.0026276931464163456 0 0.0067314544934679518 -0.0026559692963826786 0 0.0069969192291101752 -0.0025572168922505618 0 0.0067314544934679518 -0.0026559692963826786 0 0.0067081763526107537 -0.0028283477245269269 0 0.0066370220799476 -0.0027435816844711999 0 0.0067314544934679518 -0.0026559692963826786 0 0.0067081763526107537 -0.0028283477245269269 0 0.0069969192291101752 -0.0025572168922505618 0 0.0067314544934679518 -0.0026559692963826786 0 0.006768453860958314 -0.0024608923631623939 0 0.0069969192291101752 -0.0025572168922505618 0 0.006768453860958314 -0.0024608923631623939 0 0.0071977871083746623 -0.0022317195026760727 0 0.006855894315059001 -0.0020639231315222302 0 0.0071977871083746623 -0.0022317195026760727 0 0.007356117818305005 -0.0017236284066288754 0 0.0065842592776891628 -0.0023252356135057004 0 0.006768453860958314 -0.0024608923631623939 0 0.006855894315059001 -0.0020639231315222302 0 0.006768453860958314 -0.0024608923631623939 0 0.006855894315059001 -0.0020639231315222302 0 0.0071977871083746623 -0.0022317195026760727 0 0.0077880054952524517 -0.0020029638848176757 0 0.0078556924599347249 -0.0026414608556367767 0 0.0071977871083746623 -0.0022317195026760727 0 0.0077880054952524517 -0.0020029638848176757 0 0.0071977871083746623 -0.0022317195026760727 0 0.007356117818305005 -0.0017236284066288754 0 0.0077880054952524517 -0.0020029638848176757 0 0.007356117818305005 -0.0017236284066288754 0 0.00796144551945209 -0.0015101955854802699 0 0.007356117818305005 -0.0017236284066288754 0 0.0075462799121284114 -0.001096035243253049 0 0.00796144551945209 -0.0015101955854802699 0 0.0068477527778073692 -0.001398752955335495 0 0.006855894315059001 -0.0020639231315222302 0 0.007356117818305005 -0.0017236284066288754 0 0.0068477527778073692 -0.001398752955335495 0 0.0070060482932458538 -0.00082854150498827973 0 0.0075462799121284114 -0.001096035243253049 0 0.0068477527778073692 -0.001398752955335495 0 0.007356117818305005 -0.0017236284066288754 0 0.0075462799121284114 -0.001096035243253049 0 0.0075462799121284114 -0.001096035243253049 0 0.0082559294143254042 -0.00098852309746429992 0 0.00796144551945209 -0.0015101955854802699 0 0.0082559294143254042 -0.00098852309746429992 0 0.008491045381899362 -0.0013640669811968971 0 0.00796144551945209 -0.0015101955854802699 0 0.0082559294143254042 -0.00098852309746429992 0 0.0088443464409592408 -0.0009788862021604713 0 0.008491045381899362 -0.0013640669811968971 0 0.0090941266057713733 -0.001513934028795669 0 0.0088443464409592408 -0.0009788862021604713 0 0.008491045381899362 -0.0013640669811968971 0 0.008491045381899362 -0.0013640669811968971 0 0.0086832790835252409 -0.0017168662275702429 0 0.0082822849704692232 -0.0018115829978808326 0 0.0090941266057713733 -0.001513934028795669 0 0.008491045381899362 -0.0013640669811968971 0 0.0086832790835252409 -0.0017168662275702429 0 0.0089212777472372148 -0.0018901758560487788 0 0.0086118202134623425 -0.0020175361272599533 0 0.0086832790835252409 -0.0017168662275702429 0 0.0086118202134623425 -0.0020175361272599533 0 0.0086832790835252409 -0.0017168662275702429 0 0.0082822849704692232 -0.0018115829978808326 0 0.008491045381899362 -0.0013640669811968971 0 0.00796144551945209 -0.0015101955854802699 0 0.0082822849704692232 -0.0018115829978808326 0 0.0077880054952524517 -0.0020029638848176757 0 0.00796144551945209 -0.0015101955854802699 0 0.0082822849704692232 -0.0018115829978808326 0 
</DataArray>
</PointData>
<CellData Scalars="region_id,cross_section_updated," Vectors="" Tensors="stress,">
<DataArray type="Float64" Name="region_id" format="ascii">
5 5 5 6 6 5 5 5 5 5 5 5 5 5 5 5 5 5 5 5 5 5 5 5 5 5 5 5 5 5 5 5 5 5 5 5 5 5 6 5 5 5 5 5 5 5 6 5 5 5 5 5 5 6 5 5 5 5 5 5 5 6 5 5 6 5 5 5 5 5 5 5 6 5 6 5 5 6 5 5 5 5 5 5 5 5 6 5 5 5 5 5 5 5 6 5 5 5 5 5 5 5 6 5 5 6 5 5 5 6 5 5 5 5 5 5 6 5 5 5 5 5 5 5 5 5 5 5 5 5 5 5 5 6 5 5 5 5 5 5 5 5 5 5 5 5 5 5 5 5 5 5 6 5 5 6 5 5 5 5 5 6 5 5 5 5 6 5 5 5 5 5 5 5 5 5 5 5 5 5 6 5 6 5 5 5 5 5 5 6 5 5 5 5 5 6 5 5 5 5 5 5 5 5 5 5 5 5 5 5 5 5 5 5 5 5 5 5 5 5 5 5 6 5 5 5 5 5 5 5 5 5 5 6 5 5 5 5 5 5 6 5 5 5 6 5 5 5 5 5 5 5 5 6 6 5 5 5 5 5 5 6 5 5 5 5 5 5 5 5 5 5 5 5 5 5 5 5 5 5 5 5 5 5 5 5 5 5 5 6 5 6 5 5 5 5 6 5 5 5 5 5 5 5 6 5 5 5 5 6 5 5 5 5 6 5 5 5 6 5 5 5 5 5 5 5 5 5 5 5 5 5 5 5 5 6 5 5 5 5 5 5 5 5 5 6 5 5 5 5 5 5 6 5 5 5 5 5 5 5 5 5 5 6 5 5 5 5 5 5 5 5 5 5 5 5 5 5 5 5 5 5 5 5 5 5 6 5 6 5 5 5 5 5 6 5 5 5 5 5 5 6 5 5 5 5 5 5 5 5 6 5 5 5 5 5 6 5 6 6 5 5 5 5 5 5 5 6 5 5 5 5 5 5 5 5 5 5 5 5 5 5 5 5 5 5 5 5 6 5 5 5 5 5 5 5 5 5 5 5 5 5 5 5 5 5 5 5 5 5 5 5 5 5 6 5 5 5 5 5 6 5 5 5 5 5 5 5 6 5 5 5 5 5 5 5 5 5 5 5 5 6 5 5 5 5 5 5 5 5 5 5 5 5 5 5 5 5 5 5 5 5 5 5 5 5 5 5 5 5 5 6 5 5 5 6 5 5 5 6 6 5 5 5 5 5 5 6 5 5 5 5 6 5 5 5 5 5 5 6 5 5 5 5 5 5 5 6 5 5 5 5 5 5 5 5 5 5 5 5 6 5 6 5 5 5 6 6 5 6 5 5 5 5 6 5 5 5 5 5 5 5 5 6 6 5 5 5 5 6 5 5 5 5 5 5 5 5 5 5 5 6 5 5 5 6 5 5 5 5 5 5 5 5 5 5 5 5 5 5 5 5 5 5 5 5 5 5 6 5 5 5 5 5 6 5 6 5 5 5 6 5 6 5 6 5 5 6 6 5 5 5 5 5 5 5 5 6 5 5 5 5 5 6 6 5 5 5 5 5 5 5 5 5 5 5 5 5 5 5 5 5 6 5 6 5 5 6 5 6 5 5 5 6 6 6 5 5 5 5 5 5 6 5 6 5 5 5 5 5 5 5 5 5 5 6 5 5 5 5 5 5 6 5 5 5 6 5 5 5 5 5 5 5 5 5 5 5 5 6 5 5 5 5 5 5 5 5 5 5 5 5 5 5 5 5 5 5 6 5 5 5 6 5 5 5 5 5 5 5 5 5 5 5 5 5 5 5 5 5 5 5 5 6 5 5 5 5 5 5 6 5 6 5 5 5 5 5 5 5 6 6 5 5 5 5 5 5 5 5 5 5 5 5 5 5 5 5 5 5 5 5 5 5 5 5 5 5 5 5 5 5 5 5 6 5 5 6 5 5 5 5 5 5 5 5 5 5 5 5 5 5 5 6 5 5 5 6 5 5 5 5 5 5 5 5 5 5 6 5 5 5 5 5 5 5 5 5 5 5 5 5 5 5 5 5 5 5 5 5 5 6 5 5 5 5 5 5 5 5 5 5 5 5 5 5 5 5 5 5 5 5 5 5 5 5 5 5 5 5 5 5 5 5 5 5 5 5 5 5 5 5 5 5 5 5 5 5 5 5 5 5 5 5 5 5 5 5 5 5 5 5 6 5 5 5 5 6 5 5 5 5 5 5 5 5 5 5 5 5 5 5 5 5 5 6 5 5 6 5 5 5 5 5 5 5 5 5 5 5 5 5 5 6 5 5 5 5 5 5 6 5 5 5 5 6 5 6 5 5 5 5 5 5 5 5 5 5 5 5 6 5 6 6 5 5 5 5 6 5 5 5 5 5 6 5 6 5 5 5 5 6 6 5 5 5 5 6 5 5 5 5 5 5 5 5 5 5 5 6 5 6 5 5 5 5 5 5 5 6 6 5 5 5 5 5 5 5 5 5 5 6 5 5 5 5 5 5 5 5 5 6 5 6 5 5 5 5 5 5 5 5 6 5 5 6 5 5 5 5 5 5 5 5 5 6 5 5 5 5 5 5 5 5 5 5 5 5 5 5 5 5 5 5 5 5 5 5 5 5 5 5 5 5 5 5 5 5 5 5 5 5 5 5 6 6 5 5 5 5 5 5 5 5 5 6 5 5 5 5 5 5 5 6 5 6 5 5 5 5 5 5 5 6 5 5 5 5 5 5 6 5 5 5 6 5 5 5 5 6 5 5 5 6 5 5 6 5 6 5 5 5 5 5 5 5 6 5 5 5 5 5 5 5 5 5 5 5 6 5 5 5 5 5 5 6 5 5 5 5 6 5 5 6 5 6 5 5 5 5 6 5 6 5 6 5 5 5 6 5 5 5 5 5 6 5 5 6 5 5 5 5 5 5 6 5 5 6 5 5 6 6 6 5 5 5 6 5 5 5 5 5 6 5 5 5 5 5 6 5 5 5 5 5 5 5 5 5 5 5 5 5 5 5 5 5 5 5 5 5 5 5 5 5 5 5 5 5 5 5 5 5 5 5 5 5 5 5 6 5 5 5 5 5 5 5 6 5 5 6 6 5 5 5 5 5 5 5 5 5 5 5 5 5 5 5 5 5 5 6 5 5 5 5 5 5 6 5 5 5 5 5 5 5 6 5 5 5 5 5 5 5 5 6 5 5 6 5 6 5 6 6 5 5 5 5 6 6 5 6 5 6 5 5 5 5 6 5 6 5 5 5 5 6 5 5 5 5 5 5 5 5 5 6 5 5 6 6 5 5 6 5 5 5 6 5 6 5 5 5 6 5 6 5 5 5 5 5 5 5 5 5 5 5 5 5 5 5 5 5 5 5 5 5 5 5 5 5 5 5 5 5 5 5 5 5 5 5 5 5 5 5 5 5 5 5 5 5 5 5 5 5 5 5 5 5 5 5 5 5 5 5 5 5 5 5 5 5 5 6 5 5 5 5 5 5 5 5 5 5 5 5 5 5 5 5 5 5 5 5 5 5 5 5 5 5 5 5 5 5 5 5 5 5 5 5 5 5 5 5 5 5 5 5 5 5 5 5 5 5 5 5 5 5 5 5 5 5 5 5 5 5 5 5 5 5 5 5 5 5 5 5 5 5 5 5 5 5 5 5 5 5 5 5 5 5 6 5 5 5 5 6 5 5 5 5 5 5 6 5 5 5 5 5 5 6 5 5 5 5 6 5 5 5 6 5 5 5 5 5 6 5 6 5 6 5 5 5 5 5 5 5 5 5 5 5 5 5 5 5 6 5 5 5 5 6 5 5 5 5 5 5 5 5 5 5 5 5 5 5 5 5 5 5 5 5 5 5 5 6 5 5 5 5 5 5 5 5 5 5 6 5 6 5 5 6 5 6 6 5 6 5 5 5 5 5 6 6 5 6 5 5 5 5 6 5 5 5 5 5 5 6 5 5 5 5 5 5 5 5 5 5 5 5 5 5 6 5 5 6 5 5 5 6 5 6 5 5 5 5 5 6 5 5 5 5 6 5 5 5 5 5 6 5 5 5 5 5 5 5 5 6 5 5 5 5 6 5 5 5 5 6 5 5 5 5 5 5 5 5 6 5 5 6 5 5 5 5 5 6 5 5 6 5 5 5 5 5 5 5 5 5 5 5 5 5 5 5 6 5 5 5 6 6 5 5 5 5 5 5 5 6 5 5 5 5 6 5 6 5 5 6 5 5 6 6 5 6 5 5 6 5 5 6 5 5 5 5 5 5 5 5 6 6 6 5 5 5 6 5 5 6 5 5 5 5 5 6 5 5 6 5 6 6 5 5 6 5 5 5 5 5 6 5 5 5 6 5 5 6 5 6 6 6 6 5 5 5 5 5 6 5 6 5 6 6 5 5 5 6 5 5 5 5 5 5 5 6 5 5 5 5 5 6 5 6 6 5 5 5 6 6 5 5 5 5 5 5 5 5 5 5 5 5 5 5 5 5 5 5 5 6 5 6 6 6 5 5 5 5 5 6 5 5 5 5 5 5 5 5 5 5 6 5 5 5 5 5 5 5 6 5 6 5 5 5 5 5 5 5 5 6 5 6 5 5 5 5 5 5 5 5 6 5 5 5 5 5 5 5 5 5 5 5 5 5 5 6 5 5 5 5 5 5 5 6 5 5 6 5 5 5 5 5 5 5 5 5 5 5 5 5 5 5 5 5 5 5 5 5 5 5 5 5 6 5 5 5 5 5 5 5 5 5 5 6 5 6 5 5 5 5 5 5 5 5 5 5 5 5 5 5 5 5 5 5 6 5 5 5 5 5 6 5 5 5 5 5 5 5 5 5 5 5 5 5 6 5 6 5 5 6 6 5 6 5 5 6 5 6 5 5 6 5 5 5 5 5 5 6 6 5 6 5 5 6 5 5 5 6 5 5 6 5 5 5 5 5 5 5 5 6 5 5 5 6 5 5 5 5 5 5 5 5 5 5 5 5 6 5 6 5 5 5 5 5 6 5 5 5 5 5 5 5 5 5 5 5 5 5 5 5 5 5 5 5 5 6 5 5 5 5 5 5 5 5 6 5 5 5 5 5 5 5 5 5 6 5 5 5 5 5 5 5 5 5 6 5 6 5 5 6 5 5 6 5 6 6 5 6 5 5 5 5 5 5 6 6 5 5 5 5 5 5 5 5 5 5 5 5 5 5 6 5 5 5 5 5 5 5 5 5 5 5 6 5 5 6 5 5 5 5 5 6 5 5 6 5 5 5 5 5 5 5 5 5 5 5 6 5 5 5 5 5 6 5 5 6 5 5 5 5 6 5 5 5 5 5 5 5 5 5 5 5 5 6 5 5 5 5 5 5 5 5 5 5 6 5 5 5 5 5 5 5 5 5 5 6 5 5 6 5 5 5 5 5 5 5 5 5 5 5 5 5 5 5 5 5 6 5 6 5 5 5 6 5 6 5 5 5 5 5 5 5 5 5 5 5 6 5 5 6 5 5 6 5 5 5 5 5 5 5 6 5 6 5 5 5 5 5 5 5 5 5 5 5 5 5 5 5 5 5 5 5 6 6 5 5 5 5 5 5 6 6 5 5 5 5 5 5 5 5 5 5 6 5 5 6 6 5 5 6 5 5 6 5 5 6 5 6 5 6 5 5 5 5 5 6 5 5 5 5 5 5 5 5 6 5 5 5 5 5 5 5 5 5 5 5 5 5 5 6 5 5 5 5 6 5 5 5 5 5 5 5 5 5 5 6 5 5 5 5 5 6 5 6 5 6 6 5 5 5 6 5 5 5 6 5 5 5 5 6 5 5 5 5 5 5 6 5 5 6 5 5 5 5 5 5 5 5 5 5 5 5 6 5 5 5 6 5 5 5 5 5 5 5 5 5 6 5 5 6 5 6 5 6 5 5 5 5 5 5 5 6 5 6 5 5 5 5 5 5 6 5 5 5 6 5 5 5 5 5 5 5 5 5 5 5 5 5 5 5 5 5 5 5 5 5 5 6 5 5 5 5 5 5 6 5 5 5 5 5 6 5 6 5 5 5 5 5 5 5 5 5 6 5 5 5 5 5 6 5 5 5 5 5 5 5 5 5 5 5 5 5 5 5 5 6 5 5 5 5 6 5 5 5 5 5 5 5 5 5 6 5 5 5 5 5 5 5 5 5 5 6 5 5 5 5 5 5 5 5 5 5 5 5 5 5 5 5 5 5 5 6 5 5 6 5 5 6 5 6 5 5 5 5 5 6 5 5 5 5 5 5 5 5 5 5 5 5 5 5 5 5 6 5 5 5 5 5 5 6 5 5 5 5 5 5 6 5 5 5 5 6 5 5 5 5 5 5 6 5 5 5 5 6 5 5 5 5 5 5 5 5 5 5 5 5 5 5 5 5 5 5 6 5 5 5 5 5 5 5 5 5 5 5 5 6 6 6 5 5 5 5 5 6 5 5 5 5 5 5 6 5 5 5 6 6 5 5 5 5 5 6 5 5 5 5 6 5 5 5 5 5 5 5 6 5 5 6 5 6 5 5 5 5 5 5 5 6 5 5 5 5 5 6 5 5 5 5 5 6 6 5 5 5 5 5 5 5 5 6 5 5 5 5 5 5 5 5 5 5 5 5 5 5 5 5 5 5 5 5 5 6 5 5 5 5 5 5 5 5 5 6 5 5 5 5 5 5 5 5 5 5 5 5 5 5 5 6 5 5 5 5 5 5 5 5 5 5 5 5 5 5 5 5 5 5 5 5 5 5 5 5 5 5 5 5 5 5 5 5 5 5 6 6 5 5 5 5 5 5 5 5 5 5 6 6 5 5 5 5 6 5 5 5 5 6 5 5 5 5 5 5 6 5 5 5 5 5 5 5 6 6 5 5 5 5 6 6 5 5 5 5 5 5 5 5 6 5 5 5 5 5 5 5 5 6 5 5 5 6 5 5 5 5 6 5 5 5 5 5 6 5 5 5 5 5 5 5 5 5 5 5 5 6 5 6 5 5 5 6 5 5 6 5 5 5 6 5 6 5 5 5 5 5 5 5 5 5 5 5 5 5 5 5 5 5 5 5 5 5 6 5 5 5 5 5 6 5 5 5 5 5 5 5 5 5 6 5 5 5 5 5 5 5 5 5 5 6 5 5 5 5 6 5 5 5 5 5 5 5 5 5 5 5 5 5 5 5 5 5 5 5 6 5 5 6 5 5 6 5 6 5 5 6 5 5 6 5 5 5 5 5 5 6 5 5 5 5 5 5 5 5 5 5 6 5 5 5 5 6 5 5 5 5 5 5 5 6 5 5 5 5 5 5 6 5 5 5 5 5 5 5 5 6 5 5 5 6 5 5 5 5 5 5 6 5 5 5 5 5 5 5 5 5 5 5 6 5 5 5 5 5 5 6 5 5 5 6 5 5 5 5 6 5 6 5 6 5 5 5 5 5 5 5 5 5 5 5 5 5 5 6 5 5 5 6 5 5 5 5 5 5 5 5 5 5 5 5 5 5 5 5 5 5 5 5 5 6 5 5 5 5 5 5 5 5 5 5 5 5 6 5 5 5 6 5 5 5 5 5 6 5 6 5 5 5 6 5 5 5 5 5 5 6 5 6 5 5 5 6 6 5 5 5 5 5 5 5 5 5 5 6 6 6 5 5 5 5 6 6 6 5 5 6 6 5 5 6 5 5 5 5 5 5 6 5 5 5 5 5 5 6 5 5 5 5 5 5 6 5 5 6 5 5 5 5 5 5 5 5 5 5 6 5 5 5 5 5 5 5 5 5 5 5 5 5 6 5 5 5 5 5 5 5 6 5 5 5 6 5 5 5 5 6 5 5 5 5 5 5 5 5 6 5 6 5 5 5 6 5 6 5 5 5 5 5 5 5 5 6 5 5 5 6 6 5 5 5 5 5 6 6 5 5 5 5 5 5 5 5 6 6 5 5 5 5 5 5 5 6 5 5 5 5 5 5 5 5 6 5 5 6 5 5 5 6 5 5 5 5 6 5 5 5 5 5 5 5 5 5 5 5 6 5 5 5 5 5 5 6 5 6 5 5 6 5 5 5 5 5 5 5 6 5 5 5 5 5 5 5 6 5 6 5 6 5 5 5 6 5 5 5 5 6 6 5 5 5 6 5 5 5 6 5 5 5 6 5 5 5 5 5 5 5 5 5 5 5 5 5 5 5 5 5 5 5 5 5 5 5 5 5 5 5 5 5 5 5 6 5 5 5 5 5 5 5 5 5 5 5 5 5 5 5 5 5 5 5 5 5 5 5 5 5 5 5 5 5 6 5 5 5 5 6 6 5 5 5 5 5 5 6 5 5 5 5 5 5 5 5 5 6 5 5 5 5 5 5 5 5 5 5 5 5 5 6 5 5 5 5 5 5 5 5 5 5 5 5 5 5 5 5 5 5 6 5 5 5 6 6 5 5 6 5 5 5 6 5 5 5 6 6 5 5 5 5 6 5 5 6 6 5 5 6 5 5 5 5 5 5 5 5 5 5 5 5 5 6 5 6 5 5 5 5 5 6 5 6 5 5 5 5 5 5 5 5 5 5 5 5 5 5 5 5 5 5 5 5 6 5 5 5 5 5 5 5 5 5 5 5 5 5 5 5 5 5 5 5 5 5 5 5 5 5 5 5 6 5 5 5 5 6 5 5 5 5 5 6 5 5 5 5 5 5 5 5 6 5 5 5 5 5 5 5 5 6 5 5 5 5 6 5 5 5 5 6 5 5 5 5 5 5 6 5 5 5 6 5 5 5 5 5 6 6 5 6 5 5 6 5 5 5 5 5 5 6 5 5 5 5 5 6 5 5 5 5 5 5 5 5 5 5 5 5 5 5 5 5 5 5 5 5 5 5 6 6 5 5 5 6 5 5 5 5 5 5 6 6 5 5 5 5 5 5 5 5 5 5 5 5 5 5 5 5 5 5 5 5 5 5 5 5 5 6 5 5 5 5 5 5 5 5 5 5 5 5 5 5 5 6 5 5 5 6 5 5 5 5 5 5 5 5 5 5 6 5 5 5 5 6 5 6 5 5 6 5 5 5 5 5 5 5 5 5 5 5 5 5 5 5 6 5 5 5 5 5 5 5 5 5 5 5 5 5 5 5 5 5 5 6 5 5 5 5 5 5 6 5 5 5 5 5 5 5 5 5 5 5 5 5 5 5 5 5 5 5 5 5 5 5 6 5 5 5 5 5 5 5 5 5 6 5 5 5 5 5 6 5 5 5 6 5 5 5 5 5 5 5 5 6 5 6 5 5 5 5 5 5 5 5 6 5 6 6 6 5 5 6 5 5 6 5 5 5 5 6 6 5 5 5 5 6 6 5 6 5 5 6 5 6 5 5 5 5 5 5 5 6 6 5 6 5 5 6 5 5 6 5 5 5 5 5 5 5 5 5 6 5 5 5 6 5 5 5 5 5 5 6 5 5 5 5 6 5 5 5 5 5 5 5 5 6 5 5 5 5 5 5 5 5 5 5 5 5 5 5 5 5 5 5 5 5 5 5 5 5 5 5 5 5 5 5 6 5 5 5 5 5 5 5 5 5 5 5 5 5 5 5 5 5 5 5 5 6 5 5 6 5 5 6 5 6 5 6 5 6 6 6 5 5 5 5 5 5 6 5 6 5 5 5 5 5 6 5 6 5 6 5 5 6 5 6 6 5 6 5 5 5 6 6 6 5 5 5 6 6 5 5 6 5 6 5 5 5 5 6 5 6 5 5 5 5 5 5 5 5 5 5 5 5 5 5 5 5 5 5 5 5 5 5 6 5 5 5 5 5 5 5 5 5 5 6 5 5 5 5 5 6 5 5 5 6 5 6 5 5 6 5 5 6 6 6 5 5 5 5 5 5 5 5 5 5 5 5 5 5 5 5 5 5 5 6 6 5 5 5 5 6 5 5 6 5 5 5 5 5 6 5 5 5 5 5 5 5 6 5 5 6 5 5 5 5 5 5 5 5 5 5 5 5 5 5 5 6 5 5 5 5 5 5 5 5 6 5 5 5 5 5 5 5 5 5 6 5 5 5 5 5 5 5 5 5 5 5 5 5 5 5 5 6 5 5 5 5 5 5 6 5 5 5 6 6 5 5 5 5 6 5 5 6 5 5 5 6 5 5 5 5 5 5 5 5 5 5 5 5 5 5 5 6 5 5 5 5 5 5 5 5 5 5 5 5 5 5 5 5 5 5 5 5 5 5 5 5 5 5 6 5 5 5 6 5 6 5 5 5 5 6 5 5 5 5 5 5 5 5 5 5 5 5 5 5 5 5 5 5 5 6 5 5 5 5 6 5 5 5 5 5 5 5 6 5 5 5 5 5 5 5 5 6 5 5 5 5 5 5 5 5 5 5 5 5 5 5 6 5 5 5 5 5 6 6 5 5 6 5 5 5 6 5 6 5 5 6 5 6 5 5 5 6 6 5 6 6 6 5 5 5 5 5 5 6 5 5 5 5 5 5 5 5 5 5 5 5 5 5 6 5 5 5 6 5 5 5 5 5 5 5 5 6 5 5 6 5 6 5 5 5 5 5 5 5 6 5 6 5 5 5 5 5 5 5 5 5 5 5 5 5 5 5 5 5 5 5 5 5 5 5 5 5 5 5 5 5 5 5 5 5 5 5 5 5 5 5 5 5 5 5 6 6 5 5 5 5 5 6 5 5 5 5 5 5 6 5 6 5 5 6 5 5 5 6 5 6 5 5 5 5 5 5 5 5 5 5 5 5 5 5 5 5 5 5 5 5 5 5 5 5 5 5 5 5 5 5 5 6 6 5 6 5 5 5 5 5 6 5 5 6 6 6 5 5 5 6 5 6 6 5 5 5 5 5 6 5 6 5 6 5 5 6 5 6 6 5 6 5 5 6 5 5 6 6 5 5 6 5 5 5 6 5 5 5 5 5 5 5 5 5 5 5 5 5 5 6 5 5 5 5 6 5 5 5 6 5 5 6 5 5 5 5 5 5 5 5 5 5 6 5 5 5 6 5 5 5 6 5 5 5 5 6 5 6 5 5 6 5 5 5 5 5 6 5 5 5 5 5 5 5 5 5 5 5 5 6 5 5 5 5 5 5 5 5 5 5 5 5 5 6 6 5 5 6 5 5 6 6 5 6 6 5 5 5 5 5 5 5 5 5 6 5 5 5 6 5 6 6 5 5 6 5 5 5 6 5 5 5 6 5 5 5 5 5 5 5 5 5 6 5 5 5 5 5 5 5 6 5 5 5 5 6 6 6 5 6 5 5 5 6 5 5 5 5 5 6 5 5 5 6 5 6 5 5 5 5 5 5 6 5 6 5 5 5 5 5 5 5 6 5 6 5 6 5 5 5 5 5 5 5 6 5 5 6 5 5 5 5 5 5 5 5 6 5 5 6 5 5 5 5 5 6 5 5 5 6 5 5 5 5 5 5 5 5 5 5 5 5 5 5 6 5 5 6 5 5 5 5 6 5 5 5 6 5 6 5 5 5 5 5 5 5 5 5 5 5 5 5 5 5 5 5 5 6 5 5 5 5 5 5 5 5 5 5 5 5 5 6 5 5 5 5 5 5 5 5 5 5 5 5 5 5 5 5 5 5 5 6 5 6 5 5 6 5 6 5 5 5 6 6 5 5 6 5 5 5 5 6 5 5 5 6 5 5 6 5 5 5 5 6 5 5 5 5 5 5 5 5 5 5 5 5 5 5 5 5 5 5 5 5 5 5 5 5 5 5 6 5 5 5 5 5 6 5 5 6 5 5 5 5 5 5 5 6 6 5 5 5 6 5 5 5 6 5 5 6 5 5 5 5 6 6 6 5 5 5 5 6 6 5 6 5 6 6 6 6 5 6 5 5 5 5 5 6 5 5 5 6 5 5 5 5 5 5 5 5 5 5 5 6 5 5 5 5 6 5 6 5 5 5 5 6 5 5 5 5 5 6 5 5 5 6 5 5 6 5 5 5 5 6 5 5 6 5 5 6 5 5 5 5 5 5 5 5 5 5 5 5 5 5 5 5 6 5 5 5 5 5 5 5 5 5 5 5 5 6 6 6 5 5 5 5 5 6 6 5 5 5 5 5 5 6 6 6 5 5 5 5 6 5 5 5 5 6 5 6 5 5 5 5 6 5 5 5 5 5 5 5 5 5 5 5 5 5 5 5 5 5 5 5 5 5 5 5 5 5 6 5 5 5 6 5 5 6 5 6 5 5 5 5 6 6 5 6 5 6 5 5 5 5 6 5 6 5 5 5 6 5 5 5 5 5 5 5 5 5 5 5 5 6 5 5 6 5 5 5 6 5 6 5 5 5 5 5 6 5 5 5 5 5 5 5 5 5 5 5 5 5 5 5 5 6 5 5 5 5 6 5 5 5 5 5 5 5 5 5 5 5 5 5 5 5 5 5 5 6 5 5 5 5 5 6 5 5 6 5 5 6 5 5 5 5 6 5 6 5 5 5 5 5 5 5 5 5 5 5 5 5 6 5 5 5 5 5 6 5 5 5 5 5 5 5 5 5 5 5 5 5 6 5 5 5 6 5 6 5 5 5 6 5 5 5 5 5 5 5 5 5 5 5 5 5 6 5 5 5 5 5 5 5 5 5 5 5 5 5 5 5 5 5 6 6 5 5 6 5 5 5 5 6 5 5 5 6 6 5 5 6 5 5 5 5 5 5 5 5 5 5 5 5 6 5 6 5 5 6 6 6 5 5 6 5 5 5 5 5 6 5 6 5 6 5 6 5 5 5 5 5 6 5 6 5 5 5 5 6 5 5 6 6 6 5 5 6 5 5 5 5 5 6 5 5 5 5 5 5 5 5 5 5 5 6 6 5 6 5 5 5 6 5 5 5 6 6 5 5 6 5 6 5 5 5 6 5 5 5 5 5 6 6 5 6 5 5 5 5 5 5 5 5 5 5 5 5 6 5 5 5 6 5 5 5 5 5 5 5 5 5 5 6 5 5 5 5 5 5 5 5 5 5 6 5 5 5 5 5 5 5 5 6 5 6 5 5 5 5 6 6 5 5 6 5 5 6 5 6 5 5 5 5 5 6 5 5 5 5 5 5 5 5 6 5 5 5 5 6 5 6 6 5 5 5 5 5 5 6 5 6 5 5 5 5 6 5 6 5 6 5 5 5 6 5 5 5 5 5 6 6 6 5 6 5 5 5 5 5 6 5 5 5 5 5 5 5 5 5 5 5 5 5 5 5 5 5 5 5 5 5 6 5 5 5 5 5 5 5 6 5 5 6 5 5 5 5 5 5 5 5 5 6 5 5 5 5 5 5 6 5 5 5 6 5 5 5 5 5 5 5 5 6 5 5 5 6 5 5 5 5 5 5 6 5 6 5 5 6 5 5 5 6 5 5 5 5 5 6 5 6 5 6 6 5 5 5 6 5 5 6 6 5 6 5 6 5 5 5 6 5 5 5 5 5 5 6 5 5 5 5 5 6 6 5 5 5 5 5 5 5 6 5 6 5 6 5 5 5 6 5 5 5 5 5 5 6 5 6 5 5 5 6 5 5 5 5 5 5 5 5 5 5 5 6 5 5 5 5 5 5 5 5 5 5 5 5 5 6 5 5 6 5 5 5 5 5 5 5 5 5 5 5 5 5 5 6 5 5 5 5 6 5 5 5 5 5 5 5 5 5 5 5 6 5 5 5 5 5 5 5 5 6 6 5 5 5 5 5 5 6 5 5 6 5 5 5 5 5 5 5 5 5 5 5 5 5 5 5 5 5 5 5 5 5 5 6 5 6 5 5 5 5 5 5 5 5 5 5 5 5 6 5 5 5 5 5 5 5 5 5 5 5 5 5 5 5 5 5 5 5 5 6 5 5 5 6 5 5 5 5 5 6 5 5 5 5 6 5 5 5 6 5 5 5 6 5 6 5 6 6 5 5 5 5 5 5 5 6 6 5 6 6 6 5 6 6 6 5 5 5 5 5 5 5 5 5 5 5 5 5 5 6 5 5 5 6 5 5 5 5 6 5 5 6 6 5 6 5 5 5 5 6 6 6 5 5 5 5 5 5 5 5 6 5 5 5 5 5 5 6 5 5 5 5 5 6 5 6 5 6 5 5 5 5 5 6 5 5 6 5 5 5 5 6 5 5 6 5 5 5 5 5 5 5 6 5 6 5 6 5 6 5 5 6 5 5 5 5 5 6 6 5 5 5 5 5 6 5 5 6 5 5 5 5 5 6 5 5 5 5 5 5 5 5 6 5 5 5 5 5 6 5 5 5 5 5 5 6 5 5 5 5 5 6 5 5 5 5 5 5 5 5 5 5 5 5 5 5 5 5 6 5 5 6 5 5 6 5 6 5 5 5 5 5 5 5 5 6 5 5 5 6 6 5 6 5 6 5 6 5 5 5 6 5 5 5 5 6 6 5 5 5 5 6 5 5 5 5 5 5 6 5 6 6 5 5 5 6 5 5 5 5 5 6 6 5 6 6 5 6 5 5 6 5 6 5 5 5 6 5 5 5 5 5 5 5 5 5 5 5 5 5 6 5 6 6 5 5 6 5 5 5 6 5 5 5 5 5 6 6 5 6 5 5 5 6 5 5 5 6 5 5 5 6 5 5 6 5 5 6 5 5 5 5 5 5 5 5 5 6 5 5 5 5 5 5 5 5 5 6 5 5 5 6 6 5 5 5 5 5 5 5 5 5 5 6 5 5 6 6 6 5 5 5 5 5 5 5 5 5 5 5 5 5 5 6 5 5 5 5 6 5 6 5 6 5 5 5 5 5 5 5 5 5 5 5 5 5 5 5 5 5 5 5 5 5 5 5 5 5 5 5 5 5 5 5 5 6 5 5 5 5 5 5 5 5 5 5 5 6 5 5 5 5 5 5 5 5 5 5 5 6 5 5 5 5 6 5 5 5 6 5 5 5 6 5 6 5 6 6 5 5 5 5 5 5 5 5 5 5 5 5 5 5 6 5 5 5 5 5 5 5 5 6 6 5 5 5 5 5 5 6 5 5 5 5 5 5 6 6 5 5 6 6 5 5 5 5 5 6 5 5 5 5 5 6 5 6 5 5 5 5 5 6 5 6 5 6 5 5 5 5 5 5 6 6 6 5 6 5 6 5 5 5 5 6 5 5 5 5 5 5 6 5 5 5 5 5 5 5 5 5 5 5 5 5 6 5 5 5 5 5 6 5 5 5 5 5 5 6 5 5 6 6 5 5 5 5 5 5 5 5 5 5 6 5 5 5 5 5 5 5 5 5 5 5 5 5 6 5 5 5 5 5 5 5 6 5 5 5 5 6 6 6 5 6 5 5 5 6 5 5 6 5 5 5 5 5 5 5 5 6 5 5 6 5 5 5 5 6 5 5 5 5 5 5 5 6 5 6 5 6 5 5 5 6 6 5 5 5 6 5 6 5 5 5 6 5 5 5 6 5 5 5 5 5 6 5 5 5 5 5 5 6 6 5 5 6 5 5 5 5 6 6 5 5 6 5 6 5 5 6 6 5 5 5 5 5 6 5 5 5 5 5 5 6 5 6 5 5 5 5 5 5 5 5 5 5 5 5 5 5 5 6 5 6 5 5 5 5 5 5 6 5 6 5 6 5 5 5 6 6 5 5 5 5 5 5 5 5 5 5 6 5 5 5 5 5 5 5 5 5 5 5 5 5 5 5 5 5 5 5 5 5 5 5 5 5 5 5 5 5 5 5 5 5 5 5 5 5 5 5 5 5 5 5 5 5 5 5 5 5 5 5 5 5 5 5 5 5 5 5 5 5 5 5 5 5 5 5 6 6 5 5 5 5 5 5 5 5 6 5 5 6 5 5 6 5 5 5 5 5 5 6 5 5 6 5 5 5 5 5 5 5 5 5 5 6 5 5 5 5 5 5 5 5 6 5 5 5 5 5 5 5 5 5 5 5 5 6 5 5 5 5 5 5 5 5 5 6 5 5 5 6 5 5 5 5 5 5 5 5 6 5 5 5 5 5 5 5 5 5 5 5 5 5 5 5 5 5 5 5 5 5 5 6 5 5 5 5 5 5 5 5 5 5 5 5 6 6 5 6 5 5 5 5 5 5 5 5 6 5 5 5 5 5 5 5 5 5 5 5 5 5 5 5 5 5 5 5 6 5 5 5 5 5 5 6 5 5 5 5 5 5 5 5 6 5 5 5 5 5 5 5 5 5 5 5 5 6 5 6 5 5 5 6 5 5 5 5 5 5 5 6 5 5 5 5 5 5 5 5 5 5 5 6 5 5 5 5 5 6 5 5 6 5 5 5 5 5 5 5 5 6 5 5 5 5 5 5 5 5 5 6 5 6 5 5 5 5 5 5 5 5 5 5 5 5 5 5 5 5 6 6 5 5 5 5 5 5 6 5 6 5 5 5 5 5 5 5 5 5 6 5 5 5 5 5 5 5 5 6 5 5 5 5 6 6 5 5 5 5 5 5 5 5 5 5 5 5 5 5 5 5 5 5 5 5 5 5 6 5 5 5 6 5 5 5 5 5 5 5 5 6 5 5 5 5 6 5 5 5 6 5 5 5 5 5 5 6 5 5 5 5 5 5 5 5 5 5 5 5 5 5 6 5 5 5 5 5 5 5 5 6 5 5 5 6 5 5 5 5 6 5 5 5 5 5 5 5 5 5 5 5 6 6 5 6 5 5 6 5 5 5 5 5 5 5 5 5 5 5 5 5 5 5 5 5 5 5 5 5 5 5 6 5 5 5 5 5 5 5 5 5 5 5 5 5 5 5 5 5 5 5 5 5 5 5 5 5 5 5 5 5 5 5 5 5 5 5 5 5 5 5 5 5 5 5 5 5 5 5 5 5 5 5 6 5 5 5 5 5 5 5 5 5 6 5 5 5 5 5 5 5 5 5 6 5 5 5 5 5 5 5 5 5 5 5 6 6 5 5 5 5 5 6 5 6 5 5 6 5 5 6 5 5 5 5 5 5 5 5 5 5 6 5 5 5 5 5 5 5 5 5 5 5 5 5 5 5 5 5 5 5 5 5 5 5 5 5 5 5 6 6 5 6 6 5 5 5 5 5 5 5 5 5 5 5 5 5 5 5 5 5 6 5 6 5 6 5 5 5 5 5 5 5 6 6 5 6 5 5 5 5 5 5 5 5 6 5 5 5 5 5 5 5 5 5 5 6 5 5 5 5 5 5 5 5 5 5 5 5 5 6 5 5 5 5 5 5 5 6 5 5 6 5 5 5 5 5 5 5 6 5 6 5 5 6 5 5 5 5 6 5 5 5 5 5 5 5 5 5 5 5 5 5 5 6 5 6 6 5 5 6 5 5 5 5 6 5 5 5 5 5 5 5 5 6 5 6 5 5 5 5 5 5 5 5 5 6 5 5 6 5 5 6 5 5 5 5 5 5 6 6 5 5 6 5 6 5 5 5 5 5 5 5 5 5 5 5 5 6 5 5 5 5 6 5 5 5 5 5 5 5 5 5 5 5 5 5 5 5 5 5 5 5 5 6 5 5 5 6 5 5 5 5 6 5 5 6 5 5 6 6 5 5 5 5 5 5 5 5 5 5 5 5 5 5 5 5 5 6 5 5 5 5 5 5 5 5 5 6 5 6 5 5 6 6 5 5 5 5 5 5 5 6 5 5 5 6 5 5 5 6 5 6 6 5 5 5 5 5 5 5 5 5 5 5 5 5 5 5 6 5 5 5 5 5 5 6 5 5 6 5 5 5 6 5 5 5 5 5 5 5 5 5 5 5 5 5 5 5 5 5 5 5 5 5 5 5 5 5 5 5 5 5 5 5 6 5 5 5 5 5 5 6 5 5 5 5 5 5 5 5 5 5 5 5 6 5 6 5 5 5 5 5 5 5 5 5 5 5 5 5 5 5 6 5 5 5 5 5 5 5 5 5 5 5 5 5 5 5 5 5 5 5 5 5 5 5 6 5 5 5 5 5 5 5 5 5 5 5 5 5 5 5 5 5 5 5 5 5 5 5 5 5 5 5 5 5 5 5 5 6 5 5 5 5 5 5 5 6 5 5 5 5 6 5 5 5 5 5 6 5 5 5 5 5 5 5 5 5 6 5 6 5 5 5 5 5 5 5 5 5 5 5 5 5 6 5 5 6 5 6 5 6 5 5 5 5 5 5 5 5 5 5 5 5 5 5 5 5 5 5 5 5 5 5 5 5 5 5 5 5 5 5 5 6 5 5 5 5 5 5 5 5 5 5 5 5 5 5 5 5 5 5 5 5 5 6 5 5 5 5 5 5 6 5 5 6 5 5 5 5 6 5 5 5 5 5 6 5 5 5 5 5 5 5 5 5 5 5 5 5 5 5 5 5 5 5 6 5 5 6 5 5 5 5 5 5 5 5 6 5 5 5 6 5 5 5 5 5 5 6 6 6 5 5 5 5 5 5 5 5 5 5 5 5 6 5 5 5 5 5 5 5 5 5 5 5 5 5 5 5 5 5 5 5 5 5 5 5 5 5 5 5 5 5 5 6 5 5 5 5 5 5 5 5 5 5 5 6 5 5 5 6 6 5 5 5 5 5 6 6 6 5 5 6 5 5 6 5 5 5 5 5 5 5 5 5 5 5 5 6 5 5 5 5 5 5 5 5 5 5 5 5 5 5 5 5 6 5 5 5 5 5 5 6 5 5 5 5 5 5 6 6 5 6 6 5 5 5 5 5 5 5 5 5 5 6 5 6 6 6 5 5 5 5 5 5 5 5 5 6 5 5 5 5 5 5 5 5 6 5 5 5 5 5 6 5 5 5 5 5 5 5 5 5 5 5 5 5 5 5 5 5 5 5 5 5 5 5 5 5 6 5 5 5 5 5 5 5 5 5 5 5 5 5 5 6 5 5 5 6 5 6 6 5 5 6 5 5 5 5 5 5 5 5 5 5 5 5 5 5 5 5 5 6 5 5 5 5 5 6 5 5 5 6 5 6 5 5 5 5 5 5 6 6 5 5 5 6 6 5 5 5 6 6 5 5 5 5 5 6 6 5 6 5 5 5 5 5 5 5 5 5 6 5 5 5 5 5 5 5 5 5 5 5 5 6 6 5 5 5 5 5 5 6 5 5 5 5 6 5 5 5 5 5 6 5 5 5 5 5 5 5 5 5 5 6 5 5 6 5 5 6 5 5 5 5 5 5 5 6 5 5 5 6 5 5 5 5 5 5 5 5 5 5 5 5 5 5 6 6 5 5 5 5 6 5 5 5 5 5 5 5 5 5 5 6 5 5 6 5 5 6 6 5 5 5 5 5 6 6 5 6 5 5 5 5 5 5 6 5 5 5 6 6 5 5 6 5 5 5 6 5 5 5 6 5 6 5 5 6 6 5 5 6 6 5 5 5 5 5 5 5 5 6 5 6 5 6 5 6 5 5 5 5 5 5 5 5 5 5 5 5 5 5 6 5 5 5 5 6 5 5 5 6 5 5 5 6 5 5 5 5 5 6 5 5 5 5 6 5 5 5 5 5 6 5 5 5 5 6 5 5 5 5 5 6 5 5 5 5 5 5 5 5 5 5 5 6 5 5 5 6 5 5 5 5 5 5 5 5 5 6 5 5 5 5 6 5 5 6 5 5 5 5 5 5 5 5 5 5 5 5 5 5 5 5 5 5 5 5 6 5 5 5 5 5 6 5 5 5 5 5 5 5 5 5 5 5 5 5 5 6 5 5 5 5 5 5 6 5 5 5 5 5 5 5 6 6 5 5 5 5 6 5 6 5 5 5 5 5 5 5 6 5 5 5 5 6 5 5 5 5 5 5 5 5 5 5 5 5 6 5 5 5 5 5 5 5 5 5 5 5 5 5 5 5 5 5 5 5 5 5 5 5 5 5 5 5 5 5 5 5 5 5 5 5 5 5 5 5 5 5 5 5 5 5 5 5 5 5 5 5 5 5 5 5 5 5 5 5 5 5 5 5 5 5 5 5 5 5 5 5 5 6 5 6 5 5 5 5 6 5 5 6 5 5 6 5 5 5 5 6 5 5 5 5 5 5 5 5 5 5 5 5 5 5 5 5 5 5 5 5 5 5 6 5 5 5 6 5 5 5 5 6 5 5 5 5 5 5 6 5 5 5 5 5 5 5 5 5 5 5 5 5 5 5 5 5 5 5 5 5 5 5 5 5 5 5 5 5 5 5 5 5 5 5 6 5 5 6 5 5 5 6 5 5 5 5 5 5 6 5 5 5 5 5 5 5 6 5 5 5 5 5 5 5 5 5 5 6 5 5 5 5 6 6 5 5 5 5 5 5 6 5 6 5 6 5 5 5 5 5 5 5 5 6 6 5 5 5 5 5 5 5 5 5 5 5 5 5 5 5 5 5 5 5 5 5 5 5 5 5 5 5 5 5 5 5 5 5 5 5 5 5 5 5 5 5 5 5 5 5 5 5 5 5 5 5 5 5 5 5 5 5 6 5 5 5 5 5 5 5 5 6 5 5 6 5 6 5 6 5 5 5 5 5 5 5 6 5 5 5 5 5 6 5 5 5 5 6 5 5 5 5 5 5 5 5 5 5 6 5 5 5 5 5 5 5 5 5 5 5 5 6 5 5 6 5 6 5 5 5 5 6 5 5 5 5 6 5 5 6 5 5 5 6 6 5 5 5 5 5 5 5 5 6 5 5 5 5 5 5 6 5 6 6 5 5 6 6 5 6 5 5 6 5 5 5 5 6 5 5 5 5 5 6 5 5 5 5 5 5 5 5 5 5 5 5 5 5 5 6 6 5 6 5 5 6 5 5 5 5 6 5 5 5 5 5 5 5 6 5 5 5 5 5 5 6 5 5 5 5 6 5 6 5 5 5 5 5 5 5 6 6 5 5 5 5 5 5 5 5 5 5 5 6 5 5 5 5 5 5 6 5 6 5 5 5 5 6 6 5 5 5 5 6 5 6 5 5 5 5 5 5 6 6 5 6 6 5 5 5 5 5 5 5 6 5 5 5 5 5 5 5 5 5 5 6 5 5 5 5 5 5 5 5 5 6 5 5 5 5 5 5 5 5 5 5 5 5 5 5 5 6 5 5 5 5 5 5 5 5 6 5 5 6 6 5 5 5 5 5 5 5 6 5 5 5 5 6 5 5 5 5 5 5 6 6 5 5 5 5 5 5 5 5 6 5 5 5 5 6 5 5 5 6 5 5 5 6 5 6 6 5 5 5 6 5 5 5 6 5 6 6 6 5 5 5 6 6 6 5 5 6 6 5 6 5 5 5 5 6 5 5 6 5 5 5 6 5 5 6 6 5 5 5 5 5 5 5 5 5 5 5 5 5 5 6 5 6 5 5 5 5 5 5 6 5 6 6 5 5 6 5 5 6 5 6 5 6 5 5 5 6 5 6 5 6 5 6 5 5 5 6 5 5 5 5 5 5 6 5 6 5 5 6 5 5 5 5 5 5 5 6 5 6 5 5 5 5 5 5 5 5 5 5 5 6 5 5 5 5 5 5 5 5 5 5 5 5 5 5 6 5 5 5 5 5 5 5 5 5 5 5 5 5 5 5 5 5 5 5 5 5 5 5 5 5 5 5 5 5 5 5 5 5 5 5 5 5 5 5 5 5 5 5 5 5 5 5 5 5 5 5 5 5 5 5 5 5 5 6 5 5 6 6 5 5 5 5 5 5 5 5 5 5 5 5 6 5 5 5 5 5 6 6 5 5 5 6 6 5 5 5 5 5 5 6 5 5 5 5 5 5 5 5 6 5 5 5 5 5 5 5 5 5 5 5 5 6 5 5 6 5 5 5 6 5 5 5 5 5 5 5 5 5 5 6 5 5 5 6 5 6 5 5 5 5 5 5 5 5 5 5 5 5 5 5 5 5 5 6 5 5 5 5 5 5 5 5 5 5 5 5 5 5 5 5 6 5 5 5 5 5 6 5 5 5 5 5 5 6 5 5 6 5 5 5 5 5 5 5 5 5 5 5 5 5 5 5 5 5 5 5 5 5 5 5 5 5 5 5 5 5 5 5 5 5 5 5 5 5 6 5 5 6 5 5 5 5 6 5 5 5 5 5 5 5 5 5 5 5 6 5 5 5 5 5 5 5 5 5 5 5 5 5 5 5 5 5 5 5 5 5 5 5 5 6 5 5 5 5 5 6 5 5 5 5 5 5 5 5 5 5 5 5 6 5 5 5 5 5 5 6 5 5 5 5 5 5 5 5 6 5 6 5 5 5 5 5 5 5 5 5 5 5 5 5 5 5 5 5 5 5 6 5 5 5 5 5 5 6 6 5 5 5 5 5 5 5 5 5 5 5 5 5 5 5 5 5 5 5 5 6 5 6 5 5 5 5 6 5 5 5 5 5 5 5 5 5 5 5 6 5 5 5 6 5 5 5 5 5 5 5 5 5 5 5 5 6 5 5 5 5 5 5 5 6 5 5 5 5 6 5 5 5 5 5 6 5 5 5 6 5 5 5 5 5 5 5 5 5 5 5 5 5 5 5 5 5 5 5 5 5 5 5 6 5 5 5 6 5 5 5 5 6 5 5 5 6 5 5 5 5 5 5 5 5 5 6 5 5 5 5 5 6 5 6 5 5 5 5 5 5 5 5 5 5 5 5 5 5 5 6 5 5 5 6 5 5 5 6 5 5 5 5 5 5 5 5 5 5 5 6 5 5 5 5 5 5 5 5 5 5 5 5 5 5 5 5 5 5 5 5 5 5 5 5 5 5 5 5 5 5 5 6 5 5 5 5 5 5 5 5 5 5 5 5 5 5 5 5 5 5 5 5 5 5 5 5 5 5 5 5 5 5 5 5 5 5 5 5 5 5 5 5 5 5 5 5 5 5 5 5 5 5 5 5 5 6 5 6 5 5 6 5 5 5 6 5 5 5 6 5 6 5 5 5 5 5 5 5 6 5 5 6 5 5 5 6 5 6 5 5 5 6 5 5 5 6 5 5 5 6 5 6 5 5 6 5 6 5 5 5 5 6 5 6 5 5 5 5 6 5 5 5 5 5 5 5 5 5 5 5 6 5 5 5 5 5 5 5 5 5 5 5 5 5 5 5 5 5 5 5 5 5 5 5 6 5 5 6 5 6 5 6 5 5 5 5 6 5 6 5 5 5 5 5 6 5 5 5 5 5 5 5 5 5 5 5 6 5 5 5 6 5 6 6 5 5 6 6 5 5 6 5 5 5 6 5 5 6 6 5 5 5 5 5 5 5 5 5 5 5 5 5 5 5 5 5 5 5 5 5 5 5 5 6 5 5 5 5 5 5 5 6 5 5 5 5 5 5 5 5 5 5 5 5 5 5 5 5 6 5 5 5 6 5 5 5 5 5 5 5 6 5 5 5 5 5 5 5 5 5 5 6 5 5 5 5 5 5 5 5 5 5 6 5 5 5 5 5 5 5 5 5 5 5 5 5 5 5 5 5 6 5 5 5 5 5 6 5 5 6 5 6 5 5 5 5 5 5 5 5 5 5 5 5 5 5 5 5 5 5 5 5 5 5 5 5 5 5 5 5 5 5 5 5 5 5 5 5 5 5 5 5 5 5 5 5 5 5 5 5 5 5 5 5 5 5 5 5 5 6 5 5 5 5 5 5 5 5 5 5 5 5 5 5 5 6 5 5 5 5 5 5 5 5 5 5 5 5 5 5 5 5 5 5 5 5 5 5 5 5 5 6 5 6 5 5 5 5 5 5 5 5 6 5 5 5 5 5 5 5 5 5 5 5 5 5 5 5 5 5 6 5 5 5 6 5 5 5 5 5 5 5 5 6 6 5 5 6 5 5 5 5 5 5 5 5 5 5 5 5 5 5 5 5 5 5 5 5 5 5 5 5 5 5 5 5 5 5 5 5 5 5 5 5 5 5 5 5 5 5 5 5 5 5 5 5 6 5 5 6 5 5 5 5 5 6 5 5 5 6 5 5 5 6 5 5 5 6 5 5 5 5 5 5 5 5 5 6 5 5 5 5 5 6 5 5 5 5 5 5 5 5 5 5 5 5 5 5 5 5 5 5 5 5 5 5 5 6 5 5 5 5 6 5 5 5 5 5 5 5 5 5 5 5 5 5 5 6 5 5 5 5 5 5 6 5 6 5 5 5 6 5 5 5 5 5 5 5 5 5 6 5 5 5 5 5 5 5 6 5 5 5 5 5 5 5 5 5 5 5 5 5 5 6 5 6 6 6 5 5 5 5 5 5 6 5 5 5 5 6 5 5 5 5 5 5 5 5 6 5 5 6 6 5 5 6 5 5 5 5 6 5 5 5 5 5 5 5 5 6 5 5 6 6 5 6 5 5 5 5 5 5 5 5 5 5 5 5 5 5 5 5 5 5 5 5 5 5 5 5 6 6 5 5 6 5 5 5 5 5 5 6 5 5 5 5 5 5 5 5 5 5 5 5 5 6 5 5 5 5 5 5 6 5 5 5 6 5 5 5 5 5 5 5 5 6 5 5 5 5 5 5 5 5 5 6 5 5 6 5 5 6 5 6 5 5 6 5 5 6 5 5 6 5 5 5 6 6 5 5 5 6 5 6 5 5 6 5 5 5 5 6 6 5 6 5 5 5 5 5 5 5 5 5 5 5 5 5 5 5 5 5 5 5 6 5 5 5 5 6 5 5 5 5 5 5 5 5 5 5 5 5 5 5 5 5 5 5 5 5 5 5 5 5 5 5 5 5 5 5 
</DataArray>
<DataArray type="Float64" Name="stress" NumberOfComponents="9" format="ascii">
1397.9537679362948 -42.205870661758297 0 -42.205870661758297 -266.26280404512949 0 0 0 0 984.40634182972281 -224.01620258346165 0 -224.01620258346165 0.4032903512487061 0 0 0 0 2494.3986183413872 -1077.6968277194837 0 -1077.6968277194837 -66.724043677817306 0 0 0 0 4.0588158385677673 -0.9668754619132045 0 -0.9668754619132045 -1.2685163347180615 0 0 0 0 5.7657210726621315 -1.6206750877941261 0 -1.6206750877941261 -2.1159007035341237 0 0 0 0 697.84345098177073 -532.91895538532356 0 -532.91895538532356 473.63076530701517 0 0 0 0 -67.148924827946757 -158.94837247075986 0 -158.94837247075986 151.74011665817775 0 0 0 0 708.02617701980034 -554.13474658286805 0 -554.13474658286805 -295.44689694343782 0 0 0 0 2481.8690480185687 -1186.580668357858 0 -1186.580668357858 -154.1073585567238 0 0 0 0 -3.3059562600683421 10.770837481318381 0 10.770837481318381 68.383820145576635 0 0 0 0 474.29881464371647 -124.27007326559698 0 -124.27007326559698 35.814509919154375 0 0 0 0 738.88149966995115 -651.18303405180814 0 -651.18303405180814 190.20677552469527 0 0 0 0 267.15398390194241 -191.88566029612537 0 -191.88566029612537 389.26270330401047 0 0 0 0 524.96478809011023 -166.59205010982467 0 -166.59205010982467 167.89991718769323 0 0 0 0 1152.2893669412297 -396.99219857348271 0 -396.99219857348271 165.63901568665571 0 0 0 0 955.39954476203275 -1058.8583547196729 0 -1058.8583547196729 715.43035169864152 0 0 0 0 477.89534801863192 -203.85244809319417 0 -203.85244809319417 173.23137149902988 0 0 0 0 455.56980555962218 -72.569860652951306 0 -72.569860652951306 38.351907484869308 0 0 0 0 401.89455576498221 -26.597010418483428 0 -26.597010418483428 0.085430110001722653 0 0 0 0 381.59146565815172 -16.054582395379025 0 -16.054582395379025 27.075872855200387 0 0 0 0 375.34326453658105 16.340617396765353 0 16.340617396765353 -37.789113905631794 0 0 0 0 367.82931644775817 21.076539063459151 0 21.076539063459151 -37.512658457872405 0 0 0 0 286.99318343237974 -10.999889798210404 0 -10.999889798210404 188.6735673290714 0 0 0 0 349.18543005033644 -2.1946046634734664 0 -2.1946046634734664 96.146981725606707 0 0 0 0 378.41081079360447 31.82056916016716 0 31.82056916016716 -24.121682922749287 0 0 0 0 383.12447797630375 12.597577671070267 0 12.597577671070267 -157.61499247563927 0 0 0 0 341.80148583138362 15.570100969583009 0 15.570100969583009 -29.205283129505027 0 0 0 0 323.36803201387761 113.79385317880016 0 113.79385317880016 -176.58824743702041 0 0 0 0 329.05676714928927 -15.141567440052917 0 -15.141567440052917 -253.86847125558489 0 0 0 0 413.75975481555906 -18.044916054274189 0 -18.044916054274189 -134.11744399134218 0 0 0 0 417.84769735412556 -35.59446358475617 0 -35.59446358475617 -399.55135443285621 0 0 0 0 339.21974031028367 -124.95242465330088 0 -124.95242465330088 -183.58838163392218 0 0 0 0 422.6476258252078 -209.36736321797696 0 -209.36736321797696 -98.389019237562081 0 0 0 0 259.65787811644259 -186.63775379485381 0 -186.63775379485381 61.56735517721237 0 0 0 0 228.13036341575207 -267.08317856397372 0 -267.08317856397372 -113.71668609555243 0 0 0 0 187.4318955973431 -424.89727849028463 0 -424.89727849028463 -58.046574582965313 0 0 0 0 425.49257392695654 -42.557058710292296 0 -42.557058710292296 -716.83915048842732 0 0 0 0 443.28708500089124 -167.90276976231166 0 -167.90276976231166 -276.74157108852404 0 0 0 0 5.9310109598194742 -3.5976173018756832 0 -3.5976173018756832 0.75281531324261342 0 0 0 0 -241.43142402282683 -140.35407804028864 0 -140.35407804028864 -50.091075439313315 0 0 0 0 398.36603982691395 20.942261271136484 0 20.942261271136484 -89.397201788857913 0 0 0 0 279.08618589652178 -106.58664367611536 0 -106.58664367611536 -65.159690363711235 0 0 0 0 299.30035032934393 28.969848455492681 0 28.969848455492681 -13.125546978316397 0 0 0 0 342.88559687561792 19.407506120050904 0 19.407506120050904 -88.710349784537001 0 0 0 0 93.541859065619064 75.025933718493107 0 75.025933718493107 -21.217213981175682 0 0 0 0 78.243706568036032 -78.423269054278393 0 -78.423269054278393 111.04670268881431 0 0 0 0 34.359633562785547 -1.767621164527108 0 -1.767621164527108 -1.5388759042083493 0 0 0 0 311.59413997104275 125.08168802774634 0 125.08168802774634 -865.00647515735113 0 0 0 0 -27.335852152922598 -89.831529989055213 0 -89.831529989055213 -201.22595034176061 0 0 0 0 24.098805557534433 283.82025589262526 0 283.82025589262526 -51.76170792902866 0 0 0 0 -186.3988693249994 -127.1215565399266 0 -127.1215565399266 -262.72170382959439 0 0 0 0 59.803437169131939 -940.00817378314889 0 -940.00817378314889 809.8179108742579 0 0 0 0 573.43625520368369 149.1231827157149 0 149.1231827157149 -975.79583928158422 0 0 0 0 3.2700181484954101 -2.8552875128908468 0 -2.8552875128908468 -2.8595433435256332 0 0 0 0 749.50139891732397 -341.52498829454174 0 -341.52498829454174 -20.807220361766696 0 0 0 0 1339.4277530122054 -237.86555795350228 0 -237.86555795350228 -938.96831292458558 0 0 0 0 -247.47212384419981 214.13801064080337 0 214.13801064080337 38.030697991367916 0 0 0 0 435.30339874006313 -468.32352788806969 0 -468.32352788806969 -541.07296439085076 0 0 0 0 432.84895841826074 139.39805890029277 0 139.39805890029277 210.31485388339252 0 0 0 0 -298.66104550065938 -507.66989529291072 0 -507.66989529291072 712.21255307422086 0 0 0 0 15.136963697237661 43.093273550759932 0 43.093273550759932 14.777793915459483 0 0 0 0 8.8135254391634135 -4.4803155732173252 0 -4.4803155732173252 -5.6782385431656586 0 0 0 0 49.056031266896753 -136.26508826689837 0 -136.26508826689837 -210.29769116963826 0 0 0 0 -190.16600471470883 -145.37402446390377 0 -145.37402446390377 -6.3490509652367564 0 0 0 0 0.53909867289200974 -0.51065682355897479 0 -0.51065682355897479 -2.9106915009163039 0 0 0 0 -74.915174246634706 42.020221551372515 0 42.020221551372515 53.259138972349035 0 0 0 0 -88.700574413713184 -183.01120859766411 0 -183.01120859766411 -206.70042711648523 0 0 0 0 100.34495082102148 32.555543979605375 0 32.555543979605375 -3.2055336173020805 0 0 0 0 -80.296068582189037 -29.124899886867752 0 -29.124899886867752 158.17983181237787 0 0 0 0 -33.852505288115935 25.68437227874665 0 25.68437227874665 56.836874383632676 0 0 0 0 16.331463551046909 -286.1991328419092 0 -286.1991328419092 252.0878122153465 0 0 0 0 72.352293828855181 -75.372760363804673 0 -75.372760363804673 6.5182943810095821 0 0 0 0 6.0180865329525091 -5.3732079320275545 0 -5.3732079320275545 -0.00010093587468418264 0 0 0 0 -2.6591236410604324 -68.085955876694698 0 -68.085955876694698 133.36873048422513 0 0 0 0 16.872965439141041 -6.2613306581274628 0 -6.2613306581274628 -3.3966066208278329 0 0 0 0 2853.1432554814965 -155.43417391205458 0 -155.43417391205458 -356.80949675280499 0 0 0 0 44.854622376820771 -34.511594891292589 0 -34.511594891292589 94.738045663973026 0 0 0 0 13.877599748504636 -13.218370958364332 0 -13.218370958364332 10.130137965419115 0 0 0 0 53.964480801638274 23.69954553891148 0 23.69954553891148 41.367975739800613 0 0 0 0 1189.6360569231547 54.440245096676655 0 54.440245096676655 105.25626768846763 0 0 0 0 1293.9279297291941 -111.0194828190964 0 -111.0194828190964 -57.547470250906827 0 0 0 0 649.73766262360732 228.9394936871939 0 228.9394936871939 154.84917537167485 0 0 0 0 1301.1212116115348 -168.67584222620209 0 -168.67584222620209 -136.45216189791029 0 0 0 0 1921.724847885489 256.9083255119092 0 256.9083255119092 -69.543600117464081 0 0 0 0 1086.6740163437644 310.74729133639568 0 310.74729133639568 -34.929555343240629 0 0 0 0 2497.5833606982342 930.76730240253426 0 930.76730240253426 180.90036427951293 0 0 0 0 6.9818787305334808 -3.9601711320336079 0 -3.9601711320336079 3.6979850862546373 0 0 0 0 123.28818560229411 64.371051050328333 0 64.371051050328333 -74.591287916737059 0 0 0 0 1.8961849210318178 30.954236615049581 0 30.954236615049581 49.601633618534834 0 0 0 0 -24.757562428567326 76.081021818971294 0 76.081021818971294 21.766134297422411 0 0 0 0 -317.1440248038507 -195.43430591703662 0 -195.43430591703662 -107.69135600768675 0 0 0 0 -214.36400368164323 160.0431365207057 0 160.0431365207057 178.18594654648894 0 0 0 0 2480.5539651784347 -1150.2484935838784 0 -1150.2484935838784 -4.8280244648381387 0 0 0 0 107.97939184860979 -108.11831467595054 0 -108.11831467595054 -148.52517423333896 0 0 0 0 8.1422248705718516 -5.373118065685432 0 -5.373118065685432 1.8915038158423236 0 0 0 0 1006.0206794144397 40.728618265888258 0 40.728618265888258 -683.79620746513524 0 0 0 0 358.86708261457534 -1195.0704911661123 0 -1195.0704911661123 866.40295014063361 0 0 0 0 439.01411453432956 -127.96444758883786 0 -127.96444758883786 -513.29233945550948 0 0 0 0 15.230488522487576 -440.97784447960873 0 -440.97784447960873 -668.6662014120775 0 0 0 0 8.9383874687628122 151.89911788370307 0 151.89911788370307 -320.94735043777081 0 0 0 0 -6.8868179148994386 -122.50560473722476 0 -122.50560473722476 -199.5551048020377 0 0 0 0 65.851561493087502 -81.9312727734345 0 -81.9312727734345 -299.639560822406 0 0 0 0 14.677282588640708 -7.9124663131080695 0 -7.9124663131080695 1.8530862597148778 0 0 0 0 -36.971051845117472 -297.07018211082539 0 -297.07018211082539 -484.56823887186295 0 0 0 0 25.360980367426237 0.020079183314756222 0 0.020079183314756222 0.81026531092530263 0 0 0 0 2.1035124185955425 -3.0958325873678803 0 -3.0958325873678803 0.87278017227230453 0 0 0 0 22.811840101116104 -2.0694058580712777 0 -2.0694058580712777 1.6813000347616347 0 0 0 0 25.252105026782374 4.8607480726163255 0 4.8607480726163255 1.5580164851812668 0 0 0 0 17.97924428240367 -2.1147865563032822 0 -2.1147865563032822 -0.061237898892377185 0 0 0 0 1.6115684422312313 -1.9605101351316847 0 -1.9605101351316847 0.32379350073028212 0 0 0 0 26.485178367041954 1.7630981760768933 0 1.7630981760768933 3.5079636751516245 0 0 0 0 29.647218941230676 -0.66656450803136869 0 -0.66656450803136869 0.0099653138253706416 0 0 0 0 29.258888177436802 7.2071375508844477 0 7.2071375508844477 1.6156357834633439 0 0 0 0 15.402504325218615 -1.3919746766326164 0 -1.3919746766326164 0.0038412299963408447 0 0 0 0 578.80653655744936 50.340869036028593 0 50.340869036028593 0.68867633871584033 0 0 0 0 381.99532867086236 19.939157010587941 0 19.939157010587941 4.4406815756948248 0 0 0 0 1.0036948771989103 -0.67225811267122992 0 -0.67225811267122992 0.047010903894051444 0 0 0 0 277.81616674950055 20.728792980715838 0 20.728792980715838 9.2085148377870141 0 0 0 0 431.48789625072095 39.384122635210311 0 39.384122635210311 4.1507463700334881 0 0 0 0 392.09849748220586 -25.379293270575246 0 -25.379293270575246 -25.575492788347333 0 0 0 0 345.93625583354878 29.63054265734462 0 29.63054265734462 -14.508696649026604 0 0 0 0 414.66711079473316 -17.968209640313827 0 -17.968209640313827 0.040683555127927068 0 0 0 0 374.14037269583787 -41.870703356777298 0 -41.870703356777298 -26.5874491340353 0 0 0 0 403.67806725079208 -63.065296503506907 0 -63.065296503506907 -98.586237271792527 0 0 0 0 418.3727048317669 -27.374339298596407 0 -27.374339298596407 -29.319422479819963 0 0 0 0 388.2452599184362 -20.32484930774952 0 -20.32484930774952 8.3520960452660606 0 0 0 0 388.87808205624242 -9.9065747603016288 0 -9.9065747603016288 -29.813463283805632 0 0 0 0 431.84916503577551 -20.076739788101236 0 -20.076739788101236 -33.188419498551994 0 0 0 0 514.43446341252275 20.487663988884592 0 20.487663988884592 -128.53036808988702 0 0 0 0 396.84932007369571 29.16458799391642 0 29.16458799391642 -91.561140272364639 0 0 0 0 508.1227236366276 -61.966132859975502 0 -61.966132859975502 -109.53154975470869 0 0 0 0 401.05460287095411 84.937194200509168 0 84.937194200509168 -160.1815735750902 0 0 0 0 753.70079977226851 123.71390637650263 0 123.71390637650263 -164.09843999859856 0 0 0 0 15.316292408649986 -1.5644521889965515 0 -1.5644521889965515 -0.40060555871210457 0 0 0 0 653.12648408498353 444.37216691964159 0 444.37216691964159 -320.29569422674422 0 0 0 0 1526.4094077670743 -217.86633965356199 0 -217.86633965356199 -277.70089370030649 0 0 0 0 470.22974279469781 -574.07009951221187 0 -574.07009951221187 474.46686476946763 0 0 0 0 561.19544889226381 -51.041727474550356 0 -51.041727474550356 -232.30558297663083 0 0 0 0 368.3160130253018 -282.77194290742045 0 -282.77194290742045 -20.142905826400401 0 0 0 0 220.87742327984597 -126.80973217052811 0 -126.80973217052811 26.118760046302214 0 0 0 0 103.52935681506324 10.834971870805003 0 10.834971870805003 -154.40964736599017 0 0 0 0 -200.91967878348078 75.637391061550616 0 75.637391061550616 -16.982539630202787 0 0 0 0 101.94852988603088 -206.37582565756009 0 -206.37582565756009 51.753695831632598 0 0 0 0 241.48416747544798 -30.428011222279665 0 -30.428011222279665 -40.28921547274507 0 0 0 0 568.91108339524362 -92.806172959187606 0 -92.806172959187606 -159.3640155976619 0 0 0 0 263.47292872954131 -55.756187186327992 0 -55.756187186327992 -28.37432155467053 0 0 0 0 279.63483452010269 72.217861615017867 0 72.217861615017867 -38.747686997343749 0 0 0 0 94.136849087177325 175.17733679532583 0 175.17733679532583 -117.3475597795873 0 0 0 0 343.43598664623278 57.012536405366774 0 57.012536405366774 -61.465858939265843 0 0 0 0 155.15363788199465 -60.013944977476058 0 -60.013944977476058 -31.602293031327292 0 0 0 0 -69.53739020248031 43.694719530441262 0 43.694719530441262 -25.988415219648402 0 0 0 0 -116.02470908232499 238.17198588048097 0 238.17198588048097 -274.77287033622304 0 0 0 0 18.61630894102251 9.3351609308041361 0 9.3351609308041361 2.7078826875220763 0 0 0 0 -34.596018696305691 -24.954798915538447 0 -24.954798915538447 -193.01227278993682 0 0 0 0 625.77481259672641 -592.89812892466841 0 -592.89812892466841 315.99343321858544 0 0 0 0 7.8133177445844524 2.8886926339542072 0 2.8886926339542072 0.30329669328052256 0 0 0 0 286.90187616842741 -269.9765175103098 0 -269.9765175103098 172.40889616595052 0 0 0 0 487.70173446883564 286.9078441068358 0 286.9078441068358 -152.07734288230188 0 0 0 0 -81.824645414166753 345.62533731075143 0 345.62533731075143 -157.45763061460377 0 0 0 0 910.99419505380502 -228.01824419800215 0 -228.01824419800215 -254.81710022506286 0 0 0 0 676.36828311694762 -106.56579215049155 0 -106.56579215049155 -89.977698411818096 0 0 0 0 0.40933859557543428 -1.9290187296277992 0 -1.9290187296277992 -0.2298199176639168 0 0 0 0 24.841560454409773 9.6787927984791828 0 9.6787927984791828 0.1255716345456932 0 0 0 0 -403.93628524396627 87.943827404607589 0 87.943827404607589 513.60157206736699 0 0 0 0 28.768525824692915 3.663645202753294 0 3.663645202753294 -1.4478998827859897 0 0 0 0 21.835760972142452 1.6337685414179575 0 1.6337685414179575 5.1473266518237892 0 0 0 0 2.2002324634738812 -3.8456053406577979 0 -3.8456053406577979 1.8978015423498604 0 0 0 0 136.93344202337903 -188.16887685347271 0 -188.16887685347271 -194.89772470290359 0 0 0 0 23.981665367355163 1.3157235042482824 0 1.3157235042482824 1.9673360857047122 0 0 0 0 63.472872457001358 13.070677872312444 0 13.070677872312444 -49.355531572485233 0 0 0 0 73.42930718162097 -1.6290750606003712 0 -1.6290750606003712 -41.092170288891339 0 0 0 0 64.072682291356614 -12.339632345131122 0 -12.339632345131122 -49.955215638780828 0 0 0 0 74.499462221021531 1.8910268427853225 0 1.8910268427853225 -70.365492792677287 0 0 0 0 72.401711552178313 5.4957540218197209 0 5.4957540218197209 -56.517570331879142 0 0 0 0 75.728759597521275 35.938199229103702 0 35.938199229103702 -67.939776117453221 0 0 0 0 68.247600596165285 30.587651637648605 0 30.587651637648605 -20.162202724468443 0 0 0 0 52.901469811200514 21.002802298384267 0 21.002802298384267 -7.5975381003113398 0 0 0 0 60.847442593210872 6.2507842046607038 0 6.2507842046607038 -17.807258688294496 0 0 0 0 54.35653674949026 18.000609576948989 0 18.000609576948989 -16.448562843642321 0 0 0 0 45.354325718435575 8.9442806179804393 0 8.9442806179804393 -3.4428605829525623 0 0 0 0 24.213372349677456 -2.7221804005375692 0 -2.7221804005375692 -3.5004298346790677 0 0 0 0 42.558404157789482 20.77175397467704 0 20.77175397467704 12.247054133726579 0 0 0 0 4.5665944617528709 2.0928265055108852 0 2.0928265055108852 -9.2230113818489059 0 0 0 0 -39.044965375484026 71.780174112958321 0 71.780174112958321 -90.042961828519765 0 0 0 0 77.993777687991496 -304.87653622425694 0 -304.87653622425694 228.30673896859844 0 0 0 0 138.20328547676763 192.90728510180929 0 192.90728510180929 -38.328064824586534 0 0 0 0 42.285161378691555 28.207246431576095 0 28.207246431576095 -0.40859765307754969 0 0 0 0 58.049203967268113 131.32130309983495 0 131.32130309983495 193.30671665515138 0 0 0 0 44.84287779499391 41.442110336267092 0 41.442110336267092 31.538580113018725 0 0 0 0 9.16714604357594 -1.5809469246108581 0 -1.5809469246108581 0.91563212393947624 0 0 0 0 545.93846352156834 -367.4090501954779 0 -367.4090501954779 140.01379313350799 0 0 0 0 357.88657188696379 264.99803349819467 0 264.99803349819467 248.12828814187372 0 0 0 0 231.50683102266339 -395.17329996261356 0 -395.17329996261356 177.89783395302038 0 0 0 0 419.57963172638847 -375.15173284492948 0 -375.15173284492948 120.6173926351089 0 0 0 0 600.51801238624103 -17.639622482969969 0 -17.639622482969969 -14.076910792379294 0 0 0 0 3.4363120503948039 -2.3844545312243355 0 -2.3844545312243355 -1.2809875305306369 0 0 0 0 987.88063619748573 77.9726566500849 0 77.9726566500849 550.12445584291254 0 0 0 0 -79.759391176921781 -55.624277738942055 0 -55.624277738942055 124.91968457555049 0 0 0 0 172.20320172289212 -938.45391394600438 0 -938.45391394600438 573.71412299873555 0 0 0 0 1265.1786935117707 -516.04157388227577 0 -516.04157388227577 3.5647882677249072 0 0 0 0 566.09886964426551 12.112974404486522 0 12.112974404486522 -132.57252944945139 0 0 0 0 -58.533811332948972 -285.65959656982523 0 -285.65959656982523 -23.735929411959205 0 0 0 0 -21.582480175398814 47.004536868533705 0 47.004536868533705 -206.29107175977697 0 0 0 0 83.736883490142645 5.4323428619245533 0 5.4323428619245533 -298.36116388788832 0 0 0 0 27.872872159015969 -18.523019202997148 0 -18.523019202997148 -120.36103420829841 0 0 0 0 95.842653501167661 103.56832788470638 0 103.56832788470638 24.118796596075072 0 0 0 0 80.681815858974005 50.308506347970251 0 50.308506347970251 -50.742917790799765 0 0 0 0 132.15469137889158 43.736306706991854 0 43.736306706991854 -104.02541920723888 0 0 0 0 122.3896394885378 -20.313803209125581 0 -20.313803209125581 -212.23791266422177 0 0 0 0 135.95272177213337 -58.441052923672942 0 -58.441052923672942 -220.31956071993318 0 0 0 0 196.78577132662758 79.570022054411766 0 79.570022054411766 -121.80547554697296 0 0 0 0 37.584751841801335 -76.693445925169726 0 -76.693445925169726 -148.77648151124595 0 0 0 0 11.655230167205445 -63.525934841921753 0 -63.525934841921753 -92.099780952856236 0 0 0 0 64.972052236669697 -20.94020000096225 0 -20.94020000096225 -123.43174028743624 0 0 0 0 70.98016820907651 -35.891765342111285 0 -35.891765342111285 -100.42936237023787 0 0 0 0 11.318567652881029 -45.736991359630338 0 -45.736991359630338 -75.023470341632674 0 0 0 0 40.543945439407253 -23.271367069550251 0 -23.271367069550251 -75.636695002882107 0 0 0 0 79.851642283654655 3.6641105318753944 0 3.6641105318753944 -84.221752467050464 0 0 0 0 20.623296351775934 -51.292244833828363 0 -51.292244833828363 -76.335244052379494 0 0 0 0 18.569218564836774 -45.05604970261993 0 -45.05604970261993 -76.13945848037838 0 0 0 0 -197.36003204339067 -200.30946080560261 0 -200.30946080560261 19.189182645790424 0 0 0 0 512.21426329448514 276.83364196962327 0 276.83364196962327 74.622665389651502 0 0 0 0 8.8035693734231586 -8.6659631947679543 0 -8.6659631947679543 5.4730678581060204 0 0 0 0 -10.085381708006025 -184.52619331930691 0 -184.52619331930691 -265.65575738389566 0 0 0 0 466.75580417407036 132.90416245970891 0 132.90416245970891 61.959613366887197 0 0 0 0 306.00985372951254 158.41611163855191 0 158.41611163855191 87.695681859705019 0 0 0 0 318.00273925699003 171.65818228576904 0 171.65818228576904 -127.14400200186356 0 0 0 0 -211.32701033873309 141.98438133771629 0 141.98438133771629 182.88039717931849 0 0 0 0 194.4195634603675 64.890797587473116 0 64.890797587473116 196.7914800266758 0 0 0 0 80.846325480055384 -35.20265570144204 0 -35.20265570144204 307.2618463168551 0 0 0 0 -89.096947133308277 -51.839927903446551 0 -51.839927903446551 319.44320922380484 0 0 0 0 356.66561569260375 -59.058549262658289 0 -59.058549262658289 237.01547977974224 0 0 0 0 104.99743827454949 8.8911190963713125 0 8.8911190963713125 278.95558722262194 0 0 0 0 2.8991961949199236 -3.0472452878475593 0 -3.0472452878475593 2.529883026617787 0 0 0 0 428.34783101400535 258.33054292416409 0 258.33054292416409 181.74785490912154 0 0 0 0 729.84911490995 -242.03673215196613 0 -242.03673215196613 249.83763005569517 0 0 0 0 976.35702941418276 253.5207800220328 0 253.5207800220328 107.44928879618578 0 0 0 0 -439.17909685521226 -507.56203508972283 0 -507.56203508972283 86.759222799498275 0 0 0 0 599.58083042380167 111.62412796583703 0 111.62412796583703 -236.35801130558048 0 0 0 0 205.4677016789974 -638.64840474007906 0 -638.64840474007906 80.870243237153772 0 0 0 0 1.5853090892730393 1.6118440918560673 0 1.6118440918560673 1.1787259989084502 0 0 0 0 -510.84463458304526 -369.13585379864708 0 -369.13585379864708 225.74946970553083 0 0 0 0 -10.930386105061189 72.172674371101493 0 72.172674371101493 5.9123226786014129 0 0 0 0 -156.70124680727895 401.52652071308978 0 401.52652071308978 -247.56810691719983 0 0 0 0 28.025854015610889 11.963946610668621 0 11.963946610668621 3.4055757991447528 0 0 0 0 -87.049088046318502 129.6323713861002 0 129.6323713861002 169.09838941831973 0 0 0 0 -34.262633560967515 58.633676560664895 0 58.633676560664895 -264.48602453648505 0 0 0 0 118.11438067935319 -142.06021767039067 0 -142.06021767039067 -0.60632311329959521 0 0 0 0 121.95140032548807 133.22716434721883 0 133.22716434721883 -105.65058294933965 0 0 0 0 -309.8702523127431 177.3466947137681 0 177.3466947137681 26.349890636586565 0 0 0 0 -163.89173231811583 -19.929792406123227 0 -19.929792406123227 37.249903773087453 0 0 0 0 -8.2335771623093024 67.50141810477632 0 67.50141810477632 362.11823339271223 0 0 0 0 695.72351193614304 140.98909014237745 0 140.98909014237745 -496.47189179623444 0 0 0 0 2.9975427775242167 -1.1459771002981114 0 -1.1459771002981114 -0.44834334829964995 0 0 0 0 27.132608841964355 7.5766567083585343 0 7.5766567083585343 1.8196101708563166 0 0 0 0 -125.40743055567145 -454.93218123608449 0 -454.93218123608449 400.4858930583423 0 0 0 0 17.395766067158547 -64.202105506178668 0 -64.202105506178668 -34.279739470923232 0 0 0 0 143.11464455189343 -290.49352846746518 0 -290.49352846746518 -56.279605159842504 0 0 0 0 305.16611461149296 178.5379459682203 0 178.5379459682203 519.20847769026454 0 0 0 0 1685.639753340256 -453.51294037378767 0 -453.51294037378767 -103.35985014546964 0 0 0 0 887.3630673456355 -876.22366016752198 0 -876.22366016752198 66.282228572319951 0 0 0 0 12.075107301226865 0.55945286543569495 0 0.55945286543569495 0.03545134912896053 0 0 0 0 1077.6586135815232 -923.77618984424407 0 -923.77618984424407 351.31609829583181 0 0 0 0 337.94984809845482 229.7106954422793 0 229.7106954422793 306.6807258830122 0 0 0 0 1404.2173274840461 -84.49365685035832 0 -84.49365685035832 62.399111379942724 0 0 0 0 -4.4756977661745623 11.681871945641433 0 11.681871945641433 411.9056173810086 0 0 0 0 68.610625883025932 36.025231159221448 0 36.025231159221448 418.45063415957702 0 0 0 0 234.33657074663279 -26.669084894776461 0 -26.669084894776461 -149.41605430341224 0 0 0 0 48.792533456049568 -82.674039512980926 0 -82.674039512980926 226.48250613888513 0 0 0 0 -149.5511630562396 -167.05684942603352 0 -167.05684942603352 191.29074106784378 0 0 0 0 499.17285189842551 -161.34604813992814 0 -161.34604813992814 127.16587859765968 0 0 0 0 208.81153738647117 4.4202738238918755 0 4.4202738238918755 111.1049679570101 0 0 0 0 565.60512766052125 -28.736260532633878 0 -28.736260532633878 60.682297323689909 0 0 0 0 461.81357048909558 -180.59844248278137 0 -180.59844248278137 76.396533995447953 0 0 0 0 221.96707140015496 6.0872147029079997 0 6.0872147029079997 82.425773029945958 0 0 0 0 -36.482935709438607 174.40059439991649 0 174.40059439991649 0.4413385681446016 0 0 0 0 225.46552705320573 -13.452910824206469 0 -13.452910824206469 17.102536333886746 0 0 0 0 48.892202817980433 119.7170018943425 0 119.7170018943425 43.807900400215772 0 0 0 0 261.16464366650325 -45.480761079075137 0 -45.480761079075137 48.781591458163348 0 0 0 0 43.336078593529237 108.94977467857007 0 108.94977467857007 13.811037870323844 0 0 0 0 108.36798445780369 81.591529430567562 0 81.591529430567562 -129.49910297192855 0 0 0 0 -99.863074727880303 88.560481880163024 0 88.560481880163024 -127.42806086015577 0 0 0 0 48.862682802471681 230.80603995261572 0 230.80603995261572 -259.49732867497551 0 0 0 0 148.07840081704489 108.01937142012866 0 108.01937142012866 -175.91855820899264 0 0 0 0 29.195929480207269 79.893760218292073 0 79.893760218292073 -28.699527537663471 0 0 0 0 11.389538007289957 164.94729999640469 0 164.94729999640469 -54.441491061187662 0 0 0 0 -64.129658073805331 -20.102247256550754 0 -20.102247256550754 -34.488158770555941 0 0 0 0 156.01330074746352 -109.57572523401944 0 -109.57572523401944 27.95499367425964 0 0 0 0 -30.517724298188114 12.930511368975658 0 12.930511368975658 -31.598150898467793 0 0 0 0 -3.5264136493769058 11.131508953713848 0 11.131508953713848 -18.724176435867882 0 0 0 0 -70.693235260547226 -52.703568412644017 0 -52.703568412644017 19.314156875115259 0 0 0 0 -3.6767626807425984 6.3304020970078483 0 6.3304020970078483 -10.372462851136858 0 0 0 0 326.08667831361527 96.189821838391993 0 96.189821838391993 4.4760272332714521 0 0 0 0 324.00436991346942 116.61588126808499 0 116.61588126808499 0.77448375872756969 0 0 0 0 374.44380444625858 89.049459798662951 0 89.049459798662951 -1.2883964578802534 0 0 0 0 19.649312095803907 80.511243000447053 0 80.511243000447053 9.2600825871713823 0 0 0 0 -0.83205067391786258 1.7671294206721626 0 1.7671294206721626 -3.6713955302621759 0 0 0 0 -216.4619763912051 -23.362586007026266 0 -23.362586007026266 2.2023084106917992 0 0 0 0 172.01940142154854 1.8461262118640889 0 1.8461262118640889 -34.037556964192845 0 0 0 0 277.33495661203051 123.39381613599699 0 123.39381613599699 22.877512394749829 0 0 0 0 420.57779634857434 145.09208744612783 0 145.09208744612783 -26.508150773887337 0 0 0 0 308.31385615062754 86.280341536082688 0 86.280341536082688 23.259169365575417 0 0 0 0 391.74165698808793 116.1346212430135 0 116.1346212430135 38.36692123352077 0 0 0 0 378.88106833899656 183.42340639577446 0 183.42340639577446 147.65560251868374 0 0 0 0 8.7219459100712129 -12.079371939831816 0 -12.079371939831816 10.097494250751195 0 0 0 0 -58.027872554142959 7.5152472710433358 0 7.5152472710433358 -19.86926355403557 0 0 0 0 398.06978444958804 144.81258806658775 0 144.81258806658775 43.754873885614415 0 0 0 0 -56.541213297372451 -48.349633761709811 0 -48.349633761709811 -33.576061333290454 0 0 0 0 78.935340846986946 24.292887863992519 0 24.292887863992519 -94.355045065864942 0 0 0 0 2.9951936466100477 -0.90545898418515947 0 -0.90545898418515947 -0.058252552197401997 0 0 0 0 14.383277655782877 -50.160177590221792 0 -50.160177590221792 -76.195007200400028 0 0 0 0 27.134010499539727 -10.747117960590003 0 -10.747117960590003 -60.574919856640918 0 0 0 0 34.921394751610933 -17.330898798109956 0 -17.330898798109956 -61.983060491694687 0 0 0 0 -249.60967287054518 -104.73927809386987 0 -104.73927809386987 13.303121109096537 0 0 0 0 13.567174433171246 -17.365389536350079 0 -17.365389536350079 13.784661202537134 0 0 0 0 365.2175369853212 122.00251513409285 0 122.00251513409285 67.530879756653121 0 0 0 0 13.56563511362765 64.324662710715074 0 64.324662710715074 -28.53090267958396 0 0 0 0 61.146278304979205 49.288932811835366 0 49.288932811835366 -39.248281850877902 0 0 0 0 -6.1485858674706861 2.0391182620587642 0 2.0391182620587642 1.7137370282871505 0 0 0 0 -570.57631597534055 -78.368794359813364 0 -78.368794359813364 159.40180173943827 0 0 0 0 -165.9703303915303 476.34727805064449 0 476.34727805064449 374.23498691232817 0 0 0 0 275.53917323429778 72.558192824668765 0 72.558192824668765 42.63720581378351 0 0 0 0 401.89869306320907 93.207573748364453 0 93.207573748364453 -5.8673653461569586 0 0 0 0 380.06271574009952 101.5432075335417 0 101.5432075335417 -8.1754649615259041 0 0 0 0 379.65162002717261 126.19515200715466 0 126.19515200715466 29.995885359609019 0 0 0 0 470.65730939499917 182.67689520936506 0 182.67689520936506 8.2350362290586645 0 0 0 0 357.17457350046971 124.55666486220574 0 124.55666486220574 -15.73847835241645 0 0 0 0 407.10811896515224 107.22702866606107 0 107.22702866606107 -52.477784366931928 0 0 0 0 339.50262314618158 173.03532886699463 0 173.03532886699463 62.615172027302378 0 0 0 0 633.98512998083606 163.00322524118792 0 163.00322524118792 -44.835129651397438 0 0 0 0 667.68792840563401 137.26398781760895 0 137.26398781760895 -25.233738625829119 0 0 0 0 664.43283700222673 173.57078003282572 0 173.57078003282572 26.508584791978137 0 0 0 0 1033.7048373360594 323.24258149235129 0 323.24258149235129 -113.50787624273767 0 0 0 0 937.16615049327083 557.7083618885672 0 557.7083618885672 -347.31095815918616 0 0 0 0 437.76946891426633 470.4081352031676 0 470.4081352031676 273.27995266891048 0 0 0 0 -0.64596964282091562 2.4134319364898573 0 2.4134319364898573 -3.4952610883196407 0 0 0 0 221.00994127665763 -143.6843111691889 0 -143.6843111691889 61.803693383973496 0 0 0 0 893.61148514476372 -122.23950503598871 0 -122.23950503598871 -29.725269729456841 0 0 0 0 509.54362687972025 -96.035833527118029 0 -96.035833527118029 -11.734189150244276 0 0 0 0 297.89234095913707 44.160728150866191 0 44.160728150866191 -44.177929706285795 0 0 0 0 253.06410553016212 9.4900394506561963 0 9.4900394506561963 0.92639177488197788 0 0 0 0 301.36617098434363 59.997467038288491 0 59.997467038288491 -78.738387967688851 0 0 0 0 304.87318616935227 46.315424703521614 0 46.315424703521614 -26.294209135130927 0 0 0 0 466.05492842796593 -19.43139114756093 0 -19.43139114756093 -45.864600662689099 0 0 0 0 395.5814379764588 38.002406649136901 0 38.002406649136901 -35.702853434254052 0 0 0 0 5.7216997651865995 -1.707123076205626 0 -1.707123076205626 0.50759757882209122 0 0 0 0 166.36535714651109 200.14029518655479 0 200.14029518655479 129.14696422432996 0 0 0 0 296.71311325287388 139.64960918965517 0 139.64960918965517 -37.951508146124979 0 0 0 0 -33.294906057155458 -559.41867749980656 0 -559.41867749980656 124.12650571563427 0 0 0 0 100.41982700071821 85.95697270984715 0 85.95697270984715 111.0400497591836 0 0 0 0 191.60308700826863 2.1779849521451524 0 2.1779849521451524 -122.4866883967361 0 0 0 0 25.055997115763603 -78.643601302277261 0 -78.643601302277261 92.291826768253259 0 0 0 0 10.066040231649112 -15.878591605588213 0 -15.878591605588213 10.03225716503778 0 0 0 0 34.772053559259803 -64.423610060801707 0 -64.423610060801707 -46.434725047571987 0 0 0 0 69.458133223986806 21.955620458590715 0 21.955620458590715 -3.5292204230518109 0 0 0 0 78.667179145035334 17.425806435436243 0 17.425806435436243 -15.921983107100914 0 0 0 0 72.722025069087977 10.335049646843345 0 10.335049646843345 2.8447279701954358 0 0 0 0 68.828443755171975 -8.109947820166731 0 -8.109947820166731 17.491508872999248 0 0 0 0 42.932161788237863 6.2619498637977244 0 6.2619498637977244 9.5210052432828434 0 0 0 0 76.040938900812762 8.6525318243370748 0 8.6525318243370748 -2.6846145788097147 0 0 0 0 71.579623253201135 2.8847880457389579 0 2.8847880457389579 -6.5846316233051994 0 0 0 0 49.960340582838398 15.206371482138366 0 15.206371482138366 3.7894570721464333 0 0 0 0 44.065608469623839 19.545814214523489 0 19.545814214523489 27.206706521034903 0 0 0 0 16.15606593810611 -6.0473065892793372 0 -6.0473065892793372 0.60186697295910463 0 0 0 0 70.414299458845562 20.03194804564275 0 20.03194804564275 4.6683263570330382 0 0 0 0 24.523724945924187 -10.140585128656312 0 -10.140585128656312 -31.798779908987854 0 0 0 0 70.929337635228876 15.526052255982904 0 15.526052255982904 3.9378727807070391 0 0 0 0 11.028730480669765 -17.388422147130314 0 -17.388422147130314 6.1784188820138297 0 0 0 0 77.445403498029918 -60.651320467727601 0 -60.651320467727601 -4.1017917660465173 0 0 0 0 36.71311572137347 -48.687699947679903 0 -48.687699947679903 43.054539268280678 0 0 0 0 -17.795395752793411 13.139885033438077 0 13.139885033438077 22.053747063599076 0 0 0 0 219.79282911273185 -165.83629687573739 0 -165.83629687573739 70.040778890596812 0 0 0 0 57.667766294638568 -87.508423106211012 0 -87.508423106211012 108.83822378316745 0 0 0 0 692.1017768963211 25.250965251651905 0 25.250965251651905 -70.086449953414558 0 0 0 0 256.92607668665005 -19.836895203093263 0 -19.836895203093263 -74.817035986739938 0 0 0 0 73.07290574965009 53.275843776795682 0 53.275843776795682 -64.770813614410145 0 0 0 0 96.702414116385626 -113.64144119919729 0 -113.64144119919729 47.984698529178786 0 0 0 0 115.46468044462017 -45.090847559889426 0 -45.090847559889426 -49.419904934368788 0 0 0 0 83.23274090862833 -7.1300934799101015 0 -7.1300934799101015 -55.546995210732803 0 0 0 0 86.109051191539038 -8.1465298852720025 0 -8.1465298852720025 -72.633313449716297 0 0 0 0 34.481566123939956 -6.0870282189502376 0 -6.0870282189502376 -59.498323460689789 0 0 0 0 72.653183207148686 1.6808683221006504 0 1.6808683221006504 -67.214579546915047 0 0 0 0 75.249074878702231 -16.460992067358347 0 -16.460992067358347 -51.804808965824122 0 0 0 0 83.81187451997539 -15.793612336938168 0 -15.793612336938168 -61.033916790761396 0 0 0 0 60.143417289190438 -37.754521915378405 0 -37.754521915378405 -3.9674626900377916 0 0 0 0 59.582401787585695 -42.218549151930802 0 -42.218549151930802 -13.135284216616128 0 0 0 0 12.277626574264019 -12.977251216642827 0 -12.977251216642827 7.6058487842860494 0 0 0 0 -227.02834614211315 -282.00813131197481 0 -282.00813131197481 -135.45024257999123 0 0 0 0 10.178024988693437 -11.040329837781911 0 -11.040329837781911 8.232281829924041 0 0 0 0 -362.94755350005289 -426.8485664111426 0 -426.8485664111426 -307.76583261813693 0 0 0 0 158.5768267122985 12.150559656396354 0 12.150559656396354 -178.62856828281309 0 0 0 0 292.5210873274882 -80.579877539131985 0 -80.579877539131985 -242.77213522579973 0 0 0 0 -28.907041718317487 -380.27824276606344 0 -380.27824276606344 -114.50797741177016 0 0 0 0 2497.7627172647308 914.10272767942718 0 914.10272767942718 -96.066444913265556 0 0 0 0 7.508014913698787 -4.0543539257145937 0 -4.0543539257145937 1.5435011371525262 0 0 0 0 1643.0418660742944 -573.9612893636488 0 -573.9612893636488 -158.98341195893869 0 0 0 0 213.850082786038 5.8041723425240122 0 5.8041723425240122 -190.97104669261364 0 0 0 0 216.80062495139282 -24.043340618010333 0 -24.043340618010333 94.122663552453844 0 0 0 0 2494.4978884902957 -76.237383696445434 0 -76.237383696445434 -582.06496000621962 0 0 0 0 1772.1647683777701 246.48423738014898 0 246.48423738014898 -238.80169987841717 0 0 0 0 2096.9555070513161 -187.73929086589197 0 -187.73929086589197 138.80453883258781 0 0 0 0 9.6623000305384608 0.86633054354055616 0 0.86633054354055616 1.4718012377164285 0 0 0 0 1711.0910599277267 -1032.8454715112812 0 -1032.8454715112812 644.75562271100318 0 0 0 0 2501.4256491220895 -73.191270747019146 0 -73.191270747019146 -394.27807477756352 0 0 0 0 3378.6269128110871 111.77326442759792 0 111.77326442759792 -59.376596446082772 0 0 0 0 2062.2640491677448 -381.52610172250974 0 -381.52610172250974 -103.60102741704446 0 0 0 0 1660.3029466467779 60.839180002256626 0 60.839180002256626 -101.17682056712039 0 0 0 0 8.6059007656003814 -314.82602679228495 0 -314.82602679228495 -91.94419498601377 0 0 0 0 62.372421677791863 297.28850875519527 0 297.28850875519527 -213.60061983346762 0 0 0 0 92.0625465476096 -1.8156063858501668 0 -1.8156063858501668 -274.76069611460343 0 0 0 0 -1.1285842689931087 -1.504481325067907 0 -1.504481325067907 2.0702388067766497 0 0 0 0 1207.3854326930305 -351.03838001761471 0 -351.03838001761471 -58.062977188242826 0 0 0 0 84.587285094952676 -161.19813047432956 0 -161.19813047432956 -7.7931568843440502 0 0 0 0 660.88452672900166 -295.31125038727816 0 -295.31125038727816 -11.697774385161892 0 0 0 0 -602.50727630876645 560.75986730763168 0 560.75986730763168 104.30394349515632 0 0 0 0 -20.9968019053631 447.01977018483444 0 447.01977018483444 85.502751042022169 0 0 0 0 28.004357068992761 -6.6953531015876138 0 -6.6953531015876138 4.8595301030423981 0 0 0 0 142.01457606341137 214.2829966937104 0 214.2829966937104 -193.71268030306169 0 0 0 0 19.371659462999574 -12.056380417074038 0 -12.056380417074038 4.4606297696728525 0 0 0 0 13.151612525463634 -2.2614057292349488 0 -2.2614057292349488 -0.14463534215778001 0 0 0 0 1608.8508399687635 -1330.1175768837552 0 -1330.1175768837552 -350.73022869921891 0 0 0 0 205.3320266704759 182.00263695452634 0 182.00263695452634 -177.49518268391671 0 0 0 0 110.18775684866705 118.37839101466949 0 118.37839101466949 -47.904476116274736 0 0 0 0 126.46336281638924 83.274892357802614 0 83.274892357802614 56.039039795795588 0 0 0 0 177.58202997255285 261.04870207592353 0 261.04870207592353 24.934492752509414 0 0 0 0 -32.450604984807796 -18.006107684532736 0 -18.006107684532736 -309.6463772129398 0 0 0 0 -12.938117577097728 201.02512588543391 0 201.02512588543391 -102.19984991755837 0 0 0 0 32.191589091868792 -2.3649224811105429 0 -2.3649224811105429 -1.1707322410851528 0 0 0 0 166.93273643482826 41.166863237509006 0 41.166863237509006 -607.3812257855476 0 0 0 0 111.33600071750698 164.34561330442239 0 164.34561330442239 -430.96230167361978 0 0 0 0 -49.323099602257571 122.97608984138145 0 122.97608984138145 44.940973214801488 0 0 0 0 13.057899896186427 214.03809812853956 0 214.03809812853956 -19.109628221341836 0 0 0 0 223.86419562899391 -228.22493118560249 0 -228.22493118560249 -57.724259814432116 0 0 0 0 38.065634605358355 -463.1993740132699 0 -463.1993740132699 76.495185977355504 0 0 0 0 334.8578354899073 232.54284158934399 0 232.54284158934399 -746.30321711105648 0 0 0 0 1409.4915167938816 -500.26832504483764 0 -500.26832504483764 45.270015970577106 0 0 0 0 290.45534697665789 71.285731603490717 0 71.285731603490717 583.1406515389142 0 0 0 0 761.75819764895277 -730.2968694913136 0 -730.2968694913136 644.4179559239027 0 0 0 0 429.43671254518785 -403.07417715373327 0 -403.07417715373327 322.2865920540421 0 0 0 0 626.50462335498742 -119.84404554043294 0 -119.84404554043294 49.925461914369635 0 0 0 0 725.71300086570409 -494.08200772502619 0 -494.08200772502619 235.97489770419884 0 0 0 0 99.63409579700965 118.46663253722306 0 118.46663253722306 152.49539975704556 0 0 0 0 225.98946984719078 -194.59355741957108 0 -194.59355741957108 233.38806136359312 0 0 0 0 426.26974188018647 -194.74687632073142 0 -194.74687632073142 108.79307142301332 0 0 0 0 755.11748964081198 -362.38153660864464 0 -362.38153660864464 189.96301919617486 0 0 0 0 458.37660183004482 122.76054216783427 0 122.76054216783427 12.934601699525047 0 0 0 0 226.91709444627486 4.4871373045505152 0 4.4871373045505152 180.57818978092649 0 0 0 0 1396.8403266293099 -80.424464487621663 0 -80.424464487621663 52.500321564662556 0 0 0 0 3.6953310797594412 -4.550076248156472 0 -4.550076248156472 4.7759489193036586 0 0 0 0 1037.1579359554526 -682.01835894986266 0 -682.01835894986266 352.44004478504394 0 0 0 0 -761.41681681106274 -633.37024675066402 0 -633.37024675066402 455.68516970103383 0 0 0 0 169.44096397487738 -755.12222983759773 0 -755.12222983759773 465.16931935403295 0 0 0 0 544.79978751163435 -442.61271155041391 0 -442.61271155041391 243.44101801435818 0 0 0 0 517.47658877322829 -355.02629740839484 0 -355.02629740839484 143.14715975663808 0 0 0 0 266.78289363019576 -355.55103195681659 0 -355.55103195681659 709.58206771500568 0 0 0 0 406.19126413989579 -210.65798029822326 0 -210.65798029822326 198.87120061978703 0 0 0 0 445.05936587590986 -274.92994630023111 0 -274.92994630023111 266.28861414605217 0 0 0 0 196.87122996740072 -31.365636168281526 0 -31.365636168281526 148.89060613538004 0 0 0 0 146.32458540890366 53.787916890695669 0 53.787916890695669 163.92382841126124 0 0 0 0 371.31995892349732 -181.7219612905152 0 -181.7219612905152 61.133321008594066 0 0 0 0 178.45646777829097 -91.684992565050834 0 -91.684992565050834 -185.35247968114163 0 0 0 0 208.15834475855809 -32.59969652277664 0 -32.59969652277664 -94.871112979135432 0 0 0 0 189.61457738008176 126.05395451487675 0 126.05395451487675 -166.47536096246245 0 0 0 0 452.80440722570347 -617.59814636002466 0 -617.59814636002466 471.74403178150533 0 0 0 0 363.35741888411576 -46.557204434577443 0 -46.557204434577443 312.83862764776859 0 0 0 0 64.117946265432693 64.825548873948719 0 64.825548873948719 -139.61214912698961 0 0 0 0 31.988349402876338 -37.798640764329548 0 -37.798640764329548 51.451029208917589 0 0 0 0 220.28002462551376 -248.18837010483685 0 -248.18837010483685 -438.29903439819418 0 0 0 0 -84.866487093822798 -24.488358523335592 0 -24.488358523335592 140.25268398824528 0 0 0 0 -135.10825259132253 -368.49983638367121 0 -368.49983638367121 1055.4510169362964 0 0 0 0 -168.25407934805844 -557.20541783246142 0 -557.20541783246142 1277.9429989097889 0 0 0 0 693.15988099665628 -172.0456568201821 0 -172.0456568201821 -293.00370806631418 0 0 0 0 1266.2397765894111 -70.307362128430157 0 -70.307362128430157 3.2912574647727979 0 0 0 0 -856.27278279708116 -1505.6505729303988 0 -1505.6505729303988 1311.4621467282759 0 0 0 0 3.6559005166077014 -5.6306369508694161 0 -5.6306369508694161 6.8019880413952603 0 0 0 0 286.78643586754333 -951.34285734886896 0 -951.34285734886896 790.09798938294603 0 0 0 0 152.09540011157515 -94.957557477891271 0 -94.957557477891271 3.1430083831739921 0 0 0 0 316.08729541172943 -114.06024988550119 0 -114.06024988550119 -318.13362096104515 0 0 0 0 1167.8256478838375 393.45392144961403 0 393.45392144961403 -298.42486466285948 0 0 0 0 318.96868701001949 9.477506586662912 0 9.477506586662912 -239.88387453296582 0 0 0 0 11.691071990224657 -10.958404873227629 0 -10.958404873227629 6.3949940762203061 0 0 0 0 814.27391041527881 -804.76286654135015 0 -804.76286654135015 -741.88841609156987 0 0 0 0 1611.9732854962785 -79.927740561099355 0 -79.927740561099355 -1045.4015608798099 0 0 0 0 2500.086134895344 -72.575076172294004 0 -72.575076172294004 -938.39721457469625 0 0 0 0 3146.2342189355331 -24.180708823852228 0 -24.180708823852228 -118.68836201546637 0 0 0 0 1621.9586094070983 -211.20821419958773 0 -211.20821419958773 -65.653271497149689 0 0 0 0 1989.528001359784 -1600.159103485807 0 -1600.159103485807 1361.2670419191609 0 0 0 0 -390.67653544728819 -46.687303165640969 0 -46.687303165640969 477.1627838680497 0 0 0 0 24.612472505550528 -8.5802266006210299 0 -8.5802266006210299 3.8902766719748181 0 0 0 0 -23.556837652795366 -1106.7772413021903 0 -1106.7772413021903 2610.3984338899936 0 0 0 0 2490.9569758618018 554.0931692326767 0 554.0931692326767 -181.68087782795706 0 0 0 0 2499.7089929642534 85.073194854370371 0 85.073194854370371 2818.5088666005336 0 0 0 0 2946.357620058232 -887.73440569312197 0 -887.73440569312197 1267.5493388828336 0 0 0 0 2500.5107356626759 350.68497270856676 0 350.68497270856676 105.50361778667285 0 0 0 0 2687.0361193690351 338.36669862595602 0 338.36669862595602 -629.35607157586344 0 0 0 0 1511.1148536138498 982.56032782666944 0 982.56032782666944 118.18320116585704 0 0 0 0 145.22602823517082 340.52180563675836 0 340.52180563675836 38.186374878243043 0 0 0 0 2051.4664690508798 275.59719031912084 0 275.59719031912084 -257.54464845933103 0 0 0 0 941.50829773310397 694.18762517928394 0 694.18762517928394 49.121089142062146 0 0 0 0 2058.5001165857102 326.75151346158572 0 326.75151346158572 -356.22028988299815 0 0 0 0 -109.82877744997677 -228.83414913659601 0 -228.83414913659601 -80.502408339733279 0 0 0 0 60.255264013903002 -19.761139476989861 0 -19.761139476989861 4.7282354495838677 0 0 0 0 230.41202713840175 -51.478040001991985 0 -51.478040001991985 -477.42738914078529 0 0 0 0 273.36470838585956 -321.32356399474099 0 -321.32356399474099 -689.00016931054768 0 0 0 0 32.181228470468341 -364.05023424897581 0 -364.05023424897581 -275.10732070998671 0 0 0 0 570.0623608128808 108.56172924063424 0 108.56172924063424 112.62447854194767 0 0 0 0 513.94205813174813 -108.86363167529716 0 -108.86363167529716 18.444935897712242 0 0 0 0 113.64603640948189 23.412852051379701 0 23.412852051379701 -0.49701578039474725 0 0 0 0 78.156635688475944 -124.60160753146671 0 -124.60160753146671 68.946537808725054 0 0 0 0 76.838045541881002 -147.91189552396693 0 -147.91189552396693 352.82122780154276 0 0 0 0 -15.914390255638864 18.947161670520245 0 18.947161670520245 239.23638848726094 0 0 0 0 609.06845971274743 -243.78586146452352 0 -243.78586146452352 252.47402461465703 0 0 0 0 1150.9437115746832 -4.5912733858982762 0 -4.5912733858982762 23.75476721382131 0 0 0 0 1324.5021645131455 -669.04981476484318 0 -669.04981476484318 312.24969639546413 0 0 0 0 56.833873549927375 -417.17599435839452 0 -417.17599435839452 618.61400453024123 0 0 0 0 162.58697861875407 -93.571025026385428 0 -93.571025026385428 308.34966955833977 0 0 0 0 248.28761547663817 203.56809135893107 0 203.56809135893107 -25.761260251413205 0 0 0 0 122.65892636546778 -123.99595597028468 0 -123.99595597028468 293.20368480803927 0 0 0 0 -1.8870192443137057 44.168984124169583 0 44.168984124169583 320.29835223137843 0 0 0 0 55.25535934225627 31.187018385006127 0 31.187018385006127 63.488903567443231 0 0 0 0 -22.677812872963841 44.10857610088982 0 44.10857610088982 207.16549589300905 0 0 0 0 91.45881005103729 12.295773032992869 0 12.295773032992869 171.76635332973501 0 0 0 0 2499.9831149371676 130.39432839499594 0 130.39432839499594 -343.75265524848845 0 0 0 0 1135.1162484052729 59.768526184942232 0 59.768526184942232 -55.131986361377074 0 0 0 0 2253.5130921482632 -39.607099617790823 0 -39.607099617790823 -159.31490232892315 0 0 0 0 2092.6724012665782 192.57025676909612 0 192.57025676909612 65.353110709112741 0 0 0 0 2498.8610998319709 -139.81343707912561 0 -139.81343707912561 285.7921309131151 0 0 0 0 2003.1430340601401 -276.75370285090338 0 -276.75370285090338 -241.99136255281005 0 0 0 0 1499.3648831518367 -287.68769261973398 0 -287.68769261973398 -140.41901148064471 0 0 0 0 2535.5116433282019 -459.893887494821 0 -459.893887494821 -187.63482469823145 0 0 0 0 1498.9587459896611 621.8139389699711 0 621.8139389699711 153.51473676559226 0 0 0 0 9.0599019063499355 -2.0189659601653798 0 -2.0189659601653798 0.90684366125496785 0 0 0 0 -29.918741303172283 125.7990425103086 0 125.7990425103086 163.88056682996438 0 0 0 0 20.526069995365106 -39.853430433669928 0 -39.853430433669928 -239.27882591789989 0 0 0 0 177.72509702465322 -27.26756429779698 0 -27.26756429779698 -245.00132782528482 0 0 0 0 20.557990321143635 -6.1976096825833515 0 -6.1976096825833515 1.5160899217833983 0 0 0 0 184.76143231862807 -135.81782541135331 0 -135.81782541135331 -127.96537596103073 0 0 0 0 -69.833188082237029 20.535479147654655 0 20.535479147654655 65.579440382333814 0 0 0 0 9.9365600159799214 43.524945112582145 0 43.524945112582145 -192.91353233134123 0 0 0 0 5.1043505362885497 1.024874815008296 0 1.024874815008296 -3.4428433054574463 0 0 0 0 10.749605821439147 5.8873169163017067 0 5.8873169163017067 0.037739755533557462 0 0 0 0 -44.602028153018182 84.568782437477822 0 84.568782437477822 -16.190950574529097 0 0 0 0 -40.186533731430245 110.25929696274494 0 110.25929696274494 97.047386227628323 0 0 0 0 -79.561578760877637 -24.62903249700836 0 -24.62903249700836 150.69864046852291 0 0 0 0 1392.2698886542235 180.81146005385287 0 180.81146005385287 -25.200929298911944 0 0 0 0 157.77087719559131 -114.45716477500278 0 -114.45716477500278 104.80336976985686 0 0 0 0 481.35390978861687 134.9851172815595 0 134.9851172815595 -40.765751953370881 0 0 0 0 11.60110282299668 4.8555859567728596 0 4.8555859567728596 1.6126551772206756 0 0 0 0 23.328510423862554 65.164041481588171 0 65.164041481588171 42.843044993218882 0 0 0 0 5.927997637286353 -4.060180937188747 0 -4.060180937188747 -0.94739167014608938 0 0 0 0 27.794784211666411 46.885716319469338 0 46.885716319469338 60.037092793977422 0 0 0 0 5.3781942103141773 18.326363599132776 0 18.326363599132776 81.373958644375364 0 0 0 0 6.3944784974154913 1.5553662489882321 0 1.5553662489882321 0.53396843569538721 0 0 0 0 1796.0112629980686 -754.6682224927572 0 -754.6682224927572 159.46132178544522 0 0 0 0 -15.929031765615946 100.36265223428876 0 100.36265223428876 502.53286380288722 0 0 0 0 2494.3882871306705 -1106.2419767887957 0 -1106.2419767887957 482.94839511775541 0 0 0 0 1825.5862781484375 -440.7219430643529 0 -440.7219430643529 -146.64541758250442 0 0 0 0 2501.320218139324 -664.04350137986796 0 -664.04350137986796 -205.55587781483206 0 0 0 0 762.98995029351954 -556.10062525048033 0 -556.10062525048033 169.6345254293868 0 0 0 0 -3.8084548456315446 2.8851795994183149 0 2.8851795994183149 -2.3598284425666645 0 0 0 0 21.294001183123328 47.211582747825645 0 47.211582747825645 51.33644704594623 0 0 0 0 20.566076196525728 63.935900525384682 0 63.935900525384682 34.176907740092247 0 0 0 0 125.37065874155451 61.732981310366313 0 61.732981310366313 -43.024091846440228 0 0 0 0 80.840037642992684 54.71554433119752 0 54.71554433119752 -40.546988004987668 0 0 0 0 93.878969013734604 118.37954337958087 0 118.37954337958087 -36.795112106668455 0 0 0 0 87.338611210059753 80.119817574745412 0 80.119817574745412 58.75289522523201 0 0 0 0 72.913529541576281 72.122422685069125 0 72.122422685069125 58.202698789369208 0 0 0 0 -1.453290331343581 0.84426451761369492 0 0.84426451761369492 -0.23006653481849515 0 0 0 0 173.35153954544148 -11.224115526439959 0 -11.224115526439959 73.876740472780938 0 0 0 0 130.70504341294509 -26.627310355808191 0 -26.627310355808191 171.00101844012556 0 0 0 0 145.99339562933164 37.307595555706854 0 37.307595555706854 50.051812789743046 0 0 0 0 -18.18725129466111 -35.209110739209677 0 -35.209110739209677 -35.347946836840961 0 0 0 0 34.715749872935703 18.372269036088483 0 18.372269036088483 -39.221283654216506 0 0 0 0 15.592067597950518 62.738805023307009 0 62.738805023307009 86.398559471407793 0 0 0 0 17.755805157599752 5.9912119603437759 0 5.9912119603437759 12.871698307286579 0 0 0 0 18.935361621046468 24.065645913344383 0 24.065645913344383 -26.543799050119219 0 0 0 0 9.7272450435666542 -6.2754750655749376 0 -6.2754750655749376 -27.360796671510258 0 0 0 0 21.683170330299617 22.041498619480876 0 22.041498619480876 -14.923872051364299 0 0 0 0 35.131776370264561 6.3731204702701234 0 6.3731204702701234 9.9038395216117578 0 0 0 0 366.71185855413205 -48.058553447815939 0 -48.058553447815939 -197.94221037993475 0 0 0 0 -2.2041860036321452 7.0176972139860929 0 7.0176972139860929 -5.882004392995837 0 0 0 0 17.266995648431475 12.064818175985238 0 12.064818175985238 -2.2474383162957565 0 0 0 0 7.552858992742145 3.176693200324447 0 3.176693200324447 -3.3482634877430142 0 0 0 0 49.243834641090871 12.839118296572678 0 12.839118296572678 -75.645041492282871 0 0 0 0 37.545906837885695 50.903781726858156 0 50.903781726858156 -19.909458632155747 0 0 0 0 16.036644524825533 0.72690728886922784 0 0.72690728886922784 -11.078139724489517 0 0 0 0 21.247937523520051 -0.27249179144070368 0 -0.27249179144070368 -4.8916251607337013 0 0 0 0 14.53653892263813 1.5226596418527656 0 1.5226596418527656 -3.7930001700235123 0 0 0 0 -83.019131817278321 -48.566053187192502 0 -48.566053187192502 -9.9851311061410115 0 0 0 0 23.301451407394822 -2.9670966256195577 0 -2.9670966256195577 -2.1746364586226239 0 0 0 0 46.541988083576143 0.75709520684154086 0 0.75709520684154086 -29.853191714334798 0 0 0 0 20.040587096293166 6.9357261102071561 0 6.9357261102071561 71.789435872320382 0 0 0 0 27.739787242695456 36.13539019993209 0 36.13539019993209 -2.0858539822463626 0 0 0 0 9.6949598926025828 46.98287694679518 0 46.98287694679518 55.470829377577502 0 0 0 0 34.605258577414645 2.4408273523183546 0 2.4408273523183546 -9.6259866709956796 0 0 0 0 314.52433613767789 161.20609729061471 0 161.20609729061471 -27.402007800422325 0 0 0 0 44.599333961719822 -6.9793891247346949 0 -6.9793891247346949 -15.494373043994074 0 0 0 0 40.915776328212814 -9.9962376213757125 0 -9.9962376213757125 13.831219757737017 0 0 0 0 20.584760737954639 -4.3788881083364686 0 -4.3788881083364686 18.1074846923309 0 0 0 0 57.837478229412227 -52.475658680132369 0 -52.475658680132369 -10.907962205939185 0 0 0 0 -141.06906002204778 -43.197213258237298 0 -43.197213258237298 78.594740234186247 0 0 0 0 -14.162789700218127 -54.611249971914731 0 -54.611249971914731 -38.809913286461779 0 0 0 0 -80.814523511304287 0.91831869345105588 0 0.91831869345105588 96.087530505319819 0 0 0 0 1.6366239140808148 -1.2558270148373483 0 -1.2558270148373483 0.49425001531309931 0 0 0 0 1.0033077137578061 -2.1013436996935626 0 -2.1013436996935626 1.0124393319491007 0 0 0 0 54.529642232027982 -28.173331071411326 0 -28.173331071411326 -139.57180362169811 0 0 0 0 -164.46625682108424 238.16976395298707 0 238.16976395298707 121.75391596831287 0 0 0 0 -25.359969616773014 72.886824806805635 0 72.886824806805635 22.995184727791639 0 0 0 0 0.20548956780476146 47.068469999680019 0 47.068469999680019 -26.183697157272491 0 0 0 0 3.6170254896900076 -2.6192123281372615 0 -2.6192123281372615 0.5927743566380963 0 0 0 0 12.775856330765237 -12.262118003682417 0 -12.262118003682417 4.1101416882190733 0 0 0 0 227.38296861598064 -28.189011880636372 0 -28.189011880636372 -436.83439322213326 0 0 0 0 127.56424439496186 77.721170771751076 0 77.721170771751076 -64.045193554125035 0 0 0 0 75.663594356601607 155.17884882543095 0 155.17884882543095 -173.61272549628484 0 0 0 0 338.84640833818412 -278.069048965192 0 -278.069048965192 -110.12664326006814 0 0 0 0 21.735081854909367 -11.694446009742705 0 -11.694446009742705 -13.899204407366597 0 0 0 0 33.913075569120338 -6.5317693050230616 0 -6.5317693050230616 -16.710894872831886 0 0 0 0 43.451332143948093 -6.3465719213354532 0 -6.3465719213354532 -5.0593554116612722 0 0 0 0 37.136348518601153 -22.883182569762994 0 -22.883182569762994 -6.475350175566291 0 0 0 0 32.509791999968002 -12.870830222601853 0 -12.870830222601853 -40.898653369790281 0 0 0 0 68.281159827260126 52.664436381725409 0 52.664436381725409 -25.28393239825823 0 0 0 0 31.625546460128163 2.9521957219506767 0 2.9521957219506767 -13.182016321787074 0 0 0 0 178.26360207427933 4.3094228711808 0 4.3094228711808 -26.43740627401522 0 0 0 0 31.936010647659714 -50.202581707834156 0 -50.202581707834156 22.895683591147645 0 0 0 0 64.803960615696269 -52.570255647719591 0 -52.570255647719591 9.9903943536313591 0 0 0 0 8.3690830221051442 -0.74173885259322248 0 -0.74173885259322248 -4.6247467704161611 0 0 0 0 186.6008301636648 -123.07711222268256 0 -123.07711222268256 48.940007216717049 0 0 0 0 21.236808532310533 -53.458480510332947 0 -53.458480510332947 47.948340915826748 0 0 0 0 35.661067828696105 0.51631570782755531 0 0.51631570782755531 114.73473161717672 0 0 0 0 -49.374820907149115 -33.735447066983937 0 -33.735447066983937 157.42884353431376 0 0 0 0 -15.184508867627301 25.90952600697554 0 25.90952600697554 164.71539907326951 0 0 0 0 -3.6558491551477346 39.377106105959854 0 39.377106105959854 52.787910745365025 0 0 0 0 -11.934157276853512 -1.4747177730881731 0 -1.4747177730881731 70.046152634923061 0 0 0 0 -40.35683825166052 -57.583890025994293 0 -57.583890025994293 134.56534577365548 0 0 0 0 24.858056392193248 -37.636934236947582 0 -37.636934236947582 57.186929602265195 0 0 0 0 -5.930066192344384 -16.053935538104639 0 -16.053935538104639 102.8479411834544 0 0 0 0 25.089620422505959 -41.022091839613523 0 -41.022091839613523 33.923936683449938 0 0 0 0 -31.649744023598032 -97.776606873846958 0 -97.776606873846958 120.15678511904559 0 0 0 0 66.549779677094193 -99.015866337757984 0 -99.015866337757984 66.154714287509876 0 0 0 0 -95.985625832239748 -76.112474225731091 0 -76.112474225731091 216.25556087047465 0 0 0 0 -48.761201454464754 -21.745137566109491 0 -21.745137566109491 48.455863638863661 0 0 0 0 57.31626710056662 -169.1730193932905 0 -169.1730193932905 177.31244904409084 0 0 0 0 -64.919320594410237 -53.079526802114685 0 -53.079526802114685 246.04673609622529 0 0 0 0 -45.17009884575964 -43.916410597948257 0 -43.916410597948257 177.7750513459506 0 0 0 0 -69.364787521175458 -92.005512174923467 0 -92.005512174923467 157.65235828872778 0 0 0 0 -52.078267296026752 -163.90642517680757 0 -163.90642517680757 -69.340264002366382 0 0 0 0 -6.414787129360775 -42.663930242257891 0 -42.663930242257891 17.174680715573402 0 0 0 0 55.665993569869897 -32.951447474671454 0 -32.951447474671454 -207.82350690342741 0 0 0 0 75.125557140924727 -23.102818025793738 0 -23.102818025793738 5.2106029340555748 0 0 0 0 84.473299624394713 -206.41230926229298 0 -206.41230926229298 -401.20804860973999 0 0 0 0 52.301321348504644 -112.48976475135092 0 -112.48976475135092 -135.05315435064222 0 0 0 0 23.99474456500684 -96.623337751168037 0 -96.623337751168037 73.088868779754819 0 0 0 0 59.631575365288768 -205.38358342698243 0 -205.38358342698243 22.949607933813354 0 0 0 0 263.73076006580959 -7.5481244172055995 0 -7.5481244172055995 -337.22536914407203 0 0 0 0 6.7325701907536768 -11.44781013054285 0 -11.44781013054285 3.6598161678370227 0 0 0 0 243.13368722613086 -31.786908930597292 0 -31.786908930597292 -540.37500791527918 0 0 0 0 80.209210764477447 -22.260991209809699 0 -22.260991209809699 4.6992763499815489 0 0 0 0 154.80212379218574 90.452916916550748 0 90.452916916550748 -398.10602380588716 0 0 0 0 -0.45841169584309682 -8.7992014256101356 0 -8.7992014256101356 -250.16992070274819 0 0 0 0 42.182013017256395 -160.26142073734627 0 -160.26142073734627 39.608888219210712 0 0 0 0 17.845864464760183 -9.5512262404801547 0 -9.5512262404801547 3.429279931019825 0 0 0 0 113.13224846711091 89.544231527109787 0 89.544231527109787 -370.04791028329328 0 0 0 0 66.240989272215401 -22.091611162563517 0 -22.091611162563517 6.5067137391782346 0 0 0 0 44.229399808064045 -21.944019106120635 0 -21.944019106120635 30.721658394126507 0 0 0 0 68.287562721986887 -21.511496653964926 0 -21.511496653964926 -3.460799705609122 0 0 0 0 54.330113831929339 -86.497094441280439 0 -86.497094441280439 -32.765136486192588 0 0 0 0 174.6179760988307 -136.4116434827356 0 -136.4116434827356 -205.34717886402086 0 0 0 0 40.712150118201663 -15.638630457787947 0 -15.638630457787947 -19.440442923188858 0 0 0 0 2.91398062250002 1.2907853927012525 0 1.2907853927012525 -0.8929462997778046 0 0 0 0 68.362370643706527 -276.21077960684306 0 -276.21077960684306 335.77944366870452 0 0 0 0 77.613031654715996 84.7748863920134 0 84.7748863920134 54.197042525093821 0 0 0 0 316.32385189294291 -227.29541405048531 0 -227.29541405048531 -39.710639750051996 0 0 0 0 117.10240527580027 192.08995043387768 0 192.08995043387768 -133.5473399745299 0 0 0 0 -65.147674044172163 -51.803853322501254 0 -51.803853322501254 -85.4601915495914 0 0 0 0 235.32921715070552 174.28538767399505 0 174.28538767399505 65.52593565442362 0 0 0 0 -12.104489498669864 -49.765743043491057 0 -49.765743043491057 -19.02784948085764 0 0 0 0 49.548679542698665 -126.54494344625255 0 -126.54494344625255 117.7386021841271 0 0 0 0 2.9754579932451861 -4.1230732911203489 0 -4.1230732911203489 -14.707134039118346 0 0 0 0 11.834077925566817 8.2602381705391963 0 8.2602381705391963 155.88273529039634 0 0 0 0 -39.930310418331828 112.6201906444642 0 112.6201906444642 -72.711891119307438 0 0 0 0 65.267316072840913 -195.74871240493258 0 -195.74871240493258 -140.02994694951394 0 0 0 0 -123.09895010608307 -64.011979858820951 0 -64.011979858820951 95.091446498731784 0 0 0 0 118.76570319707389 -4.6437224466426414 0 -4.6437224466426414 -134.2501464828872 0 0 0 0 98.659282812118079 -18.667453922043141 0 -18.667453922043141 -6.6255913706109197 0 0 0 0 10.572827712702576 -30.07179376746749 0 -30.07179376746749 -17.454687067250184 0 0 0 0 88.328711037196626 2.3597827509111085 0 2.3597827509111085 -78.636341896879458 0 0 0 0 121.89311330561395 6.7740686964343695 0 6.7740686964343695 -78.726336034877022 0 0 0 0 67.249576939495455 -11.461193394948168 0 -11.461193394948168 -83.684098637346324 0 0 0 0 126.26461363728595 0.75186377517729852 0 0.75186377517729852 -82.223349839480534 0 0 0 0 66.236624205943372 -22.701076599099906 0 -22.701076599099906 10.32385005883043 0 0 0 0 129.58622220778489 -30.429222248807037 0 -30.429222248807037 -28.161906259222633 0 0 0 0 120.00218250887701 -21.134215675815994 0 -21.134215675815994 -12.490256120156118 0 0 0 0 137.47821449700859 -72.062529157969948 0 -72.062529157969948 15.94795959823341 0 0 0 0 131.03530840468738 26.864125791413244 0 26.864125791413244 -47.169163219143229 0 0 0 0 124.68703505321901 47.844325866116378 0 47.844325866116378 -13.234272261135629 0 0 0 0 142.80611685998883 -8.1403533379789224 0 -8.1403533379789224 -24.401213475693112 0 0 0 0 75.589111035493261 14.431111345944373 0 14.431111345944373 -32.521288615664162 0 0 0 0 12.788074466436228 16.785881282297851 0 16.785881282297851 -30.227742085725367 0 0 0 0 97.201358632017218 33.945441471456434 0 33.945441471456434 -43.4534155372653 0 0 0 0 36.767425227837521 19.497363151735044 0 19.497363151735044 -2.5441086620267015 0 0 0 0 67.601285991895566 32.508469119188021 0 32.508469119188021 -26.606440780766206 0 0 0 0 11.863314908991015 38.115972546953344 0 38.115972546953344 -33.96590236592192 0 0 0 0 7.1913825019772091 2.3677255610428105 0 2.3677255610428105 -7.3105692937031428 0 0 0 0 9.8331369274310418 14.483566826838342 0 14.483566826838342 -28.719227196346651 0 0 0 0 30.31641183120955 -3.922727363062279 0 -3.922727363062279 -21.77048632918169 0 0 0 0 91.626256743165868 10.945401124165983 0 10.945401124165983 -77.286816798169639 0 0 0 0 63.728022323597543 1.4810538160909346 0 1.4810538160909346 -71.302933804578061 0 0 0 0 17.286847985658881 -9.906537530384302 0 -9.906537530384302 9.5749937728319132 0 0 0 0 24.121163928932219 -8.4070277355813232 0 -8.4070277355813232 4.5626132411152867 0 0 0 0 7.9864605726462798 -2.8984869292893976 0 -2.8984869292893976 -7.2786060762565903 0 0 0 0 -233.65521062334301 -163.59024546765795 0 -163.59024546765795 -494.73793116681827 0 0 0 0 -2021.2218319177773 -1804.1501011186829 0 -1804.1501011186829 -437.33708409002793 0 0 0 0 21.204936992042349 -11.346742466574824 0 -11.346742466574824 1.625908100763354 0 0 0 0 24.796930505369914 -16.494164409762291 0 -16.494164409762291 2.4900473468019442 0 0 0 0 28.529243255040001 -9.2324856571736298 0 -9.2324856571736298 1.567665583984081 0 0 0 0 9.4780061374769957 0.68779424081031948 0 0.68779424081031948 -2.9140299390243554 0 0 0 0 33.292543440607005 6.0618230749901016 0 6.0618230749901016 52.194581202017162 0 0 0 0 34.358626752595228 15.219264025880577 0 15.219264025880577 26.386875261881869 0 0 0 0 69.890602388783009 -23.445748194904809 0 -23.445748194904809 38.92034882430562 0 0 0 0 42.606697455164976 -2.304457446393144 0 -2.304457446393144 22.586603247819085 0 0 0 0 94.520963293121895 -16.930505305170072 0 -16.930505305170072 10.384797289581684 0 0 0 0 94.173075453523779 11.205708127327625 0 11.205708127327625 -31.140660206525808 0 0 0 0 26.242183314292959 -7.203212117988425 0 -7.203212117988425 0.66796902640519251 0 0 0 0 35.994522250053706 -13.055565256586306 0 -13.055565256586306 62.921384436759581 0 0 0 0 18.350856847730284 -12.79654528136119 0 -12.79654528136119 2.379889173393301 0 0 0 0 -3.5929461647247081 12.857056604230195 0 12.857056604230195 -14.815420529187577 0 0 0 0 89.634367774284328 3.3633663041586033 0 3.3633663041586033 -12.334352285263577 0 0 0 0 322.66230793305294 92.18844453137217 0 92.18844453137217 -164.275221075015 0 0 0 0 141.21394548165699 30.680789221426721 0 30.680789221426721 -173.60078120253638 0 0 0 0 1380.5504430598521 464.84620947871281 0 464.84620947871281 -571.84151281998402 0 0 0 0 -133.1676227621283 -574.70952495197025 0 -574.70952495197025 -360.82844685622331 0 0 0 0 172.11181982657581 258.05845482070072 0 258.05845482070072 216.97605953379662 0 0 0 0 157.19665209734376 397.86850702612082 0 397.86850702612082 108.31482820367364 0 0 0 0 158.68068170612969 -123.667534744009 0 -123.667534744009 124.73846891565347 0 0 0 0 739.82967716701387 -341.86710706451095 0 -341.86710706451095 30.802369720919614 0 0 0 0 11.614347753055824 1.1202480956074261 0 1.1202480956074261 -1.2334415941528536 0 0 0 0 714.04794236840098 755.02483527265929 0 755.02483527265929 555.06525472435237 0 0 0 0 34.943107577848423 57.169743613930677 0 57.169743613930677 28.263681715608158 0 0 0 0 1500.4593086161331 -137.81165760839485 0 -137.81165760839485 -301.47100494296456 0 0 0 0 583.78799186251126 28.661585617152923 0 28.661585617152923 -92.054118202690915 0 0 0 0 342.56021881106426 217.1800087398085 0 217.1800087398085 1836.6438207311567 0 0 0 0 1380.9764759006939 410.69921337763367 0 410.69921337763367 -131.18773473183956 0 0 0 0 4.6048563262468747 -3.0113110194724584 0 -3.0113110194724584 -6.3606931914733771 0 0 0 0 -9.978589553720667 -18.896100350418237 0 -18.896100350418237 293.42421602104605 0 0 0 0 233.494119441777 -276.58617189242432 0 -276.58617189242432 359.3687783508567 0 0 0 0 101.01815685398469 -240.91384358294363 0 -240.91384358294363 371.87304367752677 0 0 0 0 65.593380492250063 -10.81196876661274 0 -10.81196876661274 2.227019211866482 0 0 0 0 342.48794750659727 -211.80310389240094 0 -211.80310389240094 -136.92821317795301 0 0 0 0 411.25401692574087 -73.45671088833933 0 -73.45671088833933 -479.90650056957111 0 0 0 0 98.181629805512785 2.512451653808057 0 2.512451653808057 -134.19798012679348 0 0 0 0 103.32441323005514 -69.197565392250226 0 -69.197565392250226 -190.77908271897195 0 0 0 0 162.74857301131851 -121.00657983608653 0 -121.00657983608653 45.729661198054487 0 0 0 0 90.45916420321737 -71.004745912310739 0 -71.004745912310739 69.278218613786521 0 0 0 0 94.455385938723339 -113.2837162538508 0 -113.2837162538508 84.592740345929997 0 0 0 0 151.73978161005289 -143.73702573812693 0 -143.73702573812693 13.954033916019398 0 0 0 0 375.16268821187987 -272.74652578976566 0 -272.74652578976566 64.507081253797878 0 0 0 0 19.503832169271845 -187.04158692115152 0 -187.04158692115152 168.6210078788863 0 0 0 0 -21.39978078808781 -8.2289383805855323 0 -8.2289383805855323 68.12709095294133 0 0 0 0 513.40329573606141 719.55667235954479 0 719.55667235954479 377.78566454332304 0 0 0 0 24.148388220371345 -2.6930529279684148 0 -2.6930529279684148 0.36282375942507983 0 0 0 0 427.16677645272284 -352.73576993825645 0 -352.73576993825645 124.18581463850569 0 0 0 0 1457.6550467110874 -819.60891419904078 0 -819.60891419904078 -1047.9374222312326 0 0 0 0 1403.6726128961454 -45.254047086465675 0 -45.254047086465675 -58.249875286157476 0 0 0 0 1183.1760970412342 1517.8496125859574 0 1517.8496125859574 1766.4767982719059 0 0 0 0 470.32294611285761 -83.834473272111154 0 -83.834473272111154 -108.46546740103986 0 0 0 0 295.5537826353393 -47.548180834949562 0 -47.548180834949562 -51.495042993787138 0 0 0 0 752.93765585856454 -189.67349973299861 0 -189.67349973299861 -83.732807523666452 0 0 0 0 53.551271111689857 65.356991073219433 0 65.356991073219433 12.980186012385502 0 0 0 0 72.230169696595112 303.0280545637961 0 303.0280545637961 -27.118553035846446 0 0 0 0 -347.57743590824089 140.46247647610338 0 140.46247647610338 463.9852766018812 0 0 0 0 28.294673248637991 -34.569530580140508 0 -34.569530580140508 -208.79762138148908 0 0 0 0 -286.65808885215665 -293.21507598325843 0 -293.21507598325843 -193.07060249013739 0 0 0 0 542.80849305584161 619.33854915701886 0 619.33854915701886 453.00035800535261 0 0 0 0 90.553413093832205 137.7479853605746 0 137.7479853605746 181.19920363349411 0 0 0 0 -494.00991922766843 476.37670942842851 0 476.37670942842851 1441.4810594195224 0 0 0 0 -172.32655395063921 -992.37708241887594 0 -992.37708241887594 1374.4685348718226 0 0 0 0 -160.34385394713536 -843.60662005227277 0 -843.60662005227277 -1551.6126213885218 0 0 0 0 -701.38128228552523 -379.60558306365238 0 -379.60558306365238 223.75751149272855 0 0 0 0 2.6250373422884223 2.9132222294246617 0 2.9132222294246617 2.1996862140324538 0 0 0 0 -2.8195958789547149 42.030554414081962 0 42.030554414081962 32.410403189752742 0 0 0 0 7.3734860112781462 -29.796202485557302 0 -29.796202485557302 300.7546473281883 0 0 0 0 29.169145178137114 -36.043360033687691 0 -36.043360033687691 39.857989751587411 0 0 0 0 4.1304632782197643 6.5056983252542864 0 6.5056983252542864 8.2158605077875215 0 0 0 0 292.43328924859816 -33.244257584203979 0 -33.244257584203979 -70.291320210204958 0 0 0 0 303.57349038781831 -33.932483757150067 0 -33.932483757150067 -87.15104519057877 0 0 0 0 302.42268377331493 -44.36021248869406 0 -44.36021248869406 -73.798310428712284 0 0 0 0 459.51069762629049 123.13498223840759 0 123.13498223840759 -23.62498335252576 0 0 0 0 34.473053133726353 91.930810895396291 0 91.930810895396291 484.62983907357398 0 0 0 0 72.707568265592272 -57.530274233512955 0 -57.530274233512955 149.86830109491143 0 0 0 0 47.846458291700401 -72.522753736500817 0 -72.522753736500817 140.89998915767433 0 0 0 0 97.237888233026752 -28.772559095991653 0 -28.772559095991653 81.35470121358378 0 0 0 0 284.82437361280608 -85.077488088104474 0 -85.077488088104474 36.118468968954403 0 0 0 0 162.193108652511 -47.747722446755006 0 -47.747722446755006 143.51594946622663 0 0 0 0 109.83664717039574 -112.15782126685144 0 -112.15782126685144 84.626394374392476 0 0 0 0 107.81570408073276 -128.30802137523767 0 -128.30802137523767 159.60787971123682 0 0 0 0 76.1184722938508 -117.01262472348947 0 -117.01262472348947 169.25673612529317 0 0 0 0 78.410645033680339 -85.668373282249831 0 -85.668373282249831 135.93421002896139 0 0 0 0 36.749377522654868 -16.639719089010711 0 -16.639719089010711 58.495936843624122 0 0 0 0 23.469258649798576 -88.888609328191905 0 -88.888609328191905 158.13650783279462 0 0 0 0 100.76454613891838 -21.518135842952233 0 -21.518135842952233 -63.088010661874591 0 0 0 0 -8.1356103519256067 -52.078139657458053 0 -52.078139657458053 -71.131025550424511 0 0 0 0 24.98502761603504 80.505476402970856 0 80.505476402970856 -185.88278129814489 0 0 0 0 63.449134382579359 -31.773249859376392 0 -31.773249859376392 -58.831710489539802 0 0 0 0 56.320454442059429 0.065958183180557572 0 0.065958183180557572 -1.5259906580393046 0 0 0 0 135.74029136645549 30.601276271062716 0 30.601276271062716 -318.9067714234593 0 0 0 0 55.98667152642156 -105.09368163830607 0 -105.09368163830607 -74.495977085130448 0 0 0 0 35.932354613101779 -68.694196037279426 0 -68.694196037279426 105.56104696408056 0 0 0 0 576.59563255573448 -8.1980266691964516 0 -8.1980266691964516 -104.89908054373277 0 0 0 0 -82.644779409989496 162.10876368132438 0 162.10876368132438 -148.39858347699499 0 0 0 0 169.39861162826855 -229.73867156906249 0 -229.73867156906249 -330.12481839153099 0 0 0 0 64.59866381688775 -1.3801792185323376 0 -1.3801792185323376 -1.7157463654843903 0 0 0 0 -23.279928554198705 176.8949619870973 0 176.8949619870973 -448.71964754890166 0 0 0 0 20.333791080306625 -0.32653819594762012 0 -0.32653819594762012 -4.5107916615784784 0 0 0 0 49.6363008833614 -94.574147893658463 0 -94.574147893658463 -278.42947203160634 0 0 0 0 272.99974087969895 27.597674782778569 0 27.597674782778569 -395.03931939487217 0 0 0 0 62.574752881497261 20.181083558689295 0 20.181083558689295 -38.276965211932669 0 0 0 0 52.26247358080218 113.06206931270808 0 113.06206931270808 -76.893874810912735 0 0 0 0 121.41069176351812 309.31928786325466 0 309.31928786325466 170.21850036784122 0 0 0 0 -4.8659591474242916 -7.9103051487927587 0 -7.9103051487927587 -7.7685951934773811 0 0 0 0 229.54047093645204 -172.6050368967517 0 -172.6050368967517 -531.39979918249082 0 0 0 0 3.3872456684366909 -1.3767156695025022 0 -1.3767156695025022 -0.43814375628647184 0 0 0 0 0.36071053092578609 -4.8418058835542483 0 -4.8418058835542483 1.3437056891594499 0 0 0 0 -20.741325431590667 50.441231920192649 0 50.441231920192649 129.70711323539945 0 0 0 0 104.52217838815704 102.44128359097067 0 102.44128359097067 -351.68980154937708 0 0 0 0 -315.14171335902938 96.617515214588821 0 96.617515214588821 -14.727680394701565 0 0 0 0 -482.27840254337207 -491.875330020305 0 -491.875330020305 680.24920828194536 0 0 0 0 234.43048473043018 -84.858088336779474 0 -84.858088336779474 -299.02483737777925 0 0 0 0 -235.18722070847434 18.082657072785992 0 18.082657072785992 -37.814076707064032 0 0 0 0 -29.004393751289172 -258.3072365807343 0 -258.3072365807343 -259.41238997928212 0 0 0 0 -65.264337829863507 191.80345036837207 0 191.80345036837207 -217.1502234878285 0 0 0 0 87.540890863417189 66.469492198549943 0 66.469492198549943 -114.35752542620867 0 0 0 0 -2.6374913850740995 -1.1634358297706058 0 -1.1634358297706058 -3.1910598440840658 0 0 0 0 15.172832290490987 35.030328010586231 0 35.030328010586231 9.9796136241438944 0 0 0 0 51.830908406831441 40.195678272856185 0 40.195678272856185 4.4625885774139533 0 0 0 0 11.041663295349281 -14.99133306928934 0 -14.99133306928934 43.365057784200872 0 0 0 0 81.510190310499638 17.611683415076641 0 17.611683415076641 11.465340018205097 0 0 0 0 79.221231293457095 28.174128613004541 0 28.174128613004541 -7.0397141561215903 0 0 0 0 181.96850159689347 14.87840554529339 0 14.87840554529339 -14.099746699183015 0 0 0 0 189.89868981173095 -19.882841723037814 0 -19.882841723037814 16.502924235112005 0 0 0 0 316.26394778454414 6.2292741332194055 0 6.2292741332194055 5.6812523155012968 0 0 0 0 158.71744982115342 70.14039353781618 0 70.14039353781618 33.168794850957056 0 0 0 0 129.73157956480281 42.075861271852773 0 42.075861271852773 34.564603313567318 0 0 0 0 159.99193537000247 -121.01747354723057 0 -121.01747354723057 73.32678716600293 0 0 0 0 208.02770578474156 -85.121716300549451 0 -85.121716300549451 29.065265526902294 0 0 0 0 154.95220943877939 -85.417046201105677 0 -85.417046201105677 52.852207673727207 0 0 0 0 306.13440261522919 -196.37499248156882 0 -196.37499248156882 134.28759749104893 0 0 0 0 218.08344349446998 -96.197311513640216 0 -96.197311513640216 191.32087157279921 0 0 0 0 343.14718020067448 -342.39665268840065 0 -342.39665268840065 631.78693046809303 0 0 0 0 136.17380052202861 -176.81687487638345 0 -176.81687487638345 217.01366966254409 0 0 0 0 58.351781040939386 132.5190513666721 0 132.5190513666721 115.2754666520068 0 0 0 0 289.6200246444314 128.128869727215 0 128.128869727215 42.206409992637418 0 0 0 0 673.68864315575047 -55.146358887493989 0 -55.146358887493989 7.3210148349943438 0 0 0 0 287.58297492457984 -0.070634016995626325 0 -0.070634016995626325 29.53932494046694 0 0 0 0 320.51659222241869 166.21174274868122 0 166.21174274868122 68.74500479588869 0 0 0 0 2.5828482450532135 -4.3028761880249533 0 -4.3028761880249533 0.3331116026451193 0 0 0 0 154.79962966077437 -304.27292159680337 0 -304.27292159680337 600.29234218547231 0 0 0 0 -46.808122687885771 -633.10275447830099 0 -633.10275447830099 70.640608976895237 0 0 0 0 -0.88230817735546907 -0.18333160147553684 0 -0.18333160147553684 0.28505330416390606 0 0 0 0 -299.75057345673849 -559.22742455407194 0 -559.22742455407194 187.68860832497541 0 0 0 0 -390.79538091992436 -362.97551824507218 0 -362.97551824507218 240.07269694962906 0 0 0 0 272.4849125501205 -1000.5711225792752 0 -1000.5711225792752 614.44434679288406 0 0 0 0 -193.73545352403016 -360.02613310345004 0 -360.02613310345004 171.14222779510376 0 0 0 0 -37.619232624623692 -306.96004906163336 0 -306.96004906163336 157.07946551786245 0 0 0 0 128.39557274829713 -679.27253055996971 0 -679.27253055996971 63.676129768011378 0 0 0 0 468.48659495654283 -565.06270704271935 0 -565.06270704271935 277.36914505342384 0 0 0 0 743.10429447425122 107.09241515947531 0 107.09241515947531 190.61161612643491 0 0 0 0 163.88114369999676 -87.611624374967505 0 -87.611624374967505 125.45555603437697 0 0 0 0 323.86366960883242 -265.9928644178143 0 -265.9928644178143 8.2587057208856152 0 0 0 0 -206.48977915928845 -108.13330964554916 0 -108.13330964554916 -35.777567870890607 0 0 0 0 84.796639143547509 29.377884151485773 0 29.377884151485773 210.77996412440814 0 0 0 0 271.54639967191179 -45.284541239602902 0 -45.284541239602902 -87.016720678584534 0 0 0 0 130.48605604616387 -31.952068172116469 0 -31.952068172116469 -238.53787668771776 0 0 0 0 176.77589918704325 -14.936672419598153 0 -14.936672419598153 -324.17604976026769 0 0 0 0 49.420673262432643 -1.5271323033140565 0 -1.5271323033140565 -0.67296158152758712 0 0 0 0 48.908999484970991 20.822702084136381 0 20.822702084136381 -92.050078674046887 0 0 0 0 -18.598987380577455 -86.217076036438129 0 -86.217076036438129 -115.32360956439061 0 0 0 0 76.670287535176612 81.006841909666036 0 81.006841909666036 -209.19596993426404 0 0 0 0 37.94903267885357 -1.0443205301762939 0 -1.0443205301762939 0.20834566681139033 0 0 0 0 72.025190718377416 -133.93800545284921 0 -133.93800545284921 -94.468489945198371 0 0 0 0 556.41536781315517 -199.05478899941386 0 -199.05478899941386 180.25247408726727 0 0 0 0 674.95687199171516 -225.04416899649937 0 -225.04416899649937 167.07029666394556 0 0 0 0 650.4203735954361 -202.49561593355338 0 -202.49561593355338 169.16687728005672 0 0 0 0 455.87561456431285 -249.30136991344853 0 -249.30136991344853 221.98836181078036 0 0 0 0 499.25690954318998 -209.66196593371137 0 -209.66196593371137 205.72037644676493 0 0 0 0 592.18405952649482 -254.62626681333199 0 -254.62626681333199 192.73651413981952 0 0 0 0 651.31208379939198 -258.92593035723917 0 -258.92593035723917 193.00185634590815 0 0 0 0 493.77883727268636 -199.91586794013267 0 -199.91586794013267 203.60631974600756 0 0 0 0 690.12886607281871 -306.03181475930285 0 -306.03181475930285 264.52067492087963 0 0 0 0 10.148978761832559 1.041539687065125 0 1.041539687065125 3.1641827389953621 0 0 0 0 456.26341994379254 -215.07221629738291 0 -215.07221629738291 237.31716622961488 0 0 0 0 553.92062243758119 -245.99821717377176 0 -245.99821717377176 257.00997582141554 0 0 0 0 538.5763285590001 -265.52525123511367 0 -265.52525123511367 245.68597542338557 0 0 0 0 457.35452923501725 -203.96130179048046 0 -203.96130179048046 301.43535213203234 0 0 0 0 639.53553227623343 -272.86529892132057 0 -272.86529892132057 371.33568218966957 0 0 0 0 562.92808016407071 -227.03064312373976 0 -227.03064312373976 321.12506828642131 0 0 0 0 612.70698969210207 -312.00613360477439 0 -312.00613360477439 314.31420178334929 0 0 0 0 611.62081801840395 -283.06276934305447 0 -283.06276934305447 385.24371728171059 0 0 0 0 692.37727840333537 -164.09910067842137 0 -164.09910067842137 320.76676221457251 0 0 0 0 750.40650748778717 -239.05321210530448 0 -239.05321210530448 273.52262187010399 0 0 0 0 594.40182301250752 -124.39379885813423 0 -124.39379885813423 341.4846147598451 0 0 0 0 554.74428092627204 -191.61557736322152 0 -191.61557736322152 400.36007800886239 0 0 0 0 536.71471420580929 -261.31839071097465 0 -261.31839071097465 316.90614289590883 0 0 0 0 555.54256386575798 -184.34680268653469 0 -184.34680268653469 298.84262427499345 0 0 0 0 424.71068738863687 -224.46895382980449 0 -224.46895382980449 316.10214283792197 0 0 0 0 34.406931476318277 -1.9569860982546743 0 -1.9569860982546743 -8.5659883068456111 0 0 0 0 994.50207803180092 15.912046717894626 0 15.912046717894626 464.08931940882474 0 0 0 0 682.8708500709763 -197.45945435914518 0 -197.45945435914518 456.09503127750122 0 0 0 0 1064.0049511981779 -143.09152893260591 0 -143.09152893260591 238.72323530885171 0 0 0 0 1112.3995931591198 -95.489935891110918 0 -95.489935891110918 192.58768996344543 0 0 0 0 -362.57542749621871 -9.6941410350131463 0 -9.6941410350131463 11.749452697513334 0 0 0 0 892.42337393987691 -722.56929262685685 0 -722.56929262685685 133.90756964306092 0 0 0 0 2.4802227938743542 0.65404588688517151 0 0.65404588688517151 0.88807868637976051 0 0 0 0 792.98978939790686 -600.66347496463027 0 -600.66347496463027 145.40788836855972 0 0 0 0 489.24071307996928 -449.8627993585892 0 -449.8627993585892 185.35090843484022 0 0 0 0 701.64323496901488 -429.06624154219327 0 -429.06624154219327 131.00844354486344 0 0 0 0 685.7026629113825 -494.70961729979695 0 -494.70961729979695 117.63028853673131 0 0 0 0 770.79212568438379 -524.83340400119232 0 -524.83340400119232 127.01953163349617 0 0 0 0 756.07362184132216 -352.45922315865801 0 -352.45922315865801 139.04682398956265 0 0 0 0 620.92548948607873 -419.03521621690015 0 -419.03521621690015 140.92407240684406 0 0 0 0 1124.2236831311166 -352.81278959147437 0 -352.81278959147437 105.28760229970794 0 0 0 0 717.25867071335233 -317.18871812053152 0 -317.18871812053152 191.49982596933296 0 0 0 0 904.65957163617713 -342.62514832325405 0 -342.62514832325405 137.58856231306027 0 0 0 0 897.06370348186465 -541.85526964544852 0 -541.85526964544852 64.489731008980471 0 0 0 0 891.98405645263847 -514.60893345109753 0 -514.60893345109753 124.87988142617633 0 0 0 0 1005.0280827279203 -166.01257451305037 0 -166.01257451305037 230.0451149089713 0 0 0 0 767.35905683485908 -232.51161257071891 0 -232.51161257071891 182.34878216875995 0 0 0 0 568.17506158618198 -306.74447279769515 0 -306.74447279769515 196.50645672245128 0 0 0 0 555.39698927140125 -190.81313124609784 0 -190.81313124609784 233.79305695515734 0 0 0 0 447.83651345735416 -124.88790713849858 0 -124.88790713849858 247.96147851596095 0 0 0 0 368.97614581532252 -200.3921972513574 0 -200.3921972513574 183.51218232314523 0 0 0 0 612.18631041579647 -283.00526207885696 0 -283.00526207885696 153.70337515523124 0 0 0 0 394.88511417305563 -248.89794933560233 0 -248.89794933560233 175.76564480494153 0 0 0 0 366.22324191041116 -283.60247862587335 0 -283.60247862587335 134.41809548601032 0 0 0 0 309.24874232889852 -149.15747036369976 0 -149.15747036369976 12.73800636308124 0 0 0 0 267.59825654756787 -79.758624641447113 0 -79.758624641447113 137.90927690140779 0 0 0 0 206.68722861470087 -49.086760301691754 0 -49.086760301691754 -99.59835189450223 0 0 0 0 175.98136644841907 -208.06995501131775 0 -208.06995501131775 -13.024227287840404 0 0 0 0 -26.2942978791325 -225.89522932930618 0 -225.89522932930618 288.56821355174452 0 0 0 0 720.98373995677684 -811.74761265653797 0 -811.74761265653797 179.12898860059249 0 0 0 0 531.81069105846109 -967.56051064493113 0 -967.56051064493113 340.74710330577682 0 0 0 0 274.5702099588525 -429.57631255972092 0 -429.57631255972092 211.63750604490633 0 0 0 0 80.743102342505154 -577.086401365038 0 -577.086401365038 301.17050783663944 0 0 0 0 131.09353925372125 -870.76248719893783 0 -870.76248719893783 503.16960746556106 0 0 0 0 577.76162721407309 -749.12164359864028 0 -749.12164359864028 328.49859124001341 0 0 0 0 422.80782008779352 -921.72585342247203 0 -921.72585342247203 337.03445906028901 0 0 0 0 427.29123092800728 -567.12030644064043 0 -567.12030644064043 211.50600287053976 0 0 0 0 526.9093434727547 -428.1352897179454 0 -428.1352897179454 146.72873474133621 0 0 0 0 196.29815867578509 -405.98291808625174 0 -405.98291808625174 230.99160521344947 0 0 0 0 32.467697362946637 129.41578980751751 0 129.41578980751751 -30.755721023030219 0 0 0 0 66.510613241393003 -45.090108015621581 0 -45.090108015621581 -26.116806252910465 0 0 0 0 94.110798641151632 27.207111467780891 0 27.207111467780891 99.183070866009984 0 0 0 0 167.88404425261979 -178.01061518962183 0 -178.01061518962183 41.102066404603647 0 0 0 0 227.0833392880304 -76.526545445459988 0 -76.526545445459988 108.94768285603277 0 0 0 0 222.26810077670234 -44.392009609336753 0 -44.392009609336753 221.04066939023255 0 0 0 0 140.61264253342961 38.260454813044376 0 38.260454813044376 76.428208906474381 0 0 0 0 128.88110190985026 -58.480259698928364 0 -58.480259698928364 214.80816272164077 0 0 0 0 76.446460924960775 38.30567771949481 0 38.30567771949481 100.29100986859203 0 0 0 0 215.58382661152427 -45.755914337279933 0 -45.755914337279933 114.82470086424871 0 0 0 0 329.70567407159251 -167.66369706553536 0 -167.66369706553536 238.63528055447031 0 0 0 0 364.37416941608899 -127.81670522548271 0 -127.81670522548271 282.59638405416183 0 0 0 0 233.86140231649915 -42.627711880075424 0 -42.627711880075424 172.45224401932268 0 0 0 0 303.53051695728936 -162.30340715460943 0 -162.30340715460943 210.79675101226513 0 0 0 0 385.59427053913532 -220.00678296366868 0 -220.00678296366868 268.29219985694795 0 0 0 0 333.74402551526146 -137.23080910533082 0 -137.23080910533082 214.29690506214229 0 0 0 0 324.65876244327228 -142.20050572826949 0 -142.20050572826949 119.91648357796362 0 0 0 0 446.42073328800325 -210.38087997501998 0 -210.38087997501998 157.41539705701746 0 0 0 0 327.29478358040797 -133.43527024806781 0 -133.43527024806781 145.22848213244276 0 0 0 0 301.4545199606182 -250.14846377280469 0 -250.14846377280469 166.05232352716621 0 0 0 0 470.25843556272594 -133.29015226171123 0 -133.29015226171123 -46.495627330551315 0 0 0 0 555.25066747080928 -249.14163590201019 0 -249.14163590201019 18.374507238806586 0 0 0 0 554.16947466924466 -255.91373424761662 0 -255.91373424761662 95.545646455644601 0 0 0 0 -330.11879671200495 388.56520628266117 0 388.56520628266117 -175.07259048136893 0 0 0 0 8.5122900403619717 10.784053882483164 0 10.784053882483164 7.5186161864013972 0 0 0 0 64.382098452617356 -115.63647359167635 0 -115.63647359167635 -149.61026016159758 0 0 0 0 -1.4071000614385412 -3.4394900630959455 0 -3.4394900630959455 -46.581313342884641 0 0 0 0 19.977531675023783 3.137120024951173 0 3.137120024951173 -128.66444856793805 0 0 0 0 17.854478117180406 7.0723790442898462 0 7.0723790442898462 -99.071553962723556 0 0 0 0 13.568793833300528 12.295945745281227 0 12.295945745281227 8.2333174624651306 0 0 0 0 -97.341682749523898 124.46483995377275 0 124.46483995377275 -78.595727172825718 0 0 0 0 532.91451354433593 -290.35747125767193 0 -290.35747125767193 96.629852009702063 0 0 0 0 -35.61109950829632 59.575296103169421 0 59.575296103169421 -12.302488033352347 0 0 0 0 27.922008659770654 67.853394889528317 0 67.853394889528317 -82.850846642126271 0 0 0 0 -18.575788627178554 103.9921807790447 0 103.9921807790447 -157.06847191684619 0 0 0 0 24.10756906302413 107.6812198212092 0 107.6812198212092 -92.488551515787549 0 0 0 0 -59.177006297238222 53.049857393253205 0 53.049857393253205 -127.40236647411984 0 0 0 0 21.19552167924121 95.932262835233814 0 95.932262835233814 -32.837474437663332 0 0 0 0 112.18317281337659 132.61309257984703 0 132.61309257984703 -164.48792627512285 0 0 0 0 4.5516438142440165 43.598729441263913 0 43.598729441263913 -44.541586204851228 0 0 0 0 21.957402938613086 59.531668686885496 0 59.531668686885496 -22.424896177197297 0 0 0 0 71.416109853082162 63.591881442474914 0 63.591881442474914 -28.275746511400939 0 0 0 0 182.62421851493127 -157.94912240687654 0 -157.94912240687654 -88.923844817627469 0 0 0 0 9.0744530349365959 -21.377197618568061 0 -21.377197618568061 60.397794715499913 0 0 0 0 383.01388327702443 46.078687003020605 0 46.078687003020605 -46.915551779430984 0 0 0 0 225.37322758995106 91.981646646043828 0 91.981646646043828 9.1449658293140601 0 0 0 0 118.54004072871248 -169.29394609929386 0 -169.29394609929386 233.53264631663205 0 0 0 0 2.5916902015124776 -1.3078329741758896 0 -1.3078329741758896 0.57802242210184485 0 0 0 0 451.66947400509889 -54.92936027759697 0 -54.92936027759697 -11.865334433601674 0 0 0 0 225.08549830306038 -15.330643485861401 0 -15.330643485861401 4.6121781977471983 0 0 0 0 0.14614354222483428 0.095095659376163155 0 0.095095659376163155 -0.039843948880063706 0 0 0 0 318.86568194574375 140.16136438278295 0 140.16136438278295 44.860121178274312 0 0 0 0 -5.2429902600742935 -5.8779363151556936 0 -5.8779363151556936 -15.368861897934266 0 0 0 0 7.1261184333188794 2.9947999354465082 0 2.9947999354465082 102.76534401563185 0 0 0 0 69.032872471034352 56.604897185609389 0 56.604897185609389 270.81898848926176 0 0 0 0 253.43983094799478 -207.82244717278263 0 -207.82244717278263 197.26332794374844 0 0 0 0 266.85025846747158 -44.454038006259907 0 -44.454038006259907 16.382755434259082 0 0 0 0 89.244300844137797 -94.607084008403035 0 -94.607084008403035 121.09149740811154 0 0 0 0 92.322508140765422 -101.19899824949835 0 -101.19899824949835 -23.119844519562776 0 0 0 0 73.711656870381375 -178.07263648963396 0 -178.07263648963396 -20.373397650081642 0 0 0 0 69.230767671157082 -148.28710097323483 0 -148.28710097323483 23.750156984594923 0 0 0 0 54.367836146832815 -38.58643370400722 0 -38.58643370400722 -3.8066309906807874 0 0 0 0 66.743738782883156 -96.458007855668257 0 -96.458007855668257 -37.943644563998078 0 0 0 0 -24.258313977101352 -24.201170842889951 0 -24.201170842889951 -94.50793901110228 0 0 0 0 -111.36268614034179 -167.78228039664873 0 -167.78228039664873 -16.720676994398673 0 0 0 0 5.1473347817017512 0.42173559417626194 0 0.42173559417626194 -2.1077328019452395 0 0 0 0 164.2343495400911 115.94356433264376 0 115.94356433264376 82.745460753618318 0 0 0 0 150.77506007930788 -87.076504260820002 0 -87.076504260820002 15.375536050191414 0 0 0 0 118.39242884872328 42.249891274735546 0 42.249891274735546 -14.822207485129184 0 0 0 0 124.04488895018221 24.668133149993082 0 24.668133149993082 -33.095271127552223 0 0 0 0 62.384935072375811 13.331451694263251 0 13.331451694263251 46.709242325250671 0 0 0 0 48.91258807761551 7.3744097022178039 0 7.3744097022178039 -34.44606107833215 0 0 0 0 21.949080132014508 -6.562525550788548 0 -6.562525550788548 1.3582468021170233 0 0 0 0 64.497061565154581 -86.353756396671542 0 -86.353756396671542 -185.28368244145258 0 0 0 0 -9.7406341079970389 81.531765896454544 0 81.531765896454544 -10.160311420806465 0 0 0 0 -23.104311370039795 -70.290845451156201 0 -70.290845451156201 -72.757893633357526 0 0 0 0 -99.168411471661784 -51.161713591377406 0 -51.161713591377406 59.127493094515557 0 0 0 0 6.4338480154544584 -0.15562704254426052 0 -0.15562704254426052 -4.5171098412429282 0 0 0 0 505.12574825048796 157.40596630548032 0 157.40596630548032 -16.055051639283192 0 0 0 0 9.5680759471408621 -1.6429988161025566 0 -1.6429988161025566 -0.41070889764167529 0 0 0 0 329.29521688828208 192.81360930532196 0 192.81360930532196 99.94481393660044 0 0 0 0 520.79400309230368 69.640486152538642 0 69.640486152538642 68.826391859627165 0 0 0 0 29.594261365309649 -205.88687134519682 0 -205.88687134519682 400.14861629587085 0 0 0 0 604.80232885778605 314.62368550673193 0 314.62368550673193 -480.91357985359446 0 0 0 0 -716.376605951893 -143.97772841752567 0 -143.97772841752567 604.18847361742019 0 0 0 0 65.59982607087295 -96.420831274031116 0 -96.420831274031116 208.76380099585549 0 0 0 0 230.71944520688885 -295.24362965797104 0 -295.24362965797104 24.182726862788513 0 0 0 0 29.764470561604639 36.09837674162587 0 36.09837674162587 24.785770107934468 0 0 0 0 100.15464889862051 48.688948325662182 0 48.688948325662182 -35.843284176696841 0 0 0 0 58.114806061132185 11.003609755652747 0 11.003609755652747 -56.949431391319422 0 0 0 0 28.307431174804663 9.8536430186530559 0 9.8536430186530559 -13.525829907316052 0 0 0 0 50.435431104804593 11.526028031597946 0 11.526028031597946 -13.400499567131192 0 0 0 0 5.6684959344145511 -1.8649314655096187 0 -1.8649314655096187 -2.0911391415429121 0 0 0 0 21.874239016797219 8.6951113473415944 0 8.6951113473415944 -4.9664093792714539 0 0 0 0 3.1529172236614436 -2.8887839753293463 0 -2.8887839753293463 -12.684761589338869 0 0 0 0 17.357003609944023 -2.9723922873002735 0 -2.9723922873002735 -10.137983969192772 0 0 0 0 15.946979853320954 -48.158159390416586 0 -48.158159390416586 -2.1319265091324269 0 0 0 0 32.329696676189997 -34.524037416189458 0 -34.524037416189458 1.3073048096284765 0 0 0 0 24.317424749660859 -42.813065570745039 0 -42.813065570745039 4.7285468071895593 0 0 0 0 6.3970965019834694 -23.539571189121716 0 -23.539571189121716 -8.114480433461722 0 0 0 0 7.9689426471814073 -3.3585241202279832 0 -3.3585241202279832 -3.8049954626553264 0 0 0 0 0.7898379934267723 -14.840746333648895 0 -14.840746333648895 -21.61280160551587 0 0 0 0 14.88141415314567 -34.206307845973242 0 -34.206307845973242 40.957485578537671 0 0 0 0 -7.1272971021080593 -11.064652022203859 0 -11.064652022203859 -10.570295730993166 0 0 0 0 4.4454982201023086 -8.2411905130061314 0 -8.2411905130061314 -14.744150054945294 0 0 0 0 1.5244431942919618 -1.8289156903579169 0 -1.8289156903579169 -4.8991680732001441 0 0 0 0 1.1473308354905427 -0.62723974831638429 0 -0.62723974831638429 -1.8291328153736437 0 0 0 0 114.66886207428888 92.730773787707903 0 92.730773787707903 23.245810126607466 0 0 0 0 28.376935950375287 -7.3023847944110845 0 -7.3023847944110845 1.7039717424611878 0 0 0 0 233.1865754937462 -84.610959372195794 0 -84.610959372195794 -133.80082814946445 0 0 0 0 -20.320129169347638 -94.010934635065496 0 -94.010934635065496 -19.576781822393968 0 0 0 0 199.15700942528929 -16.756797247581289 0 -16.756797247581289 -49.340852133034787 0 0 0 0 129.91653375081296 77.211634209373642 0 77.211634209373642 -169.70709843555505 0 0 0 0 0.98104764188993343 1.4041608222813764 0 1.4041608222813764 -0.50751575696976836 0 0 0 0 3.4070448091514223 0.51450122832486045 0 0.51450122832486045 -6.0741784179611393 0 0 0 0 -57.205185960825474 57.029086861242831 0 57.029086861242831 29.853434794665191 0 0 0 0 5.2225406072102487 -3.7420092053550889 0 -3.7420092053550889 -12.71642096039659 0 0 0 0 21.850214157006121 -12.055159887081118 0 -12.055159887081118 -11.855788304487419 0 0 0 0 6.8610198414025945 -0.83454221433225939 0 -0.83454221433225939 -7.5600317147764144 0 0 0 0 2.0266775674144775 -3.1098090659669602 0 -3.1098090659669602 -11.138860915761828 0 0 0 0 3.257534069904068 -1.0245886512856828 0 -1.0245886512856828 -11.743236374806656 0 0 0 0 12.205219312201734 1.7216654591233009 0 1.7216654591233009 -9.8335221000347701 0 0 0 0 11.339771926290268 -5.9666613609113028 0 -5.9666613609113028 -21.098744795608297 0 0 0 0 11.978585792884587 -11.102262294248931 0 -11.102262294248931 2.8839535236024858 0 0 0 0 20.901209995914542 -21.016975118523987 0 -21.016975118523987 -0.8647772732804242 0 0 0 0 18.405445368636265 -39.34873195734027 0 -39.34873195734027 26.012003085854303 0 0 0 0 29.777356076519709 -10.942609407097237 0 -10.942609407097237 -6.8159109853602331 0 0 0 0 30.217317960412572 -5.0361719214528904 0 -5.0361719214528904 -6.7938993425755143 0 0 0 0 27.530783929956215 -17.125432030935002 0 -17.125432030935002 -10.469123526366275 0 0 0 0 29.727833933761758 -23.276396481868176 0 -23.276396481868176 -13.468682234956759 0 0 0 0 16.561441192852726 -22.697137696897897 0 -22.697137696897897 -10.629422514336284 0 0 0 0 24.172710098473566 -8.9314007967919906 0 -8.9314007967919906 2.2518590275230794 0 0 0 0 14.639664179405372 -20.265595621762049 0 -20.265595621762049 13.259667962808695 0 0 0 0 23.53826556438398 -8.0351402673247421 0 -8.0351402673247421 2.1883373906979937 0 0 0 0 7.7996233700096127 -18.623874436612141 0 -18.623874436612141 12.866089185259739 0 0 0 0 11.663303252298647 -40.201541630989027 0 -40.201541630989027 46.788988192504178 0 0 0 0 17.816554118502609 -44.002201175929258 0 -44.002201175929258 24.242187601398058 0 0 0 0 0.95223038825679396 -21.625586143638884 0 -21.625586143638884 20.015509577585973 0 0 0 0 23.487080180667363 -30.833109392228323 0 -30.833109392228323 -6.3444111306537252 0 0 0 0 60.294481250439276 3.8034553545326162 0 3.8034553545326162 -78.421796107264527 0 0 0 0 37.312687399271454 -53.024554576811624 0 -53.024554576811624 -44.224172155651559 0 0 0 0 30.318851108738279 -10.606635400074747 0 -10.606635400074747 2.0967852045755149 0 0 0 0 14.68684861537691 0.28546505803562994 0 0.28546505803562994 -6.0777178183767928 0 0 0 0 19.971647867094362 -55.325461850778311 0 -55.325461850778311 -15.322651271411644 0 0 0 0 56.319784580320629 -22.544542840157419 0 -22.544542840157419 -70.896887335249119 0 0 0 0 26.142379664462396 -1.5851446487942269 0 -1.5851446487942269 -18.591874155753203 0 0 0 0 62.941685064409285 21.375047855221858 0 21.375047855221858 26.281316915199739 0 0 0 0 183.97554166866621 47.955305335642997 0 47.955305335642997 10.055246837625205 0 0 0 0 61.405012056369742 -64.030345459664687 0 -64.030345459664687 22.153156917281137 0 0 0 0 102.60176262411005 -7.2054936689269766 0 -7.2054936689269766 -20.038309203434068 0 0 0 0 164.87748108738924 7.9872565150643027 0 7.9872565150643027 80.62551301431904 0 0 0 0 8.7495319182635285 -34.771118042297417 0 -34.771118042297417 113.50326141926462 0 0 0 0 126.01509317900877 -81.457442174377277 0 -81.457442174377277 55.506904223167908 0 0 0 0 1.6461482439167412 -0.88076952018694676 0 -0.88076952018694676 -1.0803926964524915 0 0 0 0 184.67952759401123 34.615558826898905 0 34.615558826898905 109.9316625865913 0 0 0 0 222.84174425832043 60.34942107994425 0 60.34942107994425 123.88996404370209 0 0 0 0 33.089045977180831 19.956229074152589 0 19.956229074152589 212.73611978281264 0 0 0 0 92.769406555788009 14.01869251368862 0 14.01869251368862 110.9166134571542 0 0 0 0 -3.1320964661263133 -21.835497717217038 0 -21.835497717217038 164.52235078975275 0 0 0 0 -1.4016596096889771 -23.883908318468286 0 -23.883908318468286 107.82090389461518 0 0 0 0 23.568129606534058 10.051888692840294 0 10.051888692840294 72.923633358478583 0 0 0 0 80.982109593478526 65.945351492832287 0 65.945351492832287 127.33490138577235 0 0 0 0 -34.987524068832499 16.917713427462331 0 16.917713427462331 138.84402873085423 0 0 0 0 0.069481279277621155 1.8628280246343607 0 1.8628280246343607 1.481827551692124 0 0 0 0 -21.003572967214495 9.0182461532198204 0 9.0182461532198204 61.256705335338893 0 0 0 0 3.0075475570553749 1.7475068965136007 0 1.7475068965136007 2.6728961637370543 0 0 0 0 10.71504327634284 6.4293909004061334 0 6.4293909004061334 61.408588266417382 0 0 0 0 -8.0649194550255743 -9.9192534236595407 0 -9.9192534236595407 82.054863953543645 0 0 0 0 -28.812267379874356 7.4702771047243459 0 7.4702771047243459 46.287028125562301 0 0 0 0 -32.800929421075125 27.567875842740705 0 27.567875842740705 98.909395468468119 0 0 0 0 -50.956770927974958 43.003033841501065 0 43.003033841501065 96.173144966392215 0 0 0 0 19.144646478308459 49.698790738862613 0 49.698790738862613 91.531156792180127 0 0 0 0 73.095196324338303 52.2784587552228 0 52.2784587552228 41.377140182885228 0 0 0 0 10.676643765493395 2.9277470814323721 0 2.9277470814323721 19.817352259718177 0 0 0 0 5.2555034911074312 1.2670480406101143 0 1.2670480406101143 -2.5336105352260154 0 0 0 0 318.40570391899564 -46.353149562525758 0 -46.353149562525758 247.68659152294163 0 0 0 0 14.075686713757023 -159.50314161420474 0 -159.50314161420474 88.806384446052306 0 0 0 0 6.8592136558447478 -0.99972933151776111 0 -0.99972933151776111 -0.50273969644252658 0 0 0 0 44.886262655567407 269.06016205887727 0 269.06016205887727 112.74958054233093 0 0 0 0 200.1427230932386 291.56007726261521 0 291.56007726261521 109.78776760789242 0 0 0 0 527.45848424382893 443.9160930547759 0 443.9160930547759 169.21428242256218 0 0 0 0 680.18091094416241 82.47163193417785 0 82.47163193417785 -5.1819755977567183 0 0 0 0 283.59306450345684 157.88434725783225 0 157.88434725783225 14.965287541291673 0 0 0 0 328.65290599589025 -18.23314819803899 0 -18.23314819803899 -39.421903894442266 0 0 0 0 108.51976116449623 151.53706202570157 0 151.53706202570157 66.716637707951492 0 0 0 0 80.026523946642556 31.78347071845598 0 31.78347071845598 -7.1089607942355713 0 0 0 0 13.692732374845036 4.8823925025916992 0 4.8823925025916992 12.280552893629192 0 0 0 0 1.7513185847106207 -1.162134222073524 0 -1.162134222073524 -1.3871565897461089 0 0 0 0 -76.57772708189259 -60.88823447940883 0 -60.88823447940883 66.693463759896531 0 0 0 0 112.58759488362739 150.00498839510362 0 150.00498839510362 49.876859284587766 0 0 0 0 209.83815913997569 246.65095203362569 0 246.65095203362569 311.86267477704592 0 0 0 0 143.23365227363138 101.76530887118946 0 101.76530887118946 125.77911256437346 0 0 0 0 204.06809732867259 171.2301955532912 0 171.2301955532912 119.3532018945705 0 0 0 0 273.58103507572832 139.88799101147765 0 139.88799101147765 61.252338504265936 0 0 0 0 282.40774732006639 173.77396270119866 0 173.77396270119866 18.397861971922794 0 0 0 0 -10.861201250821978 92.892847501243409 0 92.892847501243409 148.79734108198727 0 0 0 0 130.97548515645212 91.617277519310733 0 91.617277519310733 132.58172597676548 0 0 0 0 97.105419122361127 55.045788174198833 0 55.045788174198833 216.11695953493654 0 0 0 0 140.31994678474075 81.15731170327399 0 81.15731170327399 138.10347231312608 0 0 0 0 195.0434525245023 -41.973012391473617 0 -41.973012391473617 195.38243531668286 0 0 0 0 211.81412210562848 43.790460512718141 0 43.790460512718141 143.04547910338397 0 0 0 0 179.52733834086212 1.0831886675300666 0 1.0831886675300666 102.15633503115623 0 0 0 0 303.32319687650124 100.74692571647836 0 100.74692571647836 -14.580673223823396 0 0 0 0 287.20307071697971 104.89085354956387 0 104.89085354956387 63.014974146738183 0 0 0 0 230.2287863568763 49.407866285795762 0 49.407866285795762 55.958587446477395 0 0 0 0 297.61228201713311 17.576894523405372 0 17.576894523405372 64.718986764554984 0 0 0 0 357.19929324464101 54.834933753665609 0 54.834933753665609 3.0705812695848635 0 0 0 0 337.39660517505399 85.965207402717851 0 85.965207402717851 -24.419185963264681 0 0 0 0 309.89782392304915 57.121151848801674 0 57.121151848801674 -37.227677545078222 0 0 0 0 186.13205638769432 11.667092305700862 0 11.667092305700862 -14.205419611872912 0 0 0 0 233.78265525455208 111.42539675574153 0 111.42539675574153 18.217651687407852 0 0 0 0 286.00684949882202 9.2483775443143372 0 9.2483775443143372 -70.429105203385006 0 0 0 0 280.09327837046658 70.405052209920996 0 70.405052209920996 -25.797282223912816 0 0 0 0 373.96504086771165 149.96597580616685 0 149.96597580616685 17.0403158953402 0 0 0 0 401.14532102048906 80.422652727243303 0 80.422652727243303 -81.852929109146544 0 0 0 0 488.37521254936655 322.18349749107733 0 322.18349749107733 112.97593294629746 0 0 0 0 665.83571207085151 135.33883101405036 0 135.33883101405036 -106.92177413235049 0 0 0 0 320.98134894043505 49.215331197318278 0 49.215331197318278 -58.129313303459185 0 0 0 0 -36.631092827165048 36.791237662347612 0 36.791237662347612 28.248484322937884 0 0 0 0 404.624367222008 -191.3524003954019 0 -191.3524003954019 28.561310643571915 0 0 0 0 302.98619010851689 -1.0635231277042294 0 -1.0635231277042294 -147.1524248893511 0 0 0 0 326.01434373107259 53.907779912830392 0 53.907779912830392 -96.7695224000081 0 0 0 0 191.61907212667393 136.82855830795006 0 136.82855830795006 54.136186893707418 0 0 0 0 267.34360643565196 16.402470446455482 0 16.402470446455482 64.027173706457688 0 0 0 0 251.22332913324499 115.70916977723027 0 115.70916977723027 58.853163107214641 0 0 0 0 55.598473841135274 -155.05019438746422 0 -155.05019438746422 -9.4521146190982108 0 0 0 0 4.9432538507187687 -4.4984032918001446 0 -4.4984032918001446 2.1696045759850957 0 0 0 0 4.1109569185138497 -1.9628123315532697 0 -1.9628123315532697 0.36298908452801371 0 0 0 0 118.82488591764923 -64.542399376421599 0 -64.542399376421599 -17.450729698803116 0 0 0 0 208.22976668328192 -73.785662120068082 0 -73.785662120068082 -97.515936289742967 0 0 0 0 272.66764587288344 -43.187940744909611 0 -43.187940744909611 -141.43605004024994 0 0 0 0 243.69496195555257 7.2284773554174535 0 7.2284773554174535 -63.123957410933144 0 0 0 0 198.03876456934813 20.016694608819307 0 20.016694608819307 -11.71999738107661 0 0 0 0 -49.339475071380093 -80.438055122397031 0 -80.438055122397031 27.641064141624156 0 0 0 0 -65.978625584175461 41.969830169541638 0 41.969830169541638 -37.596235375200195 0 0 0 0 36.234954131421546 44.401423648065247 0 44.401423648065247 -37.82363532349882 0 0 0 0 18.418931580174103 48.9990069808523 0 48.9990069808523 -119.36035937270572 0 0 0 0 4.1557852269840083 -4.0962655258029397 0 -4.0962655258029397 -1.06227282365262 0 0 0 0 -274.38233650643906 -97.226214454674846 0 -97.226214454674846 -17.576474410278479 0 0 0 0 -0.62588363010581816 27.786160230522 0 27.786160230522 10.57760008261539 0 0 0 0 38.205838857192703 4.1302557061734433 0 4.1302557061734433 -35.87639788190063 0 0 0 0 -24.588674305134191 -70.029322623674489 0 -70.029322623674489 58.818046539329998 0 0 0 0 199.38158476502576 58.16043102569779 0 58.16043102569779 -86.02949138840313 0 0 0 0 -95.323474079898006 0.92205370074202619 0 0.92205370074202619 108.24561460783241 0 0 0 0 -81.484396895749796 -126.05458171982403 0 -126.05458171982403 111.17856757703419 0 0 0 0 8.9458022975127633 -5.3912835159067187 0 -5.3912835159067187 2.5300050132976146 0 0 0 0 291.77154402424276 149.00566878824861 0 149.00566878824861 -23.730270920796784 0 0 0 0 2.5383030194586631 -2.0572524234639999 0 -2.0572524234639999 0.30967130664350684 0 0 0 0 130.81964796544707 -45.195142814896371 0 -45.195142814896371 -58.647145545399781 0 0 0 0 -7.7628994649785454 -56.560812863975116 0 -56.560812863975116 -36.560867952925037 0 0 0 0 -3.345800622842944 108.99437533676132 0 108.99437533676132 140.41284252413129 0 0 0 0 320.20892097238539 -21.940925046564985 0 -21.940925046564985 -63.934591278230073 0 0 0 0 208.68523643413573 51.544759239051388 0 51.544759239051388 -102.67900236389588 0 0 0 0 -79.950578232248517 -27.516398033539701 0 -27.516398033539701 35.724472064425839 0 0 0 0 -57.023566390108499 -76.910852239216936 0 -76.910852239216936 28.510785839950358 0 0 0 0 9.2681214849177493 -7.7109161769017653 0 -7.7109161769017653 4.9429194559060674 0 0 0 0 92.122253833387731 -108.22955748500414 0 -108.22955748500414 155.64792881881669 0 0 0 0 -9.1422255504585337 6.4399483447645025 0 6.4399483447645025 23.222191706573312 0 0 0 0 -10.246371357844509 10.007147929793518 0 10.007147929793518 11.776225533734532 0 0 0 0 8.2168951235944405 74.112554762497496 0 74.112554762497496 147.97863857665737 0 0 0 0 -11.871081529541698 28.039971910947997 0 28.039971910947997 15.885694702572721 0 0 0 0 -2.2796979676459159 25.908698108696314 0 25.908698108696314 -17.80008971129439 0 0 0 0 14.182716509411044 -4.5470013692586235 0 -4.5470013692586235 0.46841529061482312 0 0 0 0 239.31272934717344 -151.10510973098343 0 -151.10510973098343 -246.39083643801342 0 0 0 0 73.581338742412299 -68.350135077073219 0 -68.350135077073219 -123.01602763423617 0 0 0 0 991.31048299717077 71.796770163058227 0 71.796770163058227 -234.98476669594157 0 0 0 0 18.571328111072539 -10.089393855243276 0 -10.089393855243276 1.6678829549249947 0 0 0 0 -1.4864440096957878 -155.4091494620526 0 -155.4091494620526 -17.044766899704427 0 0 0 0 64.690474409349918 -28.751829710255947 0 -28.751829710255947 -9.0015564670210324 0 0 0 0 7.6433482972788624 4.2613724434417009 0 4.2613724434417009 -28.174575078361443 0 0 0 0 2.6376638068650209 12.362477088749699 0 12.362477088749699 -5.7886111312874391 0 0 0 0 5.8640815898444387 -2.1377488947256609 0 -2.1377488947256609 1.1963387092746396 0 0 0 0 8.8694819121774344 -3.9115702888366286 0 -3.9115702888366286 4.3392778722102321 0 0 0 0 1.8754257730906829 10.745202385574601 0 10.745202385574601 5.4056642422791583 0 0 0 0 25.427728396238308 -71.400645325370419 0 -71.400645325370419 -54.259305811657214 0 0 0 0 53.569380167536039 -13.596746104417452 0 -13.596746104417452 -32.254002135024024 0 0 0 0 29.388202808435381 -68.405390337267818 0 -68.405390337267818 -119.87872257128311 0 0 0 0 13.634275312916543 0.030431724502932411 0 0.030431724502932411 112.05031257764495 0 0 0 0 9.5556978063400422 -4.7633043800576864 0 -4.7633043800576864 -2.4535837933185967 0 0 0 0 -26.870631522826443 -172.4218291608322 0 -172.4218291608322 -164.41237461459514 0 0 0 0 54.064618549305642 -20.934957514330467 0 -20.934957514330467 -28.820761396204801 0 0 0 0 -65.312831611287038 -36.081336652532855 0 -36.081336652532855 -54.354127078338934 0 0 0 0 152.50511430106053 119.05745753054316 0 119.05745753054316 54.472827134749537 0 0 0 0 79.717325069198523 164.70082479871451 0 164.70082479871451 369.31926873444945 0 0 0 0 172.89482505967044 139.53508622452091 0 139.53508622452091 187.86312094844288 0 0 0 0 146.62037199412225 14.281996184537547 0 14.281996184537547 531.62872712106218 0 0 0 0 95.227880963680036 -8.1342773967676294 0 -8.1342773967676294 228.98393724278299 0 0 0 0 170.42858464224173 36.514437892803016 0 36.514437892803016 -29.528724580925882 0 0 0 0 1.6784744430094845 1.0615380180962484 0 1.0615380180962484 9.7353880312502756 0 0 0 0 -321.56089876109593 -276.09280129141871 0 -276.09280129141871 583.26359620263065 0 0 0 0 3157.5562897650011 1409.0954475918127 0 1409.0954475918127 1250.9782255952832 0 0 0 0 235.28978517605265 218.63980126905153 0 218.63980126905153 501.52535686050396 0 0 0 0 -247.38687866619694 178.0367077269043 0 178.0367077269043 1532.1887618711803 0 0 0 0 90.429871298128091 115.28394673966977 0 115.28394673966977 89.439282865320365 0 0 0 0 143.75235559478642 -133.58621645399307 0 -133.58621645399307 270.8616480578894 0 0 0 0 81.646250186595012 64.813794041414099 0 64.813794041414099 -107.14278677070979 0 0 0 0 2501.3687649605249 483.60735091380695 0 483.60735091380695 260.90068355820046 0 0 0 0 -62.224958719744336 224.27816575157158 0 224.27816575157158 -41.992649618544874 0 0 0 0 2565.4268534411531 459.08767033308141 0 459.08767033308141 173.10085273766373 0 0 0 0 -251.14602076092359 93.716146938590782 0 93.716146938590782 64.649244987729617 0 0 0 0 0.1044882882484538 5.9541976335567881 0 5.9541976335567881 26.493666476442897 0 0 0 0 -48.741153873888379 34.508121478419525 0 34.508121478419525 18.090645038539151 0 0 0 0 -16.031816795051782 116.82572600374442 0 116.82572600374442 -3.9673108563820279 0 0 0 0 66.022824021214092 61.623832455029969 0 61.623832455029969 -20.175598596990312 0 0 0 0 64.902300409901557 71.376965706959027 0 71.376965706959027 -5.9373017577781866 0 0 0 0 9.2327309295927762 48.973610346955411 0 48.973610346955411 13.093215871564098 0 0 0 0 10.461281236780067 45.252381732602771 0 45.252381732602771 19.956364118977035 0 0 0 0 -1.4239719380025702 8.93966001526206 0 8.93966001526206 38.741092443671604 0 0 0 0 2532.5962811955737 402.51808739997676 0 402.51808739997676 75.789965183291258 0 0 0 0 29.28211443670989 -47.381700827380882 0 -47.381700827380882 9.8283813418415775 0 0 0 0 204.49245564494004 41.244993557276302 0 41.244993557276302 -14.577101487122491 0 0 0 0 60.870452351897825 42.476753628754977 0 42.476753628754977 -14.455415317344887 0 0 0 0 40.822465657004237 3.8072006979168016 0 3.8072006979168016 -14.4465647766131 0 0 0 0 142.65375081331877 17.567266162098804 0 17.567266162098804 -91.99178083098559 0 0 0 0 -112.25445696642282 78.132467469784444 0 78.132467469784444 68.901014458258942 0 0 0 0 -4.7978802646637888 -11.765865610205696 0 -11.765865610205696 -7.9925949557207652 0 0 0 0 55.225540367206122 -30.606283017632229 0 -30.606283017632229 -79.316989757582604 0 0 0 0 21.848091306978617 -9.8848071386725458 0 -9.8848071386725458 1.2303667375375587 0 0 0 0 67.851719310185217 -75.121981196700744 0 -75.121981196700744 -43.8361987530227 0 0 0 0 122.52778145029515 -26.401757396393634 0 -26.401757396393634 -48.175340339788818 0 0 0 0 176.99383592470622 -147.41620495074574 0 -147.41620495074574 -150.23863017662734 0 0 0 0 -143.05296743524377 -55.759035942175615 0 -55.759035942175615 -23.833457369074949 0 0 0 0 0.52268868269442237 -4.690846505822349 0 -4.690846505822349 0.039953231764116803 0 0 0 0 20.006684819498332 -4.3020270037815038 0 -4.3020270037815038 -19.555533062224271 0 0 0 0 24.411418402567541 -0.13713424549027309 0 -0.13713424549027309 -12.99380796315514 0 0 0 0 38.924619817768871 3.7707657818714324 0 3.7707657818714324 -23.184190955392523 0 0 0 0 22.773712598776719 -10.882739157418285 0 -10.882739157418285 -2.7342810343678803 0 0 0 0 2.0001221496595463 -50.138478891904555 0 -50.138478891904555 -243.24613840794018 0 0 0 0 -19.402299051545924 -156.66343740781878 0 -156.66343740781878 -80.843693991609598 0 0 0 0 33.219239461053803 31.729286390041352 0 31.729286390041352 -5.1070022621306634 0 0 0 0 4.5530476924262189 0.72276610104717776 0 0.72276610104717776 -2.6691594908814884 0 0 0 0 27.32858891401338 55.618230118497195 0 55.618230118497195 -83.915900070035548 0 0 0 0 306.19471908542255 148.45321299061675 0 148.45321299061675 75.222104461302024 0 0 0 0 218.17108741517586 250.51442501779707 0 250.51442501779707 25.514125421602785 0 0 0 0 52.320375710598455 103.39614136168029 0 103.39614136168029 160.17261125268215 0 0 0 0 246.74617706437493 26.503345085677438 0 26.503345085677438 -42.354790443120464 0 0 0 0 1.4578921445078521 -0.79654198034533863 0 -0.79654198034533863 1.4960280743553565 0 0 0 0 17.349835371700465 127.09362852571803 0 127.09362852571803 200.68785443656043 0 0 0 0 306.21572536183521 135.35750426227332 0 135.35750426227332 74.613376503182735 0 0 0 0 -0.06351284277906899 -0.26944569167919141 0 -0.26944569167919141 0.64810281252882618 0 0 0 0 744.02788978662284 313.52582197718402 0 313.52582197718402 141.33517565150578 0 0 0 0 181.24725990489242 -31.999182335676323 0 -31.999182335676323 -252.82471119159618 0 0 0 0 196.06005563888175 -124.22099112260855 0 -124.22099112260855 69.032382892082751 0 0 0 0 425.06161705656996 -64.041897190317059 0 -64.041897190317059 25.276443318468409 0 0 0 0 -56.782918119664828 241.10323093461648 0 241.10323093461648 26.398224465821386 0 0 0 0 -161.2662139559543 -24.295873709555281 0 -24.295873709555281 42.663369887593035 0 0 0 0 19.056930118960139 7.3754279550733148 0 7.3754279550733148 -0.34118829137591966 0 0 0 0 1195.2528519088737 -838.23216898244311 0 -838.23216898244311 246.4299726535057 0 0 0 0 20.416047513203239 19.410494567169152 0 19.410494567169152 179.48840805043977 0 0 0 0 30.061713247932772 14.927331949381205 0 14.927331949381205 -5.5397557073429855 0 0 0 0 26.840345849446749 5.5780363628505256 0 5.5780363628505256 -19.24745903417579 0 0 0 0 16.134043860421002 9.2246107549350427 0 9.2246107549350427 -14.482009235439818 0 0 0 0 29.340634140547401 0.31324524484752203 0 0.31324524484752203 6.1540134199113332 0 0 0 0 32.439271915985373 6.014208146685581 0 6.014208146685581 18.874188655280349 0 0 0 0 25.293185753742481 4.4266266572674127 0 4.4266266572674127 0.26829382741572277 0 0 0 0 31.079080814193276 -1.346001945142234 0 -1.346001945142234 -8.2566222680015926 0 0 0 0 72.547308953800894 -2.380131499801891 0 -2.380131499801891 9.3433351632378212 0 0 0 0 58.982419477895746 -19.114437966894229 0 -19.114437966894229 71.970447115274965 0 0 0 0 17.758811680378059 -9.1016982404370239 0 -9.1016982404370239 5.4831938303442236 0 0 0 0 2496.7757564532167 -279.0334967927098 0 -279.0334967927098 -394.3504162743327 0 0 0 0 77.480842417327949 -214.38607728135582 0 -214.38607728135582 534.36869298467252 0 0 0 0 1285.2581288798938 367.55612353996179 0 367.55612353996179 -144.67417135128062 0 0 0 0 2497.1168503299996 502.01676959251705 0 502.01676959251705 -133.03130638119814 0 0 0 0 75.593715907132719 -696.06482942102593 0 -696.06482942102593 498.18724550415089 0 0 0 0 7.6750757842458768 -5.1526218126805965 0 -5.1526218126805965 3.7006815062099676 0 0 0 0 88.968059915618142 360.83392349082885 0 360.83392349082885 -277.68773058148872 0 0 0 0 -73.145011719530885 -148.00929991894691 0 -148.00929991894691 -318.41963542775352 0 0 0 0 -241.5444107068688 -11.751267310980552 0 -11.751267310980552 220.07817778942945 0 0 0 0 -324.18382978508453 90.727337178832045 0 90.727337178832045 279.124015057826 0 0 0 0 152.67251116016996 618.49834084928807 0 618.49834084928807 -781.18831653310372 0 0 0 0 0.14688023720962917 -0.15509307517808679 0 -0.15509307517808679 0.033535769751305011 0 0 0 0 339.3158834626629 278.68382934860801 0 278.68382934860801 286.79431969813334 0 0 0 0 944.35577233087679 -267.91118639768098 0 -267.91118639768098 280.0658576622443 0 0 0 0 795.75618352499828 -1195.5624273770643 0 -1195.5624273770643 822.09336829882216 0 0 0 0 102.29031841277902 60.567522538795401 0 60.567522538795401 149.81698166964065 0 0 0 0 35.455289785550121 55.791366777747953 0 55.791366777747953 184.2740389060591 0 0 0 0 14.149859342611308 255.92381723000028 0 255.92381723000028 122.47725133424495 0 0 0 0 20.61584456286073 -54.836030329138907 0 -54.836030329138907 184.3560803119899 0 0 0 0 -17.269351287934114 145.83210558007852 0 145.83210558007852 241.43765528323036 0 0 0 0 16.514641553661932 83.379332589860951 0 83.379332589860951 215.86940334514338 0 0 0 0 110.52842918336319 164.9923781116712 0 164.9923781116712 201.66310155005522 0 0 0 0 30.35321415816361 86.294172889943013 0 86.294172889943013 175.95110164949233 0 0 0 0 30.571027754735951 20.878733144474111 0 20.878733144474111 85.042165021652863 0 0 0 0 18.579310384264318 63.238176617482964 0 63.238176617482964 86.039908823511041 0 0 0 0 13.18088353469102 51.797413875367113 0 51.797413875367113 159.21304526646963 0 0 0 0 6.9011355812763213 89.318677975632909 0 89.318677975632909 175.82655976280012 0 0 0 0 -6.8951567024887481 78.429500915132905 0 78.429500915132905 181.26466787567506 0 0 0 0 15.36305286096831 102.28311005185014 0 102.28311005185014 179.17066632838987 0 0 0 0 12.031722418712889 114.95962245458122 0 114.95962245458122 188.51878904580008 0 0 0 0 -10.653021814894601 88.073037155858515 0 88.073037155858515 156.88149761989234 0 0 0 0 32.108552153816163 52.318658321243845 0 52.318658321243845 69.389724205753964 0 0 0 0 12.030370071835932 90.447929630423459 0 90.447929630423459 155.60359411053969 0 0 0 0 -5.6917503317354203 -106.4600220593821 0 -106.4600220593821 -39.997601562094133 0 0 0 0 40.449764651202713 78.408787954628679 0 78.408787954628679 44.089273446454172 0 0 0 0 263.45121243771428 17.79761437363095 0 17.79761437363095 8.9443046125418277 0 0 0 0 173.71028470057718 -10.809567907298742 0 -10.809567907298742 68.58232514362976 0 0 0 0 212.14104636194497 -10.818839886255546 0 -10.818839886255546 112.9229395356524 0 0 0 0 517.78166497769416 -108.68103206606429 0 -108.68103206606429 112.17952203811915 0 0 0 0 105.31740344929858 120.0625820216419 0 120.0625820216419 121.2518008632594 0 0 0 0 86.742906322542694 72.450870952029391 0 72.450870952029391 154.85772340076164 0 0 0 0 245.34112008530792 41.534361572159924 0 41.534361572159924 147.69284108413575 0 0 0 0 163.51153497711675 166.79290139208308 0 166.79290139208308 186.78978502786504 0 0 0 0 322.92722618812331 94.43176148197108 0 94.43176148197108 259.31159297680642 0 0 0 0 7.8492440545451245 21.353149848950352 0 21.353149848950352 183.84786876634871 0 0 0 0 477.87872856417926 -125.68826995912718 0 -125.68826995912718 159.7477388219304 0 0 0 0 581.42836253876521 -217.53002694303041 0 -217.53002694303041 211.30510935800726 0 0 0 0 288.98975164419971 90.642010657540823 0 90.642010657540823 172.38813448808924 0 0 0 0 749.60407102257159 128.99839897958282 0 128.99839897958282 131.1757921206372 0 0 0 0 1364.2378769939023 -188.3714716769025 0 -188.3714716769025 16.769933699247076 0 0 0 0 -853.40354451211988 441.09104150296685 0 441.09104150296685 540.02204238524973 0 0 0 0 2.9344121723461178 3.898894572592198 0 3.898894572592198 4.6931402879100297 0 0 0 0 1089.5302444247964 503.20137481745269 0 503.20137481745269 143.53590886241091 0 0 0 0 81.890120404241316 327.5081169636444 0 327.5081169636444 200.88334962876752 0 0 0 0 -353.87432609771531 431.78640158928022 0 431.78640158928022 221.50014031782302 0 0 0 0 -78.627842814334144 -281.66828120635239 0 -281.66828120635239 -121.95473533478389 0 0 0 0 225.88912408780016 262.90068978577256 0 262.90068978577256 262.32171342404126 0 0 0 0 -16.308333450582722 450.53206434145704 0 450.53206434145704 577.6036711381189 0 0 0 0 -297.51320323910477 -150.53669171797833 0 -150.53669171797833 375.21962399631138 0 0 0 0 12.766320776325806 -5.30318089295384 0 -5.30318089295384 1.5362727114337895 0 0 0 0 -34.365404073534592 100.62992082599203 0 100.62992082599203 78.443171340921481 0 0 0 0 -129.42601436416226 19.384359720646898 0 19.384359720646898 147.92674051092445 0 0 0 0 6.329532572487615 -2.5795523760262071 0 -2.5795523760262071 1.5126125471600731 0 0 0 0 1.6671956263597991 -1.6023700426481327 0 -1.6023700426481327 1.5608419557778137 0 0 0 0 12.810973028952503 -2.5667508984289498 0 -2.5667508984289498 2.4434882203552206 0 0 0 0 -43.189406368597702 -41.345662750797146 0 -41.345662750797146 39.823349656019673 0 0 0 0 153.85073682754592 20.810881003650366 0 20.810881003650366 -42.434824839617477 0 0 0 0 -70.480204626575869 53.024277276530995 0 53.024277276530995 24.513520266734901 0 0 0 0 -69.310580405261135 35.120258655781527 0 35.120258655781527 150.55936371211556 0 0 0 0 18.959417662787018 31.072765273103414 0 31.072765273103414 43.274884553297738 0 0 0 0 38.789666731563557 69.02862251786712 0 69.02862251786712 87.589134894431481 0 0 0 0 -27.412743821125332 65.618367306318532 0 65.618367306318532 148.03105705664984 0 0 0 0 -24.764859116105072 79.94833349801911 0 79.94833349801911 181.80436346817271 0 0 0 0 -40.690105996601233 86.772745077092452 0 86.772745077092452 210.39745109116348 0 0 0 0 -26.011334455746692 55.043953153820667 0 55.043953153820667 163.74094601425395 0 0 0 0 -8.6442715418161242 141.2735864116064 0 141.2735864116064 265.69367885048769 0 0 0 0 -32.55222480415614 68.799364391559266 0 68.799364391559266 145.83642075025136 0 0 0 0 72.118578463645463 3.9521246648716328 0 3.9521246648716328 4.0577554669447373 0 0 0 0 227.73036724762824 -19.806427170742154 0 -19.806427170742154 4.0086541574228249 0 0 0 0 129.43566164981166 -3.9632839575825756 0 -3.9632839575825756 4.0894847579149882 0 0 0 0 124.18142111571797 -1.3049964745695206 0 -1.3049964745695206 7.2811107282290095 0 0 0 0 135.02995610143353 -14.651625908392305 0 -14.651625908392305 16.252884921745022 0 0 0 0 -1.2967296434186752 0.84377818768452428 0 0.84377818768452428 1.2066376712025715 0 0 0 0 171.22254781191805 7.4177708651170633 0 7.4177708651170633 -3.1063349943117373 0 0 0 0 133.3566994307821 -3.6806479192600818 0 -3.6806479192600818 0.042519537126054274 0 0 0 0 128.32616932137171 0.92995220239214405 0 0.92995220239214405 4.4115939416783476 0 0 0 0 129.23126999716624 -7.6828159443047639 0 -7.6828159443047639 1.2621326886392126 0 0 0 0 126.64565192646296 -2.8840117601499173 0 -2.8840117601499173 3.0326862981178238 0 0 0 0 76.73642966562079 3.898596425304504 0 3.898596425304504 6.4400519544740291 0 0 0 0 13.38144647532631 21.915899122466527 0 21.915899122466527 -0.16995223587138497 0 0 0 0 86.064404114473291 -6.6527362771265643 0 -6.6527362771265643 5.3075805698814946 0 0 0 0 76.05063742400489 -0.98320253222618703 0 -0.98320253222618703 11.166269382293422 0 0 0 0 73.283793208033785 6.7352350097180533 0 6.7352350097180533 10.574490617539368 0 0 0 0 66.242461650356745 2.3757635465234443 0 2.3757635465234443 7.9970536974919924 0 0 0 0 73.064441080734923 12.767416024439001 0 12.767416024439001 -13.725149659114891 0 0 0 0 74.590225872447718 -1.674250127043166 0 -1.674250127043166 -4.2098919263248717 0 0 0 0 85.996403133671265 -2.9133943066342454 0 -2.9133943066342454 -18.481961849531672 0 0 0 0 68.85418341086617 8.3049367796737883 0 8.3049367796737883 -4.8393790520133626 0 0 0 0 83.011312797960272 -14.698106118861347 0 -14.698106118861347 -0.97354902471033711 0 0 0 0 85.338763581376497 -0.73043041134857845 0 -0.73043041134857845 -10.938477228598913 0 0 0 0 69.322652894148632 8.2434205889062468 0 8.2434205889062468 -5.7591297721610317 0 0 0 0 100.13335245323469 -14.389271026611141 0 -14.389271026611141 -2.9362981355970987 0 0 0 0 100.26729700546639 10.475057353669172 0 10.475057353669172 -10.002630156824125 0 0 0 0 85.818083701637079 27.618423756135371 0 27.618423756135371 -25.986897564513129 0 0 0 0 75.054233549763012 26.207620860149973 0 26.207620860149973 -13.055040274021138 0 0 0 0 97.038314050165354 15.548313875846134 0 15.548313875846134 -11.504575505884134 0 0 0 0 70.679411441660179 11.416789358722697 0 11.416789358722697 -5.1927566438015624 0 0 0 0 84.777912060176504 0.21233365435595886 0 0.21233365435595886 -3.426674740066801 0 0 0 0 139.28135552572439 2.0771598498900516 0 2.0771598498900516 -1.4608385168615996 0 0 0 0 17.391646511222383 -0.44485047547551204 0 -0.44485047547551204 2.7448266350155563 0 0 0 0 68.301218363998487 8.2639254683469687 0 8.2639254683469687 -0.00077991538982757902 0 0 0 0 20.100366316467372 19.030244523186518 0 19.030244523186518 -2.239671954337358 0 0 0 0 127.5338039981325 11.090114408280954 0 11.090114408280954 6.7749529132748876 0 0 0 0 58.709854657316306 16.285009492807891 0 16.285009492807891 0.6997747019424676 0 0 0 0 72.648401602128786 -7.9362354859317819 0 -7.9362354859317819 1.1940661917652802 0 0 0 0 109.81794934713525 14.593062087586631 0 14.593062087586631 6.0877274378889297 0 0 0 0 67.164007937491988 22.651593028265324 0 22.651593028265324 -7.4115367347199026 0 0 0 0 221.5039391676255 -34.870086676742403 0 -34.870086676742403 1.945498941750202 0 0 0 0 215.80537288295636 19.752776227313944 0 19.752776227313944 3.3525065411186006 0 0 0 0 29.122139662050966 -3.3965536654258202 0 -3.3965536654258202 0.33993517937466322 0 0 0 0 30.883712203081064 15.71931808189775 0 15.71931808189775 -3.4992188487145537 0 0 0 0 51.53812821348447 -1.8411591633028479 0 -1.8411591633028479 2.4587442711817857 0 0 0 0 40.718230681390047 34.354260053370687 0 34.354260053370687 1.2917858046809352 0 0 0 0 96.305095587747928 3.3085691852485297 0 3.3085691852485297 -15.224319215998378 0 0 0 0 71.925157654911487 19.861659059610066 0 19.861659059610066 -2.5258176672989738 0 0 0 0 104.08415040562613 14.412149121645996 0 14.412149121645996 9.7435344638611809 0 0 0 0 90.446370439356542 -4.2270858197261134 0 -4.2270858197261134 19.478332922241407 0 0 0 0 106.6217525455686 -16.054010878577742 0 -16.054010878577742 26.086568139107982 0 0 0 0 128.42941131017506 7.6703390531237687 0 7.6703390531237687 19.453813205379276 0 0 0 0 90.144182316983887 4.9506689042019518 0 4.9506689042019518 -5.2436505061307219 0 0 0 0 84.784934446099214 30.330164396262035 0 30.330164396262035 -19.059426820186786 0 0 0 0 71.431624757177161 -16.440377490615404 0 -16.440377490615404 -0.048250277116557383 0 0 0 0 61.489010043283088 -10.810618899111489 0 -10.810618899111489 -4.4449617583104555 0 0 0 0 147.49944938507542 -55.133516077918216 0 -55.133516077918216 8.7126146178561612 0 0 0 0 122.04849126569752 73.452989433442951 0 73.452989433442951 34.53840117587589 0 0 0 0 146.60356212173065 -15.589280914859103 0 -15.589280914859103 10.635099684591182 0 0 0 0 -3.7316096931161269 -9.273543924140677 0 -9.273543924140677 3.6697722796535159 0 0 0 0 111.25173189015914 -4.8101504275510365 0 -4.8101504275510365 0.63453331128698665 0 0 0 0 105.54962025536588 -4.0623813415584209 0 -4.0623813415584209 7.429913175417596 0 0 0 0 110.62014344221507 2.0692360024524703 0 2.0692360024524703 -8.1643393865030021 0 0 0 0 98.491258057940286 14.030942944447474 0 14.030942944447474 -16.742284288331575 0 0 0 0 107.49735811469509 -4.5130950115089945 0 -4.5130950115089945 2.1097822518336216 0 0 0 0 115.7865232435106 -2.444107483171706 0 -2.444107483171706 2.8252336349642064 0 0 0 0 110.92657349039087 -5.5521681821952171 0 -5.5521681821952171 12.689759606278812 0 0 0 0 114.99273393326803 0.448472476805307 0 0.448472476805307 5.8520146792870946 0 0 0 0 51.054979516637104 -16.126959588531292 0 -16.126959588531292 -1.7392024858163495 0 0 0 0 37.315481976690563 -14.619089970845575 0 -14.619089970845575 -1.16983532381008 0 0 0 0 67.037937458203032 -16.59845906256848 0 -16.59845906256848 0.6750844535454803 0 0 0 0 70.17934040248474 -14.319780046972504 0 -14.319780046972504 -1.6023633608504326 0 0 0 0 55.536283752863419 -10.019464168103523 0 -10.019464168103523 -3.8328276857007104 0 0 0 0 37.966822943631598 -11.126604667117849 0 -11.126604667117849 2.0681556184472898 0 0 0 0 63.7942941860274 -8.0178185758395557 0 -8.0178185758395557 -1.410279694951754 0 0 0 0 71.280922247591661 -11.954825768558734 0 -11.954825768558734 1.6040700516708739 0 0 0 0 53.679362624639339 -11.347418776769466 0 -11.347418776769466 -1.3549172178435502 0 0 0 0 97.497625588294795 -37.543931498065717 0 -37.543931498065717 28.47954755492583 0 0 0 0 122.64094541200939 15.821086251822521 0 15.821086251822521 -1.2000667525729796 0 0 0 0 95.012352195344192 3.7893981753531847 0 3.7893981753531847 8.0865982773430005 0 0 0 0 10.263585396253996 -2.7033076866937868 0 -2.7033076866937868 6.7375792547753841 0 0 0 0 81.752924567485934 -3.1935941556786247 0 -3.1935941556786247 2.8317401614713162 0 0 0 0 27.799091092804506 -17.159136633220989 0 -17.159136633220989 0.28200417828593949 0 0 0 0 63.565025200479226 -8.9182781739592372 0 -8.9182781739592372 6.3152544207362098 0 0 0 0 65.617244661173459 -5.088669719524944 0 -5.088669719524944 10.672377961732309 0 0 0 0 234.75427955839223 139.64829469884017 0 139.64829469884017 -23.297766073473284 0 0 0 0 12.863583814064327 -22.061265907354741 0 -22.061265907354741 5.099021084579185 0 0 0 0 31.809162842749856 -29.396399649995161 0 -29.396399649995161 49.423445212841898 0 0 0 0 0.60458315187410072 -1.8557684595750139 0 -1.8557684595750139 1.8353469627236898 0 0 0 0 27.393881440784753 18.306702957656057 0 18.306702957656057 27.435025926255776 0 0 0 0 66.147125621793748 31.684025250292621 0 31.684025250292621 -10.529156850151821 0 0 0 0 65.436833378014967 -10.096478605245039 0 -10.096478605245039 43.847024914097346 0 0 0 0 85.942803404303049 -31.945046078523887 0 -31.945046078523887 46.124405999346436 0 0 0 0 78.909410846996252 -19.278303874496601 0 -19.278303874496601 23.916119432982669 0 0 0 0 100.75859432576181 -24.915808375949382 0 -24.915808375949382 25.224064565329797 0 0 0 0 123.88667138057644 -103.35661168729939 0 -103.35661168729939 101.90084755684484 0 0 0 0 82.004638659218472 -42.892027923164392 0 -42.892027923164392 26.356234185037181 0 0 0 0 204.44920183357169 -251.20135998755427 0 -251.20135998755427 16.106731391691028 0 0 0 0 75.317526269234804 99.379237503721924 0 99.379237503721924 8.9960809645062909 0 0 0 0 461.40220715971191 203.13939592415102 0 203.13939592415102 -5.9821878075961195 0 0 0 0 111.4523122179362 -0.54778076343745852 0 -0.54778076343745852 7.1473317100660552 0 0 0 0 113.09378734181882 2.0144559002934557 0 2.0144559002934557 5.6395507226289681 0 0 0 0 117.68560294845884 -2.0543798838856446 0 -2.0543798838856446 6.094279586658331 0 0 0 0 124.09741141820632 0.71894297847165944 0 0.71894297847165944 3.8232981050106218 0 0 0 0 117.58070056620636 -0.24468585073122995 0 -0.24468585073122995 6.3062095038179677 0 0 0 0 126.38767973039103 3.2434965633290176 0 3.2434965633290176 3.7075547100157564 0 0 0 0 110.86622241289297 1.9020532154474665 0 1.9020532154474665 5.3066692679078642 0 0 0 0 117.39796196214957 -1.4533603066707883 0 -1.4533603066707883 4.7860522892723623 0 0 0 0 100.912265829229 8.775504082030011 0 8.775504082030011 -3.6534102968514617 0 0 0 0 110.28674507549886 0.14158338033304574 0 0.14158338033304574 3.5862235236115794 0 0 0 0 94.542355177578429 4.7688684755979693 0 4.7688684755979693 9.607556846996431 0 0 0 0 89.266031652157835 -1.123659029185319 0 -1.123659029185319 25.299947315689451 0 0 0 0 63.717441361921146 17.684346132748761 0 17.684346132748761 11.50631497339532 0 0 0 0 103.29939967808605 6.4184361472666751 0 6.4184361472666751 2.7468490952936691 0 0 0 0 88.521525296244363 4.7142705054728822 0 4.7142705054728822 13.602838453562981 0 0 0 0 101.61877001838093 0.18956153750792737 0 0.18956153750792737 9.1802827605933999 0 0 0 0 102.09748723835901 -2.8664077201565448 0 -2.8664077201565448 17.422286615239045 0 0 0 0 92.667504079057835 -8.7710329438889403 0 -8.7710329438889403 23.370474761903154 0 0 0 0 93.218069167945941 -7.6720867454096151 0 -7.6720867454096151 15.160300322295598 0 0 0 0 97.142174723132484 -18.404796660855709 0 -18.404796660855709 13.591352194476713 0 0 0 0 101.2842429193006 -12.812802623251173 0 -12.812802623251173 11.171085071438938 0 0 0 0 104.36992184046949 -5.7516325192871989 0 -5.7516325192871989 8.7110324899899751 0 0 0 0 103.69755874827024 -8.7066672218181793 0 -8.7066672218181793 14.615820991045553 0 0 0 0 111.9231894815901 -3.3689611393133703 0 -3.3689611393133703 6.068500754165143 0 0 0 0 113.95032692649693 -6.2777007600034267 0 -6.2777007600034267 7.6256527776536132 0 0 0 0 111.89394722983707 -2.669893504816514 0 -2.669893504816514 9.7038343987412645 0 0 0 0 121.21822332852753 -0.80305774333146474 0 -0.80305774333146474 5.1117390562657192 0 0 0 0 122.61499843233651 -3.7037955207476898 0 -3.7037955207476898 3.6464751823514234 0 0 0 0 119.58312133490472 -5.6878241428235015 0 -5.6878241428235015 4.3540334280473871 0 0 0 0 119.52005865023602 -3.3159528876781224 0 -3.3159528876781224 5.0072365971456065 0 0 0 0 118.58002679356287 -4.9545401056841456 0 -4.9545401056841456 3.5985083863433829 0 0 0 0 121.54010296290471 -4.9970172051502004 0 -4.9970172051502004 -2.805941784451079 0 0 0 0 123.06675298189839 -4.4834409933370125 0 -4.4834409933370125 -2.6448841708856889 0 0 0 0 120.45643547373038 -10.129348890150823 0 -10.129348890150823 -0.60299279727985322 0 0 0 0 115.9832451585844 -8.6824755046543487 0 -8.6824755046543487 0.1713210641241858 0 0 0 0 113.99155715298548 -6.2439375150072465 0 -6.2439375150072465 3.8504789222865838 0 0 0 0 110.40946093239836 -9.4823697866954717 0 -9.4823697866954717 4.96410410580188 0 0 0 0 110.62024011289759 -12.822630820750874 0 -12.822630820750874 8.5658676550319797 0 0 0 0 107.9904580213788 -17.920951556365708 0 -17.920951556365708 1.3073562162171584 0 0 0 0 109.29421025241936 -21.946100020961694 0 -21.946100020961694 12.03164516597144 0 0 0 0 117.29657624538959 -18.470389558720626 0 -18.470389558720626 1.3336869239845441 0 0 0 0 117.0668260687853 -15.377405142782777 0 -15.377405142782777 -8.5992968503378506 0 0 0 0 124.71472596083913 -11.724380936368789 0 -11.724380936368789 -10.464944088112361 0 0 0 0 118.98710232164012 -18.035989418461327 0 -18.035989418461327 -11.535783225099749 0 0 0 0 116.38565251557065 -22.509613168017722 0 -22.509613168017722 -12.179624624070357 0 0 0 0 123.54542256851892 -19.962829976960052 0 -19.962829976960052 -18.907893306492497 0 0 0 0 124.67306243449275 -17.987700652063495 0 -17.987700652063495 -17.428773680494487 0 0 0 0 126.44264378837943 -14.415443823485816 0 -14.415443823485816 -14.177678798923353 0 0 0 0 132.05270438533262 -11.12574935905468 0 -11.12574935905468 -20.486683966283408 0 0 0 0 134.02533857659364 -4.8523457250134925 0 -4.8523457250134925 -16.669951080394412 0 0 0 0 126.75866296415916 -4.226858039354056 0 -4.226858039354056 -14.723755461849805 0 0 0 0 121.98931747855022 -7.0526256450420988 0 -7.0526256450420988 -8.7654980765737491 0 0 0 0 125.070521484653 -8.1590922077932646 0 -8.1590922077932646 -10.114160970731518 0 0 0 0 96.153979225009607 9.1109164268447245 0 9.1109164268447245 1.8428309179739699 0 0 0 0 -24.491901114724897 4.1526675572584395 0 4.1526675572584395 26.241066184481497 0 0 0 0 14.412251128179294 -21.854277895065426 0 -21.854277895065426 8.0758377901841243 0 0 0 0 61.320319264252248 -21.968078443817376 0 -21.968078443817376 13.816178324948851 0 0 0 0 119.23452735889077 -9.1206682967709867 0 -9.1206682967709867 -18.519077169687094 0 0 0 0 106.739845076856 -49.200920337055663 0 -49.200920337055663 27.964279859940575 0 0 0 0 199.28853093922407 -32.908332819337602 0 -32.908332819337602 -16.905757059146708 0 0 0 0 108.41060861578194 -28.943281793563443 0 -28.943281793563443 13.320989730253132 0 0 0 0 108.28342608649109 -24.313707504706144 0 -24.313707504706144 6.6137010505651688 0 0 0 0 115.8715471125397 -29.040700136819169 0 -29.040700136819169 1.7630421952701454 0 0 0 0 123.78187885924854 -21.205096101037725 0 -21.205096101037725 -19.922948835400575 0 0 0 0 111.31283979632281 -24.018370439457158 0 -24.018370439457158 -15.417896622251192 0 0 0 0 88.86105099058841 -21.997284885535692 0 -21.997284885535692 -11.364555022332752 0 0 0 0 110.97320155500188 -14.225277986070324 0 -14.225277986070324 -12.310388278573555 0 0 0 0 90.617108091677437 -16.224051102566591 0 -16.224051102566591 -9.4440889244808659 0 0 0 0 54.945512649714146 -2.6427719163041843 0 -2.6427719163041843 1.6306837603893882 0 0 0 0 91.105069719851599 -13.621075483353707 0 -13.621075483353707 -8.0450847157367207 0 0 0 0 48.469513073621783 -19.428246483704243 0 -19.428246483704243 -8.9233532152975386 0 0 0 0 47.795659692310437 -27.091289388736186 0 -27.091289388736186 -6.8267899180887071 0 0 0 0 38.570114005211508 -21.889817030959193 0 -21.889817030959193 -3.5198569976937506 0 0 0 0 50.688406704801309 -16.079566912428618 0 -16.079566912428618 -6.4901567009355858 0 0 0 0 62.414907061476697 -19.447494326430046 0 -19.447494326430046 -6.8908353550814354 0 0 0 0 90.878339788298035 -25.473530595978673 0 -25.473530595978673 -13.897292012663456 0 0 0 0 64.978782825362941 -17.206083131532296 0 -17.206083131532296 -7.8682077503485743 0 0 0 0 69.073475037352182 -22.47809956846254 0 -22.47809956846254 -12.259011702304178 0 0 0 0 88.322948972196173 -25.722075718714905 0 -25.722075718714905 -17.323135243572779 0 0 0 0 68.510263860410078 -26.777684601799194 0 -26.777684601799194 -10.910293998491397 0 0 0 0 107.99136944576821 -23.251446613846838 0 -23.251446613846838 -18.924838567793529 0 0 0 0 95.926698008894164 -18.46662237348869 0 -18.46662237348869 -12.702703809563218 0 0 0 0 112.18129583799418 -28.719654150258293 0 -28.719654150258293 -20.118295679017592 0 0 0 0 115.30976060737885 -21.674697116704749 0 -21.674697116704749 -17.674594288190292 0 0 0 0 121.61225235955135 -30.678837375804733 0 -30.678837375804733 -22.826189792123841 0 0 0 0 116.74754670302718 -25.088385330301662 0 -25.088385330301662 -18.430153635646093 0 0 0 0 133.20947033433913 -31.237365571585997 0 -31.237365571585997 -23.52589122105519 0 0 0 0 123.77964744909696 -27.843590955347736 0 -27.843590955347736 -16.034756279424982 0 0 0 0 140.22639296848865 -30.99144346484627 0 -30.99144346484627 -20.394742511535242 0 0 0 0 123.09317845609985 -34.26741627123738 0 -34.26741627123738 -20.088368709269162 0 0 0 0 97.323953311155492 -29.939889830059656 0 -29.939889830059656 -16.456688182119706 0 0 0 0 96.433633408872993 -29.372678760804774 0 -29.372678760804774 -16.101186098963922 0 0 0 0 88.798736008329797 -40.316178054186594 0 -40.316178054186594 -18.314290543645257 0 0 0 0 91.566131871234575 -34.028733715441604 0 -34.028733715441604 -15.447266219965059 0 0 0 0 111.94321046932964 -32.778609943872652 0 -32.778609943872652 -21.488884339825518 0 0 0 0 78.760039654982393 -28.836172619123317 0 -28.836172619123317 -17.308528803364197 0 0 0 0 59.701896816808585 -24.938158182278926 0 -24.938158182278926 -13.579750299045372 0 0 0 0 63.156769426877872 -34.847759807673356 0 -34.847759807673356 -11.899504326077931 0 0 0 0 55.897768281130993 -33.027773957586305 0 -33.027773957586305 -6.5679167182129277 0 0 0 0 29.649858229659003 -30.569056245859429 0 -30.569056245859429 -5.7959039532552197 0 0 0 0 55.671363826018933 -35.572521830418054 0 -35.572521830418054 -18.936431576123141 0 0 0 0 28.727902106396868 -33.437402511793493 0 -33.437402511793493 -10.333251662778821 0 0 0 0 49.399914381108829 -33.34890665643843 0 -33.34890665643843 -9.4354492227344053 0 0 0 0 25.097276791881086 -24.589434394381897 0 -24.589434394381897 -3.2847237710520858 0 0 0 0 141.59019285242857 -11.008336059408009 0 -11.008336059408009 -23.313025898122305 0 0 0 0 143.32752752558372 -0.29729929820064172 0 -0.29729929820064172 -20.733293421193139 0 0 0 0 141.89199784900211 12.352799019735073 0 12.352799019735073 -16.443759368599331 0 0 0 0 127.86513949336677 0.060298580803362256 0 0.060298580803362256 -20.419518019195039 0 0 0 0 143.98707793057474 0.47033949521664908 0 0.47033949521664908 -22.075474873050325 0 0 0 0 133.79818115231683 -18.717512951345498 0 -18.717512951345498 -22.788245718476446 0 0 0 0 136.77191031082111 -10.80422640204165 0 -10.80422640204165 -21.099291127942251 0 0 0 0 126.51610028446794 -22.015145036674653 0 -22.015145036674653 -20.223615410030561 0 0 0 0 134.32642518126431 -16.603173982850478 0 -16.603173982850478 -20.996764059523684 0 0 0 0 130.61092876660405 -25.421087156927342 0 -25.421087156927342 -23.280527608118064 0 0 0 0 143.85895892774352 -19.329261847240559 0 -19.329261847240559 -23.887856457173712 0 0 0 0 147.98260818379276 -7.4799144079183861 0 -7.4799144079183861 -21.440778341613168 0 0 0 0 156.63605405457201 -17.570217625817804 0 -17.570217625817804 -22.085748567613336 0 0 0 0 144.61466656644188 -14.441097534940354 0 -14.441097534940354 -20.057735567522741 0 0 0 0 141.78542912639386 -26.174679522258884 0 -26.174679522258884 -23.856045812878619 0 0 0 0 135.31605326724093 -20.929205005469157 0 -20.929205005469157 -18.553785544160746 0 0 0 0 152.65258861021084 -26.046098567356808 0 -26.046098567356808 -21.710234038013368 0 0 0 0 145.46189916662843 -19.858241271306269 0 -19.858241271306269 -16.432290738414395 0 0 0 0 156.59550497470809 -10.320213140302315 0 -10.320213140302315 -16.139155178963847 0 0 0 0 172.96926123968296 -13.993927989889926 0 -13.993927989889926 -18.737000688902754 0 0 0 0 166.96393461451225 -3.8201158540973665 0 -3.8201158540973665 -16.425435029379059 0 0 0 0 176.13362560699898 7.1717654427920934 0 7.1717654427920934 -9.0084437847528989 0 0 0 0 160.790866446569 -1.5311163116444391 0 -1.5311163116444391 -16.385299068414042 0 0 0 0 152.97730189960566 -9.3528135807043782 0 -9.3528135807043782 -21.510687033780414 0 0 0 0 157.15141563028465 6.1618126670534821 0 6.1618126670534821 -17.718982081067679 0 0 0 0 161.26896542641862 27.29152929795157 0 27.29152929795157 -4.6501928842226334 0 0 0 0 154.59264844150675 4.2275487475092177 0 4.2275487475092177 -13.646564746078184 0 0 0 0 172.34576945675508 17.320508870999902 0 17.320508870999902 -5.973261102863944 0 0 0 0 180.54426532139041 40.642210555949077 0 40.642210555949077 7.4164909744918077 0 0 0 0 177.47073912504857 16.397461740843937 0 16.397461740843937 -7.3800974256173504 0 0 0 0 190.2821454265686 36.100667304686226 0 36.100667304686226 7.0703122763716237 0 0 0 0 214.71174916462405 71.849909862223967 0 71.849909862223967 0.14747181548500521 0 0 0 0 277.28335073913331 104.36431358540335 0 104.36431358540335 -2.7027534521798771 0 0 0 0 249.43126092605962 51.138847545127646 0 51.138847545127646 115.61866126748737 0 0 0 0 167.39084860807998 71.954729904708984 0 71.954729904708984 9.3802190013486779 0 0 0 0 122.79129396404824 60.7334548617564 0 60.7334548617564 6.5989484612124443 0 0 0 0 163.26213280574302 25.234280088274318 0 25.234280088274318 -2.7427158754135235 0 0 0 0 9.8514913339513441 2.3452424165436696 0 2.3452424165436696 -2.9189874873884492 0 0 0 0 1.842303845300914 -0.040110265160016922 0 -0.040110265160016922 0.72994489610216284 0 0 0 0 -7.1241209237741714 -12.942042229579329 0 -12.942042229579329 -20.686513515745474 0 0 0 0 50.995333984796162 73.093057182404891 0 73.093057182404891 58.789043871739068 0 0 0 0 236.0606033038639 90.073535176557698 0 90.073535176557698 3.0952618973917652 0 0 0 0 -7.574485213826847 -32.803996234777401 0 -32.803996234777401 23.159007940425454 0 0 0 0 15.127055056190946 0.11816134265725609 0 0.11816134265725609 -1.1632314232657417 0 0 0 0 33.755660234773131 56.793105799519253 0 56.793105799519253 32.488110466536 0 0 0 0 96.64584226223127 21.121742748866527 0 21.121742748866527 -20.905718398088538 0 0 0 0 98.305173863722302 55.816185683816229 0 55.816185683816229 9.4381556243818068 0 0 0 0 251.65324801537281 -6.9093391099846713 0 -6.9093391099846713 -20.569503698103517 0 0 0 0 71.277802219001387 28.101755695895235 0 28.101755695895235 10.782652795995546 0 0 0 0 126.72628943175505 -1.7052395132359379 0 -1.7052395132359379 -13.334708408443021 0 0 0 0 0.25263857231271025 0.040099742575783637 0 0.040099742575783637 -0.058243864545627133 0 0 0 0 290.84301435080943 41.471040908388943 0 41.471040908388943 -36.265559599051812 0 0 0 0 129.3201844269206 12.177268568635554 0 12.177268568635554 -11.229339270927085 0 0 0 0 105.97645766437927 3.4197654346507989 0 3.4197654346507989 -12.071601498909672 0 0 0 0 126.72500696683241 -3.2535477089724125 0 -3.2535477089724125 -13.259802415155264 0 0 0 0 124.32801726973412 -1.9776825445860595 0 -1.9776825445860595 -11.220346200653012 0 0 0 0 122.4380160741523 -1.2779778335199126 0 -1.2779778335199126 -4.462278127040463 0 0 0 0 0.51747823973192419 0.41796792177979114 0 0.41796792177979114 0.22160774610026746 0 0 0 0 89.976004549655045 -29.225608427934503 0 -29.225608427934503 32.800193432538094 0 0 0 0 172.31743257227481 16.287706027461809 0 16.287706027461809 -20.480738603634677 0 0 0 0 85.049470016447458 -0.32426949429577689 0 -0.32426949429577689 10.089585111826182 0 0 0 0 88.234992666314611 -2.1192769765963249 0 -2.1192769765963249 19.835003703613665 0 0 0 0 13.734232490352088 22.518817146217149 0 22.518817146217149 2.3864130071293275 0 0 0 0 120.63633991282404 -4.8920427768446189 0 -4.8920427768446189 4.3076312204408964 0 0 0 0 125.86382779208179 -8.0581559783684042 0 -8.0581559783684042 3.1327390020633175 0 0 0 0 77.82236588735168 4.3862664562602731 0 4.3862664562602731 11.547140384337922 0 0 0 0 28.891556545959741 -23.152538667951205 0 -23.152538667951205 -5.1383544728986408 0 0 0 0 86.149684779878498 5.303358928469379 0 5.303358928469379 11.369042377110695 0 0 0 0 77.729553835476509 4.2479582575585937 0 4.2479582575585937 11.341131124113417 0 0 0 0 82.39985547527067 -0.79372683378741726 0 -0.79372683378741726 -12.388480642607306 0 0 0 0 91.197596789581439 -37.269323741836928 0 -37.269323741836928 -26.577136260714838 0 0 0 0 20.753593380556595 -46.137926218861651 0 -46.137926218861651 11.967475808416566 0 0 0 0 18.265176545313604 22.620377797827885 0 22.620377797827885 4.1786966084504158 0 0 0 0 25.568491907456064 -59.836902343264029 0 -59.836902343264029 -25.390667345305474 0 0 0 0 33.346810701288746 -22.090025611631873 0 -22.090025611631873 -6.164927870450601 0 0 0 0 -63.131973749303143 -53.575169322032707 0 -53.575169322032707 -17.137102125735964 0 0 0 0 6.4746731973829341 1.9638557458325892 0 1.9638557458325892 -1.9004380981019562 0 0 0 0 -8.8617933122295653 -45.638834612763731 0 -45.638834612763731 -37.626028553127981 0 0 0 0 -19.092886994290893 -46.603513884897893 0 -46.603513884897893 -19.620861708404846 0 0 0 0 -23.577349954695819 -24.079128508996746 0 -24.079128508996746 -1.6951063654287282 0 0 0 0 32.522785777229728 -14.371007013486405 0 -14.371007013486405 -23.043248995583781 0 0 0 0 2.5914815032228944 -2.8305126939121692 0 -2.8305126939121692 -13.112675732466727 0 0 0 0 12.272393239894882 -37.902199101131146 0 -37.902199101131146 -9.8664583828335708 0 0 0 0 -7.7979634647344938 -14.964115192691224 0 -14.964115192691224 11.789918625783457 0 0 0 0 110.71626946754441 -16.371540321873908 0 -16.371540321873908 -21.642060712225657 0 0 0 0 35.394004905716884 -25.753539940662336 0 -25.753539940662336 19.075102410162117 0 0 0 0 237.2697261594476 36.081953259005445 0 36.081953259005445 1.1635051063109358 0 0 0 0 321.29659537381349 -43.302441500637798 0 -43.302441500637798 -21.525462347137363 0 0 0 0 98.549800583632532 11.56970893972165 0 11.56970893972165 49.570992708609992 0 0 0 0 113.97952463116235 -39.765447950550936 0 -39.765447950550936 15.362894464862222 0 0 0 0 136.5911542010108 17.195495519522524 0 17.195495519522524 20.085443770655033 0 0 0 0 150.70280643608203 6.0703421634736401 0 6.0703421634736401 28.670275685046448 0 0 0 0 0.33469945427570558 0.22622327366368822 0 0.22622327366368822 0.46015214989732378 0 0 0 0 13.617763492116865 73.773879383842768 0 73.773879383842768 41.008805918393449 0 0 0 0 94.53365881667105 -2.2886571171671903 0 -2.2886571171671903 19.371753605939489 0 0 0 0 236.33517530607969 82.414416371309414 0 82.414416371309414 56.317080428305644 0 0 0 0 411.7952201679318 -36.917045010473601 0 -36.917045010473601 -5.1755536609662158 0 0 0 0 0.92439786471426899 0.78863960839230884 0 0.78863960839230884 1.0492947240169403 0 0 0 0 249.0291255473046 74.099095565503632 0 74.099095565503632 -46.306537007079669 0 0 0 0 238.66744402286895 -40.071889925501068 0 -40.071889925501068 18.446817555269746 0 0 0 0 146.35783937143424 -11.45845825638753 0 -11.45845825638753 101.05389670522732 0 0 0 0 165.27079746440268 -15.085856634453268 0 -15.085856634453268 -26.045844205497019 0 0 0 0 157.13392206139906 21.722134135862166 0 21.722134135862166 -26.401255920520683 0 0 0 0 124.16102790529476 69.508956922001516 0 69.508956922001516 -34.294103929669348 0 0 0 0 136.20129025715141 6.574847285900205 0 6.574847285900205 -36.83191557212578 0 0 0 0 145.50801547361516 -2.9669938835124725 0 -2.9669938835124725 -33.418842761626621 0 0 0 0 99.879993671598641 -12.256923635519549 0 -12.256923635519549 -5.7409466929772179 0 0 0 0 144.40486286305713 -4.3867960358479365 0 -4.3867960358479365 -17.300341085385355 0 0 0 0 160.81962981261313 -5.9923082131387702 0 -5.9923082131387702 -21.087377302811092 0 0 0 0 88.84188911117711 4.796892884926848 0 4.796892884926848 -2.0588247430650881 0 0 0 0 47.672024540404209 0.7588832313608691 0 0.7588832313608691 3.1412067598498652 0 0 0 0 9.4422382629402364 -0.46272792728746026 0 -0.46272792728746026 4.6623447520960326 0 0 0 0 20.899761377196 10.401147389946004 0 10.401147389946004 7.855057862605463 0 0 0 0 39.943344719961487 -5.1563802027148995 0 -5.1563802027148995 5.3640909185974976 0 0 0 0 40.906548249845464 6.8400741439547232 0 6.8400741439547232 -0.70458741389268198 0 0 0 0 34.236658792701569 -0.80482232012593613 0 -0.80482232012593613 2.4892126596162996 0 0 0 0 17.589099201264162 10.703082297673504 0 10.703082297673504 4.2610092749409034 0 0 0 0 21.650424109473761 10.708828792339091 0 10.708828792339091 0.27843911774652952 0 0 0 0 -15.064490948190723 65.819471727409621 0 65.819471727409621 118.12926664484894 0 0 0 0 11.838111532486437 20.96521317953966 0 20.96521317953966 -34.561020111366929 0 0 0 0 -5.3411527094121993 31.144268231765892 0 31.144268231765892 87.382906988072364 0 0 0 0 4.2259622848564184 12.741110079855432 0 12.741110079855432 -1.1453328649354675 0 0 0 0 148.96391200564176 136.10708574498267 0 136.10708574498267 42.85239951497681 0 0 0 0 73.317346563028877 23.816158830216807 0 23.816158830216807 -31.907386393193292 0 0 0 0 69.078967115825435 34.744131033834833 0 34.744131033834833 -12.390879417362157 0 0 0 0 86.171062280681326 64.734988743597228 0 64.734988743597228 -18.37962805553525 0 0 0 0 139.16749831197376 49.834802741409163 0 49.834802741409163 -24.831104555970569 0 0 0 0 77.248559909792675 54.553638859650164 0 54.553638859650164 1.0733952664196522 0 0 0 0 95.505251339179722 69.591842651193815 0 69.591842651193815 -32.645387927866977 0 0 0 0 98.475720509359235 83.561542361390309 0 83.561542361390309 -13.420552504504641 0 0 0 0 88.435894219761394 46.335629415636333 0 46.335629415636333 -48.476376225408785 0 0 0 0 115.10726336456082 57.210865652587231 0 57.210865652587231 -50.993739593258681 0 0 0 0 107.32088265569934 20.231271131484554 0 20.231271131484554 -5.9832248439201248 0 0 0 0 60.80774923025092 46.977788721993193 0 46.977788721993193 -19.377352461409146 0 0 0 0 45.609683636090267 14.047834589426895 0 14.047834589426895 0.06849928838248065 0 0 0 0 38.205460786477488 5.6348092923824424 0 5.6348092923824424 -0.21878900137289747 0 0 0 0 28.943872135073789 9.2577016314232878 0 9.2577016314232878 -10.819456048260236 0 0 0 0 16.039883871876601 24.02850620366474 0 24.02850620366474 -4.6117725727583405 0 0 0 0 52.177087505556642 10.216967060228699 0 10.216967060228699 -8.831107080899244 0 0 0 0 31.629823684976774 3.5356816045891097 0 3.5356816045891097 -3.9055737336361855 0 0 0 0 42.158655675472346 -2.4933248512339468 0 -2.4933248512339468 -2.9548513617813112 0 0 0 0 39.106758895477924 0.082721665494503327 0 0.082721665494503327 -23.817798964378426 0 0 0 0 37.763480878125172 2.8190914707760149 0 2.8190914707760149 -4.3474635863214379 0 0 0 0 52.652547733506708 3.7080880002213235 0 3.7080880002213235 -7.513929083894709 0 0 0 0 62.090663482569653 -0.93240964733627152 0 -0.93240964733627152 -20.939209609117825 0 0 0 0 67.886050271437853 9.4990337793205981 0 9.4990337793205981 -37.735354674785412 0 0 0 0 73.408293138229055 -21.021240785260716 0 -21.021240785260716 -35.422849623210823 0 0 0 0 62.903074057859726 3.511877665266752 0 3.511877665266752 -5.3613779283992926 0 0 0 0 31.701908988213987 -0.54379487642075619 0 -0.54379487642075619 0.70205446940745064 0 0 0 0 37.068358260983679 -3.3548264456095112 0 -3.3548264456095112 -0.69206496470150869 0 0 0 0 53.781756033711645 -3.0653879405849693 0 -3.0653879405849693 -1.4616344678829591 0 0 0 0 1.9241855448414213 -0.8040481759764333 0 -0.8040481759764333 0.7392643319810821 0 0 0 0 113.57435387420264 -34.304881915243868 0 -34.304881915243868 -11.696197687358904 0 0 0 0 69.530851564471959 72.525981838328221 0 72.525981838328221 77.942719987940563 0 0 0 0 134.01633572940364 43.321949020080439 0 43.321949020080439 -0.7912509390980631 0 0 0 0 59.323245100225904 73.135771147014339 0 73.135771147014339 79.245314646171664 0 0 0 0 23.094214039184479 1.0116473401873591 0 1.0116473401873591 0.57630142521291994 0 0 0 0 42.188838951755315 22.942294784850446 0 22.942294784850446 20.636181702562453 0 0 0 0 134.21918757620801 33.843340201244587 0 33.843340201244587 41.032846851142494 0 0 0 0 52.689690950075601 31.632192542761914 0 31.632192542761914 64.484135102664254 0 0 0 0 68.779925820010249 -34.860478252317762 0 -34.860478252317762 23.937194685009729 0 0 0 0 -15.647373289029019 32.96160382646903 0 32.96160382646903 -28.138911550090825 0 0 0 0 -48.193655469060104 -127.01197577988256 0 -127.01197577988256 -93.169222233254231 0 0 0 0 -1.0838418584100324 0.65367904442153701 0 0.65367904442153701 -0.095350014917387815 0 0 0 0 89.144070940501479 47.786133010946223 0 47.786133010946223 -28.443210633586709 0 0 0 0 21.382456400177034 0.16659558441796207 0 0.16659558441796207 12.244069137239194 0 0 0 0 83.969896422146121 -29.666285299714104 0 -29.666285299714104 -66.062993027163145 0 0 0 0 50.666178458603099 -32.504069648077262 0 -32.504069648077262 -65.798796902149846 0 0 0 0 15.961854964330996 -1.0428002920817505 0 -1.0428002920817505 -15.32366473263005 0 0 0 0 83.436929247607623 -53.558429635706943 0 -53.558429635706943 25.529760580709194 0 0 0 0 172.2312060098775 -25.276592945938432 0 -25.276592945938432 -34.855163598977924 0 0 0 0 85.642657132491877 -15.376189968215016 0 -15.376189968215016 -101.96426639399925 0 0 0 0 73.156617356780771 -22.873414193254433 0 -22.873414193254433 -62.818229796882747 0 0 0 0 59.358316813919373 -3.5038233573679349 0 -3.5038233573679349 -32.694658887559171 0 0 0 0 87.798113598699274 21.561556264754643 0 21.561556264754643 -41.072993840399249 0 0 0 0 93.416938449394365 35.501161258779433 0 35.501161258779433 -81.992929631205243 0 0 0 0 175.55805985323263 79.545925666301514 0 79.545925666301514 -14.886420371769645 0 0 0 0 79.475190433295211 99.728103513208794 0 99.728103513208794 99.495161069988796 0 0 0 0 124.69917961603402 21.231130617551244 0 21.231130617551244 -4.3334350977064489 0 0 0 0 257.18191306502558 175.28353167755552 0 175.28353167755552 -73.405260529419024 0 0 0 0 -34.918279875346343 62.329831254819055 0 62.329831254819055 112.14904514998375 0 0 0 0 25.271217186742792 8.2809780296143956 0 8.2809780296143956 0.50868312874778709 0 0 0 0 94.042421369700605 10.31937227355229 0 10.31937227355229 -0.13412802145739988 0 0 0 0 72.944826191064749 10.953013006783465 0 10.953013006783465 -9.7558912384316727 0 0 0 0 83.596289213855925 -17.067098560205068 0 -17.067098560205068 9.5975815731901548 0 0 0 0 68.633579517627965 2.598969673710597 0 2.598969673710597 -3.9073323011689602 0 0 0 0 145.17048526340932 1.1554503326922543 0 1.1554503326922543 -18.41458576098853 0 0 0 0 49.1781048044366 -17.702889790664585 0 -17.702889790664585 -6.4836903914593478 0 0 0 0 141.77134487948251 -2.829936453890042 0 -2.829936453890042 -12.332297043529593 0 0 0 0 129.23491434674725 7.3294783324949435 0 7.3294783324949435 -20.320912074542264 0 0 0 0 141.42013631403051 25.926818999187184 0 25.926818999187184 -64.070811130518337 0 0 0 0 109.07195417921139 -50.712194966097229 0 -50.712194966097229 0.23903705007660392 0 0 0 0 122.0359607627106 -55.902852113561948 0 -55.902852113561948 -66.60181666827566 0 0 0 0 117.40749389660269 19.31623473072742 0 19.31623473072742 -3.163133138496566 0 0 0 0 47.06216996510193 -80.592988921998142 0 -80.592988921998142 -71.850851880746404 0 0 0 0 45.178548925061477 -58.249676512778819 0 -58.249676512778819 0.53882860955264533 0 0 0 0 226.88134768552482 -107.20901652993132 0 -107.20901652993132 -43.395354405304602 0 0 0 0 92.854587910660484 -132.77944897119141 0 -132.77944897119141 1.1546849452166725 0 0 0 0 2.5355932863085187 -2.2594027575671092 0 -2.2594027575671092 2.2274472218225863 0 0 0 0 860.70650474456306 282.41482023738939 0 282.41482023738939 62.72871776575812 0 0 0 0 -29.689063490481203 -83.747982647187598 0 -83.747982647187598 -12.904396703832163 0 0 0 0 893.84127820251888 228.85600587617103 0 228.85600587617103 -107.66851825924505 0 0 0 0 436.0452977916575 -262.55231866886834 0 -262.55231866886834 166.17572375149575 0 0 0 0 -74.707668525690679 314.16874478329214 0 314.16874478329214 48.837825054459699 0 0 0 0 -1.4501516897890951 0.61582532477920182 0 0.61582532477920182 1.9536183172174466 0 0 0 0 377.98441902149352 321.24326492584078 0 321.24326492584078 42.820148847687051 0 0 0 0 22.393157392903959 9.7424928208575388 0 9.7424928208575388 -21.593123212989511 0 0 0 0 62.235363025038168 -2.2047286533604904 0 -2.2047286533604904 -79.061837577972256 0 0 0 0 21.748830150885624 -22.566294779808061 0 -22.566294779808061 -35.245559014546188 0 0 0 0 278.62058376770801 114.45302831967172 0 114.45302831967172 27.764321851533396 0 0 0 0 749.38439603944789 -93.300333977500259 0 -93.300333977500259 -116.11991725600501 0 0 0 0 217.51262511259574 92.369940903117637 0 92.369940903117637 -5.6064609716486302 0 0 0 0 275.20264144732573 -393.55956140901515 0 -393.55956140901515 -136.27180245848649 0 0 0 0 0.83852027545126617 0.3569153341291198 0 0.3569153341291198 0.034088512664048665 0 0 0 0 606.26708420344221 334.20834335768245 0 334.20834335768245 163.06357134874224 0 0 0 0 168.79210605521075 78.708142081438837 0 78.708142081438837 8.264534802602725 0 0 0 0 96.434317551196727 32.578038438806061 0 32.578038438806061 -38.882756218688428 0 0 0 0 46.952313084326306 2.5105778678168917 0 2.5105778678168917 6.4939702015991543 0 0 0 0 6.562220099305236 5.4594457710519571 0 5.4594457710519571 4.0466045192576381 0 0 0 0 84.136539314678885 19.701502033319514 0 19.701502033319514 29.977361339923391 0 0 0 0 36.005120965281094 -0.20141083883981992 0 -0.20141083883981992 8.4869943611129202 0 0 0 0 -53.140738050883101 -156.67017754566064 0 -156.67017754566064 104.05408106775076 0 0 0 0 44.182955162134022 0.14170830592775019 0 0.14170830592775019 6.1705220720623402 0 0 0 0 -4.6834708487496712 3.6013393227958517 0 3.6013393227958517 7.3362361547485442 0 0 0 0 43.94096428595185 10.084543521692353 0 10.084543521692353 3.7410536232218874 0 0 0 0 190.12206438184694 -220.47969266594805 0 -220.47969266594805 54.629938488204516 0 0 0 0 483.49984445400332 -150.88548324920839 0 -150.88548324920839 -27.865541882314119 0 0 0 0 74.043447091640701 -9.0369992750991059 0 -9.0369992750991059 4.7665390069166733 0 0 0 0 70.079087998969044 -10.641865502884457 0 -10.641865502884457 6.4472398886687188 0 0 0 0 58.775925181216735 7.9019244294963755 0 7.9019244294963755 2.0945388477048255 0 0 0 0 46.551370719982515 -4.9664162281533208 0 -4.9664162281533208 5.5690966378834901 0 0 0 0 63.550331785834715 -17.475129933238122 0 -17.475129933238122 4.3882456542480668 0 0 0 0 5.1907861509200757 3.9352676510025759 0 3.9352676510025759 2.5273074322781524 0 0 0 0 66.652285302012388 -21.814692341426394 0 -21.814692341426394 -73.385615055828794 0 0 0 0 -0.70846492587907051 92.783920589334571 0 92.783920589334571 -84.592437385085077 0 0 0 0 -1.7593712274280939 -0.35131128886341401 0 -0.35131128886341401 0.84409610417102687 0 0 0 0 171.54759882322833 -43.312108497749477 0 -43.312108497749477 -46.301648265364975 0 0 0 0 25.607901028487504 -22.601086172024864 0 -22.601086172024864 5.1210479477504123 0 0 0 0 115.36905918662887 4.8499303192924117 0 4.8499303192924117 -55.082960988353875 0 0 0 0 420.05078530726678 3.0412474400130804 0 3.0412474400130804 3.1377341979055018 0 0 0 0 96.036929463822162 22.594775721324936 0 22.594775721324936 -29.430105608502004 0 0 0 0 0.65851031134589988 0.22738596237159214 0 0.22738596237159214 -0.17233818608748575 0 0 0 0 197.59802301451691 89.222553396538387 0 89.222553396538387 45.057136128180673 0 0 0 0 266.53828733551472 60.440217686471598 0 60.440217686471598 54.209179994881652 0 0 0 0 7.6058798001751171 -5.8740766790617513 0 -5.8740766790617513 7.3225366134004384 0 0 0 0 117.37801674098228 37.253454788492945 0 37.253454788492945 37.081772478325092 0 0 0 0 202.55338865111844 -47.948178104159922 0 -47.948178104159922 13.723532081967278 0 0 0 0 242.74827779194311 -30.643239848311055 0 -30.643239848311055 23.394479267000634 0 0 0 0 170.09097851113984 0.7639860756280541 0 0.7639860756280541 12.208304532247439 0 0 0 0 128.98845905425696 -35.819306592611156 0 -35.819306592611156 -4.5126554046200908 0 0 0 0 120.28510708416434 8.307168836378878 0 8.307168836378878 -1.1241944430305466 0 0 0 0 136.91083331912523 -25.674322777239695 0 -25.674322777239695 8.4473916596675735 0 0 0 0 128.10395759272797 47.975072302965657 0 47.975072302965657 24.253953186705985 0 0 0 0 150.23798312040526 -11.871139941417255 0 -11.871139941417255 12.195771336724647 0 0 0 0 103.3623799281977 21.020229576156567 0 21.020229576156567 -6.2477323972934755 0 0 0 0 83.973458943719379 -13.270033000483636 0 -13.270033000483636 -13.61304559977907 0 0 0 0 40.277704005478881 6.8625545433415027 0 6.8625545433415027 -3.9477598920823311 0 0 0 0 108.86922757249704 -6.9703778357343253 0 -6.9703778357343253 -32.782126651436556 0 0 0 0 146.14560899637581 -33.595785818107061 0 -33.595785818107061 -23.949604055952477 0 0 0 0 41.410371659614611 -52.460143619181508 0 -52.460143619181508 -27.004463289468731 0 0 0 0 29.227665335500781 5.8015579922306628 0 5.8015579922306628 -4.0802697259981411 0 0 0 0 164.3514094541606 -33.112862090024009 0 -33.112862090024009 -105.61296359752669 0 0 0 0 154.98281605987722 -34.082542256162014 0 -34.082542256162014 -19.944065847975025 0 0 0 0 177.21730864452547 -21.429763829976764 0 -21.429763829976764 -15.327866651446584 0 0 0 0 108.2436681712004 -11.713703444141043 0 -11.713703444141043 -8.0046473397807638 0 0 0 0 106.69979068098844 -4.8346513633912167 0 -4.8346513633912167 -11.008168148553192 0 0 0 0 117.32262652525969 153.26024571863309 0 153.26024571863309 150.74109884241375 0 0 0 0 77.610692277019552 0.11201584900516082 0 0.11201584900516082 93.106023561968414 0 0 0 0 312.50948998192325 46.704309812022984 0 46.704309812022984 105.10705858783922 0 0 0 0 -82.569802172580239 40.170328960144843 0 40.170328960144843 -2.9727466853964017 0 0 0 0 118.44938624921997 -28.02364188569436 0 -28.02364188569436 8.9301033198657933 0 0 0 0 151.06529927657903 -25.152127050150284 0 -25.152127050150284 -10.052026493106496 0 0 0 0 153.91085476020817 -40.517976606369984 0 -40.517976606369984 16.757332972845688 0 0 0 0 26.791397107814088 -0.55927372545278331 0 -0.55927372545278331 -0.28432176411113552 0 0 0 0 59.487867040781566 -10.319812018076277 0 -10.319812018076277 28.732517015593658 0 0 0 0 -5.6367666235819343 66.761399156224797 0 66.761399156224797 50.382028738613371 0 0 0 0 50.616916570569629 106.26622819121503 0 106.26622819121503 -93.174330117161389 0 0 0 0 91.946754465823687 2.1636069942283882 0 2.1636069942283882 -73.829701911007433 0 0 0 0 68.403196197454122 1.2744427189602265 0 1.2744427189602265 -2.218025764477872 0 0 0 0 70.48398640762025 -24.364598744872353 0 -24.364598744872353 -99.586829501097441 0 0 0 0 30.542525534603499 7.330064566860111 0 7.330064566860111 -0.39696079252826533 0 0 0 0 45.748377410935063 1.8212510796272845 0 1.8212510796272845 -29.200137153203627 0 0 0 0 56.163995100241664 41.005116772405344 0 41.005116772405344 -95.444941423421938 0 0 0 0 18.013129412585947 1.6543395015595692 0 1.6543395015595692 -2.9603286393914936 0 0 0 0 37.256184701440361 8.8411934591312544 0 8.8411934591312544 -1.6569811613096532 0 0 0 0 6.770409463570104 45.356002144332706 0 45.356002144332706 2.4301057230745755 0 0 0 0 20.551793134014886 15.981646889230554 0 15.981646889230554 -1.751664900125586 0 0 0 0 14.321861728136582 2.8291660039568853 0 2.8291660039568853 -1.221368282519697 0 0 0 0 29.234538666580193 12.295034919342179 0 12.295034919342179 10.240037190745824 0 0 0 0 4.8195420957976864 3.0107535336632623 0 3.0107535336632623 -1.4002951505741095 0 0 0 0 4.1835266399830289 -30.601726743726026 0 -30.601726743726026 -53.893483521979675 0 0 0 0 41.793506056326805 7.4101272161823317 0 7.4101272161823317 -9.0136217940635106 0 0 0 0 21.309743022832109 1.7573948721424957 0 1.7573948721424957 1.2725945654549902 0 0 0 0 116.85212313297961 51.493962965266974 0 51.493962965266974 35.5551593208329 0 0 0 0 26.463992106731894 8.5386415433023988 0 8.5386415433023988 9.2836666261126677 0 0 0 0 1.3128538614730516 -2.6978518585712834 0 -2.6978518585712834 7.3330663418019242 0 0 0 0 109.41853403231289 29.28889867446162 0 29.28889867446162 9.7277117843241285 0 0 0 0 75.802884441869537 50.653732224957821 0 50.653732224957821 35.685971377496003 0 0 0 0 74.938587816173822 29.381893258229638 0 29.381893258229638 9.9149976013818559 0 0 0 0 83.019391670699406 34.188632767522563 0 34.188632767522563 3.0179059629499534 0 0 0 0 76.506966883454879 24.131512585969176 0 24.131512585969176 2.6101254619006795 0 0 0 0 73.358900622333749 35.420738403529867 0 35.420738403529867 19.141981070367819 0 0 0 0 67.689188390036179 34.951099263015578 0 34.951099263015578 19.620266753020132 0 0 0 0 30.611359341284697 20.172633512756818 0 20.172633512756818 8.8537427511708984 0 0 0 0 3.920292429100904 4.3078377557945728 0 4.3078377557945728 4.3437640809197564 0 0 0 0 6.7155244666034548 18.79413736921159 0 18.79413736921159 11.927088142436649 0 0 0 0 6.95528490043597 4.0902936109194385 0 4.0902936109194385 -0.34780368141240459 0 0 0 0 41.150344152130856 21.569147559144596 0 21.569147559144596 15.075814254361376 0 0 0 0 -37.589192195289797 1.6495059717427125 0 1.6495059717427125 16.396157891393614 0 0 0 0 57.616869672398025 38.138606524964189 0 38.138606524964189 19.207861631832941 0 0 0 0 3.9982099359099834 5.7871499714893488 0 5.7871499714893488 6.1957592441869567 0 0 0 0 56.425023892934405 29.580165805266233 0 29.580165805266233 12.999383656846476 0 0 0 0 -81.528085573394492 -36.949855912313978 0 -36.949855912313978 23.25837805083529 0 0 0 0 -1.3956413724316974 0.94862483873311021 0 0.94862483873311021 0.49721673131356869 0 0 0 0 -16.706690552542568 16.271808651500947 0 16.271808651500947 24.299148400302329 0 0 0 0 -20.725967455196951 25.504596062593805 0 25.504596062593805 3.8644452967001826 0 0 0 0 26.717018137317154 31.250010181755698 0 31.250010181755698 45.390970665153873 0 0 0 0 33.221884001934086 -25.951618868574769 0 -25.951618868574769 40.816098354258429 0 0 0 0 -343.87553020242888 -18.463028384926858 0 -18.463028384926858 73.022050679730455 0 0 0 0 1.1195574322135684 0.73776454510916523 0 0.73776454510916523 11.163258193136535 0 0 0 0 25.437053055458819 6.2707365358845664 0 6.2707365358845664 18.691448985142983 0 0 0 0 24.744995926117554 17.944110471586512 0 17.944110471586512 31.220275917695744 0 0 0 0 6.2138479475598558 5.1383805932862714 0 5.1383805932862714 15.557843548108615 0 0 0 0 70.926110167463776 -42.842731284337788 0 -42.842731284337788 -20.046034191782383 0 0 0 0 10.787749670909676 -1.5650333091814375 0 -1.5650333091814375 18.225333026305599 0 0 0 0 14.833785927400328 2.3893257688385034 0 2.3893257688385034 14.362856861962847 0 0 0 0 1.7392956091207452 -1.0099762135268975 0 -1.0099762135268975 3.2355935042869532 0 0 0 0 23.050236708368175 1.3102954031123772 0 1.3102954031123772 5.4434551244273734 0 0 0 0 17.7960053349004 -1.68204902070093 0 -1.68204902070093 19.175575784368689 0 0 0 0 -18.5906119572428 41.819259236786479 0 41.819259236786479 -10.104892620502142 0 0 0 0 -15.17266088166798 -36.847348742028771 0 -36.847348742028771 42.411546756879488 0 0 0 0 -56.322198430658318 51.830344533132916 0 51.830344533132916 44.01673526572722 0 0 0 0 25.6150249680868 19.489393120621457 0 19.489393120621457 19.870446745400841 0 0 0 0 22.964561908243923 14.690530868367262 0 14.690530868367262 18.842851819408175 0 0 0 0 17.730146335067957 2.1678217498500771 0 2.1678217498500771 2.8421123010002707 0 0 0 0 22.775767451508727 8.994669528195459 0 8.994669528195459 16.153736836568442 0 0 0 0 27.388142500887625 23.177990633127223 0 23.177990633127223 28.455626733360759 0 0 0 0 34.249640297421138 15.835551602315718 0 15.835551602315718 16.00108842721545 0 0 0 0 17.707953254668183 6.3566987429655111 0 6.3566987429655111 1.5236561302626277 0 0 0 0 30.598878443212016 9.5885970861900205 0 9.5885970861900205 15.294659236344614 0 0 0 0 33.957049466756871 -6.00016918955167 0 -6.00016918955167 -0.079413468216326777 0 0 0 0 17.636894553336475 -0.56321528859948344 0 -0.56321528859948344 4.87592524473708 0 0 0 0 20.443352828122443 2.6364137894865962 0 2.6364137894865962 -0.068922328324333648 0 0 0 0 22.872313407001954 -0.94146842338284387 0 -0.94146842338284387 -2.0628569594500554 0 0 0 0 22.504065655558243 2.5709358891530201 0 2.5709358891530201 1.769864210732643 0 0 0 0 27.741456818584609 2.2964918841439328 0 2.2964918841439328 -3.096520603736582 0 0 0 0 26.142568359438513 9.9303177623941536 0 9.9303177623941536 5.3724153570473181 0 0 0 0 31.822242098744027 9.3728145673608196 0 9.3728145673608196 -1.1686326230399118 0 0 0 0 59.375924208015931 29.992866781171188 0 29.992866781171188 17.681103721856061 0 0 0 0 64.59684209365696 12.401064307191291 0 12.401064307191291 18.040310439520908 0 0 0 0 26.406033361314257 17.269120696321622 0 17.269120696321622 16.976263786453501 0 0 0 0 25.069914004670864 13.211763995552985 0 13.211763995552985 12.266625191552407 0 0 0 0 13.75591761600014 18.654877798498653 0 18.654877798498653 13.99538080568438 0 0 0 0 76.31794595514657 10.28259660425374 0 10.28259660425374 0.20109159685443956 0 0 0 0 37.221197520393645 4.0231461614268014 0 4.0231461614268014 -1.2513240926684284 0 0 0 0 74.806220480808406 28.123292226971444 0 28.123292226971444 -3.4435661348311442 0 0 0 0 14.443846141420529 3.743529026261136 0 3.743529026261136 1.0093235746585041 0 0 0 0 51.792240351741881 -2.1458695861522727 0 -2.1458695861522727 -4.7936805651524805 0 0 0 0 65.109114600815701 2.951575813589443 0 2.951575813589443 -6.0739222967649766 0 0 0 0 35.137668232724536 -44.265609226104459 0 -44.265609226104459 -56.508989475741316 0 0 0 0 2.8175343970069662 14.69536186712071 0 14.69536186712071 -0.46374096115960128 0 0 0 0 14.114941324814765 -4.4947200162990093 0 -4.4947200162990093 1.2852922045678756 0 0 0 0 40.416137166379485 36.764926528644878 0 36.764926528644878 44.599924144373347 0 0 0 0 10.210926735162502 2.4613010650741671 0 2.4613010650741671 -17.247937150350026 0 0 0 0 23.385047085608676 -6.0394317935959521 0 -6.0394317935959521 -7.0255893794351323 0 0 0 0 17.270714344023872 -6.9937561948130451 0 -6.9937561948130451 -5.6988315712587791 0 0 0 0 34.936758262389048 52.23316060718885 0 52.23316060718885 11.566610686614764 0 0 0 0 46.547806708847929 -4.5401852620775571 0 -4.5401852620775571 9.643285981510985 0 0 0 0 46.913496544531881 -6.4795430565820178 0 -6.4795430565820178 -4.4920907668542824 0 0 0 0 28.108309842923461 -19.746781730941237 0 -19.746781730941237 -6.4280125721323484 0 0 0 0 49.330042764380778 15.21137828718569 0 15.21137828718569 -18.551746588005564 0 0 0 0 50.851836612258921 24.121587505990874 0 24.121587505990874 32.206736493949791 0 0 0 0 70.077792030904675 21.406571755238033 0 21.406571755238033 29.760709491958501 0 0 0 0 22.001729229814373 -13.760492185235478 0 -13.760492185235478 -22.847587783954395 0 0 0 0 4.7149943595359218 -19.273820840969279 0 -19.273820840969279 -11.268297665466207 0 0 0 0 26.623879453622834 -4.5235422499051126 0 -4.5235422499051126 -5.5121931436842138 0 0 0 0 45.377549910568632 4.410050411889415 0 4.410050411889415 3.4500707836306219 0 0 0 0 7.0665182804868181 -1.3109269931076142 0 -1.3109269931076142 6.6869379187618323 0 0 0 0 6.307043488562698 -2.1420294221670417 0 -2.1420294221670417 10.569799293734714 0 0 0 0 40.11189089067193 9.5206949406345416 0 9.5206949406345416 27.869807653875455 0 0 0 0 22.664283125821385 12.476909393998483 0 12.476909393998483 15.892902504471749 0 0 0 0 59.384759067455889 9.3049919333749358 0 9.3049919333749358 5.1565228368547196 0 0 0 0 5.6761358258717109 -2.350579003929397 0 -2.350579003929397 0.9995460460357064 0 0 0 0 24.366159800239245 3.2719879375391407 0 3.2719879375391407 -1.8174724424850908 0 0 0 0 29.232017271955556 8.1095003554801224 0 8.1095003554801224 17.630781300763374 0 0 0 0 41.476085581205552 22.401524663963755 0 22.401524663963755 33.646761302749837 0 0 0 0 26.326674407609971 6.0807010640392605 0 6.0807010640392605 12.175142683041713 0 0 0 0 18.244007930414227 -5.5506584388821238 0 -5.5506584388821238 15.886160452290195 0 0 0 0 27.984331391904561 3.4242221106119928 0 3.4242221106119928 15.979433470335834 0 0 0 0 53.086267637161654 4.0097620070648645 0 4.0097620070648645 11.053963090293564 0 0 0 0 37.978308323705278 20.050632757941344 0 20.050632757941344 27.153919288614816 0 0 0 0 32.156503448873991 15.305503447795672 0 15.305503447795672 23.656927045324551 0 0 0 0 38.712635006551864 3.6405970586852305 0 3.6405970586852305 11.089213563472754 0 0 0 0 33.082099295948865 -2.3919676710725071 0 -2.3919676710725071 13.907988038769645 0 0 0 0 37.412880559098994 8.6748810034424686 0 8.6748810034424686 20.673193238577717 0 0 0 0 33.36726100902888 1.2026401839598293 0 1.2026401839598293 19.322477844456614 0 0 0 0 40.601739700898179 -2.4368212568520908 0 -2.4368212568520908 28.14007637563358 0 0 0 0 31.839040461927652 8.8399153328407465 0 8.8399153328407465 35.442543211105658 0 0 0 0 34.783881988551002 3.9560664300702229 0 3.9560664300702229 22.361344629219957 0 0 0 0 35.599593173115863 14.001625741983162 0 14.001625741983162 20.412473305264029 0 0 0 0 33.91540619074658 8.9123053944581443 0 8.9123053944581443 22.993417736458014 0 0 0 0 26.751823732636694 1.7111081055252271 0 1.7111081055252271 0.60541364886012161 0 0 0 0 33.897132150508696 4.9287046476529213 0 4.9287046476529213 13.221574343437624 0 0 0 0 22.690763258787086 0.70837598718091854 0 0.70837598718091854 -0.68670801643606616 0 0 0 0 23.013625650550239 5.0720640830877528 0 5.0720640830877528 39.506700471628392 0 0 0 0 7.5770811839811643 -0.46661106085409187 0 -0.46661106085409187 -1.386001248492235 0 0 0 0 17.997924643661634 -0.67321161428428411 0 -0.67321161428428411 9.3389062748090499 0 0 0 0 19.472500072591899 -2.1336390359078905 0 -2.1336390359078905 1.5109402838792168 0 0 0 0 254.33640017677681 48.940201491433982 0 48.940201491433982 43.15727855383534 0 0 0 0 396.62687839155842 48.08840677515434 0 48.08840677515434 -30.556998986059625 0 0 0 0 532.50412782612739 -147.62735378315045 0 -147.62735378315045 69.93454772527457 0 0 0 0 138.83719666893739 -35.895916964473031 0 -35.895916964473031 90.646764870147422 0 0 0 0 356.31153139809976 -79.920228184390339 0 -79.920228184390339 88.566677972221441 0 0 0 0 4.087770191568552 2.9868545654143688 0 2.9868545654143688 1.9319661358292026 0 0 0 0 36.036284317757236 101.49239721384788 0 101.49239721384788 -19.614494821373228 0 0 0 0 45.70548566589423 382.97902519187329 0 382.97902519187329 -286.80974370556208 0 0 0 0 137.6819089119308 281.73903404513032 0 281.73903404513032 -176.06131043026471 0 0 0 0 335.62112073181197 250.78757476734881 0 250.78757476734881 -312.54826089709786 0 0 0 0 426.00177769525908 178.46493461941009 0 178.46493461941009 -325.63367979136183 0 0 0 0 281.58306730177719 390.4710566284466 0 390.4710566284466 -448.26747548303501 0 0 0 0 239.74824433246977 130.84952029718715 0 130.84952029718715 31.162958598715704 0 0 0 0 525.56137942508212 26.640291204470032 0 26.640291204470032 -95.816393610232808 0 0 0 0 52.887650628788833 276.33324838672871 0 276.33324838672871 -243.64634439841029 0 0 0 0 97.080259036949428 17.873685525083943 0 17.873685525083943 -95.551824376912919 0 0 0 0 38.005303362961655 1.7700406892234355 0 1.7700406892234355 -6.8806089345261121 0 0 0 0 1041.2721247227746 -178.29457802501474 0 -178.29457802501474 -640.83126869792341 0 0 0 0 488.59565358293003 160.92821479072194 0 160.92821479072194 109.97395332161796 0 0 0 0 252.79557158504031 -67.333621942867921 0 -67.333621942867921 338.42831556966303 0 0 0 0 186.54056092332758 -39.543208142835738 0 -39.543208142835738 126.77470610038745 0 0 0 0 387.73892668398912 32.476376365745182 0 32.476376365745182 -13.251888785580832 0 0 0 0 238.77587881074578 38.304961945798595 0 38.304961945798595 -122.78941833853605 0 0 0 0 177.40372216184187 9.7519216399571178 0 9.7519216399571178 -80.09813338182812 0 0 0 0 55.639112280941802 -8.7346856573578293 0 -8.7346856573578293 -3.3453476479708724 0 0 0 0 71.352678207833378 -109.77921907092008 0 -109.77921907092008 0.38983428175197332 0 0 0 0 46.811185839130445 -14.272217658062488 0 -14.272217658062488 -1.5539371960002373 0 0 0 0 18.536501595372101 56.813884909969261 0 56.813884909969261 -57.627569531212771 0 0 0 0 87.452643943935982 -29.696112689024858 0 -29.696112689024858 -43.790404879354583 0 0 0 0 53.118042512909597 -129.5375249851115 0 -129.5375249851115 131.50218444411075 0 0 0 0 1303.7413216455607 330.04958198501481 0 330.04958198501481 -851.2628621582644 0 0 0 0 48.726465430474491 -109.26162315892361 0 -109.26162315892361 49.835480153411027 0 0 0 0 29.297185932473894 -112.51975728664956 0 -112.51975728664956 -22.573392694015865 0 0 0 0 36.682533116778359 -70.040186703396557 0 -70.040186703396557 152.62671434917684 0 0 0 0 690.42166574984731 -569.94824810923444 0 -569.94824810923444 208.25843996018631 0 0 0 0 27.971843918466845 -23.232176002157942 0 -23.232176002157942 -2.624258357818495 0 0 0 0 20.912749250659544 60.626530647797679 0 60.626530647797679 108.10838318859518 0 0 0 0 4.8757160017764534 -1.233285749161098 0 -1.233285749161098 0.432067504054094 0 0 0 0 260.55726187756864 -0.99662235618102812 0 -0.99662235618102812 -60.207931600948996 0 0 0 0 35.068792246871453 8.8858090381591524 0 8.8858090381591524 40.250426934372967 0 0 0 0 382.25256977398385 -72.494563825490047 0 -72.494563825490047 -37.233367852994093 0 0 0 0 -51.574331115480163 -30.341650662055599 0 -30.341650662055599 15.084261711530871 0 0 0 0 -51.390150478153373 4.043391206372462 0 4.043391206372462 59.070115800453891 0 0 0 0 -3.2550885524251498 17.608584678840771 0 17.608584678840771 13.975423101002434 0 0 0 0 -14.348851855844259 -6.8348859099463652 0 -6.8348859099463652 -14.957330641955195 0 0 0 0 398.41910426226968 208.50717838900812 0 208.50717838900812 147.40451241636217 0 0 0 0 5.7125727703136135 -1.0003077507088989 0 -1.0003077507088989 0.22474636186147334 0 0 0 0 49.671710813745449 -55.057293445686639 0 -55.057293445686639 60.022215676155838 0 0 0 0 406.35567598530906 398.27060236282455 0 398.27060236282455 -112.53709253987473 0 0 0 0 284.69884429152444 -95.921179863452139 0 -95.921179863452139 -6.6994129339886968 0 0 0 0 111.92370528064203 -39.41143845583656 0 -39.41143845583656 236.29918535700321 0 0 0 0 133.58777551777894 65.878633840046859 0 65.878633840046859 264.79672730892764 0 0 0 0 371.12665286885749 120.88906027597972 0 120.88906027597972 156.58812955698818 0 0 0 0 415.94375164515804 135.66718628151801 0 135.66718628151801 8.8708746673356416 0 0 0 0 65.473968332553341 -14.161836373466599 0 -14.161836373466599 160.50326997599552 0 0 0 0 65.181529190573201 -31.343457604901005 0 -31.343457604901005 158.22310055277364 0 0 0 0 83.771997185900545 -31.41002976512554 0 -31.41002976512554 -24.488514176571897 0 0 0 0 170.12079078501847 18.853532942683046 0 18.853532942683046 112.43915343444019 0 0 0 0 111.56146301350964 -108.69074016903245 0 -108.69074016903245 87.222197048320368 0 0 0 0 19.093483251941507 -98.500069097958772 0 -98.500069097958772 40.946032082756062 0 0 0 0 68.925099641448469 -2.5099252646697323 0 -2.5099252646697323 41.683295242827107 0 0 0 0 0.045452580475064508 0.073777721498842652 0 0.073777721498842652 -2.1296892702174963 0 0 0 0 -191.48882535069424 -192.67009430350652 0 -192.67009430350652 17.660549701421765 0 0 0 0 98.467973030208668 -39.223996228534759 0 -39.223996228534759 27.17242428264467 0 0 0 0 167.86437796815881 -39.669807090876759 0 -39.669807090876759 -57.692540655183819 0 0 0 0 12.305738810995535 4.4982929572022385 0 4.4982929572022385 184.78245546612118 0 0 0 0 47.449780189686862 -58.510193250407383 0 -58.510193250407383 211.83047630482167 0 0 0 0 8.1945295149780577 151.41951217223743 0 151.41951217223743 -190.50664506136883 0 0 0 0 126.69255339179654 -82.082967938407819 0 -82.082967938407819 69.095213974044555 0 0 0 0 27.888287161982902 12.511109425626749 0 12.511109425626749 4.2420420580666907 0 0 0 0 160.10698336523274 -35.741065102742681 0 -35.741065102742681 22.240373177967058 0 0 0 0 104.80742857472796 -4.9234668693448498 0 -4.9234668693448498 143.84922252907677 0 0 0 0 20.061691175052346 9.0619385980020155 0 9.0619385980020155 3.2620403998300631 0 0 0 0 -18.559465355734574 72.210359825553041 0 72.210359825553041 -218.9795142120762 0 0 0 0 -65.884617177984182 119.12108931995145 0 119.12108931995145 -134.51349194757256 0 0 0 0 -21.231131502849166 164.04657223405843 0 164.04657223405843 -244.07683742834536 0 0 0 0 -36.169798189719586 -303.7277122168756 0 -303.7277122168756 107.52505957432675 0 0 0 0 23.555121342516941 34.481582151779918 0 34.481582151779918 -149.75359922278631 0 0 0 0 32.810644844423223 2.500304580857005 0 2.500304580857005 -17.090893369912919 0 0 0 0 96.483897912265093 -22.669354222813581 0 -22.669354222813581 6.276909249037999 0 0 0 0 103.62580079727923 -26.731184825645869 0 -26.731184825645869 -39.63466021481463 0 0 0 0 89.841112093978154 -43.126080463061953 0 -43.126080463061953 -23.889977007585912 0 0 0 0 52.240442203317798 36.592618957822509 0 36.592618957822509 -104.76156129831429 0 0 0 0 28.322674855065998 -16.940222051070577 0 -16.940222051070577 -25.447575588651944 0 0 0 0 31.18517959745077 36.356033198605701 0 36.356033198605701 -101.67912342671116 0 0 0 0 19.184740608368884 25.723789935522746 0 25.723789935522746 -104.8733815319236 0 0 0 0 -24.71703900959983 103.75330712398386 0 103.75330712398386 -163.48709998582297 0 0 0 0 2.4834051226207521 20.102374907957028 0 20.102374907957028 -110.83950072474602 0 0 0 0 10.300909372686874 -29.499007199679909 0 -29.499007199679909 -14.815924143419579 0 0 0 0 40.254075498509337 3.5972788710896566 0 3.5972788710896566 12.742488105671328 0 0 0 0 63.297042661375599 -3.7639118112883807 0 -3.7639118112883807 -22.986001974203191 0 0 0 0 72.823522076716472 -46.703256932597526 0 -46.703256932597526 7.3352200265771899 0 0 0 0 74.314973827291396 -26.987786828003664 0 -26.987786828003664 56.755861647699021 0 0 0 0 56.565622145702946 -53.332319128490781 0 -53.332319128490781 24.072034232298392 0 0 0 0 122.30691363295773 -44.521270854337217 0 -44.521270854337217 27.791075822701259 0 0 0 0 83.089494347179425 -56.590470606480267 0 -56.590470606480267 63.800772473725374 0 0 0 0 79.999669678174541 -32.702136828112771 0 -32.702136828112771 31.97696079423531 0 0 0 0 -15.493157003365923 3.7254032158296013 0 3.7254032158296013 -267.86861148828655 0 0 0 0 12.654241549106644 6.5339501314999353 0 6.5339501314999353 2.8694459784138457 0 0 0 0 -46.757302705998882 210.80118135799353 0 210.80118135799353 -315.3204497584594 0 0 0 0 -118.66567451763694 101.36301136687467 0 101.36301136687467 -158.84762173660101 0 0 0 0 -26.632115100474039 115.71476693557884 0 115.71476693557884 -174.46413388186124 0 0 0 0 112.67500475716952 25.212088232768565 0 25.212088232768565 -25.835788844843911 0 0 0 0 -61.203814531883836 58.078521676906803 0 58.078521676906803 -25.173543888679887 0 0 0 0 44.661294239878771 23.665027196078654 0 23.665027196078654 -144.12216576702235 0 0 0 0 -196.51718340577645 226.57423487003462 0 226.57423487003462 -78.399725108292841 0 0 0 0 173.20613569959824 178.35295832835573 0 178.35295832835573 22.788420786037477 0 0 0 0 -2.8370754868010408 -9.7275409734194227 0 -9.7275409734194227 179.15795266189707 0 0 0 0 56.70643313745677 129.80200886688135 0 129.80200886688135 267.15759309325517 0 0 0 0 100.5042611314137 -2.0424698104303545 0 -2.0424698104303545 -9.9611134637312766 0 0 0 0 28.418707490772249 137.56712055779377 0 137.56712055779377 -57.74957994954093 0 0 0 0 1.7623428419319467 1.4752250054293903 0 1.4752250054293903 1.1973361251922121 0 0 0 0 -56.386200432720216 175.39060514001562 0 175.39060514001562 -38.650404074169785 0 0 0 0 396.48287291059933 -60.200670340631177 0 -60.200670340631177 -10.478440221555729 0 0 0 0 361.44422009159462 49.061151357336712 0 49.061151357336712 -44.900660582879937 0 0 0 0 -59.717356148408726 357.26434821474231 0 357.26434821474231 189.86764186617438 0 0 0 0 7.5804585778532783 19.735132846151373 0 19.735132846151373 113.4992883961113 0 0 0 0 140.69450596391471 0.41276441726699886 0 0.41276441726699886 115.20038991033107 0 0 0 0 63.903513899625978 -47.056809419785168 0 -47.056809419785168 46.977216525699077 0 0 0 0 49.796279928101285 -24.476601147458268 0 -24.476601147458268 123.90933169623531 0 0 0 0 121.48966342133645 -55.528365135915919 0 -55.528365135915919 70.791092800218394 0 0 0 0 119.46380739910819 -42.445762401102002 0 -42.445762401102002 65.430241803689569 0 0 0 0 81.371210917845019 -49.527538042946617 0 -49.527538042946617 71.402084651099813 0 0 0 0 90.489282576956612 -36.436861995266781 0 -36.436861995266781 87.060997409379524 0 0 0 0 93.245302939605608 -2.8938555073996213 0 -2.8938555073996213 82.543465647030644 0 0 0 0 122.63179094150837 8.4219328489361942 0 8.4219328489361942 85.955786212681232 0 0 0 0 122.41021922483924 -21.445573532567323 0 -21.445573532567323 88.712757124453219 0 0 0 0 125.226962261062 -16.751124820680729 0 -16.751124820680729 52.406180450598185 0 0 0 0 96.336061366440845 7.4040144191012587 0 7.4040144191012587 112.74057378436055 0 0 0 0 52.891384745700634 16.039618427472533 0 16.039618427472533 209.34677301417423 0 0 0 0 92.665477441875623 -2.2650387498538613 0 -2.2650387498538613 -9.7918033943098521 0 0 0 0 68.455814278041089 -53.930297176098748 0 -53.930297176098748 -12.292862420485108 0 0 0 0 77.795219326217193 17.535696736606042 0 17.535696736606042 4.0681512862165619 0 0 0 0 106.28674535072059 33.505689904684687 0 33.505689904684687 6.3842036456560436 0 0 0 0 102.31564735868233 13.378756002185696 0 13.378756002185696 -17.66578278595648 0 0 0 0 87.917184984414234 -4.4816008965818241 0 -4.4816008965818241 -28.37651553582873 0 0 0 0 88.866958330370338 6.4177313421921873 0 6.4177313421921873 -9.6233700615541053 0 0 0 0 86.633551477319998 16.8801822423884 0 16.8801822423884 -7.5434835654777999 0 0 0 0 130.80280505688756 35.168602869700386 0 35.168602869700386 -0.0097771273699436279 0 0 0 0 90.64895185705609 38.730449411626523 0 38.730449411626523 3.2381943327100089 0 0 0 0 127.89676363177568 -17.111194908828722 0 -17.111194908828722 -7.0769120757777273 0 0 0 0 99.324396954631084 33.908341778401564 0 33.908341778401564 4.100254413534838 0 0 0 0 89.237492753763945 13.018059349287114 0 13.018059349287114 -4.2170318748717364 0 0 0 0 141.18733276417697 14.567542493523206 0 14.567542493523206 -4.57580100783116 0 0 0 0 100.42135254613822 -18.455877586923975 0 -18.455877586923975 20.693303956949649 0 0 0 0 105.50846246371293 -31.62024525866741 0 -31.62024525866741 9.1237933214379154 0 0 0 0 92.381670291404589 -8.3664724773440184 0 -8.3664724773440184 9.3669053800091433 0 0 0 0 200.38696669238198 -55.547960709039671 0 -55.547960709039671 27.56374538553041 0 0 0 0 145.61342172156947 -72.98394273126496 0 -72.98394273126496 -5.9066523506111253 0 0 0 0 29.839627657929668 -41.035725917166872 0 -41.035725917166872 9.5409859962307166 0 0 0 0 47.607934155414547 -23.291731481509874 0 -23.291731481509874 4.5851706802059962 0 0 0 0 143.65139761110913 33.02851641614069 0 33.02851641614069 -10.816559381430466 0 0 0 0 8.2810944948745799 0.8962191480313777 0 0.8962191480313777 1.2960447462138962 0 0 0 0 -0.93068533413679688 -33.478488741868162 0 -33.478488741868162 28.20370215509103 0 0 0 0 50.115259531328775 1.5090064881351282 0 1.5090064881351282 3.0906729880130115 0 0 0 0 26.312868178967875 -3.4810966191175297 0 -3.4810966191175297 -2.5340294020357774 0 0 0 0 54.740141603998097 -8.9647286222177627 0 -8.9647286222177627 0.31011968416092661 0 0 0 0 67.823031218859796 -13.589720279969214 0 -13.589720279969214 6.0986480665354748 0 0 0 0 36.991926213116187 -10.618245872564472 0 -10.618245872564472 5.6494275205517459 0 0 0 0 36.088040506714606 -10.159589404081089 0 -10.159589404081089 -9.7136850628298816 0 0 0 0 61.085044423587533 19.658143126154073 0 19.658143126154073 2.3053158050634011 0 0 0 0 14.950471716860356 0.65996204010953363 0 0.65996204010953363 -1.2633278952090556 0 0 0 0 109.17006856722583 19.674896173015895 0 19.674896173015895 -15.578575339959116 0 0 0 0 70.076799042235052 4.5457077455282509 0 4.5457077455282509 -2.4827895188405789 0 0 0 0 127.64858731834465 36.231993790973945 0 36.231993790973945 -11.875538467496426 0 0 0 0 101.00280564989043 15.106273711358256 0 15.106273711358256 -8.073292465860618 0 0 0 0 36.050545240215897 -11.437053767897829 0 -11.437053767897829 -5.8272813809212689 0 0 0 0 129.27471342356148 -44.058409806492136 0 -44.058409806492136 5.3065844958809976 0 0 0 0 107.08857088015793 46.258906922463439 0 46.258906922463439 15.216384435884038 0 0 0 0 78.207419291869883 4.4593177413473768 0 4.4593177413473768 -8.2413828208589166 0 0 0 0 97.898525715225333 -2.2133777132966941 0 -2.2133777132966941 4.7194579820621332 0 0 0 0 76.147553891660209 11.524845767430179 0 11.524845767430179 2.8804177811155114 0 0 0 0 128.30377901786778 16.000734379256414 0 16.000734379256414 1.7087693949259801 0 0 0 0 32.463890608104236 18.448776693365819 0 18.448776693365819 -9.9879454517360848 0 0 0 0 5.4663837912339801 -1.2390758363499259 0 -1.2390758363499259 -2.3553932018094619 0 0 0 0 62.793706159111025 38.622255535619814 0 38.622255535619814 21.248610939087598 0 0 0 0 54.066723170173091 7.368454485232574 0 7.368454485232574 -1.1318229344352777 0 0 0 0 13.982651418344176 8.6237483865481295 0 8.6237483865481295 2.9220030636870433 0 0 0 0 4.7971709336561617 -23.520764077958177 0 -23.520764077958177 145.34603373075328 0 0 0 0 -0.98584296742633626 -2.5001683108114428 0 -2.5001683108114428 1.4132736598727127 0 0 0 0 118.10535372913728 108.86829655059807 0 108.86829655059807 109.51769903780391 0 0 0 0 237.81948985896815 63.814281957794663 0 63.814281957794663 -41.12551829231893 0 0 0 0 1.2126685360808551 3.6605062042575298 0 3.6605062042575298 2.8506945813237508 0 0 0 0 39.950546634565868 -12.483514859809787 0 -12.483514859809787 -1.7396171637880795 0 0 0 0 102.98232981466936 -3.3256287606218393 0 -3.3256287606218393 -22.479547669701049 0 0 0 0 139.86212880649691 12.992619533657262 0 12.992619533657262 40.552144925266475 0 0 0 0 34.724212671674238 39.89919714681853 0 39.89919714681853 19.387579518050917 0 0 0 0 64.928290538664442 31.108882878544023 0 31.108882878544023 12.528408695361463 0 0 0 0 66.858949474204564 42.886373307060694 0 42.886373307060694 21.949650270154777 0 0 0 0 141.38112917623221 2.9717253351664112 0 2.9717253351664112 65.002255299054013 0 0 0 0 216.28013801574707 -15.915028993160377 0 -15.915028993160377 14.031551972710076 0 0 0 0 136.76111993333325 -40.736572654445808 0 -40.736572654445808 61.948416640653249 0 0 0 0 158.30385546023899 -37.015138375028073 0 -37.015138375028073 62.590705644810441 0 0 0 0 160.94961435762525 -17.79037117947729 0 -17.79037117947729 36.738357308640843 0 0 0 0 190.20316071950219 -21.687740883575884 0 -21.687740883575884 33.539146957079538 0 0 0 0 26.25561284977077 12.859109636467792 0 12.859109636467792 1.9656677189377092 0 0 0 0 182.14844727452146 -43.347777239770039 0 -43.347777239770039 38.504085926882908 0 0 0 0 210.52625032176729 -35.574145932125248 0 -35.574145932125248 40.413418176472987 0 0 0 0 212.87441324148676 -64.269831205927403 0 -64.269831205927403 22.402675964694936 0 0 0 0 12.640851873977851 3.0803969146057284 0 3.0803969146057284 -5.5422487020839704 0 0 0 0 241.21170752913895 -5.4725806518138143 0 -5.4725806518138143 7.482969296799638 0 0 0 0 409.40973864804255 -39.329172833561643 0 -39.329172833561643 -32.164494358576121 0 0 0 0 191.02355235579307 -65.378252499959672 0 -65.378252499959672 59.282601072483885 0 0 0 0 231.90760414212127 -104.74099291305538 0 -104.74099291305538 94.039222962781423 0 0 0 0 226.05847587187236 -69.924532956003418 0 -69.924532956003418 51.813184100246872 0 0 0 0 169.47180284310889 -61.445093830314818 0 -61.445093830314818 64.422668632889327 0 0 0 0 156.51664878641895 -51.803922070094359 0 -51.803922070094359 64.134920610855261 0 0 0 0 159.62507441689377 -46.021609016329421 0 -46.021609016329421 76.655112877115357 0 0 0 0 178.34363732529164 -72.488063255485031 0 -72.488063255485031 79.031208602449624 0 0 0 0 128.33619793315302 -60.828203008617493 0 -60.828203008617493 74.590851531498629 0 0 0 0 32.565137979319843 -3.4917657579508159 0 -3.4917657579508159 4.3068287545453359 0 0 0 0 18.328952442432637 -12.692201973570945 0 -12.692201973570945 -1.3357284281122475 0 0 0 0 22.687734801896767 -6.8899525103457755 0 -6.8899525103457755 2.7004626528599087 0 0 0 0 29.646835482079041 13.678464317914404 0 13.678464317914404 -37.989815047334105 0 0 0 0 3.5641913496949655 4.9788246232197793 0 4.9788246232197793 -1.8759963281971732 0 0 0 0 11.868153954863374 -7.6127927281831944 0 -7.6127927281831944 5.858889512442147 0 0 0 0 -2.0236829506175127 44.292936917718578 0 44.292936917718578 33.269298201688798 0 0 0 0 4.1956473640393597 -14.927981040956475 0 -14.927981040956475 80.99988059436123 0 0 0 0 -24.724174612783827 -62.823104863516619 0 -62.823104863516619 59.07201359286546 0 0 0 0 138.46130156327126 -87.091046659413678 0 -87.091046659413678 -42.505988162366066 0 0 0 0 13.339740055652015 -6.2120812956584182 0 -6.2120812956584182 2.5299867721462039 0 0 0 0 42.248039948943187 -7.0675816209976574 0 -7.0675816209976574 -6.5159026993072757 0 0 0 0 58.823892550550227 -12.842271264079614 0 -12.842271264079614 -2.2738214175669782 0 0 0 0 35.929769983122242 -1.5388820259781824 0 -1.5388820259781824 3.417015054438366 0 0 0 0 12.954702836846991 -13.768803623154781 0 -13.768803623154781 2.2539394630005063 0 0 0 0 33.142964071907045 -6.1814250669779085 0 -6.1814250669779085 -2.7203258471307663 0 0 0 0 70.224742378413794 -29.612595100908493 0 -29.612595100908493 3.9917281118287065 0 0 0 0 31.575513868005146 -8.5178356412496328 0 -8.5178356412496328 1.5394392815833271 0 0 0 0 134.53476263186894 -34.17780236033559 0 -34.17780236033559 2.2805451675494623 0 0 0 0 129.17508515795635 -33.936020449248872 0 -33.936020449248872 36.122882683990611 0 0 0 0 120.38907363323233 -42.493459164429851 0 -42.493459164429851 66.194319787911809 0 0 0 0 156.80070382048143 -55.503519457004586 0 -55.503519457004586 57.908228141115615 0 0 0 0 158.59693398795207 -63.34133968907463 0 -63.34133968907463 42.412704285927248 0 0 0 0 168.88317584495235 -42.049941911586984 0 -42.049941911586984 68.735749587056489 0 0 0 0 223.26606282027205 -70.777255517469257 0 -70.777255517469257 27.961113975499757 0 0 0 0 268.26165570740704 -125.87859098146782 0 -125.87859098146782 81.843252123252341 0 0 0 0 247.7841545969859 -37.927513128619694 0 -37.927513128619694 44.711115985130164 0 0 0 0 196.13795735989697 -40.705491071998949 0 -40.705491071998949 121.78894618657409 0 0 0 0 190.91220044731745 -61.344183781358879 0 -61.344183781358879 60.324474737271885 0 0 0 0 165.28860922643798 -69.935893203449041 0 -69.935893203449041 35.398043001888254 0 0 0 0 253.08931888718507 -92.073643049649007 0 -92.073643049649007 8.5564551471052255 0 0 0 0 4.6995406486058116 -0.11030989833402316 0 -0.11030989833402316 0.72962589892675034 0 0 0 0 8.14039410262194 -9.6555945349575723 0 -9.6555945349575723 3.4374386221038549 0 0 0 0 155.74244933178124 0.14315486693269008 0 0.14315486693269008 -18.876305122575246 0 0 0 0 183.06258131550567 -102.85860769683012 0 -102.85860769683012 47.863851363654021 0 0 0 0 143.9565109384057 -31.417593872421833 0 -31.417593872421833 1.4265570358408013 0 0 0 0 147.1725466969001 -32.358116163775037 0 -32.358116163775037 -39.298452240275992 0 0 0 0 105.53692975730155 -46.563383071072678 0 -46.563383071072678 -22.494259902146496 0 0 0 0 31.860973592672963 61.060684652236603 0 61.060684652236603 -76.340794669307456 0 0 0 0 248.02324083101121 -107.64889819519188 0 -107.64889819519188 -23.093462728942541 0 0 0 0 0.069933664075868762 -1.0984550863562248 0 -1.0984550863562248 -8.2642057982697761 0 0 0 0 100.5505935000001 25.902680197848753 0 25.902680197848753 20.017687706049742 0 0 0 0 -26.68743299011112 92.257479197068733 0 92.257479197068733 -91.979795057070703 0 0 0 0 88.698402709833317 -13.187374428961107 0 -13.187374428961107 -95.982512804465387 0 0 0 0 27.12055411149754 -17.654675736195379 0 -17.654675736195379 10.072977785287549 0 0 0 0 51.294009879595251 -7.6720458268946459 0 -7.6720458268946459 5.3764650121737816 0 0 0 0 4.0669982191684539 -6.3905212541731089 0 -6.3905212541731089 5.3669700660163926 0 0 0 0 26.06428061790939 3.8683855949698227 0 3.8683855949698227 -14.042629249315723 0 0 0 0 230.82276037140036 -61.489077087907674 0 -61.489077087907674 -77.618217918528444 0 0 0 0 30.718663985695457 8.4549533843469362 0 8.4549533843469362 -10.080672041908201 0 0 0 0 -0.82392154840868415 -2.9478653568217652 0 -2.9478653568217652 -15.69608989895335 0 0 0 0 9.9472882747650146 -19.201303881757667 0 -19.201303881757667 -12.932792807172518 0 0 0 0 43.308025921120134 -5.0061200666038985 0 -5.0061200666038985 -8.5173271223688971 0 0 0 0 2.3471073652763152 32.503035090933508 0 32.503035090933508 -37.909944825943057 0 0 0 0 53.878587223152863 17.275775770526707 0 17.275775770526707 -58.285210888401707 0 0 0 0 38.223456781735877 13.075975683449542 0 13.075975683449542 -22.797303008753261 0 0 0 0 29.596673000865849 -7.2572569884621316 0 -7.2572569884621316 -66.976998322856161 0 0 0 0 3.2975793119549053 -31.517255323312156 0 -31.517255323312156 -33.633691629980603 0 0 0 0 74.197723950979707 -68.386934204017734 0 -68.386934204017734 -19.675687797250273 0 0 0 0 -42.440177484182641 61.0259579427061 0 61.0259579427061 -22.011736006679712 0 0 0 0 7.7977270771314977 -4.6509458236289305 0 -4.6509458236289305 -21.866321816958681 0 0 0 0 123.05051349919631 30.477450897883955 0 30.477450897883955 -97.922220360070241 0 0 0 0 38.656507650044034 20.707732694691657 0 20.707732694691657 4.5908101584090506 0 0 0 0 78.340614570988691 48.316817908124563 0 48.316817908124563 -61.903240173165919 0 0 0 0 29.109658624096483 0.14289247358283319 0 0.14289247358283319 -10.393845972699637 0 0 0 0 7.4150035758837269 -1.3067470168029018 0 -1.3067470168029018 -0.83355670638771073 0 0 0 0 11.525498615348624 9.2251852399965628 0 9.2251852399965628 -8.0548070285749418 0 0 0 0 77.688640331867646 -16.515784154839025 0 -16.515784154839025 3.4608290937758284 0 0 0 0 18.108523040059026 10.129485110584483 0 10.129485110584483 -18.950631028599911 0 0 0 0 36.423099212343004 9.8100200843016694 0 9.8100200843016694 -10.298499593074212 0 0 0 0 24.194682393328094 5.3854132017328382 0 5.3854132017328382 -4.7697914226589528 0 0 0 0 17.936632884004773 9.5460934691109998 0 9.5460934691109998 -3.4039063463608192 0 0 0 0 58.63159849634394 -10.895567165838656 0 -10.895567165838656 -1.2851779152970266 0 0 0 0 14.921487423461919 -3.5482836775717033 0 -3.5482836775717033 -2.5865659842746993 0 0 0 0 76.507826003355149 34.303894266694101 0 34.303894266694101 -61.158938881486392 0 0 0 0 -80.07136878901656 127.06332153869289 0 127.06332153869289 -42.604275992240673 0 0 0 0 79.528171008452773 30.312056804820941 0 30.312056804820941 -75.610690181087932 0 0 0 0 169.08662275176175 -15.833156999624322 0 -15.833156999624322 -62.403852248716248 0 0 0 0 133.72937963697768 135.01255019171731 0 135.01255019171731 -72.858834893675294 0 0 0 0 104.03036216097098 257.45945186155313 0 257.45945186155313 145.197360365029 0 0 0 0 4.2737422773592897 0.28879094143175621 0 0.28879094143175621 -0.41845791076860905 0 0 0 0 4.1756791485354938 5.8067296738754806 0 5.8067296738754806 -2.6787724403966298 0 0 0 0 -230.0560000105761 72.804496350556633 0 72.804496350556633 78.325698866983657 0 0 0 0 45.895931518551151 -8.8898899415317487 0 -8.8898899415317487 -12.431156339544941 0 0 0 0 73.247480542951962 -8.1290882092437187 0 -8.1290882092437187 0.41457151711074403 0 0 0 0 51.968890809483128 -43.277269558868511 0 -43.277269558868511 6.3442612574090163 0 0 0 0 97.38703714129224 -109.05511998196357 0 -109.05511998196357 83.809829471076796 0 0 0 0 180.66855076592401 -69.564267663262285 0 -69.564267663262285 -28.400844635998965 0 0 0 0 152.49229529137665 -22.40108417435772 0 -22.40108417435772 -62.114435862186383 0 0 0 0 470.95345063768036 -164.93597818467379 0 -164.93597818467379 -0.45465691398590025 0 0 0 0 120.95116232379223 -22.605756557349878 0 -22.605756557349878 -33.089076431187323 0 0 0 0 99.599419972502801 -62.263218299084826 0 -62.263218299084826 6.2330105052360523 0 0 0 0 115.40735001156281 -32.386980618638404 0 -32.386980618638404 -45.931976314326107 0 0 0 0 46.356900726634194 9.8525888513813698 0 9.8525888513813698 -24.306513539125689 0 0 0 0 48.555319766586763 131.69043712962633 0 131.69043712962633 -154.63804867953081 0 0 0 0 13.902287741540931 -22.079750764260552 0 -22.079750764260552 24.954201445550325 0 0 0 0 34.955283777051079 15.773666176499354 0 15.773666176499354 6.1065125417600985 0 0 0 0 78.2263684115469 -30.338501749614238 0 -30.338501749614238 40.479914627468133 0 0 0 0 81.259604519960703 -19.583715194053639 0 -19.583715194053639 -1.0980463743620135 0 0 0 0 94.81794181506848 -15.267478743465176 0 -15.267478743465176 27.590452615338478 0 0 0 0 64.121497312837164 3.0168780921427469 0 3.0168780921427469 -12.804357618272775 0 0 0 0 100.38921490740904 -19.631662025419729 0 -19.631662025419729 -4.5889423229630211 0 0 0 0 80.738770344032673 -34.898325371615329 0 -34.898325371615329 -7.3301943744669416 0 0 0 0 108.22253594408539 -35.865822047177744 0 -35.865822047177744 -8.9584638601227198 0 0 0 0 -2.5631606640599784 -83.633236553244444 0 -83.633236553244444 -69.099777805507031 0 0 0 0 -36.645217389948812 -21.667013869599121 0 -21.667013869599121 -42.149659741965763 0 0 0 0 70.226875519372697 35.499960966090669 0 35.499960966090669 -7.5847646251559127 0 0 0 0 28.690567689889576 1.0524421289280212 0 1.0524421289280212 2.0897780202510603 0 0 0 0 -0.54234291778507071 0.89954071059327134 0 0.89954071059327134 -6.9357511897762318 0 0 0 0 37.041861273930408 -10.97992389031657 0 -10.97992389031657 -40.052579536820133 0 0 0 0 27.980851709282433 -45.076448825218762 0 -45.076448825218762 -80.719121792135638 0 0 0 0 5.4781468679163083 3.8198439147089545 0 3.8198439147089545 -11.958229868661151 0 0 0 0 32.569754749732965 13.398472601013964 0 13.398472601013964 -47.13333783972385 0 0 0 0 20.278291326452745 7.3432770541642185 0 7.3432770541642185 -7.9859953273676183 0 0 0 0 37.704189014679287 18.179127074261487 0 18.179127074261487 -9.9260104315092121 0 0 0 0 46.595548755591153 18.068637152055544 0 18.068637152055544 -50.156580413401571 0 0 0 0 30.839224177048891 15.99132786230507 0 15.99132786230507 -19.697986120555015 0 0 0 0 26.314677865212957 6.7412421066324484 0 6.7412421066324484 -1.9915748866921303 0 0 0 0 12.022830439409518 3.0030228520453761 0 3.0030228520453761 -5.8477900560287708 0 0 0 0 23.050124688717915 2.2117560953328166 0 2.2117560953328166 -17.95438999192811 0 0 0 0 12.256498221095654 -2.5560847649236109 0 -2.5560847649236109 -6.9757795654038137 0 0 0 0 77.853728729882278 -35.443295111483621 0 -35.443295111483621 -6.0390870845772042 0 0 0 0 79.878027698017831 -33.056694911425836 0 -33.056694911425836 -5.8051166556472253 0 0 0 0 83.457341957815515 -32.950524558328311 0 -32.950524558328311 -7.3329851134883484 0 0 0 0 51.762019512836559 -5.4426035505985624 0 -5.4426035505985624 -4.9085516151167212 0 0 0 0 36.741489036430721 -17.366611936578693 0 -17.366611936578693 -2.8037631581441929 0 0 0 0 23.647542492981302 11.691339012397975 0 11.691339012397975 -7.9006145586822356 0 0 0 0 59.613627559505403 -31.98450888708328 0 -31.98450888708328 9.9554572971060225 0 0 0 0 36.41060952488624 -16.308879149983795 0 -16.308879149983795 1.9877585350201343 0 0 0 0 20.490026001818478 -7.6416018190598152 0 -7.6416018190598152 26.132060721801054 0 0 0 0 27.838997080238187 14.875405350223446 0 14.875405350223446 -13.756436087043141 0 0 0 0 22.892551545082824 6.198767666049207 0 6.198767666049207 12.244032364721534 0 0 0 0 18.582882305399352 2.8107835663428986 0 2.8107835663428986 -0.32410778644274485 0 0 0 0 41.520154551973974 -6.0130023269096 0 -6.0130023269096 -17.509422033895135 0 0 0 0 1.7644186688576156 29.285274883317271 0 29.285274883317271 -11.964889495716761 0 0 0 0 1.5042828139849007 4.9676692948060008 0 4.9676692948060008 13.490249776479232 0 0 0 0 -1.9064907878928352 31.717460995326007 0 31.717460995326007 41.594153453739182 0 0 0 0 53.45148513080494 36.634648763699602 0 36.634648763699602 36.445211925583976 0 0 0 0 0.11377837924135292 0.86659778415700117 0 0.86659778415700117 -0.72033164556812213 0 0 0 0 91.642642239225097 -8.6371535541112507 0 -8.6371535541112507 -166.60620375870877 0 0 0 0 24.536171585437842 49.705574299719274 0 49.705574299719274 -20.278891687355213 0 0 0 0 0.33575541606165871 3.187946569958747 0 3.187946569958747 -1.5221499628673003 0 0 0 0 17.331220482490608 70.302749934012581 0 70.302749934012581 -8.9026745634333224 0 0 0 0 23.582954189107113 77.030132753300563 0 77.030132753300563 1.7959318241937581 0 0 0 0 21.314563555250061 35.952161474619288 0 35.952161474619288 45.521642627901201 0 0 0 0 -8.9741501332318876 -0.79543666721315276 0 -0.79543666721315276 -37.977120182917588 0 0 0 0 3.7228491212657104 0.4517443032333972 0 0.4517443032333972 -2.7031044948833109 0 0 0 0 30.397956571308896 -25.05970748374375 0 -25.05970748374375 -16.585643873795107 0 0 0 0 41.27318417665083 3.7413787400287219 0 3.7413787400287219 -30.966108270434916 0 0 0 0 54.070934708433924 -19.085763406951173 0 -19.085763406951173 -49.153798574990788 0 0 0 0 71.69280984782381 5.6634648589742937 0 5.6634648589742937 -48.341229032336912 0 0 0 0 117.08208060395555 17.862255627648437 0 17.862255627648437 -42.476818323227462 0 0 0 0 54.420943304054845 7.2348369204069414 0 7.2348369204069414 -31.160014611231418 0 0 0 0 36.113750185613753 -1.4999063362367906 0 -1.4999063362367906 -23.868699739764907 0 0 0 0 73.887242969300132 46.67186701557705 0 46.67186701557705 33.648468478742188 0 0 0 0 122.35803386292537 -24.252673218931477 0 -24.252673218931477 73.468134910620847 0 0 0 0 80.655795229191426 -32.793580899798599 0 -32.793580899798599 -23.313417521238989 0 0 0 0 228.35754491001717 -159.50397100343622 0 -159.50397100343622 513.72000924833355 0 0 0 0 -17.333054526829073 -44.558918341493637 0 -44.558918341493637 -14.369732332753301 0 0 0 0 2.7898729178207731 -1.7093503795033769 0 -1.7093503795033769 -5.073800091989848 0 0 0 0 3.9384295413619839 -32.254653615050074 0 -32.254653615050074 -10.243818446456316 0 0 0 0 54.392998286815782 -26.336439099852555 0 -26.336439099852555 -38.144369248333533 0 0 0 0 52.323183473723475 -10.963520816127129 0 -10.963520816127129 -0.31262434813629625 0 0 0 0 70.556326732956222 -6.2667230828352558 0 -6.2667230828352558 -28.398257477452717 0 0 0 0 69.619999754009768 3.296551944271414 0 3.296551944271414 -20.345774111353649 0 0 0 0 44.23304270098015 -43.201207625598954 0 -43.201207625598954 -62.464917691889923 0 0 0 0 -26.35504314044374 -2.4382228149956404 0 -2.4382228149956404 -33.508301475659891 0 0 0 0 65.460003088126541 -88.971253200490054 0 -88.971253200490054 16.903287918246122 0 0 0 0 156.90484963316703 -2.3642990301949496 0 -2.3642990301949496 -166.05809962662147 0 0 0 0 118.68602310064307 -36.933287118108439 0 -36.933287118108439 -65.180045700543076 0 0 0 0 0.30399361105607881 -0.93254857970590876 0 -0.93254857970590876 0.94773836722365878 0 0 0 0 127.56362291898586 66.904319904997095 0 66.904319904997095 -55.733054905301572 0 0 0 0 184.06184450833825 -157.83484589217323 0 -157.83484589217323 469.10318812246442 0 0 0 0 232.46718516319652 204.98815242583049 0 204.98815242583049 -189.05926505342467 0 0 0 0 31.270107232601731 24.064271254542234 0 24.064271254542234 61.255346018905925 0 0 0 0 32.862646314475569 84.238723791464281 0 84.238723791464281 -52.654951299764619 0 0 0 0 25.099893444727059 78.632606982755348 0 78.632606982755348 -30.257334843251556 0 0 0 0 26.948146659793565 71.755327961066769 0 71.755327961066769 -33.860778331936444 0 0 0 0 15.481145845973515 63.475869410525519 0 63.475869410525519 -28.641317878146424 0 0 0 0 26.942666412674811 70.016171265667751 0 70.016171265667751 -39.428226765286922 0 0 0 0 45.25319329299964 142.76249065436122 0 142.76249065436122 195.29211301522184 0 0 0 0 3.0770075487192514 0.88125349693738819 0 0.88125349693738819 -0.14983575367995994 0 0 0 0 186.34408449774492 -153.33657413919889 0 -153.33657413919889 -41.10476260559895 0 0 0 0 37.958899413904874 54.868334128868014 0 54.868334128868014 -44.571868917902265 0 0 0 0 6.2450868928825116 1.5770682192834489 0 1.5770682192834489 -0.5785736676235308 0 0 0 0 32.827596098853974 70.065969597686035 0 70.065969597686035 -85.357088637762899 0 0 0 0 317.32901083002798 71.354391674297517 0 71.354391674297517 -155.42322033555863 0 0 0 0 38.05995458489997 57.77118500293971 0 57.77118500293971 -70.833636493013273 0 0 0 0 -202.21673254806956 72.860972996231567 0 72.860972996231567 334.87988350004093 0 0 0 0 -54.890545948608633 -7.2934595159078128 0 -7.2934595159078128 -72.770303771519082 0 0 0 0 -15.225577939854702 75.36024177580947 0 75.36024177580947 -66.917797401860327 0 0 0 0 33.130616192232765 67.390001350334003 0 67.390001350334003 -66.411826878793647 0 0 0 0 18.607094702150789 82.661579021758143 0 82.661579021758143 -36.520977175191092 0 0 0 0 45.605086967228999 11.138810707751375 0 11.138810707751375 -78.258045737135774 0 0 0 0 94.835631052876124 49.802969048397017 0 49.802969048397017 -47.930722834687884 0 0 0 0 67.76343756816641 33.615512823801282 0 33.615512823801282 -35.184000246638107 0 0 0 0 54.75939556476078 68.380032274007135 0 68.380032274007135 -33.771474924669064 0 0 0 0 175.68157690286171 12.54676596976079 0 12.54676596976079 -157.98507906258922 0 0 0 0 183.67923916806467 19.931779422066484 0 19.931779422066484 -72.962907525123455 0 0 0 0 89.980828172973816 -37.325059488942003 0 -37.325059488942003 -107.36430716313293 0 0 0 0 107.86180388090725 -57.859117109447105 0 -57.859117109447105 -207.21955707812737 0 0 0 0 99.248984851976275 133.26794759364907 0 133.26794759364907 117.07133585557581 0 0 0 0 3.3624516603830727 1.5728919770636356 0 1.5728919770636356 -0.46625505431385333 0 0 0 0 -13.455674478158471 26.750276081873608 0 26.750276081873608 74.374922339970681 0 0 0 0 11.056898084209308 -1.0843279332483178 0 -1.0843279332483178 0.044008821079861038 0 0 0 0 257.44926887601468 226.45290341807774 0 226.45290341807774 -45.932847961441439 0 0 0 0 -138.38332632859965 -51.013660629645301 0 -51.013660629645301 316.87392294779863 0 0 0 0 7.8377948648121674 -10.996426972150516 0 -10.996426972150516 46.959383656979071 0 0 0 0 16.75800266532687 -4.1183985321493779 0 -4.1183985321493779 0.439139242191664 0 0 0 0 -9.2012808263389161 -95.626303530158737 0 -95.626303530158737 -71.460910389802024 0 0 0 0 5.2913716871125729 -1.9051166875562018 0 -1.9051166875562018 -0.92665803851986572 0 0 0 0 -83.10156273956818 -32.139242314581111 0 -32.139242314581111 4.7492552093926861 0 0 0 0 20.720705982770596 -78.783423493986561 0 -78.783423493986561 -39.916744852662305 0 0 0 0 157.57336924415722 15.499475541823529 0 15.499475541823529 -86.487114153422226 0 0 0 0 147.5764897036097 42.303663805017436 0 42.303663805017436 -49.307420411982321 0 0 0 0 123.99481846352865 7.7217095379069178 0 7.7217095379069178 -65.87040411501448 0 0 0 0 134.2441998293798 -19.398005312024452 0 -19.398005312024452 -106.30860434983833 0 0 0 0 163.47125434294867 -51.196914337331009 0 -51.196914337331009 -77.843012122200435 0 0 0 0 129.09028702461137 -25.234269504483851 0 -25.234269504483851 -51.425801446183414 0 0 0 0 125.53253516199766 -85.179238973677471 0 -85.179238973677471 -43.220258857666977 0 0 0 0 224.06713570049033 -70.936220265315569 0 -70.936220265315569 -45.92583696840029 0 0 0 0 56.040143649974198 -7.8673896439484565 0 -7.8673896439484565 -0.25422006588269142 0 0 0 0 -0.936898204243235 0.41392918001314172 0 0.41392918001314172 0.4405108233520707 0 0 0 0 -255.51210055611591 -44.836163348521495 0 -44.836163348521495 104.47722997422807 0 0 0 0 49.980618822715769 -12.822158641261808 0 -12.822158641261808 4.4634133667248648 0 0 0 0 3.1700153225271208 5.5975861798734741 0 5.5975861798734741 -3.4691576296672482 0 0 0 0 154.42503332468914 -224.96910759554123 0 -224.96910759554123 118.60864786955381 0 0 0 0 532.12612053404155 32.860244616848831 0 32.860244616848831 -29.130565205302901 0 0 0 0 3.562363717503473 -0.87080181655566591 0 -0.87080181655566591 0.5005861212676832 0 0 0 0 306.46770599334559 273.24057359502149 0 273.24057359502149 280.6961982509431 0 0 0 0 54.918904996055062 -128.01218884836135 0 -128.01218884836135 243.83841372940606 0 0 0 0 14.774641705254908 -7.0696044834810436 0 -7.0696044834810436 17.418874891422092 0 0 0 0 21.112690679787192 -28.974562118414269 0 -28.974562118414269 54.599277618660835 0 0 0 0 37.346749606484082 -13.5156211265205 0 -13.5156211265205 7.4119784294089186 0 0 0 0 3.6012474373856094 -16.307981254218703 0 -16.307981254218703 8.0568080550640389 0 0 0 0 41.141313831089064 67.5284121891018 0 67.5284121891018 149.52000429540749 0 0 0 0 0.98621715817597533 -0.89361408531299702 0 -0.89361408531299702 -0.72292366666209906 0 0 0 0 29.075447443057783 -30.82593221155048 0 -30.82593221155048 7.2134615968000162 0 0 0 0 10.922656486618195 -1.7392681648511399 0 -1.7392681648511399 -0.46913519258364689 0 0 0 0 61.364538819136214 86.954212546367216 0 86.954212546367216 128.07255575961653 0 0 0 0 73.464606205285236 52.248457231844725 0 52.248457231844725 64.600745061661655 0 0 0 0 60.025841313356068 76.117884941558259 0 76.117884941558259 81.819164618175364 0 0 0 0 95.931428899930324 73.016409022716289 0 73.016409022716289 82.202901264011871 0 0 0 0 31.493689421797171 47.539809513629734 0 47.539809513629734 114.93521161301283 0 0 0 0 37.087557361577637 73.064452658894879 0 73.064452658894879 111.64553489114905 0 0 0 0 34.053789597848663 35.424450801431249 0 35.424450801431249 88.755008694848584 0 0 0 0 59.862990159890614 66.973012954951173 0 66.973012954951173 38.63800401252638 0 0 0 0 67.735325008485233 89.041973542916821 0 89.041973542916821 -5.5436053908811118 0 0 0 0 46.675307125522522 73.836286431906274 0 73.836286431906274 -4.9766454892430829 0 0 0 0 47.508909545551433 58.836982693806831 0 58.836982693806831 33.285013314309708 0 0 0 0 134.484728344818 93.248709219338252 0 93.248709219338252 17.066937512024197 0 0 0 0 133.56610536125663 13.309641196538678 0 13.309641196538678 -56.31144755945229 0 0 0 0 294.37293179861081 116.57921846987807 0 116.57921846987807 9.9627389340389527 0 0 0 0 98.956009316912969 84.349408955456283 0 84.349408955456283 117.56495305218982 0 0 0 0 28.229363495920552 -15.49872107864212 0 -15.49872107864212 -18.564674532904519 0 0 0 0 62.525318662130303 -12.933272597358496 0 -12.933272597358496 -20.376899981093629 0 0 0 0 19.991503919580282 -18.331184061180238 0 -18.331184061180238 -8.309654283951204 0 0 0 0 32.924609448749834 8.3685554810599854 0 8.3685554810599854 -15.907329187717551 0 0 0 0 7.2331621842999425 -0.10626645968886805 0 -0.10626645968886805 -4.3542798857459575 0 0 0 0 6.7894399231690628 -7.7133781505902448 0 -7.7133781505902448 -12.372031594055091 0 0 0 0 199.0354711839027 177.93069836737931 0 177.93069836737931 -35.024640107635946 0 0 0 0 79.768593300497741 -274.73448417918848 0 -274.73448417918848 203.00420256405505 0 0 0 0 20.507225251101772 -8.9104828630652264 0 -8.9104828630652264 -14.728358118541109 0 0 0 0 71.440515957656316 8.9109562749299585 0 8.9109562749299585 -14.594031205158842 0 0 0 0 31.842654630556353 21.518366180202065 0 21.518366180202065 4.7763856992196452 0 0 0 0 17.156752763999975 -3.2690759712590989 0 -3.2690759712590989 -11.087470352045557 0 0 0 0 10.328623971168582 -1.8566696665671856 0 -1.8566696665671856 -8.3034601015313463 0 0 0 0 3.7966537963826283 -1.3527975730022064 0 -1.3527975730022064 -0.10600051608411754 0 0 0 0 22.840234660048736 26.349404991308347 0 26.349404991308347 -8.4856486639746436 0 0 0 0 31.089316038825928 -8.3567259631224715 0 -8.3567259631224715 2.2482036349829286 0 0 0 0 17.046114771874272 0.88802518708965295 0 0.88802518708965295 11.889336244812966 0 0 0 0 40.239494524386828 3.5803758712252147 0 3.5803758712252147 9.0060228240399738 0 0 0 0 35.862526978657115 0.57829718432344634 0 0.57829718432344634 11.80212895808063 0 0 0 0 32.615595182898687 2.639664278528862 0 2.639664278528862 17.473669294649426 0 0 0 0 35.945932013826678 -4.9708417050210301 0 -4.9708417050210301 12.028745772322509 0 0 0 0 34.950537902448559 -1.9631562606550688 0 -1.9631562606550688 20.67145765868031 0 0 0 0 45.528229438830749 1.2881382192383626 0 1.2881382192383626 13.985069862356795 0 0 0 0 28.556095706706401 5.4002505244329768 0 5.4002505244329768 13.794995098430491 0 0 0 0 21.28561885674111 -3.6238242482846275 0 -3.6238242482846275 -2.1543485749709292 0 0 0 0 32.801231758057838 2.9611226646810564 0 2.9611226646810564 2.3374958797503496 0 0 0 0 34.913195424407604 -6.1640147768030147 0 -6.1640147768030147 -15.125837607343556 0 0 0 0 16.10981641829116 0.8182580094980807 0 0.8182580094980807 -3.2018033168204365 0 0 0 0 12.013981558207135 -12.165042713941389 0 -12.165042713941389 -6.6174086540164927 0 0 0 0 7.9823764596585534 -23.97125174903033 0 -23.97125174903033 5.9118023943128719 0 0 0 0 -61.328070418821881 -77.780927371577718 0 -77.780927371577718 -48.709486336257214 0 0 0 0 -2.1637493257653944 -2.5131656715637618 0 -2.5131656715637618 0.049926867867122304 0 0 0 0 78.37418719384732 -1.2526228187832658 0 -1.2526228187832658 -29.998225946809043 0 0 0 0 192.71084961410088 192.37165120298027 0 192.37165120298027 -103.68796788649391 0 0 0 0 5.4712597564983554 1.2982210784731052 0 1.2982210784731052 -2.1185359328956035 0 0 0 0 24.776605266481056 52.831486336375121 0 52.831486336375121 -118.70555500507339 0 0 0 0 25.04607060518174 -6.4814884802281085 0 -6.4814884802281085 -5.4379922858979626 0 0 0 0 23.677335974631404 -7.5439581483706348 0 -7.5439581483706348 -4.7957280363532124 0 0 0 0 21.526767617473524 -6.4523288885523016 0 -6.4523288885523016 -4.8078941346780084 0 0 0 0 20.849026883953314 -2.4789745930317082 0 -2.4789745930317082 -5.187140199080857 0 0 0 0 14.986888927458494 -12.320879637028952 0 -12.320879637028952 -18.567910172235344 0 0 0 0 11.599281111998295 -4.6063524718175728 0 -4.6063524718175728 0.41910496582287676 0 0 0 0 30.171112357711536 23.120294135328891 0 23.120294135328891 30.441191513182787 0 0 0 0 64.962966995881288 -49.457601420944457 0 -49.457601420944457 37.123856906349374 0 0 0 0 25.856918489924283 14.201751396758482 0 14.201751396758482 48.443631082816637 0 0 0 0 -29.167731014094898 47.210413462476595 0 47.210413462476595 58.471350341519951 0 0 0 0 -54.130655070839566 265.37272243192831 0 265.37272243192831 -112.07074710882125 0 0 0 0 4.3936440745633831 1.4598355015913285 0 1.4598355015913285 0.2562398303818707 0 0 0 0 -177.39892746565238 78.277812080188852 0 78.277812080188852 44.302686953534021 0 0 0 0 221.63844835216878 -220.04062977044896 0 -220.04062977044896 102.78372937165932 0 0 0 0 286.66707889261306 -190.73679448720173 0 -190.73679448720173 16.817484345486946 0 0 0 0 252.01142397780495 -128.93378245708254 0 -128.93378245708254 -56.935738843972672 0 0 0 0 67.469257664699398 -71.262440110309342 0 -71.262440110309342 41.744024762159825 0 0 0 0 184.93663971703063 -157.59173012129912 0 -157.59173012129912 90.033039880190699 0 0 0 0 131.32431857454503 22.827231134414149 0 22.827231134414149 -62.597577027756728 0 0 0 0 80.261345645703841 346.98046507252559 0 346.98046507252559 -354.72712330506874 0 0 0 0 10.880640712483995 3.0488254788764735 0 3.0488254788764735 -0.21469569887930584 0 0 0 0 -82.76407592288524 -90.431874757693564 0 -90.431874757693564 -89.433589501285951 0 0 0 0 63.272251301357755 140.71887847548066 0 140.71887847548066 191.73364509370936 0 0 0 0 508.97289330417698 -51.065428239777191 0 -51.065428239777191 -138.37094838626638 0 0 0 0 120.18227208738972 23.694806462090696 0 23.694806462090696 -256.33497835467563 0 0 0 0 90.333706424105912 64.923515565413481 0 64.923515565413481 10.105961596872589 0 0 0 0 105.13647984858835 92.377690514615637 0 92.377690514615637 60.389004229214606 0 0 0 0 154.73578533225736 -109.0958908464526 0 -109.0958908464526 138.355399202841 0 0 0 0 57.170601352438098 65.234373299831077 0 65.234373299831077 127.64993946740468 0 0 0 0 69.510791712906212 -36.709656578040381 0 -36.709656578040381 121.15424567849978 0 0 0 0 261.40253511402989 62.034716055710362 0 62.034716055710362 122.09197120633394 0 0 0 0 17.716502278766711 -2.3976213285153563 0 -2.3976213285153563 113.82284120170561 0 0 0 0 682.85188943173853 465.36631546005924 0 465.36631546005924 101.23430145691128 0 0 0 0 766.58972070773689 -222.17893966017712 0 -222.17893966017712 -67.241446011151197 0 0 0 0 -165.57617807476345 385.82866723059863 0 385.82866723059863 -57.912826432994478 0 0 0 0 1.4225476087956963 1.3909745323558127 0 1.3909745323558127 0.94554823839490165 0 0 0 0 469.40696209617454 -211.57734687248859 0 -211.57734687248859 43.419326739912776 0 0 0 0 331.8122072762053 -236.76638171147181 0 -236.76638171147181 222.44930447433649 0 0 0 0 549.05128676378808 -100.96437017829464 0 -100.96437017829464 18.639133632701032 0 0 0 0 437.89119210161152 -210.43933439459016 0 -210.43933439459016 43.975202956729845 0 0 0 0 5.5460569355298048 2.5819582974988862 0 2.5819582974988862 0.033646403574641326 0 0 0 0 -11.000152050801262 82.486308107902573 0 82.486308107902573 -152.35647730468429 0 0 0 0 65.682692536269315 7.878732884815804 0 7.878732884815804 -210.945788483059 0 0 0 0 -43.766166425135452 -43.108370284189625 0 -43.108370284189625 -127.80318542925319 0 0 0 0 54.434138181022718 42.849645033917078 0 42.849645033917078 -57.409728679232757 0 0 0 0 63.713509678011178 -80.436637596761273 0 -80.436637596761273 -48.701025831749178 0 0 0 0 123.87965429383621 -49.101626753573811 0 -49.101626753573811 -146.90806891834552 0 0 0 0 34.546359495463548 -10.063742963107984 0 -10.063742963107984 -114.37677871559788 0 0 0 0 43.787723510737123 -7.6751388092743298 0 -7.6751388092743298 -124.94149907721317 0 0 0 0 -10.669763286969101 37.134874818494495 0 37.134874818494495 -51.754663075392955 0 0 0 0 19.117750926638109 5.3442897358494861 0 5.3442897358494861 -20.534291886916208 0 0 0 0 3.4986342128921706 2.4229828451995914 0 2.4229828451995914 0.66480805526008613 0 0 0 0 120.51321318689224 70.448401156946773 0 70.448401156946773 34.760192645237339 0 0 0 0 158.37496353244933 -344.85508260038034 0 -344.85508260038034 296.63122563835066 0 0 0 0 -58.386619341064943 -173.39361875250779 0 -173.39361875250779 -96.387037952470024 0 0 0 0 158.6104845612208 35.888046130865831 0 35.888046130865831 -315.37956573531375 0 0 0 0 184.92745352123166 -44.263890102250912 0 -44.263890102250912 -43.444300427166468 0 0 0 0 13.074856217716331 5.5679382529988359 0 5.5679382529988359 -1.6274016303820162 0 0 0 0 191.52703532253508 -12.618933322329212 0 -12.618933322329212 -126.82350400138921 0 0 0 0 8.9725622416589488 2.7213348702574933 0 2.7213348702574933 -4.3512386399068337 0 0 0 0 458.68491083272966 17.001272897699671 0 17.001272897699671 -219.70312190299305 0 0 0 0 3.0771862251318964 1.1821743286695536 0 1.1821743286695536 -0.27076835203260163 0 0 0 0 2.0845823796844343 0.6303909887639918 0 0.6303909887639918 0.20802533846897231 0 0 0 0 380.90880211869808 -50.534803748833909 0 -50.534803748833909 13.867489310691781 0 0 0 0 429.11232533026487 -266.79342586777619 0 -266.79342586777619 115.47360694361087 0 0 0 0 522.85849898148444 -215.66899120777802 0 -215.66899120777802 -173.46099400491644 0 0 0 0 11.778703452223795 2.5179591387554439 0 2.5179591387554439 -1.4674197443565236 0 0 0 0 29.105346331110923 50.323019301023976 0 50.323019301023976 67.916865185358006 0 0 0 0 -40.611451875593048 3.9002298441137526 0 3.9002298441137526 5.089507878783138 0 0 0 0 187.94282810631557 100.82040949469247 0 100.82040949469247 -3.5315318998975016 0 0 0 0 1.1256864497462544 2.5667940914065639 0 2.5667940914065639 -3.0364553307292477 0 0 0 0 34.364108955924166 91.430883991328557 0 91.430883991328557 281.31730211742308 0 0 0 0 184.57058487559698 126.11226501436236 0 126.11226501436236 -148.76679016601574 0 0 0 0 199.94751668753452 305.41484898266822 0 305.41484898266822 102.86232695010366 0 0 0 0 256.7764742703439 43.822994515266657 0 43.822994515266657 -78.91608154051869 0 0 0 0 1.3636703177154459 -2.1466192492054716 0 -2.1466192492054716 -1.7179331450601838 0 0 0 0 -116.02129586882802 -91.006759379479973 0 -91.006759379479973 25.194142788084562 0 0 0 0 24.349638421070267 -55.697311932850589 0 -55.697311932850589 -89.088854922339266 0 0 0 0 170.18939298126497 4.2953304341404106 0 4.2953304341404106 40.067859396755416 0 0 0 0 156.07860033529141 35.92177928185545 0 35.92177928185545 -28.138876196687391 0 0 0 0 115.16308378378744 32.546102386685661 0 32.546102386685661 -22.180806105989987 0 0 0 0 -47.32633898617496 -40.295162448025465 0 -40.295162448025465 25.212847264175707 0 0 0 0 -0.58649852820549597 0.7799891108842445 0 0.7799891108842445 -1.0634648439950916 0 0 0 0 47.148148994368967 32.691156135435435 0 32.691156135435435 18.568772087689837 0 0 0 0 42.107031844861922 -39.354120520699773 0 -39.354120520699773 57.236219009756496 0 0 0 0 0.015237672772016708 0.043459741894523063 0 0.043459741894523063 -0.2374820371358651 0 0 0 0 33.147374193576979 -81.741139641295234 0 -81.741139641295234 17.828159649293312 0 0 0 0 74.50614873264567 -41.487389164113395 0 -41.487389164113395 33.03386416855507 0 0 0 0 131.29882095076027 -22.911708204466592 0 -22.911708204466592 4.0360304276129746 0 0 0 0 115.37497993189027 -26.379093070642803 0 -26.379093070642803 33.282325877446482 0 0 0 0 95.36116375036363 -66.182582528726002 0 -66.182582528726002 -14.845260557448492 0 0 0 0 82.947357208686299 -32.964433004130868 0 -32.964433004130868 15.590011318474922 0 0 0 0 193.14177692813246 55.97426447326751 0 55.97426447326751 19.617102680144257 0 0 0 0 5.1688886702322634 35.379459320855858 0 35.379459320855858 17.23324297138215 0 0 0 0 -25.181909462166004 4.8791732764372213 0 4.8791732764372213 41.888259858571018 0 0 0 0 -4.0929663707793225 50.089302850574541 0 50.089302850574541 -21.389134989408149 0 0 0 0 207.000662165432 -48.732062732067988 0 -48.732062732067988 6.6124946263444144 0 0 0 0 223.33592373252031 -92.276503224803207 0 -92.276503224803207 -47.219324476263012 0 0 0 0 1.7746156332571559 0.73480484432958804 0 0.73480484432958804 -1.4368362237907248 0 0 0 0 3.4266135563375428 24.15528275728235 0 24.15528275728235 -56.860813536990804 0 0 0 0 -12.573037194313656 -4.8893276029643573 0 -4.8893276029643573 12.712004332413755 0 0 0 0 31.883825196920952 -31.137226995837466 0 -31.137226995837466 -51.943983699687465 0 0 0 0 1.4568636860373374 0.39722186560028661 0 0.39722186560028661 -1.119775705167265 0 0 0 0 351.64384062122554 -179.38389038372458 0 -179.38389038372458 46.973293530325492 0 0 0 0 20.287756411433293 187.60009928711338 0 187.60009928711338 -141.79865663000871 0 0 0 0 237.00824792770436 72.114497696579249 0 72.114497696579249 93.554147168768054 0 0 0 0 332.97255310883338 45.495790355907751 0 45.495790355907751 -110.2643510972145 0 0 0 0 151.25250631567178 -63.351287128023657 0 -63.351287128023657 79.299125957199294 0 0 0 0 261.01348912069079 -8.0734843778301411 0 -8.0734843778301411 -11.349093216835769 0 0 0 0 142.22950548966764 3.3414037447628999 0 3.3414037447628999 -10.418159334044702 0 0 0 0 102.07584811082052 40.686087344183996 0 40.686087344183996 25.03888501176543 0 0 0 0 8.9261954838948441 2.5073759295682336 0 2.5073759295682336 -1.0927970244297427 0 0 0 0 1.098886577011875 1.4762385537347171 0 1.4762385537347171 0.36653083768013495 0 0 0 0 140.83302024789009 -116.6606016553737 0 -116.6606016553737 88.712653181360295 0 0 0 0 194.51152117313541 112.84477443497596 0 112.84477443497596 51.514856479539866 0 0 0 0 1.6153169310026101 0.13644666859143939 0 0.13644666859143939 0.20728983411085555 0 0 0 0 65.094069515325828 -33.628197847498129 0 -33.628197847498129 -1.1895936337474211 0 0 0 0 1.5220988024521223 0.40846850437598903 0 0.40846850437598903 0.27674785000777846 0 0 0 0 -1.1785571988511947 -8.6642665052212031 0 -8.6642665052212031 2.9520431151040611 0 0 0 0 8.0952080747930495 -0.31230231754512339 0 -0.31230231754512339 0.09837057546160631 0 0 0 0 10.178710845342721 2.8808329196777294 0 2.8808329196777294 -3.4674696638686644 0 0 0 0 9.6393357826309511 -9.9096457975928445 0 -9.9096457975928445 -10.067836201972941 0 0 0 0 10.093124732353317 3.3922515118907057 0 3.3922515118907057 -1.2656103167910544 0 0 0 0 9.8596985004405724 2.8041766771493712 0 2.8041766771493712 -0.95117068047663622 0 0 0 0 9.3328391864488367 3.5438812256470307 0 3.5438812256470307 0.61376717640752076 0 0 0 0 22.123352785914904 5.7580558516985789 0 5.7580558516985789 -4.2855966834270802 0 0 0 0 14.299282499421679 -0.6340784535460493 0 -0.6340784535460493 -8.3458732459493206 0 0 0 0 9.6685843388171051 -5.583708975536851 0 -5.583708975536851 -15.363868515960458 0 0 0 0 16.074656805714767 -5.906809620607504 0 -5.906809620607504 -18.700855052158804 0 0 0 0 10.396411742759113 -2.6914210207657137 0 -2.6914210207657137 -4.3567692315222137 0 0 0 0 9.2004064631546498 -9.2566166017293199 0 -9.2566166017293199 -7.1759593578011049 0 0 0 0 18.32358162770106 -25.136756011436489 0 -25.136756011436489 -0.41480705494635117 0 0 0 0 13.921009670943022 -16.400115051374314 0 -16.400115051374314 -14.078408142775515 0 0 0 0 17.343910445590154 -4.630090502528958 0 -4.630090502528958 -8.8996866517407227 0 0 0 0 38.313318510114186 -3.6420519503937356 0 -3.6420519503937356 -29.111303706152398 0 0 0 0 48.768380304594757 -4.1045639396797924 0 -4.1045639396797924 -25.390394829422348 0 0 0 0 4.6776244151850506 -6.6468667403924542 0 -6.6468667403924542 -13.638914085305062 0 0 0 0 26.411355069940328 3.698175382382372 0 3.698175382382372 -3.6340468078061434 0 0 0 0 1.2177413170866203 12.466314375712798 0 12.466314375712798 6.467268639086944 0 0 0 0 -14.684429842032841 -0.30231610151501975 0 -0.30231610151501975 3.7617254431499085 0 0 0 0 0.12370502052363364 0.29527899395009172 0 0.29527899395009172 0.30770714049413372 0 0 0 0 -7.0487826390672126 4.7591860326659479 0 4.7591860326659479 4.6514202346141929 0 0 0 0 9.8729156795016024 3.9305258054733727 0 3.9305258054733727 -0.17158003801267796 0 0 0 0 4.1467796846627607 9.9273735427638989 0 9.9273735427638989 1.198729666656007 0 0 0 0 7.5708547572721727 7.5639546820859636 0 7.5639546820859636 0.61647146867495195 0 0 0 0 12.332211610555532 7.4785960235238491 0 7.4785960235238491 0.31663250423657274 0 0 0 0 19.67584252198867 6.9512227779555502 0 6.9512227779555502 -2.0424610725343086 0 0 0 0 12.038708743049938 7.9024508522156296 0 7.9024508522156296 1.9817632307444484 0 0 0 0 12.534219151966681 3.4721235800469827 0 3.4721235800469827 1.8471558741264147 0 0 0 0 13.779174547380535 4.307876882774039 0 4.307876882774039 -0.66532845896622206 0 0 0 0 20.107668067808845 4.3502870396725086 0 4.3502870396725086 -1.4305566250512811 0 0 0 0 3.8978522178149433 4.1195964764858886 0 4.1195964764858886 2.0668792948521002 0 0 0 0 13.786301301870935 4.5525684941329612 0 4.5525684941329612 -0.75821852132389722 0 0 0 0 7.6433088519770536 2.7801296494750538 0 2.7801296494750538 0.6926565878256099 0 0 0 0 9.0287333749583922 5.7924496248203781 0 5.7924496248203781 1.3049822896496437 0 0 0 0 7.3909212928556371 5.6754757786730288 0 5.6754757786730288 0.076958390205192018 0 0 0 0 8.8384038552903803 4.1095456979924876 0 4.1095456979924876 0.82114819795415173 0 0 0 0 4.1251769191003405 1.4805914385691317 0 1.4805914385691317 -0.40017583616767638 0 0 0 0 198.3088046892517 -21.109885233684587 0 -21.109885233684587 22.447784859361835 0 0 0 0 250.65686931549862 73.150969471856513 0 73.150969471856513 -28.531499113018285 0 0 0 0 271.68317363555252 11.127798760417491 0 11.127798760417491 1.813790816947801 0 0 0 0 174.71408926190634 94.830272438144476 0 94.830272438144476 -38.581013094960866 0 0 0 0 229.68072504908196 45.057580555415328 0 45.057580555415328 -40.889001340964597 0 0 0 0 -0.06800021224254138 1.1793236340182887 0 1.1793236340182887 0.94163927499450928 0 0 0 0 177.60358193582397 48.284763551807352 0 48.284763551807352 -6.1391713874121621 0 0 0 0 98.705018251072033 12.438724249243535 0 12.438724249243535 11.799378737244865 0 0 0 0 181.97652116354584 27.530567930758693 0 27.530567930758693 -17.030441078325566 0 0 0 0 67.759887702064589 34.472380510122576 0 34.472380510122576 4.6847022478961264 0 0 0 0 132.88039659961942 37.485873837011724 0 37.485873837011724 3.6463640024331596 0 0 0 0 271.06442049486213 3.8038932170452995 0 3.8038932170452995 -21.923552523672697 0 0 0 0 0.9574472714866431 0.42539866855322117 0 0.42539866855322117 0.085625575060723991 0 0 0 0 45.515182282659225 108.48228963838585 0 108.48228963838585 -40.0227388194659 0 0 0 0 82.854553047640366 23.851961171070229 0 23.851961171070229 6.1344592839730865 0 0 0 0 -51.757395968481433 19.181009447795248 0 19.181009447795248 6.8995118282487056 0 0 0 0 227.28162601649819 -48.491527168034395 0 -48.491527168034395 1.8682535710734953 0 0 0 0 -24.93460767812212 -35.545900790480808 0 -35.545900790480808 -24.331823248597885 0 0 0 0 0.61930412665998347 0.16905205218330366 0 0.16905205218330366 -0.066796179056418603 0 0 0 0 200.10345364970999 31.006444425514655 0 31.006444425514655 19.374474612011085 0 0 0 0 0.10624960308938469 0.79905925111640386 0 0.79905925111640386 0.90835570398515375 0 0 0 0 230.91319913425832 27.315047946660457 0 27.315047946660457 -1.9353150816236138 0 0 0 0 216.77336658768763 12.56104953337066 0 12.56104953337066 10.437171135859671 0 0 0 0 228.49313129010261 9.0976145898338814 0 9.0976145898338814 7.8695769558946154 0 0 0 0 245.85586102204979 14.276339791615875 0 14.276339791615875 -1.2947623969249946 0 0 0 0 164.25561300184927 5.8286317469690356 0 5.8286317469690356 7.8338367848607362 0 0 0 0 232.10624778712372 33.819822859894202 0 33.819822859894202 -13.622553959485948 0 0 0 0 50.286769284870388 -23.720440698809306 0 -23.720440698809306 27.877726873685386 0 0 0 0 179.6511751703365 -51.418696642386706 0 -51.418696642386706 2.3209246508751207 0 0 0 0 -12.681486118002795 5.1664194128799465 0 5.1664194128799465 -16.751311088688791 0 0 0 0 1.0870838599833519 0.63202164565991836 0 0.63202164565991836 0.18910963963881361 0 0 0 0 -19.71144136429939 19.004177131110062 0 19.004177131110062 4.7684858862598389 0 0 0 0 64.245474214265414 -52.712308491435003 0 -52.712308491435003 12.634788921065791 0 0 0 0 25.815808082908916 -2.6812727408513481 0 -2.6812727408513481 -15.289795643136074 0 0 0 0 51.551254812904517 12.052765770207316 0 12.052765770207316 -69.192839542640513 0 0 0 0 -15.269564034676478 58.812005769722049 0 58.812005769722049 -19.944528880126981 0 0 0 0 1.7437345644353854 0.68868109340074568 0 0.68868109340074568 0.075777044266755966 0 0 0 0 19.025969250491471 -45.966133528855465 0 -45.966133528855465 -46.796785881245917 0 0 0 0 39.869454036379466 -13.210717386459635 0 -13.210717386459635 2.8656447253914621 0 0 0 0 58.867701963848958 -40.16629048100242 0 -40.16629048100242 3.3639874696878564 0 0 0 0 23.174073279180448 -15.863141390304378 0 -15.863141390304378 17.196887876215584 0 0 0 0 68.438113709133177 -49.948432467224407 0 -49.948432467224407 28.173010310588495 0 0 0 0 108.24544719468213 -21.355214113754108 0 -21.355214113754108 17.477260900160559 0 0 0 0 62.021791863036924 -46.399921523344688 0 -46.399921523344688 37.121391883000456 0 0 0 0 150.47972433282121 0.50084621502651316 0 0.50084621502651316 39.472434381450725 0 0 0 0 60.710408995553735 -26.270891360768246 0 -26.270891360768246 35.874880960587618 0 0 0 0 146.60870432404045 -68.179522906858352 0 -68.179522906858352 14.23554181810286 0 0 0 0 88.871746163349599 -45.726680672345054 0 -45.726680672345054 9.508221935014717 0 0 0 0 92.024878882861231 -52.668111339703728 0 -52.668111339703728 -13.5109853523187 0 0 0 0 219.6685869694229 -68.751084084841494 0 -68.751084084841494 -3.9997543767161403 0 0 0 0 347.42732199525926 80.672034054759081 0 80.672034054759081 -3.4275766696801639 0 0 0 0 -194.99273043821813 -123.10871610445666 0 -123.10871610445666 23.018288811404858 0 0 0 0 -43.854071941357688 34.890631267332864 0 34.890631267332864 -21.067593191403866 0 0 0 0 0.65323441557073636 -0.83443569583690191 0 -0.83443569583690191 -0.49778967324678952 0 0 0 0 128.38108889311115 -28.348959959747503 0 -28.348959959747503 -4.1980644781187522 0 0 0 0 69.58997420691594 -90.446658153012038 0 -90.446658153012038 -62.034653141084092 0 0 0 0 137.89758110645198 -34.727117383944929 0 -34.727117383944929 -0.19508297443208278 0 0 0 0 137.07439938931202 -51.865179306667933 0 -51.865179306667933 -12.299436868243248 0 0 0 0 0.81788603821462402 0.2207607362537729 0 0.2207607362537729 0.044433949067938322 0 0 0 0 148.97383229598927 -79.055176939314947 0 -79.055176939314947 19.824221146816186 0 0 0 0 160.67745244029356 -9.4624691020079794 0 -9.4624691020079794 24.12762768961467 0 0 0 0 174.51967228559079 -20.864150345215393 0 -20.864150345215393 30.706935364610274 0 0 0 0 55.245138091508124 43.989550803098709 0 43.989550803098709 -7.8795840056939426 0 0 0 0 133.56082647451694 -60.044030926014145 0 -60.044030926014145 -0.91461252801978787 0 0 0 0 252.78044976869569 -25.635634429766142 0 -25.635634429766142 -19.676829621824009 0 0 0 0 223.72001291509696 34.59657223947773 0 34.59657223947773 1.3608780774750482 0 0 0 0 199.11867313204129 0.70656367193882519 0 0.70656367193882519 -0.049954986948786681 0 0 0 0 114.14709731432959 59.667989526070677 0 59.667989526070677 8.2036134628789608 0 0 0 0 0.77608666407314786 0.43510339207584536 0 0.43510339207584536 0.19436977592211602 0 0 0 0 -8.0164583984733326 52.083962796391944 0 52.083962796391944 15.944002153404846 0 0 0 0 26.973932004635572 -19.033180266153984 0 -19.033180266153984 -0.97762691432646065 0 0 0 0 44.21167828822945 -4.6148356755948292 0 -4.6148356755948292 8.3774750023528135 0 0 0 0 55.18540949121234 -4.1056377991284316 0 -4.1056377991284316 0.057872477991676524 0 0 0 0 48.224655992478802 -13.574496095067243 0 -13.574496095067243 -2.287312940897964 0 0 0 0 64.950411869722302 -15.504143283704954 0 -15.504143283704954 -3.9731534423167023 0 0 0 0 37.473033914155167 -20.125371059397583 0 -20.125371059397583 -2.3450035366355628 0 0 0 0 66.919889165212226 -18.496611253506231 0 -18.496611253506231 -12.324633527684163 0 0 0 0 1.1607319776812801 14.894413916276791 0 14.894413916276791 -15.866971733072402 0 0 0 0 42.268251080640766 -11.369400984128065 0 -11.369400984128065 -20.506115689095289 0 0 0 0 1.3290487153135757 0.89115372798222836 0 0.89115372798222836 0.3832681640292489 0 0 0 0 32.002660420228494 -22.895359662011522 0 -22.895359662011522 7.1583454397406534 0 0 0 0 45.326238450979872 -0.66281224624226276 0 -0.66281224624226276 -4.2264800133432185 0 0 0 0 124.32514135242673 -21.454068898744868 0 -21.454068898744868 -8.332593188602317 0 0 0 0 121.17344510888825 31.25226853035306 0 31.25226853035306 23.22539905918579 0 0 0 0 80.299964194055065 0.32011585051390945 0 0.32011585051390945 0.93685113287962452 0 0 0 0 96.823184220214898 -6.8777404976089578 0 -6.8777404976089578 -12.866857095325642 0 0 0 0 66.630469097144669 -18.655549458241431 0 -18.655549458241431 -0.6941895447488946 0 0 0 0 64.976223069294846 -8.331055779138218 0 -8.331055779138218 -10.825139874405115 0 0 0 0 59.175288331607589 -6.980202919260706 0 -6.980202919260706 -0.009763713396001409 0 0 0 0 63.603208726359298 -5.8526663777040548 0 -5.8526663777040548 -7.7982524539726228 0 0 0 0 50.37149383814176 10.233073945215718 0 10.233073945215718 -0.91117046764693432 0 0 0 0 65.497610578269814 -1.8989025696106889 0 -1.8989025696106889 -0.019587594192618456 0 0 0 0 48.032900402744417 5.5983120669330777 0 5.5983120669330777 -1.6396931823617351 0 0 0 0 42.175958825755515 14.017162854376451 0 14.017162854376451 8.4268850540226996 0 0 0 0 83.177463340929535 22.152752631376927 0 22.152752631376927 -2.8392364224228341 0 0 0 0 49.313441104633966 6.2653721915553948 0 6.2653721915553948 -1.3455556512055145 0 0 0 0 39.012954464382346 21.453350498324639 0 21.453350498324639 8.2415530557047738 0 0 0 0 18.946056252803828 1.7327677651078295 0 1.7327677651078295 5.9293957776095336 0 0 0 0 -0.19369292530609528 -30.725275973662974 0 -30.725275973662974 -59.328158479311924 0 0 0 0 1.7220364923418856 2.5701502752734342 0 2.5701502752734342 -1.0552704321339337 0 0 0 0 18.56474912147678 25.4200456376376 0 25.4200456376376 -11.421288611451416 0 0 0 0 28.937423472289083 21.694940861034098 0 21.694940861034098 -100.85969675304432 0 0 0 0 8.6017823090421643 3.7745783112048983 0 3.7745783112048983 0.8848115767105218 0 0 0 0 8.6516110902957735 1.4847013730394067 0 1.4847013730394067 -11.849021126024439 0 0 0 0 2.5811756191542372 -5.6884873275471648 0 -5.6884873275471648 -0.92715749222085009 0 0 0 0 0.73443979881182031 1.8085193678985121 0 1.8085193678985121 -0.43010289335150931 0 0 0 0 10.993473489696044 6.347849455742633 0 6.347849455742633 -5.3098683789046461 0 0 0 0 9.9527234557023689 4.0906426365037518 0 4.0906426365037518 0.87549055281691313 0 0 0 0 14.693953601517933 -1.3667982947932984 0 -1.3667982947932984 0.61595892586251466 0 0 0 0 7.7798319436624297 11.607417575385512 0 11.607417575385512 6.2599586831863689 0 0 0 0 10.67783216733369 12.019267572276988 0 12.019267572276988 -4.1527356326446352 0 0 0 0 -18.809708653352573 -74.80078516793219 0 -74.80078516793219 -99.313805305274627 0 0 0 0 16.913548677315703 10.678718826836871 0 10.678718826836871 5.1905061675989259 0 0 0 0 -0.46316359763656578 0.24821185439552096 0 0.24821185439552096 -0.41904574750721579 0 0 0 0 26.167470665397559 24.870257515119391 0 24.870257515119391 -20.221603025770719 0 0 0 0 57.666883025951392 -29.469391414393783 0 -29.469391414393783 -4.9720019390215384 0 0 0 0 10.087647042000754 -60.587492184674829 0 -60.587492184674829 -22.55661711750804 0 0 0 0 -39.582958974126086 -4.1530464548749251 0 -4.1530464548749251 17.920620085636983 0 0 0 0 -1.0890344115323387 17.549048704257075 0 17.549048704257075 -38.006314841294625 0 0 0 0 11.978187444154173 -25.410120633518318 0 -25.410120633518318 24.392450257215842 0 0 0 0 31.449501283663267 22.062436256963394 0 22.062436256963394 17.165490514900284 0 0 0 0 9.3105842012446374 39.196493496750463 0 39.196493496750463 39.453985408349581 0 0 0 0 -4.1336093178542797 -8.8731675975777762 0 -8.8731675975777762 1.5465219600441742 0 0 0 0 -14.520490921051532 16.069972266910383 0 16.069972266910383 41.573158359715308 0 0 0 0 15.707319557710434 -16.800530316788809 0 -16.800530316788809 46.012315005445998 0 0 0 0 9.6640365073253633 13.532444998355231 0 13.532444998355231 -6.8256165119839807 0 0 0 0 17.412376247055363 -15.924161397877356 0 -15.924161397877356 -53.019618701124045 0 0 0 0 -22.553540123863968 -27.621495436215 0 -27.621495436215 -4.8414788739410142 0 0 0 0 66.266982518864097 -16.188725651165214 0 -16.188725651165214 -84.394829876242056 0 0 0 0 15.434522890973312 -33.056648709002673 0 -33.056648709002673 36.689606164563656 0 0 0 0 3.5901758642345669 0.27491592363605122 0 0.27491592363605122 -0.078921626696466296 0 0 0 0 0.26797901206009556 7.3177992587595213 0 7.3177992587595213 100.42311103010411 0 0 0 0 34.599818466707802 14.485730527407497 0 14.485730527407497 30.306605117978506 0 0 0 0 -167.75451380811865 72.304151989471961 0 72.304151989471961 226.74108236685015 0 0 0 0 -128.52213392988597 -82.867652610859196 0 -82.867652610859196 40.205756301187876 0 0 0 0 280.06211445108056 39.657940305505804 0 39.657940305505804 66.15612713597659 0 0 0 0 28.399689255944395 143.92011587701472 0 143.92011587701472 23.014353342509821 0 0 0 0 3.4205620937511299 1.4737736669863395 0 1.4737736669863395 0.70675869362316224 0 0 0 0 199.48162200339721 -44.439818568836472 0 -44.439818568836472 7.1658517110723778 0 0 0 0 81.987130106019322 -67.674065690671114 0 -67.674065690671114 13.467684982489345 0 0 0 0 18.076376059456379 169.76058975422109 0 169.76058975422109 143.26668359094458 0 0 0 0 58.199458348954067 -71.203011522611121 0 -71.203011522611121 2.7408582893757796 0 0 0 0 206.94498557477345 1.7049861310243131 0 1.7049861310243131 -69.759525426397474 0 0 0 0 205.55796566802383 -230.94508438768707 0 -230.94508438768707 -58.394649960564948 0 0 0 0 0.4134654716245123 -0.70529545022593254 0 -0.70529545022593254 3.0802970450409135 0 0 0 0 337.42134078065283 -263.1522910586682 0 -263.1522910586682 -146.38748886857002 0 0 0 0 272.43400959327118 -174.36220907072288 0 -174.36220907072288 -90.41990534270667 0 0 0 0 440.34333889656409 -139.35225705009475 0 -139.35225705009475 -116.48797374126082 0 0 0 0 90.323372479302634 193.87601060292704 0 193.87601060292704 57.8865948734189 0 0 0 0 0.30092470655454662 0.12959731374624539 0 0.12959731374624539 3.1548035326035238 0 0 0 0 73.393366566535519 39.32830549752061 0 39.32830549752061 25.775505747364349 0 0 0 0 178.01343912672746 12.111669468390915 0 12.111669468390915 -12.061479806577722 0 0 0 0 140.19741659752071 15.990690811929481 0 15.990690811929481 10.069799837669734 0 0 0 0 143.6997297629714 17.304231490789761 0 17.304231490789761 -18.298785527131813 0 0 0 0 267.35313531642896 22.642021073553082 0 22.642021073553082 -29.791204452883107 0 0 0 0 233.84506797995709 50.669344368529508 0 50.669344368529508 -12.847161722981653 0 0 0 0 0.29864168052455042 0.23127841191885068 0 0.23127841191885068 1.0469845031769034 0 0 0 0 170.65755002940568 -4.7499353623689373 0 -4.7499353623689373 23.780141141213861 0 0 0 0 -26.27867205378061 -7.1169062117753015 0 -7.1169062117753015 14.018483128726075 0 0 0 0 140.20543232867203 -1.0421576934022028 0 -1.0421576934022028 0.69179555579606244 0 0 0 0 -3.3967144817288499 12.143628719144345 0 12.143628719144345 19.889651594472696 0 0 0 0 -0.51507521445796556 0.035318855165030527 0 0.035318855165030527 -0.17414139363103714 0 0 0 0 13.701841513429827 -29.780377159068959 0 -29.780377159068959 -10.590368893644934 0 0 0 0 110.81997776778007 -10.001626547193023 0 -10.001626547193023 -1.9173038243567468 0 0 0 0 114.16503599425869 23.185759687795962 0 23.185759687795962 54.567106662643084 0 0 0 0 162.50369913578106 6.011290033271365 0 6.011290033271365 52.015255884903752 0 0 0 0 202.83485396623291 -21.543997513840665 0 -21.543997513840665 -21.604707731913884 0 0 0 0 209.59460347280401 34.785788438495246 0 34.785788438495246 11.68574769252654 0 0 0 0 170.75649293230526 7.6957293916332512 0 7.6957293916332512 -0.0013304041186611611 0 0 0 0 133.26526594434472 -25.174897740878674 0 -25.174897740878674 -1.9992211874061461 0 0 0 0 184.0626273938833 -7.1772133932648661 0 -7.1772133932648661 11.591781556616532 0 0 0 0 89.440617650210697 -3.3660318697501279 0 -3.3660318697501279 -6.7878421755807992 0 0 0 0 87.398536321830761 -7.8715037237030741 0 -7.8715037237030741 8.9303408588103608 0 0 0 0 84.679843416859512 6.3805324585621239 0 6.3805324585621239 0.014198954674544276 0 0 0 0 46.064895093426458 -13.226000132926208 0 -13.226000132926208 8.4127034914485961 0 0 0 0 15.984353011939675 1.6326136974039489 0 1.6326136974039489 6.3066342043402663 0 0 0 0 38.320956571085844 10.605411431840487 0 10.605411431840487 0.00014074456574924814 0 0 0 0 15.752817144242044 9.4163219236073346 0 9.4163219236073346 -3.7630300566357313 0 0 0 0 18.698063479328084 13.255093535240567 0 13.255093535240567 -3.2187119997089724 0 0 0 0 13.335007149427838 6.4933669340710836 0 6.4933669340710836 -11.275698982876861 0 0 0 0 9.8033998708060324 3.2171718332232544 0 3.2171718332232544 0.84757882176275867 0 0 0 0 6.967653497998981 6.7385836524345386 0 6.7385836524345386 -4.177171496096264 0 0 0 0 7.7846382778297993 8.2614999375377955 0 8.2614999375377955 -6.4082713008695809 0 0 0 0 12.689009909507149 12.593952882408662 0 12.593952882408662 -2.683792507793946 0 0 0 0 3.0800167749475804 10.602100328635643 0 10.602100328635643 -0.6968963659778975 0 0 0 0 6.8368675387246185 6.8780394567278726 0 6.8780394567278726 -0.92100821145886513 0 0 0 0 7.3508491445463733 11.779787679130759 0 11.779787679130759 0.0092917368888427131 0 0 0 0 2.5669924204194103 6.5536034016376794 0 6.5536034016376794 -2.4067313509429127 0 0 0 0 -13.105244845632114 8.4719587195608206 0 8.4719587195608206 3.1349228774097853 0 0 0 0 -6.2729018522804836 9.9808971697041819 0 9.9808971697041819 -0.0097634656083152201 0 0 0 0 -20.508963590080384 2.7531315754788168 0 2.7531315754788168 -1.2774193876001638 0 0 0 0 50.249608436366543 11.395159543329385 0 11.395159543329385 3.5042405817836126 0 0 0 0 60.990221544214364 -1.0834089024896247 0 -1.0834089024896247 -0.007154073652058098 0 0 0 0 1.7937787229683266 -0.82174475539920877 0 -0.82174475539920877 -0.28472695456225799 0 0 0 0 0.32123773119847243 -0.54519089199098403 0 -0.54519089199098403 0.97435799558535863 0 0 0 0 0.22691225128865256 0.71968063301319773 0 0.71968063301319773 -0.9977451074200625 0 0 0 0 76.851361007953528 -0.69970354840610938 0 -0.69970354840610938 -7.4994595230881202 0 0 0 0 3.6048310691767256 -7.9131202545767074 0 -7.9131202545767074 4.418780865895485 0 0 0 0 59.774344742312678 -9.6695720163937136 0 -9.6695720163937136 13.375122672633367 0 0 0 0 -2.9894274813705124 3.9569351596505982 0 3.9569351596505982 -3.045683076868869 0 0 0 0 770.33583380127311 54.08469112380476 0 54.08469112380476 -108.49593928084221 0 0 0 0 1.4530534310710976 1.3259479562177034 0 1.3259479562177034 0.78716533175021919 0 0 0 0 35.302687091942062 -14.727908141958537 0 -14.727908141958537 5.024162879808479 0 0 0 0 18.98748584605346 13.018404079058081 0 13.018404079058081 0.020782102473784977 0 0 0 0 61.393754606106086 -11.937509857419329 0 -11.937509857419329 -13.74693466104727 0 0 0 0 629.06493354007398 53.835796770745119 0 53.835796770745119 -62.371469580245034 0 0 0 0 234.15290522605574 65.448756384995193 0 65.448756384995193 67.016686103107986 0 0 0 0 61.986185030458728 14.993066008872077 0 14.993066008872077 3.6752371643065658 0 0 0 0 1.7057795305444472 2.7266916025555616 0 2.7266916025555616 2.038880223895311 0 0 0 0 199.86263242628775 117.07290178697215 0 117.07290178697215 35.561324270266027 0 0 0 0 128.82337333069881 -124.0082657551651 0 -124.0082657551651 61.94292531492529 0 0 0 0 0.81044804395787651 7.2879045309118844 0 7.2879045309118844 -0.91966265075418008 0 0 0 0 1.4422159041310962 0.97284647458849349 0 0.97284647458849349 -0.18456846188380335 0 0 0 0 0.075859447638379152 -0.051022515306442529 0 -0.051022515306442529 0.31769835530645341 0 0 0 0 3.7259468088304857 -1.0231130512163347 0 -1.0231130512163347 -0.77643336421721187 0 0 0 0 -7.1819569988438161 13.816357377228691 0 13.816357377228691 -9.437191677460504 0 0 0 0 61.099872291457359 18.953626548705582 0 18.953626548705582 16.354067548084657 0 0 0 0 122.96534343031817 -24.104453257791334 0 -24.104453257791334 -35.114499768760822 0 0 0 0 -5.6992728997702216 -16.479835804409145 0 -16.479835804409145 17.596049630427615 0 0 0 0 0.89682291524789548 -0.75992985771171817 0 -0.75992985771171817 -0.42691095837204607 0 0 0 0 6.6138526032300433 -33.450747545147806 0 -33.450747545147806 6.5930741081728002 0 0 0 0 16.123824069043621 -19.945609319867422 0 -19.945609319867422 8.918578797480734 0 0 0 0 29.657521608070965 -11.616168173024981 0 -11.616168173024981 5.4227676310355264 0 0 0 0 23.781190156674711 4.332719879066758 0 4.332719879066758 -9.4584339199281544 0 0 0 0 -0.047168175156450332 -3.8223207117251974 0 -3.8223207117251974 -2.1396882090310001 0 0 0 0 40.977303767067497 -9.7970221510890951 0 -9.7970221510890951 -1.7400947154457711 0 0 0 0 47.927765174055821 -18.552330528035782 0 -18.552330528035782 -1.0675143447633388 0 0 0 0 56.793786159483716 0.73638436973809007 0 0.73638436973809007 31.708312917103115 0 0 0 0 56.493719525726192 -17.630060285454636 0 -17.630060285454636 -3.9822570969054141 0 0 0 0 34.589142675773473 -17.269751155615893 0 -17.269751155615893 2.6138736122590558 0 0 0 0 30.332934711070266 -28.694103519425994 0 -28.694103519425994 3.3208530926151383 0 0 0 0 -40.309565997809841 -16.76918055474556 0 -16.76918055474556 82.760430953762011 0 0 0 0 1.5063710370176722 2.2487760522244855 0 2.2487760522244855 0.98963095849459792 0 0 0 0 123.98411460472562 10.028923721272093 0 10.028923721272093 6.4399844703082749 0 0 0 0 164.16400441345786 43.266874231074674 0 43.266874231074674 89.927112329447567 0 0 0 0 0.27404099066960796 -0.81234300373749591 0 -0.81234300373749591 -1.4418032868305364 0 0 0 0 285.00103158398269 -78.572144843047369 0 -78.572144843047369 -24.247668272498629 0 0 0 0 0.38742345558276625 -1.440118849039294 0 -1.440118849039294 -5.1411746630918334 0 0 0 0 97.6099767623964 -52.496898071389857 0 -52.496898071389857 -8.5645729625634104 0 0 0 0 76.308716837324027 -20.890663399055235 0 -20.890663399055235 1.4007736509325355 0 0 0 0 76.755231804170762 -25.827344476104656 0 -25.827344476104656 3.0658906217988715 0 0 0 0 226.61360835780624 48.387499597385663 0 48.387499597385663 21.92715376338947 0 0 0 0 164.15551821175904 -17.265060074183111 0 -17.265060074183111 -12.636838044874139 0 0 0 0 136.97799111047789 -11.933460948548259 0 -11.933460948548259 10.384540460733206 0 0 0 0 124.56575485258509 -18.241739685771677 0 -18.241739685771677 -12.971043775425073 0 0 0 0 -0.84529133855392935 -1.327317818519461 0 -1.327317818519461 -9.6404020408092919 0 0 0 0 124.21370754508098 16.979176786647031 0 16.979176786647031 -41.02513203324861 0 0 0 0 79.658763525127142 -2.8442225441768443 0 -2.8442225441768443 -5.5565671210219989 0 0 0 0 82.751195204764372 -11.915424356784115 0 -11.915424356784115 -23.967485717664204 0 0 0 0 50.84027922860696 -21.949889647368082 0 -21.949889647368082 2.4260455286040781 0 0 0 0 54.202687158162007 -15.487836667360625 0 -15.487836667360625 -1.0622341031178166 0 0 0 0 3.754957133542689 -4.8317997660695795 0 -4.8317997660695795 -0.96989842760406653 0 0 0 0 47.051653862647072 -13.064897766639831 0 -13.064897766639831 1.8368422249104697 0 0 0 0 49.584236837996286 -17.076886602169452 0 -17.076886602169452 1.5772495906323911 0 0 0 0 49.368985089531634 -9.2036986862905223 0 -9.2036986862905223 -0.24260505383149678 0 0 0 0 42.651880833684118 -12.593637160954813 0 -12.593637160954813 2.1762686360943917 0 0 0 0 58.460762852511834 -1.1935020490808483 0 -1.1935020490808483 -9.1199217606255161 0 0 0 0 -1.7273636045275325 -3.8604799271176944 0 -3.8604799271176944 -1.8001852497734405 0 0 0 0 0.012676937711802339 1.1300935205767928 0 1.1300935205767928 -2.2773272022972635 0 0 0 0 55.378328596787469 -16.085508431278072 0 -16.085508431278072 -2.9994549405851103 0 0 0 0 33.324324663946754 -20.746787188114965 0 -20.746787188114965 20.120227053900294 0 0 0 0 604.78370457836718 28.794115238369386 0 28.794115238369386 36.492302613511129 0 0 0 0 171.62374098299915 50.593700505375637 0 50.593700505375637 124.92922777247998 0 0 0 0 257.52080210441636 -36.11880495475566 0 -36.11880495475566 201.74920292912248 0 0 0 0 310.47580539346382 155.83469489163758 0 155.83469489163758 175.54406022299389 0 0 0 0 327.62569202887244 20.943808933344371 0 20.943808933344371 204.17726581049862 0 0 0 0 230.49556581659999 -13.931807052578733 0 -13.931807052578733 -32.845527452182978 0 0 0 0 -0.49151806009290766 -1.5189638279673403 0 -1.5189638279673403 -0.30075389729453583 0 0 0 0 318.80106026869908 66.276700007294949 0 66.276700007294949 -18.11591856227551 0 0 0 0 415.32790310811106 134.35713582952013 0 134.35713582952013 -24.522887657542697 0 0 0 0 222.38706327945692 138.58556341941653 0 138.58556341941653 81.159149344889329 0 0 0 0 402.50101051332604 175.20403059437615 0 175.20403059437615 12.784321828675502 0 0 0 0 525.85740788260591 278.84445346040729 0 278.84445346040729 97.271864233249289 0 0 0 0 442.28902519513213 236.65641429389109 0 236.65641429389109 -30.972100107503199 0 0 0 0 462.72679555811192 226.33128950855934 0 226.33128950855934 -78.514528295919106 0 0 0 0 285.74701377310703 20.211996517936939 0 20.211996517936939 -41.117536508250623 0 0 0 0 644.65662766151945 -5.760287271064243 0 -5.760287271064243 -82.3531066240012 0 0 0 0 959.93304442416411 270.71607880761519 0 270.71607880761519 -82.967954408698475 0 0 0 0 10.658558029288542 21.101130940245298 0 21.101130940245298 1.6820601178707193 0 0 0 0 195.20576047126087 172.9888942197905 0 172.9888942197905 88.094975616753914 0 0 0 0 278.95618499972625 91.277859205313177 0 91.277859205313177 25.207498330401648 0 0 0 0 460.82424066757449 187.72008270683079 0 187.72008270683079 8.140246681144049 0 0 0 0 294.20802390181052 69.26573693763379 0 69.26573693763379 37.292099531671056 0 0 0 0 186.82494892639806 -36.892967272657359 0 -36.892967272657359 75.331050860158712 0 0 0 0 146.14084051233658 55.802536777148887 0 55.802536777148887 67.357255118809263 0 0 0 0 124.50254897188279 -38.745509705791967 0 -38.745509705791967 12.388762944168548 0 0 0 0 126.17798165844579 7.1451681312663027 0 7.1451681312663027 -54.815858807632935 0 0 0 0 89.37830369450603 -14.745359080520878 0 -14.745359080520878 11.372676566501532 0 0 0 0 -8.5158512141715619 6.4850839688400583 0 6.4850839688400583 -53.408761344332561 0 0 0 0 22.495989939133153 4.2449802485803421 0 4.2449802485803421 0.60714504914196865 0 0 0 0 145.43950092091836 44.260207252807504 0 44.260207252807504 -195.01097436327132 0 0 0 0 39.662238818309561 -128.5256562788164 0 -128.5256562788164 71.118882456956925 0 0 0 0 76.853362981222745 105.26622377470643 0 105.26622377470643 -53.400298108950807 0 0 0 0 64.319837329720031 51.975530362797031 0 51.975530362797031 -151.6569391947092 0 0 0 0 11.332358769810526 69.271263702305475 0 69.271263702305475 -16.36874912594169 0 0 0 0 638.33363119795104 -297.17293867786384 0 -297.17293867786384 253.69603514937467 0 0 0 0 589.47429860182456 427.44425465821223 0 427.44425465821223 271.26162531253129 0 0 0 0 314.31013256476945 430.46673833048112 0 430.46673833048112 280.26340651540966 0 0 0 0 556.36795199783228 -259.67831862163314 0 -259.67831862163314 -48.578634109491233 0 0 0 0 8.9141377440850249 1.852856941467838 0 1.852856941467838 0.41003263461867756 0 0 0 0 551.17282260372303 4.3806803137335919 0 4.3806803137335919 -160.2427542918968 0 0 0 0 1089.4842192671567 67.961289781238747 0 67.961289781238747 -171.24370104562024 0 0 0 0 525.05774355927133 87.851677448294311 0 87.851677448294311 -50.783333317772104 0 0 0 0 629.23184240355477 60.115034958289442 0 60.115034958289442 -132.923018601238 0 0 0 0 437.94316697689464 -28.912073095739181 0 -28.912073095739181 -77.784139780342002 0 0 0 0 457.22219385332573 46.182097558280752 0 46.182097558280752 -66.974458014771983 0 0 0 0 362.60054308903636 95.519375558626777 0 95.519375558626777 -0.14691276106650053 0 0 0 0 596.06777670358861 126.67127678125577 0 126.67127678125577 0.090111714801531045 0 0 0 0 485.89131211352651 26.495765392719598 0 26.495765392719598 -46.672999388575235 0 0 0 0 40.167436957837708 18.606896751931398 0 18.606896751931398 47.8682362638678 0 0 0 0 28.64985368294947 80.713765592449292 0 80.713765592449292 -10.46911619064349 0 0 0 0 219.56231981876044 -12.433491919411246 0 -12.433491919411246 17.365803063505453 0 0 0 0 209.08716404043662 38.327409548857929 0 38.327409548857929 -16.24920726023965 0 0 0 0 78.893418927793391 94.052079654767098 0 94.052079654767098 0.30611361069203685 0 0 0 0 29.660201083748689 32.95850417718475 0 32.95850417718475 38.062050023177676 0 0 0 0 0.21957804171708517 0.17271181124553436 0 0.17271181124553436 -0.45296541378094612 0 0 0 0 -32.145978446438676 -16.418372300671695 0 -16.418372300671695 -0.026808761263791017 0 0 0 0 -39.692042542272247 -15.415824918173316 0 -15.415824918173316 0.8943776693299661 0 0 0 0 -165.09351249554311 247.12519288084991 0 247.12519288084991 101.80405791627504 0 0 0 0 -23.548857041925658 -38.099797932480996 0 -38.099797932480996 -27.472781223621073 0 0 0 0 -29.789453269477235 -5.4793784886312622 0 -5.4793784886312622 -17.01786845013925 0 0 0 0 -25.544105677618063 -17.334521277067662 0 -17.334521277067662 2.4936377001739451 0 0 0 0 -24.535850757038133 -3.3225864930093763 0 -3.3225864930093763 0.47333526702639261 0 0 0 0 -2.3755519008700503 -16.124333911289614 0 -16.124333911289614 0.02836584070336658 0 0 0 0 33.151689173872001 -8.2861131193756243 0 -8.2861131193756243 -10.700975889845257 0 0 0 0 121.72971902270365 -9.6991339158802319 0 -9.6991339158802319 0.045664024463067145 0 0 0 0 49.823732220742386 33.857533002672952 0 33.857533002672952 26.017508428721964 0 0 0 0 55.792455620801775 -12.131538525803506 0 -12.131538525803506 5.4472975220186157 0 0 0 0 112.48902865122363 43.038621852566386 0 43.038621852566386 4.2156237533738476 0 0 0 0 -4.4802946605632314 5.4626544881242811 0 5.4626544881242811 4.921579495370878 0 0 0 0 -37.562314112758031 -22.403605626619054 0 -22.403605626619054 15.220967895345879 0 0 0 0 -1.2289098935580114 -13.175627054317161 0 -13.175627054317161 -4.1720384575569369 0 0 0 0 -51.781472866947297 -14.532937545308869 0 -14.532937545308869 0.88835032849837603 0 0 0 0 -0.15976793968593483 12.279701099239269 0 12.279701099239269 14.312655326284556 0 0 0 0 -15.237249088764656 -21.204751306123001 0 -21.204751306123001 -22.843350906124329 0 0 0 0 -7.1655749663477764 -2.0499123568935431 0 -2.0499123568935431 -15.680267535908115 0 0 0 0 -11.765931029513013 -42.32272340099513 0 -42.32272340099513 -23.735259119609239 0 0 0 0 -40.213961096291314 1.4724659071721646 0 1.4724659071721646 -43.425938309802916 0 0 0 0 -62.811906245682621 -2.0536841145740254 0 -2.0536841145740254 -12.380340338941153 0 0 0 0 14.040328585979296 -20.469838528430103 0 -20.469838528430103 -0.11151274965938285 0 0 0 0 49.156044183451741 5.9791963758218003 0 5.9791963758218003 -13.11435334772608 0 0 0 0 48.188399500930245 1.0344053324504685 0 1.0344053324504685 23.33575875949515 0 0 0 0 2.6422599811921827 -8.8319098040548738 0 -8.8319098040548738 7.9422651021402544 0 0 0 0 20.933618053355531 -28.423489723869039 0 -28.423489723869039 -7.1905068422415752 0 0 0 0 -23.184936779405689 -17.690345984955457 0 -17.690345984955457 4.7619421568670077 0 0 0 0 -84.618202856217977 -34.588076362387824 0 -34.588076362387824 14.888691258702352 0 0 0 0 34.788575693120947 36.110166648741028 0 36.110166648741028 13.80936456191705 0 0 0 0 195.07594682197669 -7.1467960071469179 0 -7.1467960071469179 74.020229707262871 0 0 0 0 101.9563241256692 96.479902063516874 0 96.479902063516874 38.278056486306014 0 0 0 0 -58.88308894734655 -75.825008348182905 0 -75.825008348182905 -15.998865640418785 0 0 0 0 4.7885009723158873 -3.303879812335623 0 -3.303879812335623 0.85342715799815938 0 0 0 0 23.51688900894797 -8.4390301192969588 0 -8.4390301192969588 -6.6016939920503042 0 0 0 0 -8.9026800765423104 -26.416513942668587 0 -26.416513942668587 -65.862600547602653 0 0 0 0 -27.47422434904729 -68.571697251029718 0 -68.571697251029718 -41.242716566504384 0 0 0 0 14.250739438903111 -45.533679085831693 0 -45.533679085831693 -45.229215210696793 0 0 0 0 13.469931797128083 -39.45655452342519 0 -39.45655452342519 -52.390312656101628 0 0 0 0 13.602347244872362 -45.877647744842761 0 -45.877647744842761 -41.477637965508166 0 0 0 0 9.3822040774102788 -23.610728285058713 0 -23.610728285058713 -68.480452763345426 0 0 0 0 29.282186435681069 -38.646310588387223 0 -38.646310588387223 -69.716429641892987 0 0 0 0 35.67053525616393 -52.687620186929436 0 -52.687620186929436 -50.495531425419358 0 0 0 0 50.21311909299402 -22.445904059193481 0 -22.445904059193481 -125.56463300186056 0 0 0 0 52.681350842438405 -58.896493156735346 0 -58.896493156735346 -93.768048468685151 0 0 0 0 31.180348625732506 3.9826688663243655 0 3.9826688663243655 -1.0013453110588588 0 0 0 0 3.1315259693461712 3.0472577291038334 0 3.0472577291038334 -1.5448671837934111 0 0 0 0 -27.969101590932496 39.744243868173172 0 39.744243868173172 -14.741412428447688 0 0 0 0 -12.351470720230282 46.630999306402714 0 46.630999306402714 -22.424884865266449 0 0 0 0 324.75143074676453 -83.050291723330986 0 -83.050291723330986 -5.7837958580182587 0 0 0 0 -25.09207183997205 63.29643262768775 0 63.29643262768775 -9.4581316324545242 0 0 0 0 1.9554938298377351 -0.882639471775434 0 -0.882639471775434 -0.66745518233725054 0 0 0 0 -64.564383430362795 -46.175575018815636 0 -46.175575018815636 -4.1074678612574189 0 0 0 0 90.247913388273446 150.1013418533488 0 150.1013418533488 61.74024564049455 0 0 0 0 29.184855585568585 204.92690684256081 0 204.92690684256081 44.663088468566229 0 0 0 0 -218.86445892020129 324.92161879837613 0 324.92161879837613 -6.147455379165649 0 0 0 0 1.1699886313490993 -4.3946292848535826 0 -4.3946292848535826 -1.5589206035047329 0 0 0 0 26.30050515581388 4.3536595703001204 0 4.3536595703001204 -0.0016806239072797104 0 0 0 0 25.569441431986888 4.7162930777946626 0 4.7162930777946626 0.20245126354062748 0 0 0 0 28.662428653795359 2.6498871256675596 0 2.6498871256675596 1.1937325912071426 0 0 0 0 27.522765114910726 6.2169445219417119 0 6.2169445219417119 0.43015667151653503 0 0 0 0 19.11763604026055 6.2574424790499554 0 6.2574424790499554 0.85626749642431987 0 0 0 0 25.425257166401934 4.2729272698686307 0 4.2729272698686307 -0.00030263326464386592 0 0 0 0 0.37370030000158039 -0.26991167147990325 0 -0.26991167147990325 0.061822586028542841 0 0 0 0 212.68935647719627 60.266480927945828 0 60.266480927945828 -3.4212341657043837 0 0 0 0 133.1888327110064 11.513027110962909 0 11.513027110962909 28.606561947335742 0 0 0 0 236.68684409096022 56.642019564734554 0 56.642019564734554 -19.078784302710062 0 0 0 0 116.72991261493917 47.352336917639867 0 47.352336917639867 50.731867789804085 0 0 0 0 125.92190902620496 14.92239025283601 0 14.92239025283601 -17.052977194632263 0 0 0 0 255.21881405057502 46.615559971149878 0 46.615559971149878 -24.67495652692071 0 0 0 0 9.1046138947931468 -0.3878321895917729 0 -0.3878321895917729 9.2995773917265936 0 0 0 0 0.98152620434290583 -2.0463543685392267 0 -2.0463543685392267 1.7424361503787922 0 0 0 0 0.67743286179118201 -0.97369161701975315 0 -0.97369161701975315 0.54174471579418837 0 0 0 0 12.760510137206438 6.4357451767863605 0 6.4357451767863605 7.4382241925461159 0 0 0 0 22.097610628224174 11.470643227065391 0 11.470643227065391 20.104984386799735 0 0 0 0 24.019811977574136 1.1435304773618831 0 1.1435304773618831 0.42385329385472481 0 0 0 0 56.146579085936537 8.130097185634785 0 8.130097185634785 -0.74459151818362734 0 0 0 0 0.075711801104674237 0.041249378809098403 0 0.041249378809098403 0.0075309870532204726 0 0 0 0 6.8725320445508906 0.44672013771172203 0 0.44672013771172203 -0.15804245883806134 0 0 0 0 27.418193014095777 1.7598219231344179 0 1.7598219231344179 -0.31134425315620717 0 0 0 0 13.716926022540065 -11.456606992807178 0 -11.456606992807178 4.9730760345171916 0 0 0 0 24.458515540041844 -5.8061192537383626 0 -5.8061192537383626 8.2207722819444893 0 0 0 0 21.699792696119403 1.1634881707809583 0 1.1634881707809583 0.50635558634694888 0 0 0 0 21.048113984657903 16.92542747205394 0 16.92542747205394 40.759789657083218 0 0 0 0 22.401064512247103 -1.2266099611777483 0 -1.2266099611777483 0.47541437135723186 0 0 0 0 19.571398715175746 2.6903406626260207 0 2.6903406626260207 2.6731649021011492 0 0 0 0 12.896461076023115 -1.9970859982898901 0 -1.9970859982898901 2.8151313178824822 0 0 0 0 2.3080296131748028 -2.8690673221565675 0 -2.8690673221565675 4.2215501020940049 0 0 0 0 201.76352431922351 -25.155093101198702 0 -25.155093101198702 2.0856463954689843 0 0 0 0 274.16959387946918 71.016631633102008 0 71.016631633102008 -30.473254105013893 0 0 0 0 116.54517904383465 31.240988764313187 0 31.240988764313187 -30.607104377041651 0 0 0 0 100.30068544666574 63.611591295891913 0 63.611591295891913 44.035423272650064 0 0 0 0 45.99282685565413 -27.682935114997804 0 -27.682935114997804 8.0340821751699707 0 0 0 0 48.712286928326648 108.13050135601691 0 108.13050135601691 -30.0215448343547 0 0 0 0 -46.288980362965958 -17.910926493733882 0 -17.910926493733882 42.986932195479881 0 0 0 0 91.032059450517409 61.045392051436465 0 61.045392051436465 62.479468411023845 0 0 0 0 11.557037902784629 -5.5508801747394756 0 -5.5508801747394756 3.238716565461794 0 0 0 0 5.8023288771510124 52.953994947264846 0 52.953994947264846 24.309032645718844 0 0 0 0 99.445319976599421 57.729687765367089 0 57.729687765367089 48.568793268012087 0 0 0 0 31.724120036495151 -131.99541862424121 0 -131.99541862424121 7.0144079354404312 0 0 0 0 20.36376966240914 -9.2736476941386172 0 -9.2736476941386172 -6.1842459957281974 0 0 0 0 143.36521219712449 -1.1231129819066155 0 -1.1231129819066155 -89.779974712492049 0 0 0 0 8.7601210762368282 29.683383322768805 0 29.683383322768805 1.9643298868959391 0 0 0 0 38.046385264358833 30.298451978017056 0 30.298451978017056 1.6081268065606764 0 0 0 0 -28.187008496264752 24.967752039162406 0 24.967752039162406 22.234438116378897 0 0 0 0 14.025676117430407 -10.254697103925409 0 -10.254697103925409 -5.9703863652834084 0 0 0 0 0.49075313482899219 -32.264809596185046 0 -32.264809596185046 -16.061181229212707 0 0 0 0 69.108987116516801 -14.3368565299088 0 -14.3368565299088 -30.958734264201667 0 0 0 0 9.6115310650202446 -25.186864879400218 0 -25.186864879400218 -14.07311164387329 0 0 0 0 82.777321741974447 -155.49232063641057 0 -155.49232063641057 -257.30204617911932 0 0 0 0 89.538135726401379 -80.718659461948448 0 -80.718659461948448 6.6383295749210447 0 0 0 0 26.602730300019573 -13.492815077339145 0 -13.492815077339145 -3.0665325263630674 0 0 0 0 54.088159855415142 158.61765160554103 0 158.61765160554103 207.10321539929737 0 0 0 0 76.834935441467678 124.61320460855541 0 124.61320460855541 -96.246566765544912 0 0 0 0 11.412980694964062 126.23610584537369 0 126.23610584537369 109.30796179585559 0 0 0 0 185.15595601359746 224.91698242038228 0 224.91698242038228 117.414025035544 0 0 0 0 -24.626353980718704 -61.502883610284385 0 -61.502883610284385 138.96304621478521 0 0 0 0 303.99843733097077 3.3179835949522385 0 3.3179835949522385 86.493344767353165 0 0 0 0 196.03853714257639 -48.02552509398015 0 -48.02552509398015 67.208734992220343 0 0 0 0 178.35953339366824 -61.552272831610935 0 -61.552272831610935 11.364836219283461 0 0 0 0 172.97050703610876 55.895382176330941 0 55.895382176330941 20.034956462508489 0 0 0 0 169.42536472595384 49.694392006302678 0 49.694392006302678 108.52379589287375 0 0 0 0 371.3724759358447 -6.6388389890121289 0 -6.6388389890121289 28.314463887246347 0 0 0 0 367.16841706885316 167.04846012200267 0 167.04846012200267 93.074061538061869 0 0 0 0 0.33332058887461358 -0.32877668337677335 0 -0.32877668337677335 1.3783596136158263 0 0 0 0 174.79944789211004 -73.722304017189913 0 -73.722304017189913 131.90679442417604 0 0 0 0 15.0506467380863 4.1374230151343028 0 4.1374230151343028 1.4089648192653919 0 0 0 0 346.57200364946038 138.68293023550405 0 138.68293023550405 54.253151333960432 0 0 0 0 15.032068172193249 5.5370844417687977 0 5.5370844417687977 2.1540471102724723 0 0 0 0 0.72055118601565482 8.6601070449100916 0 8.6601070449100916 5.1579851665187562 0 0 0 0 2.4537005104572813 -1.6199784126666401 0 -1.6199784126666401 3.7521568342483818 0 0 0 0 498.36176101375167 162.98030273447375 0 162.98030273447375 -188.6353764802252 0 0 0 0 -22.147081687609898 0.12707679195273158 0 0.12707679195273158 19.521897224850818 0 0 0 0 0.98732910373496452 -1.5248386669763079 0 -1.5248386669763079 0.28876482642761836 0 0 0 0 11.028564426596859 4.1879803589122275 0 4.1879803589122275 -0.95926270433415084 0 0 0 0 10.848509129718877 10.86644562257311 0 10.86644562257311 9.2475721172551175 0 0 0 0 0.8635475198389031 20.374420688753617 0 20.374420688753617 16.530112147297586 0 0 0 0 25.028281763711206 25.098394124620498 0 25.098394124620498 6.631340818349071 0 0 0 0 28.663948652620093 13.31081090197916 0 13.31081090197916 -0.46981437557064964 0 0 0 0 15.987965089158312 4.234266495191946 0 4.234266495191946 0.71568018848140613 0 0 0 0 60.057848118754919 8.1173139285746529 0 8.1173139285746529 17.341122813785205 0 0 0 0 12.476749956778804 -37.249040843543838 0 -37.249040843543838 92.266205427922614 0 0 0 0 -3.1485642007319257 -18.616109263373573 0 -18.616109263373573 26.516639256577605 0 0 0 0 10.36339572056022 -25.72214177196463 0 -25.72214177196463 30.192868065181301 0 0 0 0 73.646237126769847 -6.3467501004535052 0 -6.3467501004535052 79.32031367413515 0 0 0 0 74.801432743726764 -42.127897316728081 0 -42.127897316728081 22.428422125359191 0 0 0 0 25.115814715652959 -41.455438911797671 0 -41.455438911797671 25.569543389989263 0 0 0 0 41.702657004963839 -15.495403239856842 0 -15.495403239856842 5.8824909137230179 0 0 0 0 55.494475650197273 -54.993586274638076 0 -54.993586274638076 -37.490692554883253 0 0 0 0 32.57282199455949 -32.76141887462984 0 -32.76141887462984 -50.92392565492321 0 0 0 0 17.685568337590666 -44.725763652340135 0 -44.725763652340135 -23.021318092195941 0 0 0 0 30.890741314615298 -42.272100683826707 0 -42.272100683826707 -25.098667391766867 0 0 0 0 16.376500847283751 -52.144516615743171 0 -52.144516615743171 -0.77362506886589699 0 0 0 0 5.663112217822345 -33.949196999086325 0 -33.949196999086325 -26.804615144641694 0 0 0 0 14.579525652618031 -48.812573910923589 0 -48.812573910923589 -29.203116461634181 0 0 0 0 21.664032811953803 -45.287247199592798 0 -45.287247199592798 -41.666842015103157 0 0 0 0 5.2124104226677446 -35.096594081153341 0 -35.096594081153341 -49.127285476345833 0 0 0 0 -21.048608150711516 -25.501731712562759 0 -25.501731712562759 -31.991002722236203 0 0 0 0 -34.215617691515945 -35.065527252669398 0 -35.065527252669398 -10.556011936086179 0 0 0 0 -25.031755430129124 -42.017466150652751 0 -42.017466150652751 -6.4790065015353093 0 0 0 0 2.9525260572045227 -42.149951442631959 0 -42.149951442631959 -20.736891484835382 0 0 0 0 20.718304081979142 -9.8217559838161748 0 -9.8217559838161748 -6.1736127615699408 0 0 0 0 -20.576937755569816 -66.119766174464871 0 -66.119766174464871 -38.327169687928858 0 0 0 0 108.34859769196191 54.91962739182145 0 54.91962739182145 81.970516987104475 0 0 0 0 0.32524806076980894 26.094000352581759 0 26.094000352581759 -44.394268359910825 0 0 0 0 -21.526904758717137 -76.545249881852456 0 -76.545249881852456 -27.504863643441013 0 0 0 0 108.78916316185496 64.390611576488482 0 64.390611576488482 44.040717641759329 0 0 0 0 6.6698838988831994 -5.7885082983641638 0 -5.7885082983641638 2.6055187816585361 0 0 0 0 8.2506592059216928 -26.371470021726736 0 -26.371470021726736 -72.653694709803744 0 0 0 0 -1.3036429193452932 -29.878560121328974 0 -29.878560121328974 -14.868890848808007 0 0 0 0 1.7045286792053957 0.49874914567989492 0 0.49874914567989492 30.661576938389771 0 0 0 0 -19.817789191642078 39.555684708712306 0 39.555684708712306 89.13437582925576 0 0 0 0 -28.752953033414087 8.9060594359798415 0 8.9060594359798415 28.375084615164837 0 0 0 0 -2.6502744719982729 -90.244628606366177 0 -90.244628606366177 33.053103394609252 0 0 0 0 36.068364593098522 42.894666472231734 0 42.894666472231734 -4.1591787910599578 0 0 0 0 53.528039197582984 52.17176743450068 0 52.17176743450068 2.3597800728175571 0 0 0 0 74.395934667323672 25.688551699471134 0 25.688551699471134 -23.083763667690619 0 0 0 0 -0.12436695978138346 0.72725115816859898 0 0.72725115816859898 1.5864338962115161 0 0 0 0 -61.083346164647082 19.302027951288437 0 19.302027951288437 92.091162002439233 0 0 0 0 14.050462606028304 3.6202553167529459 0 3.6202553167529459 -12.218015769826565 0 0 0 0 -58.800107502012906 -16.975455095306856 0 -16.975455095306856 76.529513853385197 0 0 0 0 2.5949355346965604 -11.120798349395045 0 -11.120798349395045 71.970305944848292 0 0 0 0 9.8236242780876637 6.3116069254310787 0 6.3116069254310787 86.266729147490196 0 0 0 0 -24.752873666646337 -5.5326792410482142 0 -5.5326792410482142 75.645192321051582 0 0 0 0 110.51922789412492 -47.663687920319603 0 -47.663687920319603 74.722085060556537 0 0 0 0 5.734621595534918 2.667019397891238 0 2.667019397891238 117.79232047826417 0 0 0 0 4.9323480005832607 -24.059365500211953 0 -24.059365500211953 35.027595153605489 0 0 0 0 249.56558648670034 19.889404319843152 0 19.889404319843152 19.725734460188278 0 0 0 0 0.37917061709342192 0.92200649220434627 0 0.92200649220434627 1.4784986110612426 0 0 0 0 350.50608708238724 101.88469791446028 0 101.88469791446028 -63.793102099622047 0 0 0 0 -39.231826190181891 70.018136034402005 0 70.018136034402005 119.5601179708483 0 0 0 0 32.339069012399705 -15.186201503864822 0 -15.186201503864822 -12.937055425052222 0 0 0 0 -31.014216489085811 121.56608551531735 0 121.56608551531735 7.4178258876027598 0 0 0 0 0.81224651785640845 1.7277572934262508 0 1.7277572934262508 2.3977742846422103 0 0 0 0 -7.0364671994611854 42.024116711133047 0 42.024116711133047 -30.32587451211657 0 0 0 0 12.345164833954186 -5.8591410247236126 0 -5.8591410247236126 -3.0418945945195901 0 0 0 0 43.882503225431719 22.690500090049113 0 22.690500090049113 10.955934035695009 0 0 0 0 35.074806701362832 4.7791171370809025 0 4.7791171370809025 -25.447845328673395 0 0 0 0 32.768892344633059 -10.265205947977165 0 -10.265205947977165 7.5930753374992719 0 0 0 0 28.987497761907434 5.1147672938074038 0 5.1147672938074038 3.3183641595182962 0 0 0 0 69.150729494045663 35.378132681458737 0 35.378132681458737 43.504763988174091 0 0 0 0 14.724204295511299 6.2098217830381373 0 6.2098217830381373 54.934237262333227 0 0 0 0 30.068800906476099 -7.6123183433001032 0 -7.6123183433001032 22.02684661676858 0 0 0 0 41.602226584119308 3.3860154312680208 0 3.3860154312680208 25.168338764957298 0 0 0 0 44.656328278997535 26.498903521922273 0 26.498903521922273 44.338551970890876 0 0 0 0 95.706013982067816 30.618946975842846 0 30.618946975842846 34.016344800667412 0 0 0 0 95.717853755908436 75.675510118344391 0 75.675510118344391 58.836636197301004 0 0 0 0 52.70160635108914 56.250715034264431 0 56.250715034264431 55.349447309839036 0 0 0 0 300.0324203224518 63.412967883573174 0 63.412967883573174 33.637627355265067 0 0 0 0 177.0846208494404 161.02384463881071 0 161.02384463881071 101.19897163565247 0 0 0 0 96.49220927747956 62.58898303457272 0 62.58898303457272 40.370719447321562 0 0 0 0 26.897711464989698 50.3693391439744 0 50.3693391439744 -117.20804564253922 0 0 0 0 33.689217057602946 49.467976692390948 0 49.467976692390948 50.478834909335092 0 0 0 0 17.302879217699797 -0.65900236031025372 0 -0.65900236031025372 2.8818288447352876 0 0 0 0 121.17634901232668 1.8782821043078002 0 1.8782821043078002 -78.129444877984497 0 0 0 0 161.17434783912176 35.784803045787385 0 35.784803045787385 7.5094288352279364 0 0 0 0 12.950119361011687 5.4171406307812759 0 5.4171406307812759 -0.08206775853220627 0 0 0 0 75.767810069239204 -18.429745939460872 0 -18.429745939460872 13.028902761183417 0 0 0 0 102.19614381850261 18.953346488823399 0 18.953346488823399 -11.037284479537448 0 0 0 0 16.3910182824979 0.0031117652379606398 0 0.0031117652379606398 -0.88368019515598917 0 0 0 0 11.515287354588509 24.835560899834036 0 24.835560899834036 -15.783182608329298 0 0 0 0 40.655462184711325 26.88424002526898 0 26.88424002526898 9.9895438711437805 0 0 0 0 43.495937892541406 89.075275021118614 0 89.075275021118614 44.109709215904331 0 0 0 0 33.321217506370886 60.139999805225898 0 60.139999805225898 49.319866802676188 0 0 0 0 31.888392233556544 -6.704612496999971 0 -6.704612496999971 -6.2669898631424985 0 0 0 0 57.922807518087211 104.74374687239833 0 104.74374687239833 28.017975416334593 0 0 0 0 155.84327719589055 -27.670357599539784 0 -27.670357599539784 124.05385117395963 0 0 0 0 2.0377890167986834 1.1592494124890749 0 1.1592494124890749 -0.087904443352224249 0 0 0 0 7.4642342536390061 -17.858307348205926 0 -17.858307348205926 17.329063848751957 0 0 0 0 17.053622047231329 62.685913240849629 0 62.685913240849629 104.93446198853053 0 0 0 0 10.40172627386346 4.5134250428527594 0 4.5134250428527594 -3.7087488842689709 0 0 0 0 13.926679338823305 35.019213017256106 0 35.019213017256106 12.257067984955142 0 0 0 0 40.467132821060659 31.461822613798859 0 31.461822613798859 12.344878425913748 0 0 0 0 43.733606455061818 49.251520035680187 0 49.251520035680187 -48.332785452861572 0 0 0 0 93.345614699714417 11.988512566900823 0 11.988512566900823 -26.256519472945428 0 0 0 0 64.83164189238596 4.9757655746075216 0 4.9757655746075216 9.7472653015329342 0 0 0 0 42.232525327504845 13.968211576417843 0 13.968211576417843 6.1748373474815708 0 0 0 0 84.999434279481648 1.1383241060229921 0 1.1383241060229921 -24.980679652087019 0 0 0 0 57.72837416180846 46.310761566506812 0 46.310761566506812 42.406541610776003 0 0 0 0 35.253647573223134 -1.7478562685824954 0 -1.7478562685824954 5.6126499307542872 0 0 0 0 43.093027983573847 -7.6062557246941651 0 -7.6062557246941651 44.435129997920441 0 0 0 0 21.066373162757372 16.588215730694856 0 16.588215730694856 20.117956652786688 0 0 0 0 38.109475297424069 4.091676309010154 0 4.091676309010154 17.01141598369577 0 0 0 0 33.992243242275435 -5.5026293989126316 0 -5.5026293989126316 12.703782640428926 0 0 0 0 18.640681211974879 7.9365699330519419 0 7.9365699330519419 30.074166009230339 0 0 0 0 26.778813352556412 28.675805725561887 0 28.675805725561887 11.265084871216999 0 0 0 0 -12.149233550197096 32.803921484310195 0 32.803921484310195 20.156251922536285 0 0 0 0 25.773554290712127 17.380244269930245 0 17.380244269930245 5.2337689185424097 0 0 0 0 23.335905000887578 11.689060867341368 0 11.689060867341368 10.754450247745353 0 0 0 0 19.180534745719342 112.10528693575839 0 112.10528693575839 -173.68388006037367 0 0 0 0 27.666903749678283 25.265174373725756 0 25.265174373725756 1.9604610893241841 0 0 0 0 121.77947065373883 58.258005886108549 0 58.258005886108549 -263.28940134849529 0 0 0 0 -230.48203336019833 405.06201422130721 0 405.06201422130721 320.02829413627808 0 0 0 0 500.51514198638324 -96.81894637579461 0 -96.81894637579461 -211.19383214792205 0 0 0 0 131.32304531008049 -273.07749789963532 0 -273.07749789963532 136.50978020186324 0 0 0 0 174.14143324264296 -21.873105852662206 0 -21.873105852662206 -182.04724190516299 0 0 0 0 25.782606992392175 -235.91563851964145 0 -235.91563851964145 -88.505685071199878 0 0 0 0 193.1867571506591 35.457758175589106 0 35.457758175589106 13.950867901705351 0 0 0 0 4.586731250522746 -3.0124873405753192 0 -3.0124873405753192 2.5271608547552633 0 0 0 0 546.69768689560442 257.26827965460632 0 257.26827965460632 121.71960280754325 0 0 0 0 -31.788296726481349 -90.114055326540722 0 -90.114055326540722 203.60087537120012 0 0 0 0 291.82035465811714 -171.39604228449801 0 -171.39604228449801 -7.3461315025375598 0 0 0 0 -205.09807509417442 13.70961336584196 0 13.70961336584196 65.957879120537086 0 0 0 0 17.717880514843273 18.767195361765971 0 18.767195361765971 10.055741026136275 0 0 0 0 -33.307174345321982 68.050874488720638 0 68.050874488720638 22.538384314434552 0 0 0 0 27.225208369391311 29.27760005970066 0 29.27760005970066 14.533948845624137 0 0 0 0 -47.948591226249846 41.421618136550535 0 41.421618136550535 18.11328067382783 0 0 0 0 -1.6235244774688908 -19.831633786150121 0 -19.831633786150121 18.495666062918417 0 0 0 0 107.72328218539769 -11.315710876928961 0 -11.315710876928961 -3.2589217238630681 0 0 0 0 130.64242456127977 -37.921451188899368 0 -37.921451188899368 3.1809604774391573 0 0 0 0 159.51779419215291 48.369920960876968 0 48.369920960876968 12.53000609369883 0 0 0 0 157.96568688695334 16.905541049536282 0 16.905541049536282 -10.350864760523677 0 0 0 0 116.0261451812039 27.32972150771343 0 27.32972150771343 -2.4579968042248765 0 0 0 0 180.26687185149785 54.371265399196602 0 54.371265399196602 0.013767472233894296 0 0 0 0 0.95599576686608145 0.35997704358671001 0 0.35997704358671001 -1.730758489457763 0 0 0 0 50.97138788258053 -14.424116146366941 0 -14.424116146366941 88.517987186645769 0 0 0 0 2.1542384435160784 4.0586974061284309 0 4.0586974061284309 22.897116099179925 0 0 0 0 152.31143655240157 238.680206499012 0 238.680206499012 243.46191063603328 0 0 0 0 3.0274580906101107 1.8160291164774662 0 1.8160291164774662 0.61177652415799066 0 0 0 0 244.58121677266172 258.34096485526902 0 258.34096485526902 -137.91585581674735 0 0 0 0 551.80565996197402 121.17088918435957 0 121.17088918435957 -49.408138899099868 0 0 0 0 -34.775776710608625 367.17049913003848 0 367.17049913003848 -90.780913267977667 0 0 0 0 221.27658419878571 63.451629610490045 0 63.451629610490045 -60.852166775150181 0 0 0 0 238.17324750534681 102.95920792452421 0 102.95920792452421 25.02691151138788 0 0 0 0 492.62562984085525 9.9027095640626612 0 9.9027095640626612 -51.856977381017714 0 0 0 0 0.72478035833174204 -0.37725302285520002 0 -0.37725302285520002 -0.40069903962981357 0 0 0 0 90.870390512078302 78.318516066960001 0 78.318516066960001 57.424597050601733 0 0 0 0 109.46589108202897 101.63123360081772 0 101.63123360081772 55.727457206987538 0 0 0 0 149.42014627721073 58.14950727821315 0 58.14950727821315 45.506052100210582 0 0 0 0 77.625957206422754 53.43228964334412 0 53.43228964334412 45.961392565244751 0 0 0 0 80.786553583035129 45.044787805722081 0 45.044787805722081 50.077553270477438 0 0 0 0 102.34965052256302 24.769130449692511 0 24.769130449692511 67.698933032123023 0 0 0 0 17.678603171094437 24.242763071000354 0 24.242763071000354 40.696115767763104 0 0 0 0 57.205750304699905 10.325754303429903 0 10.325754303429903 32.775026887006788 0 0 0 0 -4.3985433337220456 14.136090683505699 0 14.136090683505699 35.986965750495074 0 0 0 0 55.771803828349221 52.043883965865462 0 52.043883965865462 38.767855960854376 0 0 0 0 207.20935735733656 66.090680276626244 0 66.090680276626244 5.9514913049106326 0 0 0 0 0.52906757775212654 -0.26440543699243335 0 -0.26440543699243335 0.70099263101521103 0 0 0 0 125.00787906099868 81.369387193979492 0 81.369387193979492 74.689783129922944 0 0 0 0 96.673012032333645 23.976435440944897 0 23.976435440944897 27.940523934817975 0 0 0 0 127.56693575442478 59.513193221094298 0 59.513193221094298 21.789042079494266 0 0 0 0 149.6571918525442 21.503310022647838 0 21.503310022647838 9.9473524222557899 0 0 0 0 159.7317170870374 61.450393541842914 0 61.450393541842914 22.9948076125836 0 0 0 0 150.53770090000035 30.690429052511718 0 30.690429052511718 -6.5351252119726269 0 0 0 0 1.9746601770119696 -1.377705896088969 0 -1.377705896088969 0.94771328759344087 0 0 0 0 -3.5493782903649844 97.959516196448021 0 97.959516196448021 12.544141418000208 0 0 0 0 59.233244170449325 43.950372621477982 0 43.950372621477982 -19.316420585891137 0 0 0 0 59.698058431022218 28.250229205710184 0 28.250229205710184 35.518052001538308 0 0 0 0 25.185524565872214 29.143494525564918 0 29.143494525564918 13.588555325006107 0 0 0 0 -20.689908717933577 75.632234113903905 0 75.632234113903905 -16.539163043195003 0 0 0 0 29.456426931674287 -0.33554497228897162 0 -0.33554497228897162 46.37461183915002 0 0 0 0 -45.246113586421416 -51.952871715050264 0 -51.952871715050264 -56.802261650931541 0 0 0 0 203.32654250036285 156.22265183444961 0 156.22265183444961 -64.362880311116896 0 0 0 0 12.183838264673398 4.0330569371530203 0 4.0330569371530203 0.5332912234288969 0 0 0 0 27.135707611349062 1.8139810707184552 0 1.8139810707184552 -12.620968441935474 0 0 0 0 -0.95158764462293988 2.548124127059225 0 2.548124127059225 -3.8167443388166582 0 0 0 0 0.8558109358054935 -31.923471619648581 0 -31.923471619648581 6.0119742876195232 0 0 0 0 0.35868507984467612 -0.25474611626488297 0 -0.25474611626488297 0.41633665915804485 0 0 0 0 163.97589901377069 -46.481354035838081 0 -46.481354035838081 -52.418155286879482 0 0 0 0 63.953334810074011 -1.5234206393640761 0 -1.5234206393640761 -24.736631787790429 0 0 0 0 177.43122445212794 -27.208415819236507 0 -27.208415819236507 -96.087577862371887 0 0 0 0 235.027708856971 -20.8137898743812 0 -20.8137898743812 -95.994481506038028 0 0 0 0 150.799360107354 76.897444427630944 0 76.897444427630944 -27.072438526289261 0 0 0 0 262.19244850794712 10.229875316213793 0 10.229875316213793 -45.308651788922361 0 0 0 0 248.63941316328419 82.169025678739672 0 82.169025678739672 -38.006528969497595 0 0 0 0 310.48749165680647 -136.81854912535468 0 -136.81854912535468 -54.548337899344006 0 0 0 0 529.93228393051231 -158.69344998533325 0 -158.69344998533325 -65.118006755893475 0 0 0 0 314.73040224875149 31.719338944795254 0 31.719338944795254 -78.804615503272544 0 0 0 0 279.08604548733274 -83.101629259753736 0 -83.101629259753736 -159.5442849347055 0 0 0 0 266.0544802022996 -94.458955128549405 0 -94.458955128549405 -80.297313470604422 0 0 0 0 130.53777072522644 137.34742367548688 0 137.34742367548688 -285.3254181848024 0 0 0 0 152.89497944922186 -56.065620331025002 0 -56.065620331025002 -93.293118669228534 0 0 0 0 6.5141770127452503 3.937637346469927 0 3.937637346469927 1.0137567377266521 0 0 0 0 204.28690297720459 209.31059995530086 0 209.31059995530086 -206.15366641180935 0 0 0 0 -223.75785343254393 47.290736724578551 0 47.290736724578551 93.473586682207042 0 0 0 0 115.38095277000684 -40.857828525631703 0 -40.857828525631703 69.539970456289325 0 0 0 0 0.60924045595254306 0.44305088217026878 0 0.44305088217026878 3.1674712753211409 0 0 0 0 271.57129754739981 -16.806036596862242 0 -16.806036596862242 8.7843540982566992 0 0 0 0 7.7207996217839536 183.01810614662645 0 183.01810614662645 0.17245888674096932 0 0 0 0 148.98520163870126 -56.372522373019819 0 -56.372522373019819 -1.0171301218151712 0 0 0 0 93.19501380850852 -21.094988468940755 0 -21.094988468940755 30.667805944734027 0 0 0 0 264.75317454720789 -41.525472481321231 0 -41.525472481321231 -9.7635397889489468 0 0 0 0 268.12129792576889 -30.101662895003756 0 -30.101662895003756 14.322805179800071 0 0 0 0 361.62919811994652 -65.335874906366826 0 -65.335874906366826 -14.900429384166273 0 0 0 0 507.80374246206975 25.132700416707223 0 25.132700416707223 -19.682026761040106 0 0 0 0 258.69791480317508 -28.185879763267621 0 -28.185879763267621 107.38950833521403 0 0 0 0 239.04543889636261 -93.492779965769842 0 -93.492779965769842 -0.26350001021239677 0 0 0 0 221.19109442404442 16.927710096645569 0 16.927710096645569 39.508554594711313 0 0 0 0 162.25379459219039 -30.264100322807565 0 -30.264100322807565 -36.711916299439508 0 0 0 0 303.67146925403358 -76.378894711183875 0 -76.378894711183875 -41.67298163987931 0 0 0 0 268.14434312148478 -126.70103222675618 0 -126.70103222675618 -40.859782237240324 0 0 0 0 543.6577789258954 -78.407109342200783 0 -78.407109342200783 -120.95400108993763 0 0 0 0 298.46313355286838 -97.809934784298321 0 -97.809934784298321 -120.90350809872916 0 0 0 0 107.45357816647447 -26.027783953888047 0 -26.027783953888047 -25.557303532981337 0 0 0 0 191.43040782838216 41.06225891247027 0 41.06225891247027 -50.657251733955491 0 0 0 0 121.2056066445366 -30.321251027848803 0 -30.321251027848803 -18.130945589976363 0 0 0 0 61.938934436690033 -6.2840501720397697 0 -6.2840501720397697 -15.082714712813868 0 0 0 0 36.894716191949556 -5.0091149047680119 0 -5.0091149047680119 20.046926804587656 0 0 0 0 -1.2330530376793201 -14.539386165041194 0 -14.539386165041194 -3.887454281294545 0 0 0 0 52.110018718814899 -5.4030505879108546 0 -5.4030505879108546 -18.5819493830395 0 0 0 0 96.820082233141875 9.2344458789564214 0 9.2344458789564214 -26.957075973235078 0 0 0 0 123.59461121791719 -19.834687252178412 0 -19.834687252178412 -35.220812204366666 0 0 0 0 95.491067797665892 -16.067360590967155 0 -16.067360590967155 -24.660087572339762 0 0 0 0 85.065017350905691 -24.36010585795475 0 -24.36010585795475 -31.041434726122588 0 0 0 0 82.127311457716132 -24.469221243271022 0 -24.469221243271022 -8.2859590060161281 0 0 0 0 47.95630527252797 10.150382679159975 0 10.150382679159975 -24.186096776465092 0 0 0 0 27.825989625016518 15.632204956865735 0 15.632204956865735 -14.617357953450778 0 0 0 0 18.176002876411076 -3.9551539663657422 0 -3.9551539663657422 0.94350654130175826 0 0 0 0 145.17405903481267 -50.604778888201054 0 -50.604778888201054 -20.071253126964166 0 0 0 0 61.787224878218694 -46.258349274117563 0 -46.258349274117563 25.206328259258044 0 0 0 0 17.557670137583045 -2.0022459283195531 0 -2.0022459283195531 9.969579835354125 0 0 0 0 18.848103610042841 3.3540993361629958 0 3.3540993361629958 -5.7038315781429612 0 0 0 0 28.205930594616802 13.375896559130297 0 13.375896559130297 -17.432671254033494 0 0 0 0 22.996858987862652 2.3360310580785608 0 2.3360310580785608 3.9661219984077434 0 0 0 0 152.51339841073059 -66.584973308232577 0 -66.584973308232577 -18.343550711943863 0 0 0 0 2.7472853690772228 -14.377163060354434 0 -14.377163060354434 -3.2478770333594227 0 0 0 0 135.00282072907248 -15.82039986677546 0 -15.82039986677546 -40.262946879973242 0 0 0 0 3.2342206609027926 -12.402949336127676 0 -12.402949336127676 -10.916922861094918 0 0 0 0 194.02122580427385 -131.39679584088344 0 -131.39679584088344 5.5708303783834481 0 0 0 0 162.28475027182139 37.564397739850847 0 37.564397739850847 -25.575735343601082 0 0 0 0 295.84458768953846 -42.119898379512506 0 -42.119898379512506 -40.697932987912282 0 0 0 0 3.147894954028132 -0.63390408408542953 0 -0.63390408408542953 0.92886603142705582 0 0 0 0 245.9728606028948 -136.57025681919276 0 -136.57025681919276 81.415066674559057 0 0 0 0 -5.5060210131988336 -12.009905635324458 0 -12.009905635324458 -1.6325756975036079 0 0 0 0 -10.238499386920012 -12.538392947883494 0 -12.538392947883494 46.095846513891956 0 0 0 0 -62.227131816638575 -23.054544478761727 0 -23.054544478761727 155.0443611719229 0 0 0 0 49.896173530636588 47.567117931544999 0 47.567117931544999 -106.64775086842928 0 0 0 0 2.1570197732299334 -2.9869516012466164 0 -2.9869516012466164 -3.4560843243213917 0 0 0 0 88.808874938171357 20.264381356402737 0 20.264381356402737 -16.083152150453316 0 0 0 0 87.962063188657339 -8.768253127520893 0 -8.768253127520893 -2.6119416365909274 0 0 0 0 99.267970034539758 -71.534247680753197 0 -71.534247680753197 -29.440497473913638 0 0 0 0 56.450654302592739 26.410561025508287 0 26.410561025508287 -31.555676426613388 0 0 0 0 256.05412189398476 27.922660805422424 0 27.922660805422424 -61.890578878432279 0 0 0 0 273.95711682447291 230.35458398887477 0 230.35458398887477 95.331090032363136 0 0 0 0 0.98672884539634964 7.7407962373511054 0 7.7407962373511054 -9.0644101474858125 0 0 0 0 109.48133975098608 85.827674490234131 0 85.827674490234131 51.888677884942808 0 0 0 0 -0.43289617638208711 2.0123279458831576 0 2.0123279458831576 -0.24334501196821634 0 0 0 0 233.97012368522701 -188.77428004615967 0 -188.77428004615967 -147.94388830906018 0 0 0 0 79.329502000226057 -10.476691368107367 0 -10.476691368107367 -30.444335181842689 0 0 0 0 -6.9633409942143771 19.244306178493616 0 19.244306178493616 29.765247250379616 0 0 0 0 4.6935103159341267 -4.1971384096470956 0 -4.1971384096470956 -7.0479865564565287 0 0 0 0 7.3755289846322629 -12.866147267525051 0 -12.866147267525051 -4.5535659238348707 0 0 0 0 8.6347500103838684 -84.898588003403574 0 -84.898588003403574 -1.7400146144759674 0 0 0 0 66.751676991367276 -11.841771858042421 0 -11.841771858042421 -5.5170259342266945 0 0 0 0 68.012939482636284 -18.77490789682588 0 -18.77490789682588 -4.3493930027088936 0 0 0 0 54.38620903017727 -10.122640296625605 0 -10.122640296625605 -6.0848739743688611 0 0 0 0 19.119643661414557 4.2590427375584738 0 4.2590427375584738 -1.9860145812053815 0 0 0 0 39.360656800068682 3.4059442736886467 0 3.4059442736886467 -12.837864308592316 0 0 0 0 37.25413241109527 -2.7359153328361856 0 -2.7359153328361856 3.6275378432801517 0 0 0 0 54.959442115163256 -10.941843870053731 0 -10.941843870053731 -2.9149890184758078 0 0 0 0 40.413859818996571 -8.5632542378472181 0 -8.5632542378472181 1.1797533548075876 0 0 0 0 41.470852451448081 -8.8045125927607586 0 -8.8045125927607586 -1.7166242790556225 0 0 0 0 11.774846228707915 3.3447354192955743 0 3.3447354192955743 -3.817125806272649 0 0 0 0 9.1829586335165665 7.2227245968763611 0 7.2227245968763611 -7.0499421365063402 0 0 0 0 40.607906828758075 -4.4682233359821844 0 -4.4682233359821844 -1.6827427335143308 0 0 0 0 44.399525445085601 -0.70873070771290259 0 -0.70873070771290259 -1.5904600359765482 0 0 0 0 36.280969500592619 -4.2112102502154585 0 -4.2112102502154585 1.1384396096252658 0 0 0 0 56.009341060180304 -21.717893227091906 0 -21.717893227091906 -18.111919498025941 0 0 0 0 66.578507092041036 -5.9940515166083728 0 -5.9940515166083728 -3.9864736523463762 0 0 0 0 15.687609926212609 -1.1749808776240229 0 -1.1749808776240229 -0.53574906089657581 0 0 0 0 7.00529272719956 -1.6439701576825314 0 -1.6439701576825314 -5.8833990780981358 0 0 0 0 27.632741429662616 -6.5967322884460629 0 -6.5967322884460629 -1.9296290079271159 0 0 0 0 52.658288793682004 -10.07534337390598 0 -10.07534337390598 -1.2582399024765891 0 0 0 0 61.156430835217179 -11.20542055083888 0 -11.20542055083888 -0.66764170639817166 0 0 0 0 7.6677631633348895 -2.7115735321516894 0 -2.7115735321516894 -2.2393239459896996 0 0 0 0 27.898003849888539 -12.105185433740438 0 -12.105185433740438 -9.7204723504772161 0 0 0 0 72.333708754158579 -17.928573966258909 0 -17.928573966258909 -12.947407530900819 0 0 0 0 94.768643471277755 -3.4609178683975585 0 -3.4609178683975585 -28.862675852538359 0 0 0 0 54.742989934422354 -11.890862472511749 0 -11.890862472511749 -2.0207121474933585 0 0 0 0 24.672387010971761 -28.874254194800017 0 -28.874254194800017 -13.57035157657765 0 0 0 0 76.061732536982163 -29.706788181554316 0 -29.706788181554316 -30.197032488108675 0 0 0 0 71.966068349931447 -20.949430394115254 0 -20.949430394115254 -5.5301180602089062 0 0 0 0 79.899402752365859 1.5156313916554609 0 1.5156313916554609 -16.267222974562173 0 0 0 0 83.821801756967034 -21.744161056743735 0 -21.744161056743735 -22.552690696434297 0 0 0 0 29.618404891920363 0.47887477986148497 0 0.47887477986148497 21.848734944615899 0 0 0 0 11.40128771518863 -2.9873790247989405 0 -2.9873790247989405 -13.648209239980051 0 0 0 0 192.45983519683068 -0.11517381111389113 0 -0.11517381111389113 -56.903664072781794 0 0 0 0 192.02633941561862 8.227310669217303 0 8.227310669217303 21.408813518110037 0 0 0 0 154.09633178235163 32.545611034285344 0 32.545611034285344 34.383542339906853 0 0 0 0 30.335296610472142 16.598802796765654 0 16.598802796765654 55.980024529420916 0 0 0 0 75.54866524109093 42.806729617295787 0 42.806729617295787 40.1038580435943 0 0 0 0 106.96200006357685 -3.5840986270632129 0 -3.5840986270632129 -26.972178734273257 0 0 0 0 19.021794566063107 -5.2920108336996066 0 -5.2920108336996066 -1.6091795889472866 0 0 0 0 685.87495589427272 95.666965140948378 0 95.666965140948378 -92.203602888825117 0 0 0 0 420.57723307012202 309.23780695826053 0 309.23780695826053 161.50263768853802 0 0 0 0 404.91043744770332 27.930227139786595 0 27.930227139786595 -94.422998223684772 0 0 0 0 400.09538159955991 110.05023356408492 0 110.05023356408492 -9.7224434381175797 0 0 0 0 450.50750545073242 -34.696385661754903 0 -34.696385661754903 -31.948919181441852 0 0 0 0 631.86873723401391 96.248674247989896 0 96.248674247989896 -5.9655546264216355 0 0 0 0 0.73376064040470901 -0.9098128231261029 0 -0.9098128231261029 3.9597128413918057 0 0 0 0 335.08246526736912 123.0421623569847 0 123.0421623569847 69.379210498851535 0 0 0 0 263.18126327799109 -436.07635693866968 0 -436.07635693866968 642.86894191092142 0 0 0 0 0.724847381032383 -0.21105108420302088 0 -0.21105108420302088 11.063524776842947 0 0 0 0 412.6895577099931 75.055007809773315 0 75.055007809773315 27.468897103798554 0 0 0 0 354.21755996892171 116.299401323447 0 116.299401323447 5.2623238165823523 0 0 0 0 309.79073599388357 29.510742988050879 0 29.510742988050879 27.725805082905936 0 0 0 0 287.63737745803519 4.4248395551444446 0 4.4248395551444446 25.892863198507257 0 0 0 0 274.52320524032984 -3.4803596441997797 0 -3.4803596441997797 33.991005415094946 0 0 0 0 311.41890141440672 98.434980138271385 0 98.434980138271385 104.12886277734924 0 0 0 0 246.84635653754231 41.747289561432808 0 41.747289561432808 81.054568234279941 0 0 0 0 197.19305031741533 91.108070894078992 0 91.108070894078992 26.28894735376889 0 0 0 0 236.02507741664158 -15.546570142505971 0 -15.546570142505971 11.036384179135439 0 0 0 0 273.93697149697982 7.6951772811353294 0 7.6951772811353294 25.265831129321668 0 0 0 0 0.69400435968918117 1.1307727222958306 0 1.1307727222958306 10.271904467002983 0 0 0 0 265.8186767604102 2.6373687625898015 0 2.6373687625898015 32.739900003756702 0 0 0 0 357.45262268216175 10.035607578774034 0 10.035607578774034 -5.884983454070607 0 0 0 0 496.70557705123792 3.3529905035366028 0 3.3529905035366028 -94.906061413483258 0 0 0 0 335.19064927105956 222.30939462653129 0 222.30939462653129 -143.39581007918241 0 0 0 0 123.87874344000011 -35.448480825946717 0 -35.448480825946717 6.7623686527049358 0 0 0 0 271.42542560397123 -83.813256303206344 0 -83.813256303206344 -27.612371847708346 0 0 0 0 172.40965298085939 -68.108964399996694 0 -68.108964399996694 -20.698457851914554 0 0 0 0 392.80263586375804 -241.00284962446312 0 -241.00284962446312 71.028444168889109 0 0 0 0 98.81040675463737 -89.841472908033211 0 -89.841472908033211 89.645601698484825 0 0 0 0 33.090258682263084 -0.96490660826566454 0 -0.96490660826566454 -88.564109309306787 0 0 0 0 -19.738081980651259 -100.76394218192911 0 -100.76394218192911 204.07213095170664 0 0 0 0 6.3530050378085434 45.822769514598804 0 45.822769514598804 42.089885683682951 0 0 0 0 280.00969769133371 -365.76703700266444 0 -365.76703700266444 361.22574865255956 0 0 0 0 7.2860643635007989 -1.2640311279905578 0 -1.2640311279905578 0.32226835175645263 0 0 0 0 1041.6653625804247 -464.92716811555465 0 -464.92716811555465 -0.94931702903704718 0 0 0 0 1350.8897570815461 329.66897799927665 0 329.66897799927665 -641.28904363287438 0 0 0 0 433.07189324674255 -106.35108382648741 0 -106.35108382648741 -205.956723790654 0 0 0 0 2500.1695009701871 -159.56545319745624 0 -159.56545319745624 -353.91167790170613 0 0 0 0 1942.9071949973586 94.213806312874851 0 94.213806312874851 -208.24746417855914 0 0 0 0 558.17453242500414 194.02222750667534 0 194.02222750667534 127.45229019494425 0 0 0 0 8.5241578213244793 -15.240403789139862 0 -15.240403789139862 40.37453990908493 0 0 0 0 0.71105807162711443 -3.3171313935715716 0 -3.3171313935715716 3.1566055704908353 0 0 0 0 40.499470783426659 -37.384296462567363 0 -37.384296462567363 19.811535092833992 0 0 0 0 1435.4472949659248 -113.2218538652067 0 -113.2218538652067 -73.750511860409432 0 0 0 0 1698.7180271401849 -251.15887075650488 0 -251.15887075650488 -173.63721180641193 0 0 0 0 -1.2255374353290307 -2.3686682734400932 0 -2.3686682734400932 10.880583760928751 0 0 0 0 66.623285905458033 -46.911313521081183 0 -46.911313521081183 21.447671128451475 0 0 0 0 62.10424683551355 -47.283172920813172 0 -47.283172920813172 22.444910399943183 0 0 0 0 64.678808730328456 -33.896853480772734 0 -33.896853480772734 16.163982856547591 0 0 0 0 82.942126821129932 -28.06685992849134 0 -28.06685992849134 13.890057878529205 0 0 0 0 -3.351749722561145 -4.4867831904258395 0 -4.4867831904258395 16.977068536893118 0 0 0 0 94.632001475132711 -38.611984516080611 0 -38.611984516080611 20.948204108542996 0 0 0 0 1817.7486313679401 -449.76126593351091 0 -449.76126593351091 34.825098310331697 0 0 0 0 1916.8866851572966 -483.72227679911248 0 -483.72227679911248 17.347059942284659 0 0 0 0 2090.6900770707289 -145.20859014248927 0 -145.20859014248927 -341.11616661551477 0 0 0 0 2499.3131079966988 -461.78949632466714 0 -461.78949632466714 -224.18236482196349 0 0 0 0 2174.8898211308988 -488.87701689852531 0 -488.87701689852531 -193.81101149889156 0 0 0 0 2500.5172399932417 -743.87078274096211 0 -743.87078274096211 -92.114434106427566 0 0 0 0 2033.522928037828 -702.26204324330683 0 -702.26204324330683 190.60605536482149 0 0 0 0 49.444500833761538 0.42821512934855832 0 0.42821512934855832 -13.456178378868906 0 0 0 0 91.312539273836592 -39.109508917174026 0 -39.109508917174026 37.436373389632536 0 0 0 0 1.4352363458715871 -10.16409246777485 0 -10.16409246777485 24.097881131000623 0 0 0 0 1714.6023158106545 -581.87059629071314 0 -581.87059629071314 161.53599396427029 0 0 0 0 1920.1228524165126 -960.52519916920869 0 -960.52519916920869 329.004394282899 0 0 0 0 2496.6403984823773 -1360.3094515225787 0 -1360.3094515225787 595.3310154289037 0 0 0 0 12.342722637844361 -0.81996925533510989 0 -0.81996925533510989 3.8375316387252205 0 0 0 0 52.671030995665205 -8.1619969008133637 0 -8.1619969008133637 -0.0042845682528394134 0 0 0 0 7.782067859647654 -2.6706238242042417 0 -2.6706238242042417 -0.46642260373698985 0 0 0 0 995.22136643958947 722.72602858327502 0 722.72602858327502 577.5565254531723 0 0 0 0 2489.8812275598902 -0.26669120117900036 0 -0.26669120117900036 -2.7886816009563562 0 0 0 0 39.041503625645419 -2.2427021574584129 0 -2.2427021574584129 0.015658187337082265 0 0 0 0 49.016319208234563 -6.9102250653607991 0 -6.9102250653607991 -0.0063657256401439283 0 0 0 0 50.145125327842834 -5.6443914276073102 0 -5.6443914276073102 -2.2415146976876912 0 0 0 0 51.893890598817961 -4.1632821235395294 0 -4.1632821235395294 1.4623082198072979 0 0 0 0 53.761818609884358 -6.8066701400913523 0 -6.8066701400913523 -1.8939260954269139 0 0 0 0 53.797823870612774 -2.4747904241813758 0 -2.4747904241813758 -1.1023087027134864 0 0 0 0 8.8035815343818129 -0.63623015888117607 0 -0.63623015888117607 -0.54750318889277838 0 0 0 0 54.583832013930078 -4.1260138453688624 0 -4.1260138453688624 1.3568148971986922 0 0 0 0 53.747679023315868 -4.5538133165349644 0 -4.5538133165349644 1.539354040815752 0 0 0 0 53.505486696612934 -3.5031615991433815 0 -3.5031615991433815 5.9038765232847936 0 0 0 0 25.514212887566941 5.2879511872843068 0 5.2879511872843068 -9.746828309539346 0 0 0 0 51.629634885947212 5.7280514077852445 0 5.7280514077852445 -15.034603896049681 0 0 0 0 75.717452667202451 -27.866901491061071 0 -27.866901491061071 35.712576846452066 0 0 0 0 76.071585427336686 -28.24209959740574 0 -28.24209959740574 33.053848207840929 0 0 0 0 78.378537747412338 -30.287169778746829 0 -30.287169778746829 33.345357883277757 0 0 0 0 75.10818525619834 -22.538786760716448 0 -22.538786760716448 17.684200093478466 0 0 0 0 8.9709079153835773 4.345328530689585 0 4.345328530689585 -9.6773658307592996 0 0 0 0 31.418916594703774 1.8117508360141201 0 1.8117508360141201 -7.5724340281817835 0 0 0 0 58.200977515003657 -6.3511652607734561 0 -6.3511652607734561 -4.7449594631686374 0 0 0 0 75.027556212349737 -25.915591896542992 0 -25.915591896542992 31.821714129346219 0 0 0 0 71.138107659178786 -25.435946535857511 0 -25.435946535857511 31.815650125356854 0 0 0 0 79.231542736964911 -28.209876687106771 0 -28.209876687106771 25.305599007961064 0 0 0 0 67.143313616928936 -20.475998573176184 0 -20.475998573176184 26.328166831104681 0 0 0 0 29.530513733130647 14.073902393357784 0 14.073902393357784 -13.462384966453904 0 0 0 0 28.080573646534503 2.4209263574729505 0 2.4209263574729505 -9.6872219717429289 0 0 0 0 66.040245614218293 -25.939734973364466 0 -25.939734973364466 2.435932402774597 0 0 0 0 52.296720505662961 -13.808978621711731 0 -13.808978621711731 -18.051378958600139 0 0 0 0 35.304956250009468 -0.16584628600347173 0 -0.16584628600347173 -6.4575804505450858 0 0 0 0 31.107483871152766 1.9692428108387006 0 1.9692428108387006 -2.9801300792315102 0 0 0 0 23.008870925215888 14.641316350642601 0 14.641316350642601 -6.8110980245245685 0 0 0 0 24.228001033730834 7.7803078779958579 0 7.7803078779958579 -11.202739204652339 0 0 0 0 37.777268070123682 8.2438869277957529 0 8.2438869277957529 -9.3970453595197583 0 0 0 0 25.030952789704315 9.2959384796249047 0 9.2959384796249047 2.7833144885220946 0 0 0 0 24.880045110665378 10.199100197363553 0 10.199100197363553 -1.2509400090575706 0 0 0 0 26.631902868022735 11.64045842775535 0 11.64045842775535 -0.070807810081935624 0 0 0 0 24.852953790577885 12.401736860173216 0 12.401736860173216 0.0093082976885049823 0 0 0 0 -0.75084576135047598 0.23905949487816258 0 0.23905949487816258 -0.036471145584633123 0 0 0 0 22.012945312606462 11.607893673013473 0 11.607893673013473 1.1051107968263234 0 0 0 0 41.595090845054074 10.901179609825144 0 10.901179609825144 -0.00044039825798744634 0 0 0 0 16.578374786287895 9.8669522429639684 0 9.8669522429639684 1.5961703293237459 0 0 0 0 27.946864792924316 3.5469741990096617 0 3.5469741990096617 3.6072443892402539 0 0 0 0 57.338860768526501 -0.65572102372091912 0 -0.65572102372091912 -6.5125426444887191 0 0 0 0 53.359137891689898 7.4057575444453008 0 7.4057575444453008 -1.0773618574180759 0 0 0 0 36.104257324244827 -11.077102509840605 0 -11.077102509840605 -8.2669148986200867 0 0 0 0 63.994150720260222 -9.2391888561861251 0 -9.2391888561861251 -12.393431517860776 0 0 0 0 35.022144694059222 1.9209430279035544 0 1.9209430279035544 -2.5033924563880992 0 0 0 0 11.320355619718612 29.793899382825444 0 29.793899382825444 -34.318065380751257 0 0 0 0 -33.891887919293367 -24.688024257328948 0 -24.688024257328948 -7.8335322540307288 0 0 0 0 36.702759242123051 3.1511860316281144 0 3.1511860316281144 -2.2727287324680017 0 0 0 0 25.939629604428774 -4.7640991533908732 0 -4.7640991533908732 22.727990915839882 0 0 0 0 46.998993970049924 9.0794799374009472 0 9.0794799374009472 -21.428202190390039 0 0 0 0 124.56379635716439 -60.631382330478417 0 -60.631382330478417 -42.132706539797326 0 0 0 0 37.252077697560452 7.1268758360373425 0 7.1268758360373425 -5.6022970104531726 0 0 0 0 72.422835059071076 109.00821839661739 0 109.00821839661739 -147.31929819555853 0 0 0 0 90.797028942513862 -54.545512113069435 0 -54.545512113069435 -64.138574028197695 0 0 0 0 54.086972224686178 1.1090481579102516 0 1.1090481579102516 -29.810728999571666 0 0 0 0 15.388350891022128 -2.7346716203082906 0 -2.7346716203082906 23.72480052063429 0 0 0 0 34.303711938987391 5.5553392892600257 0 5.5553392892600257 -7.0609503371768243 0 0 0 0 73.445222346497758 10.105575532949842 0 10.105575532949842 -93.801719113146191 0 0 0 0 65.74200425556046 -37.813204701886207 0 -37.813204701886207 2.7603661188804836 0 0 0 0 50.452446563409467 -28.986120655673176 0 -28.986120655673176 -2.3221917801929521 0 0 0 0 88.066001793056785 -89.074373728275759 0 -89.074373728275759 19.823772528161726 0 0 0 0 67.58644836359008 -51.977519616794922 0 -51.977519616794922 -16.185426348618421 0 0 0 0 68.273591567307449 -45.401005565412106 0 -45.401005565412106 -17.518881890156536 0 0 0 0 122.18510303900257 -84.802652996399388 0 -84.802652996399388 -18.554557467353334 0 0 0 0 67.885135089221876 -118.55784945003654 0 -118.55784945003654 115.80894997526116 0 0 0 0 33.027651265496388 -60.570329987972968 0 -60.570329987972968 31.502948387095358 0 0 0 0 25.372651035533636 -21.609764779103131 0 -21.609764779103131 13.227374120014701 0 0 0 0 -14.338338969566394 2.6173416705410375 0 2.6173416705410375 90.082016892199761 0 0 0 0 3.2650919360914088 -2.0647380671839919 0 -2.0647380671839919 0.98662390583730197 0 0 0 0 38.940135810036736 -98.04844546024826 0 -98.04844546024826 279.66900909558774 0 0 0 0 73.80156248662388 21.932426736213642 0 21.932426736213642 255.31780674700349 0 0 0 0 77.83424331376591 27.005147072035129 0 27.005147072035129 -123.53454662715592 0 0 0 0 45.956117394567627 10.043621383107165 0 10.043621383107165 -70.127293443882081 0 0 0 0 335.53045738273795 76.79798193354452 0 76.79798193354452 -74.978570638362498 0 0 0 0 238.38109021525452 -217.76930168665649 0 -217.76930168665649 132.61416772251596 0 0 0 0 30.01090787175977 6.3539659357743403 0 6.3539659357743403 -2.6811902880333736 0 0 0 0 11.152975169017736 27.009356693408847 0 27.009356693408847 -5.5245864334663679 0 0 0 0 38.827562505177866 8.6763976726984495 0 8.6763976726984495 -4.6559834742075221 0 0 0 0 -28.45122399675347 149.31077289536029 0 149.31077289536029 -29.023809597068293 0 0 0 0 -147.73076538670284 75.247469175281594 0 75.247469175281594 -2.429152980734159 0 0 0 0 9.9007156159178749 4.1752078324436681 0 4.1752078324436681 -3.2411795332295155 0 0 0 0 -123.51516158134109 26.947735147934338 0 26.947735147934338 92.948188853113948 0 0 0 0 27.227091352462594 56.68659414369813 0 56.68659414369813 -83.287442132443516 0 0 0 0 38.510559795598965 12.852807595417403 0 12.852807595417403 -105.30899187819432 0 0 0 0 32.826776529487688 12.219961427191265 0 12.219961427191265 -45.390283827998928 0 0 0 0 27.508456784322334 48.517697087734632 0 48.517697087734632 -52.888986276268923 0 0 0 0 47.924491996163852 30.039098108847242 0 30.039098108847242 -18.872778476633947 0 0 0 0 49.907838142047694 33.38664340628884 0 33.38664340628884 -32.56079354096093 0 0 0 0 27.913849706694918 6.4308202105152787 0 6.4308202105152787 -3.2196521697269231 0 0 0 0 25.206783790970803 13.237837173603339 0 13.237837173603339 -14.377030980933341 0 0 0 0 41.046220773176174 45.22795971370391 0 45.22795971370391 49.015745056148262 0 0 0 0 62.6662196561374 36.676896836519518 0 36.676896836519518 -21.182654820284597 0 0 0 0 13.203067520356853 -1.6317744684903346 0 -1.6317744684903346 15.338546778508771 0 0 0 0 9.6119542671804084 -2.0857549759708718 0 -2.0857549759708718 51.752393954828179 0 0 0 0 12.4932081174411 9.4732431052530615 0 9.4732431052530615 19.655954354321011 0 0 0 0 14.788723265053704 -48.091389667139993 0 -48.091389667139993 55.320306451458237 0 0 0 0 10.779881917555798 -3.4914041313210262 0 -3.4914041313210262 0.66001015343838443 0 0 0 0 19.787552103096459 -6.5401609278947888 0 -6.5401609278947888 18.877529350140776 0 0 0 0 42.30122775384271 -10.031852967931883 0 -10.031852967931883 5.0896326101616962 0 0 0 0 17.947489839571062 28.61498043901787 0 28.61498043901787 131.67697802407042 0 0 0 0 2.2981391807597902 0.40032022643476495 0 0.40032022643476495 0.12652728924989187 0 0 0 0 -55.905102007531241 -74.697503835521559 0 -74.697503835521559 258.08972827458047 0 0 0 0 108.07296684571338 -99.038881031356823 0 -99.038881031356823 -103.93352672699166 0 0 0 0 61.166852997394017 22.153774391248838 0 22.153774391248838 -14.889885264050974 0 0 0 0 45.222937262288355 -2.6415234313858207 0 -2.6415234313858207 0.46325425254644426 0 0 0 0 41.910585908059147 -0.120946823635812 0 -0.120946823635812 22.287702351369603 0 0 0 0 111.33871235855622 21.922114229935843 0 21.922114229935843 24.720730114993643 0 0 0 0 -6.823443043147563 -32.965922843117497 0 -32.965922843117497 46.909028639264363 0 0 0 0 24.162149123541894 -12.417787046602356 0 -12.417787046602356 -46.036811007242136 0 0 0 0 6.3866748058900384 -3.9026518332588225 0 -3.9026518332588225 0.95894284150897313 0 0 0 0 8.1657414368672789 0.87577994258836611 0 0.87577994258836611 -0.20293710828304512 0 0 0 0 15.839154535991838 -28.064243428504341 0 -28.064243428504341 -46.388239772414408 0 0 0 0 14.72277273034797 -13.892049150284906 0 -13.892049150284906 -36.894550079331168 0 0 0 0 27.988432137091877 -13.715174277870801 0 -13.715174277870801 -38.510212997039275 0 0 0 0 37.845957883669257 0.36048274861414598 0 0.36048274861414598 -1.3559695034857555 0 0 0 0 138.14828712219605 27.955640097374157 0 27.955640097374157 62.185380138986773 0 0 0 0 4.8370341934205499 -18.741668000791066 0 -18.741668000791066 -31.471524057711235 0 0 0 0 -4.9869302227743901 25.152086984967696 0 25.152086984967696 10.243789015799166 0 0 0 0 14.84078466541996 0.35279853164982455 0 0.35279853164982455 0.11171215950745106 0 0 0 0 38.467248995508271 11.630991732855534 0 11.630991732855534 -3.856840518224999 0 0 0 0 27.356507955526467 8.758822162834349 0 8.758822162834349 1.7899533478885701 0 0 0 0 32.600963729055366 -0.14920687317248849 0 -0.14920687317248849 15.930750149723735 0 0 0 0 1.3842293013729829 0.60969313895110488 0 0.60969313895110488 0.22009280624016081 0 0 0 0 64.431142135596019 69.773959835576221 0 69.773959835576221 22.704766194650517 0 0 0 0 512.92469821567647 129.33569589326294 0 129.33569589326294 25.581065291269738 0 0 0 0 -571.93748570902972 -213.91096981442126 0 -213.91096981442126 76.391184261571667 0 0 0 0 166.38550107760238 74.483688718342762 0 74.483688718342762 -14.96617044306646 0 0 0 0 158.36573134173523 25.703690766593724 0 25.703690766593724 -46.988841561054834 0 0 0 0 199.14584864977223 35.902607201412636 0 35.902607201412636 -53.82292882127058 0 0 0 0 72.434648572491824 48.24610987642729 0 48.24610987642729 -18.840617720073624 0 0 0 0 85.171082008528174 5.0067415549316223 0 5.0067415549316223 -48.385838471128501 0 0 0 0 96.406749799200043 23.451077833118696 0 23.451077833118696 -23.941792467784069 0 0 0 0 45.592957325990938 10.268585695665188 0 10.268585695665188 -19.496236849422189 0 0 0 0 25.77034912671661 5.0092725433870555 0 5.0092725433870555 -11.043104874603955 0 0 0 0 41.254627529502613 33.777561503596928 0 33.777561503596928 -13.808364028854356 0 0 0 0 72.498561601401207 51.596358902112861 0 51.596358902112861 -5.0289461593464466 0 0 0 0 76.689872222981649 35.196507318493815 0 35.196507318493815 -15.102608957975903 0 0 0 0 51.800363801652566 17.638034769469115 0 17.638034769469115 -12.930717804541786 0 0 0 0 52.824301732325694 17.286903656288047 0 17.286903656288047 -13.925410823741231 0 0 0 0 77.772333968780003 16.802722000454565 0 16.802722000454565 -13.007918868084461 0 0 0 0 77.525084262850214 18.791004933122164 0 18.791004933122164 -24.879948435048163 0 0 0 0 64.11907809364493 12.584716541551089 0 12.584716541551089 -8.4940453203780919 0 0 0 0 81.800128375638451 1.2260313441833368 0 1.2260313441833368 -3.4967671335976718 0 0 0 0 68.324706056730065 1.6065008730424957 0 1.6065008730424957 -21.984936036820599 0 0 0 0 71.260706262983149 9.5920977265291292 0 9.5920977265291292 -13.234297296740056 0 0 0 0 70.372529236468836 6.7141949319369161 0 6.7141949319369161 -19.045573955330504 0 0 0 0 75.325014109825133 15.26985945912395 0 15.26985945912395 -7.5463280132828494 0 0 0 0 74.776662366595701 1.3779852396884369 0 1.3779852396884369 -3.3708516018566668 0 0 0 0 87.534439867988112 6.4385579304810747 0 6.4385579304810747 1.1840302792673256 0 0 0 0 99.89258866183809 -8.7272066048893269 0 -8.7272066048893269 8.6244853867793694 0 0 0 0 82.236446542883641 10.28365543551579 0 10.28365543551579 6.6227136201772385 0 0 0 0 79.827714002123685 8.4568714567966534 0 8.4568714567966534 0.030453420221997877 0 0 0 0 104.84139936594875 -9.1277272331734327 0 -9.1277272331734327 7.708959516186642 0 0 0 0 59.192225482060167 5.4471637839095548 0 5.4471637839095548 11.796503764897759 0 0 0 0 0.62066306050309095 0.18032178505269769 0 0.18032178505269769 -0.037701784560371446 0 0 0 0 5.2180992945795879 11.118841322259888 0 11.118841322259888 -13.363255139349508 0 0 0 0 175.38515969596028 -96.449330658194327 0 -96.449330658194327 29.697322945855227 0 0 0 0 149.83076145098312 -38.38675655707334 0 -38.38675655707334 -0.010610497041447611 0 0 0 0 132.10850457327615 0.36161861231076786 0 0.36161861231076786 16.817235346805113 0 0 0 0 106.39177856624337 -18.396156092537623 0 -18.396156092537623 24.202174242308928 0 0 0 0 184.44997512758709 -24.416782854919948 0 -24.416782854919948 0.72433988035376906 0 0 0 0 120.92999887015321 -17.860724764548685 0 -17.860724764548685 5.4561115365240838 0 0 0 0 121.61419699090766 -32.59571202663102 0 -32.59571202663102 21.244759749950656 0 0 0 0 115.8275633223675 -0.9531204239755624 0 -0.9531204239755624 8.591112063493167 0 0 0 0 100.28705539736256 -25.21946240561482 0 -25.21946240561482 4.422923824054827 0 0 0 0 78.102330103618442 -47.185355340572173 0 -47.185355340572173 18.680496860498451 0 0 0 0 100.18699230254606 -72.857243773149179 0 -72.857243773149179 42.459564474429953 0 0 0 0 80.928578026330797 -58.613711621579313 0 -58.613711621579313 0.75207149209234103 0 0 0 0 45.63680470539839 -62.961982938246351 0 -62.961982938246351 1.0684612122475201 0 0 0 0 62.000963818587479 -36.524742459103393 0 -36.524742459103393 -2.7517868734394284 0 0 0 0 72.730469684487616 -95.47175445753868 0 -95.47175445753868 8.9907240475100707 0 0 0 0 90.737233911684598 -63.19690945149916 0 -63.19690945149916 -20.543136733699214 0 0 0 0 92.736828854118357 -40.766633951723065 0 -40.766633951723065 -7.4192961095584451 0 0 0 0 70.86505347082857 -12.404135821801987 0 -12.404135821801987 -0.89065154552491776 0 0 0 0 41.411302305044956 1.0053468102376542 0 1.0053468102376542 -8.5172310960154505 0 0 0 0 78.443501739973726 -11.327520882134323 0 -11.327520882134323 -4.4823478776652905 0 0 0 0 41.605070283214445 -6.4423475833385453 0 -6.4423475833385453 -17.081282394657848 0 0 0 0 41.902084708287134 -37.461144249303729 0 -37.461144249303729 6.057137145214881 0 0 0 0 27.333473453429178 -10.003241767538981 0 -10.003241767538981 -49.770499733945485 0 0 0 0 23.682098418405076 -1.7254157836579829 0 -1.7254157836579829 -17.282694189483323 0 0 0 0 101.65759163742769 -103.27836969899241 0 -103.27836969899241 8.8665861618279393 0 0 0 0 -9.0595352438745067 -86.713111899951045 0 -86.713111899951045 14.67871050039966 0 0 0 0 -13.224210833897814 -8.9018086501469185 0 -8.9018086501469185 -8.3849582465646222 0 0 0 0 227.06712140412128 109.49056271441154 0 109.49056271441154 -33.990842559477755 0 0 0 0 0.12262493991460133 -0.50067514878462305 0 -0.50067514878462305 0.92145480367524835 0 0 0 0 186.44590837348369 11.289287473018646 0 11.289287473018646 -140.17308421250112 0 0 0 0 48.090795755815634 -20.248295790805798 0 -20.248295790805798 -42.449546672431183 0 0 0 0 63.551628084816912 -19.877040139213566 0 -19.877040139213566 90.371392539422843 0 0 0 0 53.006761095028196 -10.340856396130768 0 -10.340856396130768 -28.913369677328717 0 0 0 0 3.3299084373118575 -0.72506489998536949 0 -0.72506489998536949 0.015862581942653997 0 0 0 0 3.8726403443659194 -2.2855998433612541 0 -2.2855998433612541 -0.030391787007893113 0 0 0 0 16.637367744595394 12.311286102456933 0 12.311286102456933 -33.615327807428848 0 0 0 0 -90.197204554875498 -33.511375792884138 0 -33.511375792884138 47.40993600080678 0 0 0 0 16.188258610345656 -18.69549776285573 0 -18.69549776285573 -54.54911056234323 0 0 0 0 19.438663155597169 -4.1915262599582093 0 -4.1915262599582093 -1.8872212592989968 0 0 0 0 35.287823168255272 9.8211469375684715 0 9.8211469375684715 10.417295801181837 0 0 0 0 33.64580115435092 -13.116676377762944 0 -13.116676377762944 6.7483098638075667 0 0 0 0 1.4191285477596978 0.85505445601698682 0 0.85505445601698682 0.26849483179691352 0 0 0 0 24.506559016910614 -15.206596191134098 0 -15.206596191134098 6.2960791836298569 0 0 0 0 12.494127757265233 -11.894124811334803 0 -11.894124811334803 5.4518090149505305 0 0 0 0 37.375717106442607 -8.1168483042672737 0 -8.1168483042672737 -1.0956912850866676 0 0 0 0 72.185927461436222 -23.916447450898438 0 -23.916447450898438 -30.282672687212994 0 0 0 0 82.280844281311147 3.491234854254003 0 3.491234854254003 27.359830102133628 0 0 0 0 147.89182958073798 -88.606900708695235 0 -88.606900708695235 -12.277699623989434 0 0 0 0 148.87203591631578 -62.178262612828135 0 -62.178262612828135 -32.077432169242456 0 0 0 0 -30.942675038779271 -69.467406680409425 0 -69.467406680409425 7.7970032494675365 0 0 0 0 130.12016604095697 -57.946788870528053 0 -57.946788870528053 -30.515055136241159 0 0 0 0 1.3400628272427468 0.65164078750729004 0 0.65164078750729004 0.032173989651711088 0 0 0 0 8.2826646322500892 3.226104144513712 0 3.226104144513712 -2.2506513028484099 0 0 0 0 13.964027577123488 -4.693444713779245 0 -4.693444713779245 -7.5419284882405355 0 0 0 0 14.189589216708555 -3.0387905370950112 0 -3.0387905370950112 -0.88524150202859975 0 0 0 0 4.0577861782949185 -4.2050946096167596 0 -4.2050946096167596 6.6497246485892418 0 0 0 0 30.640202385635348 -8.8007198708818795 0 -8.8007198708818795 -1.4458536157919815 0 0 0 0 16.435870164365042 -3.0498258637905828 0 -3.0498258637905828 -0.86617253800152039 0 0 0 0 30.572335121954893 -8.4438611021401648 0 -8.4438611021401648 -1.0032299310302086 0 0 0 0 27.767912542691192 -3.3003559942342315 0 -3.3003559942342315 -1.4418429128151082 0 0 0 0 25.971802530402783 -7.3949158565630686 0 -7.3949158565630686 -1.7692188475870421 0 0 0 0 27.763728093126701 -4.3946840779436362 0 -4.3946840779436362 -3.5001790082257167 0 0 0 0 29.87521726756313 -7.8541429971697632 0 -7.8541429971697632 -1.7645935707740055 0 0 0 0 14.239848758064909 -2.4941561124743128 0 -2.4941561124743128 -0.01166834533847123 0 0 0 0 3.86417637196746 -6.5612899305353833 0 -6.5612899305353833 0.79079522409459369 0 0 0 0 0.1016570195828308 0.04990672542353991 0 0.04990672542353991 0.0034887728930517066 0 0 0 0 57.291123407805571 -2.2159852755846865 0 -2.2159852755846865 -7.3734105363321545 0 0 0 0 39.460949772095773 0.34894850520010912 0 0.34894850520010912 0.0064388243855275969 0 0 0 0 44.506193421111675 -7.4789701316372925 0 -7.4789701316372925 -4.4817915751194226 0 0 0 0 44.913362955252524 -3.8405807823175095 0 -3.8405807823175095 -5.9398514532326052 0 0 0 0 23.411805421026656 10.496138459525977 0 10.496138459525977 10.234281819249841 0 0 0 0 53.167836225562496 -4.8323380139062957 0 -4.8323380139062957 -5.8897881362454374 0 0 0 0 48.937929874198744 -5.7874795640063859 0 -5.7874795640063859 -5.2716725171743413 0 0 0 0 46.145211839699186 -14.298539097041932 0 -14.298539097041932 3.1836122333256682 0 0 0 0 47.129099075202248 -19.785735641177062 0 -19.785735641177062 13.839268096370461 0 0 0 0 134.82284618393169 -42.629597645862312 0 -42.629597645862312 14.706764182477816 0 0 0 0 34.944919173656672 -10.202168905931718 0 -10.202168905931718 7.3556964465186567 0 0 0 0 69.745281510899076 16.768478895978355 0 16.768478895978355 7.6292834840958221 0 0 0 0 58.633359014973394 26.259363551266887 0 26.259363551266887 9.8609778932763987 0 0 0 0 76.835428400561796 -14.045574081735641 0 -14.045574081735641 -2.9296795287114943 0 0 0 0 118.02911623073305 46.988392024263305 0 46.988392024263305 4.1566391948645256 0 0 0 0 31.586483259103261 29.411710611103054 0 29.411710611103054 82.911960360608902 0 0 0 0 34.665167052080506 -7.2589335399535457 0 -7.2589335399535457 -14.26426865135501 0 0 0 0 14.699504336284008 -24.790222323578547 0 -24.790222323578547 -1.2049679657517061 0 0 0 0 30.823502170871251 2.3888787367686923 0 2.3888787367686923 -2.4457282684455501 0 0 0 0 32.862289373391832 -14.318928657667954 0 -14.318928657667954 -41.524212463185989 0 0 0 0 145.30707331612939 -33.984909339561469 0 -33.984909339561469 -20.350757134772188 0 0 0 0 23.666598061274271 18.804365405751696 0 18.804365405751696 -4.0706749343698334 0 0 0 0 38.269778738761289 6.7027733766919368 0 6.7027733766919368 -3.2881279081329726 0 0 0 0 35.832784369034414 10.171548389285181 0 10.171548389285181 -1.5720553430497726 0 0 0 0 84.194336972548626 -37.040954646058438 0 -37.040954646058438 10.160766732697844 0 0 0 0 62.695793258095364 55.437533501787854 0 55.437533501787854 -17.587901276867996 0 0 0 0 7.4006957051164619 -1.6166226349852906 0 -1.6166226349852906 0.98666054036556072 0 0 0 0 21.937622507296965 92.767891095465345 0 92.767891095465345 -25.110629726679093 0 0 0 0 140.9884187042785 44.687180520090791 0 44.687180520090791 -29.612921211059472 0 0 0 0 50.121447276877007 120.74952617437843 0 120.74952617437843 -3.6922641733687271 0 0 0 0 0.57251546881298054 0.40957037172793775 0 0.40957037172793775 0.2645516746242062 0 0 0 0 40.441865592336399 -6.1456164076893174 0 -6.1456164076893174 5.1128306236497565 0 0 0 0 -6.165099738544086 32.88280932246137 0 32.88280932246137 80.727818644286174 0 0 0 0 -10.317663105128304 -7.4225819389754468 0 -7.4225819389754468 27.398395147594329 0 0 0 0 22.609999049664481 4.8129870403235486 0 4.8129870403235486 -3.9220506312869894 0 0 0 0 19.816591885503428 -13.722153593126876 0 -13.722153593126876 4.3523496143596283 0 0 0 0 101.8491379506886 -27.447191978550961 0 -27.447191978550961 -31.054208496238175 0 0 0 0 86.9565091181139 -23.440737404945992 0 -23.440737404945992 -3.5762761469684961 0 0 0 0 152.94188128109454 -63.44919132270293 0 -63.44919132270293 17.647764763356633 0 0 0 0 251.84327832545387 -163.07407190559331 0 -163.07407190559331 -272.91878303128232 0 0 0 0 54.000242076784843 -3.5503148125726653 0 -3.5503148125726653 -1.1018698667857842 0 0 0 0 33.189273795040208 -0.88245638879067201 0 -0.88245638879067201 1.3301339458784014 0 0 0 0 82.474837171903346 -12.773417760038683 0 -12.773417760038683 8.6158464706442146 0 0 0 0 49.01006298086665 0.69389465412726281 0 0.69389465412726281 -2.5147447164015233 0 0 0 0 36.02215766938707 3.692802455675249 0 3.692802455675249 -1.5988846947651574 0 0 0 0 81.371854220094974 -5.4352904333939023 0 -5.4352904333939023 12.93815019812331 0 0 0 0 115.0530357899197 -4.7834677919928765 0 -4.7834677919928765 -5.9804889644287869 0 0 0 0 7.0825288027742452 -12.092316924388712 0 -12.092316924388712 6.1727547713620652 0 0 0 0 127.24301412505883 54.99207469689869 0 54.99207469689869 -31.895228771255546 0 0 0 0 15.505362030315155 -24.421041019969806 0 -24.421041019969806 326.22991134530196 0 0 0 0 90.343359678954585 90.212250601037795 0 90.212250601037795 67.118259490183448 0 0 0 0 80.843008715943142 -7.521429677318082 0 -7.521429677318082 -80.359096416710855 0 0 0 0 109.96677318362345 -35.763244251361584 0 -35.763244251361584 5.4337220308618726 0 0 0 0 94.91500306085436 -13.986222788940154 0 -13.986222788940154 -23.838021315476908 0 0 0 0 62.040227676348877 -0.12190661572140016 0 -0.12190661572140016 -5.5310919535636458 0 0 0 0 80.60430116787029 16.794033163635277 0 16.794033163635277 -26.049687859940605 0 0 0 0 99.75185029405111 -6.4867877892165779 0 -6.4867877892165779 -18.44370672559171 0 0 0 0 42.165000402172154 29.743209536501354 0 29.743209536501354 -15.746439547026966 0 0 0 0 61.390562372391287 10.212733543064132 0 10.212733543064132 -9.4195348593502786 0 0 0 0 36.120777392439777 17.764936606877654 0 17.764936606877654 -6.0324711752693361 0 0 0 0 28.111069760590908 22.830749205016218 0 22.830749205016218 -5.5990555902411643 0 0 0 0 26.558020374898021 16.181750746380771 0 16.181750746380771 -6.2574647847329574 0 0 0 0 75.978049659359385 43.279527847794213 0 43.279527847794213 -6.3780449507275989 0 0 0 0 -8.9419399020652008 3.1550875446683477 0 3.1550875446683477 3.7325116852010214 0 0 0 0 44.158861080766656 11.211311521931066 0 11.211311521931066 -8.151531276888818 0 0 0 0 59.789902546923258 17.327628766693579 0 17.327628766693579 -12.101721390513148 0 0 0 0 68.552308199854451 -21.651612842670232 0 -21.651612842670232 7.8873275538380767 0 0 0 0 59.266381109649956 -7.4525283268107785 0 -7.4525283268107785 -2.2189995961306934 0 0 0 0 42.98592840557103 22.441042094761315 0 22.441042094761315 -8.4880931206771493 0 0 0 0 21.794162505329552 13.437152059221646 0 13.437152059221646 -5.897719888141193 0 0 0 0 27.985635566234123 6.2246145365601251 0 6.2246145365601251 -5.2566745080939654 0 0 0 0 19.115723435811645 2.4303060533490992 0 2.4303060533490992 0.56152355208827975 0 0 0 0 74.378861959208734 9.8317213285902199 0 9.8317213285902199 -7.9943415502175412 0 0 0 0 85.156575227021676 -1.5116465361332985 0 -1.5116465361332985 -11.320127023926034 0 0 0 0 48.185827355380752 -5.2068551860711523 0 -5.2068551860711523 -1.4316285986895991 0 0 0 0 119.60912937630928 121.73203719012281 0 121.73203719012281 204.49654591110038 0 0 0 0 193.63251655094791 44.628619322908435 0 44.628619322908435 -4.6160923381866041 0 0 0 0 141.17037207547401 21.02378172739725 0 21.02378172739725 -25.283546012704392 0 0 0 0 176.64404778924654 48.739849602207869 0 48.739849602207869 -5.0184652252694377 0 0 0 0 190.84611079530441 -7.2693393395366002 0 -7.2693393395366002 -43.0395556902713 0 0 0 0 208.39219862871687 3.8094852645481296 0 3.8094852645481296 -36.171189998955015 0 0 0 0 200.73686334260856 -46.049207159794605 0 -46.049207159794605 -44.042991533131499 0 0 0 0 179.26319163767039 -37.489934238061323 0 -37.489934238061323 -43.016438229238702 0 0 0 0 219.02440714969998 -14.872173366585685 0 -14.872173366585685 -34.977295935067332 0 0 0 0 275.03276659615221 12.174368624710951 0 12.174368624710951 -41.588450634679248 0 0 0 0 339.37611995980842 -2.4231090136418061 0 -2.4231090136418061 -25.678368554114968 0 0 0 0 276.36416465385992 -10.793498596302925 0 -10.793498596302925 -7.1172794234780667 0 0 0 0 227.44975566661742 -28.715127854756474 0 -28.715127854756474 -12.545593965242006 0 0 0 0 213.11518418211926 70.744164339993404 0 70.744164339993404 28.981870471426191 0 0 0 0 344.46170763010468 138.22569490522503 0 138.22569490522503 44.092022643286327 0 0 0 0 47.554310705600074 40.994756412470451 0 40.994756412470451 149.42969810058412 0 0 0 0 -119.75413650910195 44.786431913738852 0 44.786431913738852 69.308467599608775 0 0 0 0 0.34488761409564539 0.30011700225894344 0 0.30011700225894344 -0.20116861266001962 0 0 0 0 46.211639628150806 17.30533750158304 0 17.30533750158304 76.972004022953115 0 0 0 0 40.406222813442582 75.553851012390624 0 75.553851012390624 -10.510530565961744 0 0 0 0 -51.423011742474046 114.430526904006 0 114.430526904006 70.418579435855463 0 0 0 0 -24.174827992545033 46.341061601861156 0 46.341061601861156 30.14956649402302 0 0 0 0 157.30365769726632 107.1691674501792 0 107.1691674501792 70.504994631615773 0 0 0 0 82.233694763213862 45.859526037424985 0 45.859526037424985 20.523467658437767 0 0 0 0 58.074811885482632 94.313808874789174 0 94.313808874789174 41.586768205689168 0 0 0 0 115.00424633617513 73.044751845910469 0 73.044751845910469 5.771129078992999 0 0 0 0 15.2759432105413 30.638400000056976 0 30.638400000056976 -6.4011284400803561 0 0 0 0 53.350693961969228 32.716975595536496 0 32.716975595536496 -10.397685097253088 0 0 0 0 89.967044321878348 48.632304302809644 0 48.632304302809644 -27.8510497204893 0 0 0 0 -31.6464583541092 -3.0190656805948493 0 -3.0190656805948493 -11.920112206523299 0 0 0 0 36.234637346307863 67.824365947064052 0 67.824365947064052 17.114146381979026 0 0 0 0 42.030233766083256 30.449721937347022 0 30.449721937347022 -36.047470532638272 0 0 0 0 39.871360107856162 34.747001935095909 0 34.747001935095909 -14.011685033445247 0 0 0 0 76.120223000267288 26.739081866303422 0 26.739081866303422 -22.461478654820894 0 0 0 0 126.07045259670122 16.776990421005394 0 16.776990421005394 -33.746846723027375 0 0 0 0 76.806106037099198 16.375642844372422 0 16.375642844372422 -25.023556529498819 0 0 0 0 111.82281476657226 -4.1902298475154112 0 -4.1902298475154112 -37.442897559647463 0 0 0 0 99.974292890605284 19.896882850835141 0 19.896882850835141 -30.655952966144469 0 0 0 0 159.2898954551456 -8.0986337097141359 0 -8.0986337097141359 -37.129514032173574 0 0 0 0 136.3168897240248 33.462201845736217 0 33.462201845736217 -30.616201794063272 0 0 0 0 150.01885140754166 -45.454283482114079 0 -45.454283482114079 -30.427465687658696 0 0 0 0 163.78418922492529 -45.578000897071092 0 -45.578000897071092 -45.211952613533867 0 0 0 0 170.00178004108602 -7.0789106306583562 0 -7.0789106306583562 -41.425857675904354 0 0 0 0 137.13024614274764 -26.58340657423264 0 -26.58340657423264 -25.172250801214432 0 0 0 0 119.65912467732778 -38.780051963620849 0 -38.780051963620849 -15.617397938438899 0 0 0 0 -1.1451820625200568 -10.947527826531285 0 -10.947527826531285 11.105479523008537 0 0 0 0 120.56704322170117 -38.732302048543261 0 -38.732302048543261 -31.783472024464572 0 0 0 0 120.70358510841288 -40.397961049204923 0 -40.397961049204923 -13.139219258734556 0 0 0 0 95.486147762821929 -51.055630021877505 0 -51.055630021877505 7.0548152944647882 0 0 0 0 118.39585155613895 -68.892065891252059 0 -68.892065891252059 -41.098194575127309 0 0 0 0 26.87429641033475 4.650222527725191 0 4.650222527725191 -2.5234367863255587 0 0 0 0 10.996805566494004 25.515207647061175 0 25.515207647061175 -8.8954715999512359 0 0 0 0 34.331058794366527 -27.452943164462429 0 -27.452943164462429 -14.387894755722414 0 0 0 0 4.3144193297921447 11.150211527813241 0 11.150211527813241 3.2625839819069427 0 0 0 0 -171.9483608931987 -135.21243187721177 0 -135.21243187721177 138.92593547415936 0 0 0 0 -174.50381286965421 -6.7414244563622105 0 -6.7414244563622105 13.298439005823866 0 0 0 0 5.2557609206650078 2.4134555710491838 0 2.4134555710491838 7.5054987017506267 0 0 0 0 70.325648975966033 -4.2003353028189849 0 -4.2003353028189849 -38.478473644643145 0 0 0 0 134.13868413632736 -67.121920752753795 0 -67.121920752753795 -37.283363614556947 0 0 0 0 209.4725718798727 -60.371298301504567 0 -60.371298301504567 -50.583664466836126 0 0 0 0 143.2341000315937 -53.855968700013818 0 -53.855968700013818 -49.322409583553963 0 0 0 0 118.52647260803496 -49.042003049605682 0 -49.042003049605682 -38.840271904326073 0 0 0 0 163.50601741969876 -70.023662339398925 0 -70.023662339398925 -48.617009922349098 0 0 0 0 133.68089012271957 -43.239199673997064 0 -43.239199673997064 -86.590160999106956 0 0 0 0 -13.908370848977938 -196.66293203889836 0 -196.66293203889836 13.576450284393104 0 0 0 0 1.545480602055278 -1.5541687718263404 0 -1.5541687718263404 0.79638980598042064 0 0 0 0 96.480765598811558 -94.894725866518002 0 -94.894725866518002 -9.0809203356957369 0 0 0 0 337.87405324805877 -102.82710681633898 0 -102.82710681633898 -22.015773164419898 0 0 0 0 343.56019834900508 -335.1212469804932 0 -335.1212469804932 35.32905777592714 0 0 0 0 9.2638273661068524 -286.17809309752215 0 -286.17809309752215 103.28100787907806 0 0 0 0 10.202978122368222 13.798226040792173 0 13.798226040792173 3.7517010585273169 0 0 0 0 -1.0752959810906759 13.711870296855793 0 13.711870296855793 5.478052920195239 0 0 0 0 21.088741267951264 -3.9787810161802781 0 -3.9787810161802781 9.1742978506245549 0 0 0 0 -91.513935396854322 233.43938722707389 0 233.43938722707389 181.87237947565109 0 0 0 0 0.24778676742449157 4.4704996775064672 0 4.4704996775064672 4.7880793752441999 0 0 0 0 103.75213861615339 -5.812450183171773 0 -5.812450183171773 -67.270894412237979 0 0 0 0 302.19337064716819 -61.262362310643994 0 -61.262362310643994 -53.073773873808136 0 0 0 0 89.596884596467135 -130.51683265100337 0 -130.51683265100337 42.665132671589163 0 0 0 0 330.46996788398246 255.83424736930101 0 255.83424736930101 203.64096097086679 0 0 0 0 3.5917758635622192 -3.0199585866225718 0 -3.0199585866225718 1.6339242638034612 0 0 0 0 126.24214720369491 -152.48448174034934 0 -152.48448174034934 32.791186038703017 0 0 0 0 637.61496400616306 21.390132069381707 0 21.390132069381707 -55.840706753378072 0 0 0 0 71.04041814590164 -115.26993865985526 0 -115.26993865985526 37.672486922655025 0 0 0 0 46.087837844490423 160.00117346506966 0 160.00117346506966 51.014266245558588 0 0 0 0 -2.3391653167046655 0.3181541172579756 0 0.3181541172579756 2.0066458406339898 0 0 0 0 103.34093951680552 -103.27307089419369 0 -103.27307089419369 37.606441011913127 0 0 0 0 26.023055696612573 -127.57617180420675 0 -127.57617180420675 31.411242589042104 0 0 0 0 39.69569689387572 -124.79965564526287 0 -124.79965564526287 -55.446390368685343 0 0 0 0 110.92098478996922 -126.48732040314815 0 -126.48732040314815 9.7533372204716215 0 0 0 0 -4.6969618346010975 -27.592123044729611 0 -27.592123044729611 -10.997114546692686 0 0 0 0 35.879321184816945 4.7951202239681265 0 4.7951202239681265 -7.5149722345377086 0 0 0 0 13.518345560037659 -9.0289629791534978 0 -9.0289629791534978 6.1799347334660863 0 0 0 0 29.183755669764651 -61.274677597968889 0 -61.274677597968889 -49.470748469288992 0 0 0 0 230.79027303125349 126.21061271001929 0 126.21061271001929 72.135081256055173 0 0 0 0 134.22395008689637 53.564472377146217 0 53.564472377146217 30.895123632592799 0 0 0 0 22.812085509053787 -13.894153189950757 0 -13.894153189950757 9.3839431879568558 0 0 0 0 59.726910136676452 -21.497720399540242 0 -21.497720399540242 -34.398771802359875 0 0 0 0 127.51565317598124 33.488656107846623 0 33.488656107846623 30.630660031388288 0 0 0 0 123.60968116717777 23.527308349998975 0 23.527308349998975 22.040729708182198 0 0 0 0 -38.260025353294623 38.7643998381551 0 38.7643998381551 -26.024212523659742 0 0 0 0 264.37884181714617 -207.50902327857818 0 -207.50902327857818 -4.3438684759959472 0 0 0 0 6.5124706860790358 0.70134856779675658 0 0.70134856779675658 11.858693380427685 0 0 0 0 28.774467694406326 -7.4677060364419816 0 -7.4677060364419816 -3.8672101635465359 0 0 0 0 41.52496290239651 4.3353876751502298 0 4.3353876751502298 10.441247258789218 0 0 0 0 8.7767211356576382 1.5760425112668486 0 1.5760425112668486 -7.9360347117438161 0 0 0 0 109.65263061173755 202.20460995411992 0 202.20460995411992 -97.222199068753625 0 0 0 0 -159.20000609017734 93.54953560420806 0 93.54953560420806 53.833620784532776 0 0 0 0 3.013517413405026 1.0663007157458608 0 1.0663007157458608 0.5309828913708321 0 0 0 0 103.57831372015062 -141.63150014277034 0 -141.63150014277034 127.8822623038668 0 0 0 0 240.04457788217223 -61.5673043209257 0 -61.5673043209257 -69.85992533370802 0 0 0 0 59.657111138978507 12.862712029478985 0 12.862712029478985 -40.314722999982472 0 0 0 0 1.6927184549713274 -38.53428593284481 0 -38.53428593284481 1.8023370925662685 0 0 0 0 -8.7836294086223461 1.1636480430504168 0 1.1636480430504168 8.0273295857523976 0 0 0 0 63.37680955218093 18.013009454124585 0 18.013009454124585 -42.121414345930418 0 0 0 0 0.057095946248660212 4.1453848458533145 0 4.1453848458533145 -1.2771214848243808 0 0 0 0 54.096772521601451 -34.519444961337072 0 -34.519444961337072 15.239605044491782 0 0 0 0 46.869286559915054 -30.223683572060025 0 -30.223683572060025 13.462634357395302 0 0 0 0 51.854520129996672 -23.260891963615066 0 -23.260891963615066 -6.1988908947999732 0 0 0 0 47.789419261473085 -29.310793805744694 0 -29.310793805744694 5.8953270802581415 0 0 0 0 44.915181797587138 -27.699488830642935 0 -27.699488830642935 10.355875982221946 0 0 0 0 9.3850916448256783 2.6767021523357215 0 2.6767021523357215 0.59106742202553053 0 0 0 0 44.513954327099782 -26.952257548101102 0 -26.952257548101102 24.420641168985171 0 0 0 0 40.505252725430182 -21.312296498158858 0 -21.312296498158858 34.430980830157239 0 0 0 0 46.155616007286881 -20.958333890107294 0 -20.958333890107294 16.903591633603565 0 0 0 0 47.889487426928099 -21.607192591493 0 -21.607192591493 6.1290490954846746 0 0 0 0 43.462070073328505 -25.888117560978486 0 -25.888117560978486 42.110266879633741 0 0 0 0 -2.2705329745949712 33.983432786039828 0 33.983432786039828 -26.260822894803198 0 0 0 0 17.636862330698932 31.07983499255721 0 31.07983499255721 -61.138709591655697 0 0 0 0 -6.054775835313194 10.46718469452162 0 10.46718469452162 -39.952446931454659 0 0 0 0 38.659092158421117 -5.3553727327634988 0 -5.3553727327634988 -17.535208331874571 0 0 0 0 23.116073544930259 23.591175388030763 0 23.591175388030763 -34.227048750634822 0 0 0 0 29.226112947813817 31.205873045859335 0 31.205873045859335 -40.215078139074421 0 0 0 0 33.818032639159355 -22.990540153769871 0 -22.990540153769871 19.754973428952553 0 0 0 0 47.227288253467123 4.8819513733817246 0 4.8819513733817246 7.96713353197228 0 0 0 0 22.219337431804888 -11.693046804404508 0 -11.693046804404508 -3.0080880119957669 0 0 0 0 74.243674729492341 -60.734947905643537 0 -60.734947905643537 19.280342231930859 0 0 0 0 11.071758102345484 3.6341998578909056 0 3.6341998578909056 -1.647096185914279 0 0 0 0 28.041763374327275 -8.5006767712706051 0 -8.5006767712706051 -4.3840436146817012 0 0 0 0 25.937537481848267 9.7003271438776437 0 9.7003271438776437 -30.528059311561861 0 0 0 0 10.171511552434822 -6.6291274122609707 0 -6.6291274122609707 -49.266442594448961 0 0 0 0 -2.9707365551221301 20.918381179818027 0 20.918381179818027 -31.633081646468057 0 0 0 0 26.91071723546338 21.670044423578872 0 21.670044423578872 -18.566963687581676 0 0 0 0 39.687706261265703 -1.8396602534648139 0 -1.8396602534648139 -47.280354658809188 0 0 0 0 6.7155192437739686 0.67974406105764373 0 0.67974406105764373 -0.20112708048610717 0 0 0 0 9.7024754189363023 1.5552044248766781 0 1.5552044248766781 -0.26526484220499941 0 0 0 0 7.1165804141273838 1.1263216074796816 0 1.1263216074796816 -3.1629343116846229 0 0 0 0 19.139354254828504 3.9183417214109841 0 3.9183417214109841 -3.3153057962843917 0 0 0 0 37.158368442745996 12.039130889288487 0 12.039130889288487 -92.348497769248979 0 0 0 0 0.23366761406813907 2.6809305488505428 0 2.6809305488505428 0.41642745320291813 0 0 0 0 6.4233415822418465 -0.89204798360068693 0 -0.89204798360068693 10.708490431065016 0 0 0 0 32.75509182290989 -27.515564778227514 0 -27.515564778227514 17.664156620648519 0 0 0 0 20.127504261508875 -3.1030207545517925 0 -3.1030207545517925 6.0225572450836182 0 0 0 0 42.708954194956277 -9.2788258264266581 0 -9.2788258264266581 4.9696126245691659 0 0 0 0 19.270748914897922 -5.2993786889022374 0 -5.2993786889022374 2.0337417464957355 0 0 0 0 -178.52826838267356 -119.29219847864729 0 -119.29219847864729 82.253945810308522 0 0 0 0 1.8138741199045683 -0.29628080560802061 0 -0.29628080560802061 0.017418664168237785 0 0 0 0 -0.087225952630163306 -0.28942039870267422 0 -0.28942039870267422 0.53337990706307647 0 0 0 0 -80.310859147886731 -58.835144392277272 0 -58.835144392277272 72.62498898682162 0 0 0 0 57.994480146051501 -4.627458696567146 0 -4.627458696567146 -1.121642073517279 0 0 0 0 115.0805220705297 -23.799185128003089 0 -23.799185128003089 5.3031156365447032 0 0 0 0 65.474622778599041 -40.964425523627014 0 -40.964425523627014 12.807865626875241 0 0 0 0 26.5096847455643 -20.69001857018435 0 -20.69001857018435 31.162116259742305 0 0 0 0 20.204111488164926 -5.5584755973492861 0 -5.5584755973492861 12.630325230096076 0 0 0 0 30.093013380690536 -12.414558000220552 0 -12.414558000220552 16.107066796860011 0 0 0 0 11.974736515948734 1.140825042665444 0 1.140825042665444 29.839490413177487 0 0 0 0 52.257187268005509 -49.165054178982899 0 -49.165054178982899 62.411635369416786 0 0 0 0 13.409292534415727 4.6975867884256104 0 4.6975867884256104 61.304253832214982 0 0 0 0 19.408746381595847 16.098187877214173 0 16.098187877214173 6.857658739043984 0 0 0 0 6.0929102601876366 14.227263602792164 0 14.227263602792164 7.1895047420222795 0 0 0 0 19.301237515550383 38.341846604056613 0 38.341846604056613 -32.241778298984741 0 0 0 0 14.064564383245852 21.565312251762862 0 21.565312251762862 15.627894577234542 0 0 0 0 70.988673521191231 -31.835671502181867 0 -31.835671502181867 47.310651821396277 0 0 0 0 27.698826538503795 -41.015127664331409 0 -41.015127664331409 66.607022983298407 0 0 0 0 51.41658520551573 -28.212575857331501 0 -28.212575857331501 71.984865481943942 0 0 0 0 28.686787267561158 21.62383340026696 0 21.62383340026696 13.337049853067811 0 0 0 0 189.5231891752228 1.730898847201118 0 1.730898847201118 42.758404347471881 0 0 0 0 179.53143603567514 -34.157719588416164 0 -34.157719588416164 22.850598142836503 0 0 0 0 63.916239910775403 -47.282958224896163 0 -47.282958224896163 28.894585584317383 0 0 0 0 263.5200499040875 -160.25614757423887 0 -160.25614757423887 58.200259808669671 0 0 0 0 341.61077234579716 17.258188417833694 0 17.258188417833694 -153.23689087515982 0 0 0 0 165.61210038851277 85.105523392628811 0 85.105523392628811 -70.097873375559061 0 0 0 0 -1.7962461783390609 27.553310999001269 0 27.553310999001269 106.78661798348389 0 0 0 0 6.8120404627189259 -5.2348301153606016 0 -5.2348301153606016 2.1007996363689134 0 0 0 0 -52.908964075642871 -204.54903514018633 0 -204.54903514018633 108.84546035180369 0 0 0 0 215.46059780567157 -314.13683930056379 0 -314.13683930056379 -27.545434036792358 0 0 0 0 143.72364787539118 -109.8750996913559 0 -109.8750996913559 -191.75457755153184 0 0 0 0 192.71723059908254 -85.354952064925442 0 -85.354952064925442 105.79952099045454 0 0 0 0 157.40590345269447 -139.81101773571731 0 -139.81101773571731 85.270174563110231 0 0 0 0 398.2956919529679 -338.80560077446319 0 -338.80560077446319 -31.690297674912244 0 0 0 0 505.10784672101317 -296.34961205011302 0 -296.34961205011302 -42.417676417467646 0 0 0 0 207.35659053662675 -237.76964154467532 0 -237.76964154467532 27.71625173989014 0 0 0 0 286.08195083308237 -208.37041839528223 0 -208.37041839528223 147.51276343142811 0 0 0 0 499.2251406676678 -212.79562894901164 0 -212.79562894901164 29.710662821119968 0 0 0 0 364.30333592971147 -106.74207853094367 0 -106.74207853094367 88.546213827596603 0 0 0 0 261.49892771961458 -80.670808334756998 0 -80.670808334756998 101.47360677760821 0 0 0 0 263.57124383920745 -71.661948821397914 0 -71.661948821397914 48.250923272562204 0 0 0 0 268.55132706815493 -98.954025930669701 0 -98.954025930669701 115.83951735482196 0 0 0 0 9.4110871965640399 99.165083446938468 0 99.165083446938468 -141.46815983686474 0 0 0 0 11.253136805252211 10.502275946570983 0 10.502275946570983 5.6667355538729476 0 0 0 0 -37.704911534492567 112.09474925075699 0 112.09474925075699 -143.69393965414542 0 0 0 0 -201.27902679960971 304.71129697299921 0 304.71129697299921 -175.97793531022774 0 0 0 0 469.38000373601244 -176.10816198574483 0 -176.10816198574483 49.550328752275291 0 0 0 0 6.9919716216499666 7.1683068879904255 0 7.1683068879904255 3.4712937015609846 0 0 0 0 379.95073827123269 -16.429404378416613 0 -16.429404378416613 133.49204408388542 0 0 0 0 301.11005059406671 -95.878964938352823 0 -95.878964938352823 87.078471878328912 0 0 0 0 283.70649746595245 36.857838938369675 0 36.857838938369675 -4.1742475567107817 0 0 0 0 -17.351290498612798 42.052101862193595 0 42.052101862193595 77.947794183503532 0 0 0 0 89.981807475087408 47.886952467471069 0 47.886952467471069 54.293036391518655 0 0 0 0 96.404973736098327 -41.61005202694011 0 -41.61005202694011 -66.533267920843684 0 0 0 0 246.39017034604331 126.8418637008191 0 126.8418637008191 -14.092524947216376 0 0 0 0 323.0737542687566 -25.034975997571166 0 -25.034975997571166 -90.665209449494853 0 0 0 0 -126.82932091552357 55.923378226515297 0 55.923378226515297 128.88019869588575 0 0 0 0 1050.1281004626526 -334.02530396783413 0 -334.02530396783413 -87.195900467842989 0 0 0 0 2.344670589153182 2.2662289067902464 0 2.2662289067902464 1.7644940074180036 0 0 0 0 773.12048304177006 -68.623352786409214 0 -68.623352786409214 -15.531544020503645 0 0 0 0 18.515590936243825 6.4766248988001962 0 6.4766248988001962 -0.21100592276171426 0 0 0 0 650.5365135535103 353.29349024255879 0 353.29349024255879 -207.02780175248563 0 0 0 0 -409.29119630142668 368.42510813592241 0 368.42510813592241 -160.15796874202107 0 0 0 0 17.467831701893317 1.8096145139846422 0 1.8096145139846422 -1.0250650436690973 0 0 0 0 186.06500706278894 319.78307428356038 0 319.78307428356038 54.028994320660104 0 0 0 0 11.843109078284016 -1.329252774607113 0 -1.329252774607113 -2.2921900941858899 0 0 0 0 -575.50681112067832 -176.26469640798018 0 -176.26469640798018 -0.068118456601723665 0 0 0 0 -0.78442602696304675 38.38842408648884 0 38.38842408648884 -43.52403009389252 0 0 0 0 3.5352218510438789 0.78915185677546162 0 0.78915185677546162 -0.97302791047933679 0 0 0 0 -25.168705061245419 22.357997223566031 0 22.357997223566031 -16.284783192574736 0 0 0 0 -7.7631542059461935 -168.81409160113895 0 -168.81409160113895 5.1470791366141384 0 0 0 0 38.004540705158433 8.5896932789594587 0 8.5896932789594587 -9.1604515013998764 0 0 0 0 -12.224593540522619 -4.4188842135732642 0 -4.4188842135732642 35.52109854537963 0 0 0 0 1.5913688085129252 4.120996769942451 0 4.120996769942451 2.0553155796012774 0 0 0 0 7.7381228353769984 2.7881110299700538 0 2.7881110299700538 2.2725932883299862 0 0 0 0 3.023280924448045 -2.4304262391389813 0 -2.4304262391389813 -0.1642318477361755 0 0 0 0 -8.2522429966629716 -4.7650131625587164 0 -4.7650131625587164 0.003232137817388292 0 0 0 0 32.791293981150375 -11.302902002912177 0 -11.302902002912177 -17.237213779745616 0 0 0 0 3.6596333354973467 -31.871843058601314 0 -31.871843058601314 -29.557860701007826 0 0 0 0 -69.487190749132424 -62.413147211442265 0 -62.413147211442265 -19.909762025871146 0 0 0 0 -6.8828440091601806 -4.9507437266474028 0 -4.9507437266474028 -3.6885919232139486 0 0 0 0 -24.800287836704229 -34.255443603871868 0 -34.255443603871868 -0.097121146188328566 0 0 0 0 -33.004579669286613 -53.678910391485033 0 -53.678910391485033 -6.0504783032423006 0 0 0 0 -26.244294535285007 -30.38765644907798 0 -30.38765644907798 -10.357789979001495 0 0 0 0 0.62048605513597721 -1.0216785341456784 0 -1.0216785341456784 0.49951710667544935 0 0 0 0 -89.172318543482106 -36.948438336099457 0 -36.948438336099457 -25.54287994840422 0 0 0 0 182.38983280937464 1.5520090203408472 0 1.5520090203408472 -6.3556989313998429 0 0 0 0 -93.247392042292631 0.20977941387332066 0 0.20977941387332066 -96.828945661691591 0 0 0 0 -16.814935938542476 -33.748764522436844 0 -33.748764522436844 53.050434023546586 0 0 0 0 -5.4057789128546574 -76.717902277846619 0 -76.717902277846619 190.61729892013494 0 0 0 0 -9.8392053815696272 -55.117314165795165 0 -55.117314165795165 75.738649994434866 0 0 0 0 -9.6335590658636647 -48.225455981469793 0 -48.225455981469793 20.576851899023268 0 0 0 0 -20.745970585703617 -28.372433730185833 0 -28.372433730185833 8.4346932199572997 0 0 0 0 -13.992226311325794 -54.415339533709471 0 -54.415339533709471 8.6758820019343972 0 0 0 0 -18.180211264960235 -38.153382244066051 0 -38.153382244066051 42.675233472246759 0 0 0 0 -25.199678647615656 -1.6350252454146244 0 -1.6350252454146244 29.765524518835896 0 0 0 0 10.395116670893913 25.179417308531264 0 25.179417308531264 -47.459738953552652 0 0 0 0 -16.739084233457106 0.6962190027784132 0 0.6962190027784132 7.5823705878568148 0 0 0 0 6.1319741171173519 9.3115734232710139 0 9.3115734232710139 6.2471956067935537 0 0 0 0 -6.5424097762042948 6.6650796516414204 0 6.6650796516414204 9.8267993856214844 0 0 0 0 -16.914615813599085 69.560751657815757 0 69.560751657815757 22.336196172025605 0 0 0 0 -24.313891448707182 52.837627906138692 0 52.837627906138692 142.59787317846525 0 0 0 0 -21.319338272562163 -17.837888745278775 0 -17.837888745278775 81.77563261429205 0 0 0 0 10.136644659446148 2.717163446556762 0 2.717163446556762 0.14262448400395003 0 0 0 0 -241.72485675897042 360.27337834186716 0 360.27337834186716 294.70774269129026 0 0 0 0 -61.827994973536988 122.11853304853483 0 122.11853304853483 -230.05796533492799 0 0 0 0 -461.45041494925681 184.18022265669299 0 184.18022265669299 160.61601358331427 0 0 0 0 127.11042522192292 307.94662667881573 0 307.94662667881573 -71.721759374240833 0 0 0 0 148.92237083687132 60.55094006404709 0 60.55094006404709 -99.133996379924952 0 0 0 0 374.73425268390656 -136.76337965047296 0 -136.76337965047296 174.41718707441839 0 0 0 0 3.1579810621668116 1.0239135494135962 0 1.0239135494135962 0.23373927600675054 0 0 0 0 307.85617705859113 399.11555052025483 0 399.11555052025483 468.05496646617883 0 0 0 0 230.66118233592715 -77.249959853888768 0 -77.249959853888768 -54.088628561616645 0 0 0 0 633.61596828328584 264.0811962522327 0 264.0811962522327 131.18285466854587 0 0 0 0 640.54777562650725 235.5798896905992 0 235.5798896905992 239.30952463362448 0 0 0 0 416.86886772764046 312.14153760851332 0 312.14153760851332 331.38928836422764 0 0 0 0 91.501136451395723 -69.226077672642305 0 -69.226077672642305 211.41057266544766 0 0 0 0 117.97804447919043 -97.871032169479264 0 -97.871032169479264 37.435946541727901 0 0 0 0 2080.4313524717363 761.74485782140266 0 761.74485782140266 -47.628677667382263 0 0 0 0 1136.8760389232702 293.03235227073213 0 293.03235227073213 71.477533763034614 0 0 0 0 1137.5786288794336 433.02733102048222 0 433.02733102048222 -134.5234155263804 0 0 0 0 1833.4094512815718 273.06058387927959 0 273.06058387927959 -105.7894366645121 0 0 0 0 2500.3268677748238 -123.03773943424591 0 -123.03773943424591 -464.70093240455049 0 0 0 0 1600.3401477990774 -407.58793365774545 0 -407.58793365774545 -445.25985367628607 0 0 0 0 797.22437387090031 112.22245793597639 0 112.22245793597639 318.18349481915396 0 0 0 0 854.35793680459028 -119.01207463011966 0 -119.01207463011966 65.667035050421674 0 0 0 0 1601.5566018639292 -309.16575047493552 0 -309.16575047493552 8.6674662353767644 0 0 0 0 635.42635272809275 -71.275519462405512 0 -71.275519462405512 -149.9550086516744 0 0 0 0 349.87617331647562 -482.24837232729215 0 -482.24837232729215 40.8040541013238 0 0 0 0 1709.5779943981033 -1082.4218655296713 0 -1082.4218655296713 -422.5993050127197 0 0 0 0 2500.2384746718708 -99.695716991458227 0 -99.695716991458227 1144.8856455045507 0 0 0 0 2750.6933206539816 -466.07579512680991 0 -466.07579512680991 -593.76119847815721 0 0 0 0 1795.4528084226185 1123.7586954885082 0 1123.7586954885082 447.48854047456808 0 0 0 0 3427.5429113876235 1153.0815546457588 0 1153.0815546457588 408.79946794119348 0 0 0 0 13.503665383678396 -3.5278132345513598 0 -3.5278132345513598 -0.6067158726358054 0 0 0 0 2501.2771148633838 955.56432477455326 0 955.56432477455326 -198.2359818207284 0 0 0 0 1993.3422149299367 665.64157600272358 0 665.64157600272358 -121.27957970323176 0 0 0 0 665.00779760901787 569.50484187399331 0 569.50484187399331 267.33434005291508 0 0 0 0 -265.628365143275 70.538988601807091 0 70.538988601807091 -162.6402825668759 0 0 0 0 246.34048812300171 -1209.3618191827684 0 -1209.3618191827684 -432.41649604563355 0 0 0 0 199.8049084536251 -151.64253602799241 0 -151.64253602799241 -691.08056318355045 0 0 0 0 42.346856372118054 196.89372579388578 0 196.89372579388578 -114.79445289069804 0 0 0 0 195.62378482148051 143.33402355569319 0 143.33402355569319 -205.83838393092265 0 0 0 0 35.648377456986054 50.22651399777078 0 50.22651399777078 -259.77243028020303 0 0 0 0 26.835817348479765 -8.1184198171752797 0 -8.1184198171752797 -2.3335437920790643 0 0 0 0 903.23360453313489 -233.5514061157852 0 -233.5514061157852 -166.75652539620489 0 0 0 0 1626.7185643366174 -416.97192119438159 0 -416.97192119438159 72.565682963460333 0 0 0 0 -63.637902920338092 216.91085579739081 0 216.91085579739081 34.87612734535017 0 0 0 0 -79.895769452559762 -201.02020483352408 0 -201.02020483352408 -185.1202261349284 0 0 0 0 78.150208895844116 -423.35034665471227 0 -423.35034665471227 125.38711439323782 0 0 0 0 24.496322618042427 -6.2801957108497817 0 -6.2801957108497817 -2.6040237993450011 0 0 0 0 -255.93433666744386 81.870990156757102 0 81.870990156757102 143.57241479593955 0 0 0 0 -454.9801868153445 122.77945812305859 0 122.77945812305859 100.89444006735562 0 0 0 0 -375.18606435559923 3.1051327677431004 0 3.1051327677431004 110.1164824932082 0 0 0 0 6.7707210618055029 -0.31486334620711887 0 -0.31486334620711887 -1.7386512881160008 0 0 0 0 -534.54035477069556 105.43381292651861 0 105.43381292651861 134.78289752412775 0 0 0 0 -436.9913404591498 30.629656075853234 0 30.629656075853234 118.40392414421513 0 0 0 0 -522.75669162385748 47.164751263500875 0 47.164751263500875 -80.429724286586406 0 0 0 0 -500.75770058305352 -62.203134621975096 0 -62.203134621975096 74.264260419478887 0 0 0 0 -65.711304426804418 71.659149745843479 0 71.659149745843479 35.415443696604143 0 0 0 0 14.237999083416071 -339.81743503260441 0 -339.81743503260441 49.516353778384655 0 0 0 0 -169.94736446940806 -33.40489908361883 0 -33.40489908361883 21.07233670764515 0 0 0 0 -848.88573291961802 6.3261563637997824 0 6.3261563637997824 108.39998852292138 0 0 0 0 1.3969133172973685 -0.62941984358461411 0 -0.62941984358461411 0.2501171034218741 0 0 0 0 -23.021296146613167 -29.489648372570986 0 -29.489648372570986 261.61424485899545 0 0 0 0 7.7853008204404546 -2.2448395155388141 0 -2.2448395155388141 0.39528723610226535 0 0 0 0 1668.9512053763974 419.59957045044666 0 419.59957045044666 94.268567315518311 0 0 0 0 1759.1660867317551 -60.862651971417371 0 -60.862651971417371 -183.99090138305462 0 0 0 0 2498.4339364716943 383.51507535645356 0 383.51507535645356 83.045869142411178 0 0 0 0 1540.1780912007084 747.68373402988675 0 747.68373402988675 -54.385119816240049 0 0 0 0 526.12378106131973 -120.56517753969248 0 -120.56517753969248 -70.169646306934851 0 0 0 0 744.94720397792844 369.28669320592485 0 369.28669320592485 2.3720724007036651 0 0 0 0 2494.1948681154099 665.21211948173345 0 665.21211948173345 -135.19706407522742 0 0 0 0 140.72394166479717 863.35484476270153 0 863.35484476270153 952.26820098454778 0 0 0 0 7.345677372455313 1.7119760633420036 0 1.7119760633420036 2.8320521767532298 0 0 0 0 1806.5379299148117 -681.51808477437442 0 -681.51808477437442 268.30451839675072 0 0 0 0 2.4613634382591485 2.4900288227873908 0 2.4900288227873908 1.2030141993969898 0 0 0 0 13.027926190924255 -5.6557539466952349 0 -5.6557539466952349 3.5092577391179423 0 0 0 0 7.3853516952950855 -1.4789951926275471 0 -1.4789951926275471 4.9448997951315095 0 0 0 0 18.227302636470995 -0.15313737598864918 0 -0.15313737598864918 9.4607767022311009 0 0 0 0 15.623059474521142 -17.91149136231093 0 -17.91149136231093 11.475959528189142 0 0 0 0 11.207413929392608 -4.0030601725411508 0 -4.0030601725411508 5.4191419261998757 0 0 0 0 17.778527088819828 0.17868247043043084 0 0.17868247043043084 9.7799956162975832 0 0 0 0 12.518308397913643 -2.4316485733252193 0 -2.4316485733252193 14.66879245613336 0 0 0 0 3.8831728689100515 -1.9016582171735301 0 -1.9016582171735301 13.881370734240875 0 0 0 0 15.503337548583659 -0.33522525955868332 0 -0.33522525955868332 12.087859146048459 0 0 0 0 -3.7220953820778959 1.479771024346519 0 1.479771024346519 25.276777432107338 0 0 0 0 16.528976954379687 -2.0754127681780119 0 -2.0754127681780119 10.703075783637814 0 0 0 0 -1.7243343662041752 -14.342492896767681 0 -14.342492896767681 27.570970575677165 0 0 0 0 6.1323800813042446 -4.7191245612717125 0 -4.7191245612717125 11.990388882120232 0 0 0 0 9.7974221307603955 -6.2054810364543371 0 -6.2054810364543371 6.9511535669397038 0 0 0 0 14.759210115880705 -4.7192257222022818 0 -4.7192257222022818 13.769895418263957 0 0 0 0 13.426880102819268 -3.3617010519319592 0 -3.3617010519319592 13.44590803340634 0 0 0 0 19.212260041500485 -85.983700791639563 0 -85.983700791639563 10.51469508756108 0 0 0 0 12.136764876956477 -86.170736065369596 0 -86.170736065369596 172.25007403221511 0 0 0 0 12.914095336468634 -8.5986087527961459 0 -8.5986087527961459 6.0291904298570973 0 0 0 0 8.8671408343738314 -2.032806298040569 0 -2.032806298040569 6.2695519756525186 0 0 0 0 34.10160583488323 50.296938727714377 0 50.296938727714377 -15.752612688498509 0 0 0 0 17.23224967466011 1.0980137155890493 0 1.0980137155890493 2.7935561266968576 0 0 0 0 23.897462148306658 -4.1904878325702839 0 -4.1904878325702839 10.836147280255886 0 0 0 0 -41.593332119493425 25.779942770873525 0 25.779942770873525 45.026673826872624 0 0 0 0 11.58662876968269 -7.4154724613673721 0 -7.4154724613673721 13.444568005010129 0 0 0 0 -8.1562190685663154 -19.327060219794816 0 -19.327060219794816 42.318868832579028 0 0 0 0 22.18162869513441 -3.8807562518499665 0 -3.8807562518499665 10.005213831192732 0 0 0 0 35.186707210313102 96.734357496649281 0 96.734357496649281 176.91794217144712 0 0 0 0 646.37365472039892 -56.03031727084776 0 -56.03031727084776 -118.4909341759171 0 0 0 0 830.09742509856005 225.44355701111576 0 225.44355701111576 -220.28633818682695 0 0 0 0 2501.6680219544724 -105.36345700238378 0 -105.36345700238378 -333.36760680681277 0 0 0 0 618.15660802417551 -226.15001993604702 0 -226.15001993604702 -127.56224033364572 0 0 0 0 26.052741006242286 79.374192471526513 0 79.374192471526513 40.561554214646705 0 0 0 0 2493.6888086552699 -1169.117208780104 0 -1169.117208780104 246.17930618381786 0 0 0 0 7.3736913311035437 -0.50778498375509251 0 -0.50778498375509251 0.097045989500196606 0 0 0 0 15.024364790581757 1.8671993902778663 0 1.8671993902778663 -0.25242593154904452 0 0 0 0 34.547359867586124 -76.533517377203452 0 -76.533517377203452 28.59460574660239 0 0 0 0 10.188094225796689 2.5999772085272639 0 2.5999772085272639 0.51676039395214757 0 0 0 0 -133.27047633428174 -34.269097542824731 0 -34.269097542824731 53.854356899288604 0 0 0 0 1232.4420579045764 753.99754141337075 0 753.99754141337075 85.795164347527219 0 0 0 0 5.046261652385823 1.2157134149889899 0 1.2157134149889899 0.3455162918949371 0 0 0 0 2475.6675804016559 -124.45225460472059 0 -124.45225460472059 -5.2082260473282131 0 0 0 0 2480.5916826807152 109.44124406149311 0 109.44124406149311 -477.72898279715787 0 0 0 0 10.528878056049905 4.183807492953477 0 4.183807492953477 1.980234997059124 0 0 0 0 1783.2504900940476 -272.34491287857099 0 -272.34491287857099 109.09443747655537 0 0 0 0 -23.337822073721327 -359.99093889730403 0 -359.99093889730403 290.31803249503662 0 0 0 0 171.40183452882616 745.58192982499838 0 745.58192982499838 731.10544891873656 0 0 0 0 1118.8135186557483 1297.2539692194966 0 1297.2539692194966 798.70677998585575 0 0 0 0 2590.0356882597553 1287.1568200524703 0 1287.1568200524703 -108.58760443066839 0 0 0 0 22.398122632977902 -70.643051099391982 0 -70.643051099391982 5.1385189913114573 0 0 0 0 94.07535887522863 -113.5447261590746 0 -113.5447261590746 -14.679077877140344 0 0 0 0 -63.978551060848986 18.180679523944718 0 18.180679523944718 24.298253571455973 0 0 0 0 93.640070972393005 157.24561551884528 0 157.24561551884528 -290.38942837593288 0 0 0 0 23.182619854827792 7.8914131273438173 0 7.8914131273438173 2.3823531033725587 0 0 0 0 80.089435606801999 -26.063922323538463 0 -26.063922323538463 -204.99731848984879 0 0 0 0 104.65464993875935 -115.69452315453877 0 -115.69452315453877 -107.14535440679788 0 0 0 0 82.290505749799195 0.67023082581926019 0 0.67023082581926019 24.98728215275213 0 0 0 0 25.247390000781792 7.9526888727013905 0 7.9526888727013905 1.8699018330021282 0 0 0 0 28.344825152542853 -9.0665724705265909 0 -9.0665724705265909 42.068518335029808 0 0 0 0 -34.973290121597529 -38.840125085365912 0 -38.840125085365912 32.865307764939786 0 0 0 0 30.272876182918026 2.0854380402981949 0 2.0854380402981949 12.271074328540863 0 0 0 0 10.287242360915116 14.914408370974854 0 14.914408370974854 27.249906902220829 0 0 0 0 22.3887998930295 27.059987481685638 0 27.059987481685638 -2.1314384764590812 0 0 0 0 30.468229568564766 -34.672903195147533 0 -34.672903195147533 14.384828360796078 0 0 0 0 11.8372992426834 1.5276843464911707 0 1.5276843464911707 1.6209606756606005 0 0 0 0 26.472619826279697 12.764577936260309 0 12.764577936260309 32.715512871968485 0 0 0 0 26.750061161070334 9.5281265575976022 0 9.5281265575976022 23.23663950630754 0 0 0 0 71.000130089982122 -23.199501485842688 0 -23.199501485842688 10.129170491405887 0 0 0 0 37.825881435350311 -4.6399573357560939 0 -4.6399573357560939 4.785777914755954 0 0 0 0 5.6625460323215986 -0.58738751031379621 0 -0.58738751031379621 0.1648836094790449 0 0 0 0 27.697991036060557 -15.594367089613229 0 -15.594367089613229 25.277545910493387 0 0 0 0 8.6392018779879436 -7.2049233172421339 0 -7.2049233172421339 27.699649295770946 0 0 0 0 22.88086947894044 1.2902089232420337 0 1.2902089232420337 15.952126509305401 0 0 0 0 41.127499593749235 -4.2109885763079546 0 -4.2109885763079546 13.00151277137229 0 0 0 0 34.543432203419798 -4.0947526235824512 0 -4.0947526235824512 17.656884782059592 0 0 0 0 25.154501069817343 -10.642065024902024 0 -10.642065024902024 16.850030068706701 0 0 0 0 22.210906289899867 -11.4660687933183 0 -11.4660687933183 -24.481852005408427 0 0 0 0 31.672108071004914 -11.620198363304553 0 -11.620198363304553 -32.513352240276333 0 0 0 0 26.634168272883883 6.4927498691174179 0 6.4927498691174179 3.0105762829222993 0 0 0 0 28.464580308296718 -28.858661006705006 0 -28.858661006705006 -37.100550023452058 0 0 0 0 56.755385282129282 45.853547265342058 0 45.853547265342058 -208.09724612109881 0 0 0 0 20.170271719849552 -45.191239737864549 0 -45.191239737864549 50.439869701344207 0 0 0 0 5.1108285037844325 20.356008773065696 0 20.356008773065696 -65.445328805316649 0 0 0 0 47.430313871391263 -57.84289469919554 0 -57.84289469919554 -68.666361465664522 0 0 0 0 42.553866444417508 -78.510182059198655 0 -78.510182059198655 -46.45335104239615 0 0 0 0 31.443425480902079 -52.071945876568975 0 -52.071945876568975 -57.984732882860953 0 0 0 0 43.106361295984243 -33.006940221128843 0 -33.006940221128843 -103.12063853111863 0 0 0 0 29.502921538667579 -26.05860427351513 0 -26.05860427351513 -52.618553733786484 0 0 0 0 35.169829374892288 -57.073484712879235 0 -57.073484712879235 -54.197209815881443 0 0 0 0 17.769475738605252 -44.554120896468476 0 -44.554120896468476 -29.815406243355994 0 0 0 0 28.923890027755988 -24.554933249014198 0 -24.554933249014198 -24.779390400257853 0 0 0 0 14.068224425820517 -41.432018088548034 0 -41.432018088548034 -9.7731176034417331 0 0 0 0 -0.98299341052188538 -53.731432582206025 0 -53.731432582206025 -12.495222292604012 0 0 0 0 23.281349914974271 -53.597772944315807 0 -53.597772944315807 -25.308054772502601 0 0 0 0 7.567742959203315 -66.935359643096831 0 -66.935359643096831 -4.9464324524328731 0 0 0 0 16.448910081744543 -67.847540250042584 0 -67.847540250042584 -25.006605761068915 0 0 0 0 -1.2991197970695794 -62.500101261471627 0 -62.500101261471627 -2.9882070828633687 0 0 0 0 5.9544426720094634 -59.570693566122372 0 -59.570693566122372 -7.6936897259352008 0 0 0 0 -5.4709372596262256 -55.086741180703939 0 -55.086741180703939 -5.7101566544580464 0 0 0 0 -13.128316278343846 -50.315442871986676 0 -50.315442871986676 25.828715852047253 0 0 0 0 8.5778599526383914 -73.655017345286126 0 -73.655017345286126 7.1994367145622391 0 0 0 0 11.734146338363644 -69.068059318151654 0 -69.068059318151654 -2.4830375369035664 0 0 0 0 29.471928358492733 -94.489210136935299 0 -94.489210136935299 31.154298516145559 0 0 0 0 55.468754546374839 -53.333527302067637 0 -53.333527302067637 5.7138695365059675 0 0 0 0 19.743205589980789 -76.234986309144404 0 -76.234986309144404 -3.7048680139007502 0 0 0 0 70.131911778786161 -3.771365495019154 0 -3.771365495019154 12.327084308789154 0 0 0 0 83.976851297495159 -1.81826473824799 0 -1.81826473824799 4.5699292267627243 0 0 0 0 -46.504896107107925 -36.004465857471814 0 -36.004465857471814 12.633527496439228 0 0 0 0 -74.894836847830447 -19.987713281650315 0 -19.987713281650315 -6.2319308249725509 0 0 0 0 0.99403980278430026 -2.1592534490855257 0 -2.1592534490855257 2.1150139426089392 0 0 0 0 -26.689800001593539 -38.823096259575095 0 -38.823096259575095 -2.3980369796175012 0 0 0 0 -25.073948510726041 -42.187181980618277 0 -42.187181980618277 -0.62547766365355528 0 0 0 0 -10.830003666414996 -59.639002013528568 0 -59.639002013528568 0.9910495073322636 0 0 0 0 -29.383778078685282 -46.624089015167897 0 -46.624089015167897 -0.1007676987017021 0 0 0 0 1.1693709280516487 -47.156081669051673 0 -47.156081669051673 -1.8061972706065035 0 0 0 0 44.841799322533916 -7.184793580015139 0 -7.184793580015139 -21.853591768133469 0 0 0 0 29.155251540691097 -18.808673420425748 0 -18.808673420425748 -24.712628688502491 0 0 0 0 -15.26797035819186 1.5205057984326871 0 1.5205057984326871 21.284607925860655 0 0 0 0 8.5400937955637346 -28.430718299046532 0 -28.430718299046532 7.3002710984519581 0 0 0 0 -14.391195208401768 -42.339487338591653 0 -42.339487338591653 0.9262629617192033 0 0 0 0 59.704053284251131 7.7192796687941154 0 7.7192796687941154 5.8853181589183805 0 0 0 0 92.989081250809249 15.704968437074285 0 15.704968437074285 4.2784647273165319 0 0 0 0 65.266314044776664 11.448206856905699 0 11.448206856905699 8.1457046745513253 0 0 0 0 70.655821923290205 3.9944365854962598 0 3.9944365854962598 2.9518424623402097 0 0 0 0 60.696390372868336 -5.1240280178182047 0 -5.1240280178182047 7.1764915144858605 0 0 0 0 55.301775929889118 -2.2379897947446352 0 -2.2379897947446352 1.7991520747273171 0 0 0 0 59.234505207059556 1.9665388742353116 0 1.9665388742353116 1.9904932159761302 0 0 0 0 60.986851059726177 6.8010560626217966 0 6.8010560626217966 6.082694925578835 0 0 0 0 58.785514597475412 2.1623990999205489 0 2.1623990999205489 3.5462194463261767 0 0 0 0 56.294513877961435 3.6178097573747436 0 3.6178097573747436 4.2465747063947674 0 0 0 0 2.9063038592735335 -0.73515452197139552 0 -0.73515452197139552 0.16752593334595378 0 0 0 0 28.447435562229657 -21.974793235058257 0 -21.974793235058257 -37.403753015937127 0 0 0 0 60.079168950751409 8.8167039277092272 0 8.8167039277092272 6.4480499988776501 0 0 0 0 3.1880206587361997 -2.1196004863030709 0 -2.1196004863030709 4.0617911796211237 0 0 0 0 56.440682029220625 8.0221083974224712 0 8.0221083974224712 10.184429367191115 0 0 0 0 38.953514116714359 8.7363040090535833 0 8.7363040090535833 18.876102479999645 0 0 0 0 17.089539864016459 -4.2189044980686177 0 -4.2189044980686177 6.630183785478466 0 0 0 0 29.857936450593115 -1.8543999105136209 0 -1.8543999105136209 0.85706358668903704 0 0 0 0 17.653160452843274 -1.025545292005404 0 -1.025545292005404 2.4757061102555493 0 0 0 0 39.019288082073217 6.1038913448130074 0 6.1038913448130074 10.846130219130828 0 0 0 0 23.24527597623355 -0.83552503806500056 0 -0.83552503806500056 6.1444406370121545 0 0 0 0 52.356959120559623 2.1799758942324843 0 2.1799758942324843 11.998466914787969 0 0 0 0 30.912145940753106 3.1411915244046824 0 3.1411915244046824 4.6594403913909286 0 0 0 0 37.231838777188514 -10.834661179890141 0 -10.834661179890141 -0.14491246321151774 0 0 0 0 8.4966750244463753 -1.2873593165863966 0 -1.2873593165863966 2.1576697259090407 0 0 0 0 54.224123666215746 2.2150421083811125 0 2.2150421083811125 8.2713294023114941 0 0 0 0 34.55250953320683 3.5664661782342364 0 3.5664661782342364 10.473074959767473 0 0 0 0 24.78171542850032 -1.5288558125571399 0 -1.5288558125571399 18.742611973691055 0 0 0 0 37.553745213532238 10.963186745948406 0 10.963186745948406 11.739763832820245 0 0 0 0 66.78084500308978 -24.535196091152102 0 -24.535196091152102 -35.042144533768806 0 0 0 0 28.589866343054382 -22.313997220110195 0 -22.313997220110195 -20.662310064812118 0 0 0 0 40.093584850542165 4.9342060730867416 0 4.9342060730867416 0.24771614085789828 0 0 0 0 52.108936635655482 -12.80342942959669 0 -12.80342942959669 -42.824342804428397 0 0 0 0 11.552096056418058 -1.2415764514304719 0 -1.2415764514304719 -0.67898259876835354 0 0 0 0 37.212573587432416 7.5800403210218974 0 7.5800403210218974 0.69945871898198675 0 0 0 0 60.426578888882432 8.8919372992591548 0 8.8919372992591548 6.4543716077932913 0 0 0 0 27.184978700097417 -16.115236528549758 0 -16.115236528549758 14.506491688793176 0 0 0 0 40.615214954748808 -1.6053652119671824 0 -1.6053652119671824 -6.3852636930823792 0 0 0 0 34.668732453596022 3.5663516326619629 0 3.5663516326619629 7.7754861337052716 0 0 0 0 27.019809629588785 -3.430600883192362 0 -3.430600883192362 3.1336436800200289 0 0 0 0 36.409718177805189 1.1129375243590403 0 1.1129375243590403 6.0981947823956943 0 0 0 0 24.290012002027623 -3.9478617404942575 0 -3.9478617404942575 0.41839553545862529 0 0 0 0 33.212478191853734 -19.701670527465467 0 -19.701670527465467 5.4137263205593626 0 0 0 0 28.967748090908927 -1.481305321276718 0 -1.481305321276718 -0.29340271230204173 0 0 0 0 36.057767987564148 -10.932004487596913 0 -10.932004487596913 13.137411118940008 0 0 0 0 24.317369481774222 -9.2780049705593228 0 -9.2780049705593228 13.82540720638417 0 0 0 0 38.442010319409377 -0.67634224339993665 0 -0.67634224339993665 -10.032914314158102 0 0 0 0 18.078644914043252 -4.4302621667193307 0 -4.4302621667193307 -13.740775957796359 0 0 0 0 27.02809377050243 0.37052283946387021 0 0.37052283946387021 -2.4964835172118267 0 0 0 0 27.116843221694012 -4.1357007924589162 0 -4.1357007924589162 8.6811412228231397 0 0 0 0 35.091785555297974 -4.149021013694437 0 -4.149021013694437 -6.5598503117143991 0 0 0 0 35.757270787355367 -2.8057242609021671 0 -2.8057242609021671 0.54340069233953692 0 0 0 0 24.618954898876837 -6.4420033807182335 0 -6.4420033807182335 -1.9839875658144592 0 0 0 0 28.701260480651399 -3.7221512223586615 0 -3.7221512223586615 1.7348537457528437 0 0 0 0 23.373944218677934 -10.132093924014043 0 -10.132093924014043 -5.213827153085731 0 0 0 0 19.697909336430115 -3.0940534830325959 0 -3.0940534830325959 5.8195610447886317 0 0 0 0 2.7191311022719447 -3.7617063140121587 0 -3.7617063140121587 0.61849049973701842 0 0 0 0 56.309539295520835 -5.1256490958845617 0 -5.1256490958845617 0.91511143716208387 0 0 0 0 29.531568629550748 -5.7276503236480494 0 -5.7276503236480494 -1.551135537760274 0 0 0 0 39.905400500247197 7.3565647366831399 0 7.3565647366831399 12.812714846604649 0 0 0 0 25.963090532983188 -7.2119137459394551 0 -7.2119137459394551 16.100689620131106 0 0 0 0 19.628313753322047 -3.3743774415337668 0 -3.3743774415337668 3.3251259302724434 0 0 0 0 20.771924510392779 -0.75982552557338678 0 -0.75982552557338678 -0.78575503518481682 0 0 0 0 20.096496484422005 -8.5549949248955102 0 -8.5549949248955102 16.459185275271921 0 0 0 0 5.8975735826534219 -33.256510826931844 0 -33.256510826931844 19.922519665692448 0 0 0 0 -2.3285547523355916 0.082636812069445398 0 0.082636812069445398 4.6943072368599204 0 0 0 0 67.291845478990581 18.070734877655923 0 18.070734877655923 4.5799790212886364 0 0 0 0 17.694410211571828 -11.436220180903565 0 -11.436220180903565 9.5109788917015479 0 0 0 0 31.88065658632604 -11.705954059844998 0 -11.705954059844998 -8.32393469100316 0 0 0 0 96.237053775466848 -9.4108292427845299 0 -9.4108292427845299 -6.2123658011314546 0 0 0 0 51.926524038615753 -6.9644983074867923 0 -6.9644983074867923 4.3241167804562792 0 0 0 0 48.171794247984508 26.292027783341837 0 26.292027783341837 -13.913279566841084 0 0 0 0 13.96643366362548 -3.4103833773166521 0 -3.4103833773166521 -3.2364910859438325 0 0 0 0 49.682817694505502 -32.635949969038847 0 -32.635949969038847 -6.5570058728044387 0 0 0 0 24.173535634254506 -10.40203300830381 0 -10.40203300830381 6.5883374112733417 0 0 0 0 67.839517679280107 -12.56387087920757 0 -12.56387087920757 -17.968939519922969 0 0 0 0 76.547566659849508 -25.259998056205404 0 -25.259998056205404 -6.501511510085038 0 0 0 0 77.863525156861215 -53.861324570952092 0 -53.861324570952092 23.248608673294257 0 0 0 0 152.30181542911851 -4.3266551211763726 0 -4.3266551211763726 -4.5001363440587738 0 0 0 0 12.644340927105077 -28.05699786893274 0 -28.05699786893274 10.006758412887393 0 0 0 0 16.915773228873149 -7.1896430923920889 0 -7.1896430923920889 22.575866219804084 0 0 0 0 2.9903322428253887 -2.2558725752896862 0 -2.2558725752896862 16.506282865880166 0 0 0 0 18.877038554654064 -22.021239509762381 0 -22.021239509762381 30.663151942215336 0 0 0 0 9.371296425590117 -36.421756087511312 0 -36.421756087511312 40.583867923581238 0 0 0 0 24.071416025406506 -49.330931740839333 0 -49.330931740839333 51.748245805047191 0 0 0 0 90.915262279682793 -35.893948909981191 0 -35.893948909981191 28.296540350270334 0 0 0 0 35.840242271315219 -78.510187245745783 0 -78.510187245745783 92.858644089004883 0 0 0 0 98.778898812444822 -90.569608278467967 0 -90.569608278467967 -4.0754766326517711 0 0 0 0 123.54798622762428 -84.664587234814007 0 -84.664587234814007 95.786156493482849 0 0 0 0 236.51080723477935 3.82678460920215 0 3.82678460920215 26.740007831053845 0 0 0 0 172.65756905045055 57.781614818006346 0 57.781614818006346 60.438424183344978 0 0 0 0 182.10710017475867 67.783534457978021 0 67.783534457978021 70.957453475178227 0 0 0 0 104.80655551114614 54.265588774685511 0 54.265588774685511 88.307450992690065 0 0 0 0 66.558058082528078 -5.0594007423796938 0 -5.0594007423796938 21.632958135090121 0 0 0 0 172.88017067542751 -22.846376409831464 0 -22.846376409831464 15.972712356287957 0 0 0 0 45.52207600267775 -1.2984418333303438 0 -1.2984418333303438 -31.830960409165527 0 0 0 0 130.28241733950017 -9.9019719814068594 0 -9.9019719814068594 -31.258682457357281 0 0 0 0 0.038769836240990507 0.12602565307325975 0 0.12602565307325975 -0.13788911577511342 0 0 0 0 -39.179198790612645 -41.769251253902439 0 -41.769251253902439 4.5283506674422824 0 0 0 0 49.809090361088238 -39.353191305990549 0 -39.353191305990549 -7.5146173327157157 0 0 0 0 22.502937174580438 12.970298249322695 0 12.970298249322695 25.779211727614893 0 0 0 0 64.604967388333534 71.132188138328274 0 71.132188138328274 -39.791472582232473 0 0 0 0 127.2617048136326 56.958592027993291 0 56.958592027993291 -4.9554647764916808 0 0 0 0 18.270016552793095 26.821409394523471 0 26.821409394523471 -10.445367469754956 0 0 0 0 85.967991914862068 2.0188437576725846 0 2.0188437576725846 45.683477379719989 0 0 0 0 111.31248031425639 107.46125707733199 0 107.46125707733199 79.143489340503947 0 0 0 0 -11.856796961423242 -19.27402354215792 0 -19.27402354215792 34.272459130301741 0 0 0 0 26.758189423386284 74.59571538496175 0 74.59571538496175 79.671334367905729 0 0 0 0 1.7397704259079134 1.7898754073278553 0 1.7898754073278553 1.8106835770415435 0 0 0 0 -2.6772304374499072 -2.7171602479556896 0 -2.7171602479556896 41.471685505043297 0 0 0 0 11.878106663843937 -15.149175666162591 0 -15.149175666162591 7.7797243792715562 0 0 0 0 24.098272676277702 3.8578778403289107 0 3.8578778403289107 14.23958398534387 0 0 0 0 31.507726427335001 1.6451834400104417 0 1.6451834400104417 5.1577230936964042 0 0 0 0 31.926124359011737 3.2068932246729673 0 3.2068932246729673 6.154456285521519 0 0 0 0 14.667915075487862 -1.9620426157208115 0 -1.9620426157208115 9.8171376780920383 0 0 0 0 -20.893034650111076 -66.205951146119332 0 -66.205951146119332 -43.645666600163167 0 0 0 0 51.404784373436996 1.1960462441556956 0 1.1960462441556956 -8.5461652201938705 0 0 0 0 30.265621893064235 2.8450589477297399 0 2.8450589477297399 8.5628840303379548 0 0 0 0 34.724797389386637 -4.8077826570290583 0 -4.8077826570290583 1.8715022729267936 0 0 0 0 30.089967437597807 1.3409922931605252 0 1.3409922931605252 8.1787531646523348 0 0 0 0 35.354343716526827 8.7098586967094835 0 8.7098586967094835 -1.6489965921602083 0 0 0 0 33.026613218797138 22.359277412887195 0 22.359277412887195 -22.403471446870753 0 0 0 0 25.11325370198756 10.669213701761691 0 10.669213701761691 -6.755873884151697 0 0 0 0 25.939893100615564 3.7288598263850794 0 3.7288598263850794 0.96578044290690102 0 0 0 0 19.872567240330682 0.16226253540116886 0 0.16226253540116886 9.635171205685765 0 0 0 0 41.816004043899738 5.845275553348074 0 5.845275553348074 -10.050134817312937 0 0 0 0 32.139305683162803 2.392855380581155 0 2.392855380581155 0.43280433340148861 0 0 0 0 30.681645918371643 9.7517768627517576 0 9.7517768627517576 2.1335618948877979 0 0 0 0 25.811590370868977 7.9389462851764208 0 7.9389462851764208 3.4264149745634001 0 0 0 0 31.0069204018655 26.703206356534338 0 26.703206356534338 -31.717877800760107 0 0 0 0 38.430530224184622 12.576465437231491 0 12.576465437231491 -6.4942223689904495 0 0 0 0 28.532605862597848 3.481392858092704 0 3.481392858092704 7.4637746624975989 0 0 0 0 27.358556252329436 7.0470182444478269 0 7.0470182444478269 -3.365010569838887 0 0 0 0 19.188233664484869 6.4508795171204838 0 6.4508795171204838 23.405405115445319 0 0 0 0 26.917024818685604 -1.5031519104459221 0 -1.5031519104459221 7.1131633097004396 0 0 0 0 11.459762009239057 2.5043506792462722 0 2.5043506792462722 22.095635771336674 0 0 0 0 20.232283453879063 -8.6840621700876 0 -8.6840621700876 36.022250936965065 0 0 0 0 15.490470326090872 -1.4785371085640691 0 -1.4785371085640691 54.946736827871064 0 0 0 0 20.347061375239718 -2.5814937500795168 0 -2.5814937500795168 36.192800643468217 0 0 0 0 63.94665919651743 -57.538811718022771 0 -57.538811718022771 -68.271159357469514 0 0 0 0 30.291535640164511 -16.720039516321776 0 -16.720039516321776 29.778445518198168 0 0 0 0 30.091763706288475 -19.333920971906991 0 -19.333920971906991 82.053227395516842 0 0 0 0 30.274310835084179 4.7294901597401804 0 4.7294901597401804 59.125833653447899 0 0 0 0 200.42084904164403 55.770287523156412 0 55.770287523156412 46.523680877006882 0 0 0 0 47.395192747469991 74.156968953577689 0 74.156968953577689 226.58559529928755 0 0 0 0 124.44181315841706 -63.774775207271887 0 -63.774775207271887 56.557486134461669 0 0 0 0 251.65053074338357 111.52204797967397 0 111.52204797967397 -63.554177414885999 0 0 0 0 8.1170523808686994 -130.78585354535244 0 -130.78585354535244 188.70165766689729 0 0 0 0 13.599733706216476 -1.9512904765199792 0 -1.9512904765199792 -1.225741230007138 0 0 0 0 54.970026096783087 11.855636606685348 0 11.855636606685348 0.033939876631383648 0 0 0 0 92.771191302781517 -2.7857270455087928 0 -2.7857270455087928 -74.879683355442467 0 0 0 0 75.737720976670971 -12.557112587841402 0 -12.557112587841402 -52.496466645889086 0 0 0 0 102.02001176676731 28.409985438995136 0 28.409985438995136 -98.119569757031059 0 0 0 0 44.746627884771442 55.280390544755846 0 55.280390544755846 40.808043946617545 0 0 0 0 48.444224739390314 7.6484859782214265 0 7.6484859782214265 0.4302192398087481 0 0 0 0 34.93648791900705 25.747485359484926 0 25.747485359484926 -20.24172973383611 0 0 0 0 38.185025721279089 73.583414154277307 0 73.583414154277307 154.04945207363653 0 0 0 0 0.22329127789072345 2.7287620985775014 0 2.7287620985775014 2.1020475208953524 0 0 0 0 10.266075824511063 9.634002700080373 0 9.634002700080373 20.453086402078952 0 0 0 0 5.9893187102461525 -28.182998526189067 0 -28.182998526189067 49.658277004067941 0 0 0 0 9.0869296453565767 -41.509947654054258 0 -41.509947654054258 2.6064719069862576 0 0 0 0 93.596346714683023 6.5853017997046663 0 6.5853017997046663 -16.810262176945344 0 0 0 0 70.62617748692719 -1.736155133619377 0 -1.736155133619377 22.455625350214177 0 0 0 0 33.447525778265032 -11.859705873977717 0 -11.859705873977717 -1.4464751330365537 0 0 0 0 41.441644532995269 -37.666828742208622 0 -37.666828742208622 -32.481695346666072 0 0 0 0 50.96588423600042 1.6201347032385911 0 1.6201347032385911 7.3683509940722161 0 0 0 0 43.774961718480881 -13.745311720834479 0 -13.745311720834479 6.0522361420207744 0 0 0 0 39.57921508513391 -6.7683665075406907 0 -6.7683665075406907 10.850040344319495 0 0 0 0 31.965432875156694 -11.154312530197615 0 -11.154312530197615 15.342684362920636 0 0 0 0 26.758884525872418 -2.2816530364597156 0 -2.2816530364597156 15.892777053702048 0 0 0 0 70.262067106922643 -14.430597968336031 0 -14.430597968336031 7.057935425929827 0 0 0 0 30.640100904218258 -9.1196472041554628 0 -9.1196472041554628 -3.5468173799271376 0 0 0 0 21.249876483943808 -3.2632688844665267 0 -3.2632688844665267 17.827673235860402 0 0 0 0 43.160024045057071 -2.0827207611414451 0 -2.0827207611414451 -11.796424343839362 0 0 0 0 32.358601910000303 -10.281771812130067 0 -10.281771812130067 -2.5836813388867368 0 0 0 0 28.98684124238298 -0.75985386407781164 0 -0.75985386407781164 18.327494393324969 0 0 0 0 44.897804420092598 6.5174745076827492 0 6.5174745076827492 6.6708485752451452 0 0 0 0 31.698345980761587 6.4822238220569943 0 6.4822238220569943 13.881996525699833 0 0 0 0 49.087396104841901 11.276336191654536 0 11.276336191654536 6.8956549293775424 0 0 0 0 54.165890951318488 15.675612096212262 0 15.675612096212262 2.0037118538784853 0 0 0 0 76.69381933502882 42.230017446639067 0 42.230017446639067 33.332502676174045 0 0 0 0 30.801419844505745 22.518040906657092 0 22.518040906657092 76.20977329483776 0 0 0 0 36.510360062136897 18.02124169435865 0 18.02124169435865 39.064106083253137 0 0 0 0 31.46037123770202 13.848320477907379 0 13.848320477907379 36.532778158291876 0 0 0 0 29.434811047205585 1.2009132429584497 0 1.2009132429584497 33.05598083761771 0 0 0 0 28.370900795900525 -4.1772676248870084 0 -4.1772676248870084 11.890884575129803 0 0 0 0 20.57026639522519 1.8557270632607015 0 1.8557270632607015 13.14832883647432 0 0 0 0 36.410151718380803 3.9925740194555601 0 3.9925740194555601 5.789095617458031 0 0 0 0 36.318830548912956 5.8178606410011753 0 5.8178606410011753 12.921004850389068 0 0 0 0 30.435721283782186 5.0147467108849924 0 5.0147467108849924 9.363411581402886 0 0 0 0 -0.46721469778685965 0.94802321515511778 0 0.94802321515511778 8.4872787700648225 0 0 0 0 39.039746780617861 4.0666740648192672 0 4.0666740648192672 5.6587228777189011 0 0 0 0 38.729830335240877 2.425918833608371 0 2.425918833608371 9.1911566055727576 0 0 0 0 165.46308206645699 33.345699548873199 0 33.345699548873199 -9.2827363821468225 0 0 0 0 158.54158830548477 20.236404907148653 0 20.236404907148653 4.8098288584344573 0 0 0 0 198.45590370648506 14.7307484821076 0 14.7307484821076 -7.1525276525303525 0 0 0 0 177.71158182028103 40.317612849204863 0 40.317612849204863 -11.402664463660585 0 0 0 0 189.09944147791612 5.1396171143292122 0 5.1396171143292122 8.798126848343145 0 0 0 0 259.07126913470347 -4.9556070943458508 0 -4.9556070943458508 -12.389139637467224 0 0 0 0 0.34202358896988727 -0.060861096809716742 0 -0.060861096809716742 5.3727274180533975 0 0 0 0 212.49202398858688 19.846636902703949 0 19.846636902703949 -14.976351886403336 0 0 0 0 203.7180606978327 16.143751615426481 0 16.143751615426481 -4.0874283600796844 0 0 0 0 191.76431456017599 87.337317228828397 0 87.337317228828397 23.284232667770084 0 0 0 0 347.48308835719217 3.004054710411765 0 3.004054710411765 -15.04345648943945 0 0 0 0 440.2498640543381 63.570994369172922 0 63.570994369172922 25.391152953664459 0 0 0 0 903.44384139103931 -112.65089861489832 0 -112.65089861489832 84.575136179230867 0 0 0 0 354.41118282812386 -0.81355130351494154 0 -0.81355130351494154 64.608409690281405 0 0 0 0 609.27314637391828 253.1654965923658 0 253.1654965923658 174.69284878200233 0 0 0 0 426.87913415770163 -143.8648364865212 0 -143.8648364865212 178.78622001761869 0 0 0 0 0.11639502385540723 -0.76303527582449249 0 -0.76303527582449249 2.0188049167802191 0 0 0 0 250.70943889880436 -2.2955061858331192 0 -2.2955061858331192 65.891512620308731 0 0 0 0 46.78864465404331 -21.2258206766287 0 -21.2258206766287 10.5950273435447 0 0 0 0 18.338105418701161 -30.456144821604084 0 -30.456144821604084 60.943619742407463 0 0 0 0 83.95023779062376 -61.684937861580124 0 -61.684937861580124 48.346500983196165 0 0 0 0 15.444655890780268 -11.461845199797608 0 -11.461845199797608 37.370217986344869 0 0 0 0 16.709500036806276 -7.9993783233230715 0 -7.9993783233230715 30.773056825089952 0 0 0 0 -6.8965001655888045 17.37681249185971 0 17.37681249185971 29.352585426290716 0 0 0 0 9.1337768250004956 -6.663532472916927 0 -6.663532472916927 46.205338494877651 0 0 0 0 14.121857417900173 18.620549643404047 0 18.620549643404047 -5.8208672496366489 0 0 0 0 -5.023537545799627 4.0461585226707939 0 4.0461585226707939 56.78400805563615 0 0 0 0 5.1553750138773466 -62.974153975914305 0 -62.974153975914305 146.71059301600326 0 0 0 0 -9.7523378253463306 -3.1150601737381294 0 -3.1150601737381294 46.70915593580321 0 0 0 0 -28.759261731393053 70.119335337780285 0 70.119335337780285 156.71740720917967 0 0 0 0 -17.254099798868992 -2.7202355667996017 0 -2.7202355667996017 -1.7291454084261204 0 0 0 0 119.10213991881756 -13.477727409182535 0 -13.477727409182535 -241.96892820041467 0 0 0 0 231.51526006302447 35.215887060567184 0 35.215887060567184 -341.24497941438858 0 0 0 0 -1.4467540294285328 0.16264186602688779 0 0.16264186602688779 0.037358299269810047 0 0 0 0 -53.970380562910577 132.24699385681743 0 132.24699385681743 302.30826497201269 0 0 0 0 -70.821638800451183 -0.199941348620996 0 -0.199941348620996 -1.8146648081842613 0 0 0 0 -21.44696737549657 53.361468565157224 0 53.361468565157224 -4.3767242945123144 0 0 0 0 -63.259716064305394 54.151179580816233 0 54.151179580816233 -4.3912843293364858 0 0 0 0 -111.12757702846284 410.8742618450392 0 410.8742618450392 -500.42642388986133 0 0 0 0 -26.356531255867594 -345.8627454307271 0 -345.8627454307271 1.5314321610749175 0 0 0 0 0.14911834836247806 9.0833563476305361 0 9.0833563476305361 -2.2325656667340503 0 0 0 0 -30.353300152841257 198.67030144025193 0 198.67030144025193 16.413166198702584 0 0 0 0 16.546728030763916 34.817036295038633 0 34.817036295038633 -64.035872927399396 0 0 0 0 24.064696825240389 8.712865315171257 0 8.712865315171257 -10.296715406673684 0 0 0 0 59.852814504005451 -5.321492822474589 0 -5.321492822474589 0.80618510320570813 0 0 0 0 60.406125899905788 -2.0952555888727105 0 -2.0952555888727105 -1.4448498242651695 0 0 0 0 95.593756377575119 -138.72838972980935 0 -138.72838972980935 -179.0215358366454 0 0 0 0 57.195224673634584 -0.30349626096995053 0 -0.30349626096995053 -18.005079493143057 0 0 0 0 62.214177929285597 -36.436516409207798 0 -36.436516409207798 -37.855714983778853 0 0 0 0 81.985659640617087 166.84560125583357 0 166.84560125583357 -497.35110986632844 0 0 0 0 10.363479457540379 17.588365411766162 0 17.588365411766162 -8.6529837650260575 0 0 0 0 534.57925322901201 81.475500031318916 0 81.475500031318916 -409.06599400731329 0 0 0 0 294.83217250528105 417.89530355234274 0 417.89530355234274 -359.0563370440259 0 0 0 0 121.42756870188227 12.433527571109401 0 12.433527571109401 -3.7916968660691222 0 0 0 0 162.65372902459046 203.58629266081743 0 203.58629266081743 -208.27457437374233 0 0 0 0 414.55745786651914 -368.34941790148491 0 -368.34941790148491 -70.999065834661451 0 0 0 0 -0.77976295896223746 -69.614201343688364 0 -69.614201343688364 340.68489124810549 0 0 0 0 4.7239539921574192 -2.498975714825832 0 -2.498975714825832 1.7458076458075613 0 0 0 0 130.69831833060925 514.64003209101543 0 514.64003209101543 45.510439731526276 0 0 0 0 -9.5329017485637451 -17.055713748453854 0 -17.055713748453854 237.80391954310699 0 0 0 0 423.0304345691693 -349.27951436000785 0 -349.27951436000785 412.5614171806028 0 0 0 0 198.67398274134757 155.62653113963643 0 155.62653113963643 -124.46599279202746 0 0 0 0 135.01774546108209 360.07733420038676 0 360.07733420038676 -94.587625369340458 0 0 0 0 120.62994724771124 316.53729815927636 0 316.53729815927636 379.36682181823073 0 0 0 0 172.91542366601993 -58.404111097637724 0 -58.404111097637724 -153.33205080983407 0 0 0 0 528.44525228396287 81.129052875357502 0 81.129052875357502 -99.067258251014209 0 0 0 0 440.2409494915903 -50.613678025043555 0 -50.613678025043555 -149.51701420965401 0 0 0 0 410.85127286252157 -96.404182400584432 0 -96.404182400584432 18.716302033690226 0 0 0 0 188.13973451898119 126.96286018802675 0 126.96286018802675 113.34619056779957 0 0 0 0 167.69392220491511 76.146428483769569 0 76.146428483769569 -4.4944791669149708 0 0 0 0 25.701617910893219 150.62663783781454 0 150.62663783781454 176.21051116015951 0 0 0 0 213.88400088094815 144.09574664905858 0 144.09574664905858 -47.81794322656242 0 0 0 0 327.23926855169401 -113.78293049301556 0 -113.78293049301556 -550.27341695485666 0 0 0 0 2.1059206551714169 -2.6942790623856183 0 -2.6942790623856183 0.53336939429721575 0 0 0 0 -320.49257347040475 216.64083531564893 0 216.64083531564893 484.32222437073506 0 0 0 0 -78.317651445278443 -45.171914105810174 0 -45.171914105810174 -155.03382194260666 0 0 0 0 431.63716121743619 69.219368298119662 0 69.219368298119662 -365.60873526206706 0 0 0 0 409.27582968258764 17.636171101418313 0 17.636171101418313 -132.96121939412842 0 0 0 0 331.5013997294227 20.488141834630369 0 20.488141834630369 -36.756905646076689 0 0 0 0 -2.1817382836534307 -81.314542111399533 0 -81.314542111399533 -32.859472998033198 0 0 0 0 120.86880885641364 -129.84380865265962 0 -129.84380865265962 -13.809770657211629 0 0 0 0 -64.226447799244397 -128.52688038053475 0 -128.52688038053475 124.54935105133518 0 0 0 0 348.90642283041552 -169.01239379802155 0 -169.01239379802155 47.534538563788828 0 0 0 0 109.25699749216604 -61.768125904413751 0 -61.768125904413751 14.129191353264105 0 0 0 0 77.80704951464736 -135.75036477692811 0 -135.75036477692811 327.81857434413087 0 0 0 0 295.99804188427538 -54.768979252457029 0 -54.768979252457029 82.919074194558107 0 0 0 0 18.825418813751412 -0.25385885290643273 0 -0.25385885290643273 52.297197929327012 0 0 0 0 -34.89634492417963 121.21019717349964 0 121.21019717349964 293.5328886491925 0 0 0 0 -67.396777611328616 53.374327908017676 0 53.374327908017676 216.63511599177309 0 0 0 0 216.87444113945844 64.433726693092922 0 64.433726693092922 164.18262234083909 0 0 0 0 226.36175289988807 -59.157525421601861 0 -59.157525421601861 452.50724801684009 0 0 0 0 424.68825009152124 -122.80964467845706 0 -122.80964467845706 345.56890758051168 0 0 0 0 523.67649958402399 101.87892155300051 0 101.87892155300051 220.39951000732117 0 0 0 0 616.14468740706525 -259.86562013506773 0 -259.86562013506773 242.79849373833031 0 0 0 0 682.0029251390248 -90.050071763050028 0 -90.050071763050028 280.27110168842228 0 0 0 0 1013.3874729917497 -555.22797598747252 0 -555.22797598747252 386.19546339563749 0 0 0 0 1178.7579464996661 -269.11690492138678 0 -269.11690492138678 331.555191262893 0 0 0 0 815.08031139429204 -457.57761663442352 0 -457.57761663442352 563.27093553966552 0 0 0 0 378.31816832082626 -243.07209283105271 0 -243.07209283105271 512.91536631260806 0 0 0 0 651.08575595104298 176.44718662244031 0 176.44718662244031 497.4472097157095 0 0 0 0 5.2735427807289916 2.3491708664338393 0 2.3491708664338393 -2.8357332320170023 0 0 0 0 674.66162908332342 296.47138625364164 0 296.47138625364164 160.25102827981391 0 0 0 0 797.30796280562208 -151.82403992423588 0 -151.82403992423588 4.0623132295951336 0 0 0 0 79.1184353592908 24.200163997983395 0 24.200163997983395 159.08653194672115 0 0 0 0 1.2707654184467527 7.3541127712569789 0 7.3541127712569789 -10.222304000434958 0 0 0 0 4.8750086770505732 189.50241157810615 0 189.50241157810615 423.45943972431542 0 0 0 0 15.231446326668745 2.4280983942347545 0 2.4280983942347545 -4.6701231021530987 0 0 0 0 320.71329337022485 -326.56145690171832 0 -326.56145690171832 400.07104058982259 0 0 0 0 302.32561617647934 -365.63662914497502 0 -365.63662914497502 365.31475145153399 0 0 0 0 384.16121723656852 -606.75486623411098 0 -606.75486623411098 768.17493823220229 0 0 0 0 835.06513514613107 -652.05051522189024 0 -652.05051522189024 402.42998931736292 0 0 0 0 2.5392377142351101 0.39013875930698916 0 0.39013875930698916 -2.2079283603194444 0 0 0 0 597.03468624981542 -205.00192342265836 0 -205.00192342265836 301.5186113162963 0 0 0 0 233.83440314187487 -293.13460798301031 0 -293.13460798301031 370.9113766206674 0 0 0 0 422.05425470236378 -334.03471226610577 0 -334.03471226610577 277.13124533338851 0 0 0 0 291.9791963807138 -180.67948087932234 0 -180.67948087932234 116.40401540614744 0 0 0 0 341.59902186201276 -126.58231198885835 0 -126.58231198885835 183.83508011796584 0 0 0 0 267.37521436213865 -63.731911335167126 0 -63.731911335167126 -1.1891840521864196 0 0 0 0 315.62617668041275 -171.62880634398084 0 -171.62880634398084 125.90519212752179 0 0 0 0 306.56931727924388 74.419652990694701 0 74.419652990694701 83.665009024738538 0 0 0 0 191.73209012988417 37.06029800182813 0 37.06029800182813 -134.92132138479371 0 0 0 0 151.33473771876481 -107.94312357590722 0 -107.94312357590722 -18.001778279001542 0 0 0 0 234.6411873123152 -73.433127349718461 0 -73.433127349718461 -185.92402742479658 0 0 0 0 263.02635763668241 -127.69247061406236 0 -127.69247061406236 -179.50224963422397 0 0 0 0 272.59583880822538 -224.11930297399218 0 -224.11930297399218 62.205465159906794 0 0 0 0 167.51457696395391 -112.89828180427617 0 -112.89828180427617 22.26417733127704 0 0 0 0 143.1146945887794 -125.84637119412669 0 -125.84637119412669 -163.21197166964384 0 0 0 0 -186.92703050958968 -515.95755000630402 0 -515.95755000630402 378.99211089594428 0 0 0 0 158.83705606217461 32.620351584833543 0 32.620351584833543 -391.12140488143086 0 0 0 0 -134.08001169852142 618.03615323070255 0 618.03615323070255 200.48812650161562 0 0 0 0 -43.748159220603767 -86.194129816863168 0 -86.194129816863168 -184.63742083262605 0 0 0 0 4.350526961855957 -1.4981286890467018 0 -1.4981286890467018 0.040662100848963378 0 0 0 0 127.96337411294553 -96.828568812892627 0 -96.828568812892627 -189.58709154733936 0 0 0 0 229.78860120628246 -68.511124530927191 0 -68.511124530927191 -544.16496278593377 0 0 0 0 156.53918442525614 -127.53854181182237 0 -127.53854181182237 -457.59624837098681 0 0 0 0 22.544550531103596 26.918099524281388 0 26.918099524281388 181.74105382330208 0 0 0 0 18.561198879837942 -2.9463828949265061 0 -2.9463828949265061 -0.43274997582244179 0 0 0 0 121.10266579890413 342.20284109432669 0 342.20284109432669 140.15128931201798 0 0 0 0 91.205978684794445 -131.90578159991628 0 -131.90578159991628 -208.35226959842794 0 0 0 0 143.3835867759044 40.216611978425135 0 40.216611978425135 -334.94102349849072 0 0 0 0 35.103405195521191 -138.23513375074799 0 -138.23513375074799 -58.308077239159502 0 0 0 0 467.99431418419408 334.08847025444265 0 334.08847025444265 -252.73671920609922 0 0 0 0 81.736448349496641 395.69254703362094 0 395.69254703362094 -230.21692034785883 0 0 0 0 123.14365204202954 -166.79124881596914 0 -166.79124881596914 -279.00041518721628 0 0 0 0 6.9028466499735259 -11.171324362230076 0 -11.171324362230076 -8.3969171180788642 0 0 0 0 72.996615013296832 189.93406430086179 0 189.93406430086179 -899.29977197696098 0 0 0 0 -120.98758145318698 -192.40563995248795 0 -192.40563995248795 1.3423642139550793 0 0 0 0 93.418108588086398 -486.00576995734764 0 -486.00576995734764 199.07197308622744 0 0 0 0 675.04569124218324 -155.79528987796584 0 -155.79528987796584 -282.22151350020886 0 0 0 0 51.97621400856292 9.7657817449021422 0 9.7657817449021422 -80.174041308442611 0 0 0 0 12.850821761869554 96.160464955245345 0 96.160464955245345 64.505592704471383 0 0 0 0 81.093516650656966 -6.4229710272232978 0 -6.4229710272232978 -442.22680335109396 0 0 0 0 10.331903267302522 117.24397427771389 0 117.24397427771389 -214.85633956240397 0 0 0 0 13.430323366226467 -0.33900153288199419 0 -0.33900153288199419 -0.41214403446092618 0 0 0 0 -21.390295919436994 11.575396808464461 0 11.575396808464461 -130.57489222938068 0 0 0 0 47.66242692824062 125.36117211259102 0 125.36117211259102 -83.388131257248631 0 0 0 0 11.507420204793558 -8.6200636856779198 0 -8.6200636856779198 -90.202628127648723 0 0 0 0 110.99605415926681 125.01147124888371 0 125.01147124888371 25.485975648973636 0 0 0 0 84.495714207148467 -35.326159061981116 0 -35.326159061981116 29.84453801544305 0 0 0 0 1.266128376868437 50.536353595673745 0 50.536353595673745 128.46709241626058 0 0 0 0 188.54597699510921 150.42238603278486 0 150.42238603278486 181.44242857903555 0 0 0 0 185.30720988241666 4.3731735995854706 0 4.3731735995854706 209.53849735696349 0 0 0 0 -10.630884102477012 106.25384487133552 0 106.25384487133552 203.95216557503227 0 0 0 0 44.384337878901533 127.86342210420233 0 127.86342210420233 81.600462260996864 0 0 0 0 7.9471368903941766 -43.221798305158245 0 -43.221798305158245 253.90035947822753 0 0 0 0 -5.1568852047457767 25.455215131690011 0 25.455215131690011 95.157441533448491 0 0 0 0 61.939866037212596 38.679165954620089 0 38.679165954620089 -66.303487570908146 0 0 0 0 46.354547345330047 14.295247819942517 0 14.295247819942517 48.837990696486145 0 0 0 0 21.354984664963297 -0.021183074894729259 0 -0.021183074894729259 -0.21308093830663966 0 0 0 0 73.750941879309266 38.376271531235489 0 38.376271531235489 -258.25415057757618 0 0 0 0 10.778930873319041 51.207735000064531 0 51.207735000064531 -68.545893462988658 0 0 0 0 30.598041508590541 44.687925027116989 0 44.687925027116989 -121.57683398386098 0 0 0 0 56.345227927133237 -6.0747979891363002 0 -6.0747979891363002 -15.835603344641299 0 0 0 0 31.714456277555428 -8.4476778387274862 0 -8.4476778387274862 -23.927834073801478 0 0 0 0 31.518982051437547 -1.9044225922624687 0 -1.9044225922624687 -8.5035429985634465 0 0 0 0 28.267862887973514 0.13032423523883718 0 0.13032423523883718 -2.9958980856589199 0 0 0 0 29.220335033477568 11.421643956151456 0 11.421643956151456 -16.042953161022979 0 0 0 0 50.215986017178238 7.5704616220818934 0 7.5704616220818934 -21.816800133311517 0 0 0 0 38.760820035017097 0.047405584604691686 0 0.047405584604691686 -5.5763376639894853 0 0 0 0 26.11613546126182 8.9907728139829715 0 8.9907728139829715 -24.21178266796187 0 0 0 0 49.883965717064711 -23.289899268409272 0 -23.289899268409272 18.203873011360912 0 0 0 0 88.947075467760442 -68.055583374667549 0 -68.055583374667549 -9.583629694206877 0 0 0 0 35.854630439177683 8.4887156326687947 0 8.4887156326687947 -3.3241445680066906 0 0 0 0 39.28164882706551 -2.1310826354267931 0 -2.1310826354267931 -9.2773309607105148 0 0 0 0 35.107656015761307 -8.7423885122686116 0 -8.7423885122686116 -4.3025147969103497 0 0 0 0 48.765123215716812 -3.419745641839711 0 -3.419745641839711 -14.872463550309931 0 0 0 0 50.884241912877769 -6.1878040313567908 0 -6.1878040313567908 -15.391858912912426 0 0 0 0 31.652856435655352 -0.38072098584123948 0 -0.38072098584123948 -2.7138283768805223 0 0 0 0 31.785612667328678 7.6086700658563018 0 7.6086700658563018 17.557793862598373 0 0 0 0 7.9858333152981587 -4.1439121117352151 0 -4.1439121117352151 0.9769558325474077 0 0 0 0 101.90430228934997 49.036640321762277 0 49.036640321762277 -33.481976636857098 0 0 0 0 31.080692788709712 -35.042658947088512 0 -35.042658947088512 35.912535006901635 0 0 0 0 32.646226637658629 0.17375372602418793 0 0.17375372602418793 -31.118787159526619 0 0 0 0 15.952014198932842 -14.428591276272419 0 -14.428591276272419 -1.245038805163226 0 0 0 0 40.303603286785382 -15.073178509891218 0 -15.073178509891218 -9.1398195097069017 0 0 0 0 23.621487626965063 3.4670906414997944 0 3.4670906414997944 -15.131246312291069 0 0 0 0 33.013483151604596 2.9218670695156295 0 2.9218670695156295 -4.4573697562922678 0 0 0 0 33.648957611845198 -1.9841091377763842 0 -1.9841091377763842 -3.64097833450632 0 0 0 0 9.4211336078027585 -0.77125608642357335 0 -0.77125608642357335 -2.4302538145278456 0 0 0 0 -5.5268148258132896 67.655418420852158 0 67.655418420852158 -65.936595938632991 0 0 0 0 94.529408898333713 -39.266869081187906 0 -39.266869081187906 -21.895493594725281 0 0 0 0 92.163986095312794 1.2532921116388707 0 1.2532921116388707 -36.759009620646339 0 0 0 0 78.413068822243304 10.716855378725995 0 10.716855378725995 28.208647215048988 0 0 0 0 182.67716904700865 -89.615871592875337 0 -89.615871592875337 -1.8915919456341932 0 0 0 0 -116.3074934915403 96.797759286966766 0 96.797759286966766 -17.357014780624468 0 0 0 0 1.1545667844150351 1.1870017655528997 0 1.1870017655528997 -1.8382174179029143 0 0 0 0 19.540050573032204 91.046329191610852 0 91.046329191610852 -5.7738554258298791 0 0 0 0 2.2136864313615661 53.912200464909006 0 53.912200464909006 -66.624603566054887 0 0 0 0 2.1358939834572084 -4.8533840397831227 0 -4.8533840397831227 43.666535374975865 0 0 0 0 37.142165953344374 -25.55404776709031 0 -25.55404776709031 9.5974543060389124 0 0 0 0 -7.7844573348970698 71.698419734879323 0 71.698419734879323 -50.294695214286094 0 0 0 0 36.749529186237851 -29.927199663727606 0 -29.927199663727606 44.378502017101709 0 0 0 0 13.297837116740993 -6.9061794282088158 0 -6.9061794282088158 35.235050333253184 0 0 0 0 74.088629432901143 -44.93051702636285 0 -44.93051702636285 50.095633787448605 0 0 0 0 52.288565902646951 -42.170557378649391 0 -42.170557378649391 50.698613759605905 0 0 0 0 30.60440167878005 -64.779216587858627 0 -64.779216587858627 78.041364697027348 0 0 0 0 49.595827810495393 -63.43717833616347 0 -63.43717833616347 66.820555608235736 0 0 0 0 24.416403539023577 -80.652809675880576 0 -80.652809675880576 120.87666768289046 0 0 0 0 -7.317611767553899 -37.031738114833615 0 -37.031738114833615 68.173132447031094 0 0 0 0 90.217156016524768 -62.162784312264648 0 -62.162784312264648 52.599420843369899 0 0 0 0 0.66022376492733503 1.4582497564232337 0 1.4582497564232337 0.92727613060227121 0 0 0 0 -261.2418205119202 201.11239965010896 0 201.11239965010896 158.88804648104451 0 0 0 0 181.7567136697071 -165.52999825748543 0 -165.52999825748543 150.2724818964416 0 0 0 0 -285.85519494312007 -9.0790838628040547 0 -9.0790838628040547 99.100728299974435 0 0 0 0 -0.53630477884758587 0.81801040211132126 0 0.81801040211132126 2.8413043981201014 0 0 0 0 -78.170197978723081 -103.62154525803635 0 -103.62154525803635 12.395343368430986 0 0 0 0 57.961934704507257 -47.767210191539561 0 -47.767210191539561 41.124252518085086 0 0 0 0 44.86106972422931 -46.235271099302281 0 -46.235271099302281 47.667869312058883 0 0 0 0 47.246591046801768 -30.578551779733516 0 -30.578551779733516 17.525942185377062 0 0 0 0 -77.828658366091531 -37.079348028990353 0 -37.079348028990353 -4.6047463288505242 0 0 0 0 -53.748674052325441 -73.510376717909821 0 -73.510376717909821 22.240381525130033 0 0 0 0 -2.8424067002111997 -84.928205320304301 0 -84.928205320304301 -28.262233790585015 0 0 0 0 -72.247855573303013 -46.285741020320529 0 -46.285741020320529 -8.1367100321367616 0 0 0 0 5.6976526840544945 -1.0262079370970643 0 -1.0262079370970643 2.4560292126825054 0 0 0 0 21.464334507287276 -2.9064293785384052 0 -2.9064293785384052 20.633223069507949 0 0 0 0 33.523159422651588 -8.2257370282209195 0 -8.2257370282209195 3.9563141137784896 0 0 0 0 15.870603431780516 -5.2721149002936096 0 -5.2721149002936096 3.0287912696167894 0 0 0 0 31.025454914647526 -63.696074049582421 0 -63.696074049582421 137.85233221716771 0 0 0 0 5.4346037921940109 -2.3258049056229453 0 -2.3258049056229453 0.89835809018861035 0 0 0 0 4.5975288037388964 -4.5410539661072562 0 -4.5410539661072562 56.817758569953185 0 0 0 0 182.16667736877935 -96.278969029801374 0 -96.278969029801374 48.689417889278502 0 0 0 0 96.369304346317222 -56.136434877089414 0 -56.136434877089414 34.093428663834402 0 0 0 0 26.379224004622301 -42.538175743384272 0 -42.538175743384272 55.900946490305159 0 0 0 0 37.599545193965241 -61.094845609011827 0 -61.094845609011827 84.405011019919584 0 0 0 0 146.59245771675342 -65.515510740126047 0 -65.515510740126047 -90.947161239349953 0 0 0 0 54.888815496262396 105.19608765265457 0 105.19608765265457 114.76444999725027 0 0 0 0 -2.2187579618925213 0.2379864971074408 0 0.2379864971074408 -0.25276260094407554 0 0 0 0 80.287378139881184 -34.328311975446923 0 -34.328311975446923 -39.872500646181834 0 0 0 0 -1.6585791658103517 -0.62364310959289648 0 -0.62364310959289648 0.67309238344532396 0 0 0 0 112.80646918489401 82.091551706565951 0 82.091551706565951 66.393395146267721 0 0 0 0 435.10807902150555 114.61298112254008 0 114.61298112254008 -169.03187548344613 0 0 0 0 11.902818125694466 -35.412739504668934 0 -35.412739504668934 50.679812162748931 0 0 0 0 -96.63015081694175 -81.834189242466891 0 -81.834189242466891 62.020233080510934 0 0 0 0 -88.437906762090279 -1.6835315515527327 0 -1.6835315515527327 110.82037972598096 0 0 0 0 -81.459535230482288 -55.43897179733267 0 -55.43897179733267 128.09207862875439 0 0 0 0 166.31107657510802 -9.2060607428611547 0 -9.2060607428611547 0.41861807734494505 0 0 0 0 178.16811245323697 47.893449962326486 0 47.893449962326486 22.457013377892508 0 0 0 0 164.86635687854505 -40.985878103525465 0 -40.985878103525465 -31.131334077104839 0 0 0 0 257.55716868978197 152.35518868594681 0 152.35518868594681 -90.166857341956529 0 0 0 0 316.84740379780123 -148.94165700775375 0 -148.94165700775375 45.541494145987599 0 0 0 0 289.21622131139065 -160.2221210124585 0 -160.2221210124585 397.49338506137428 0 0 0 0 706.86801203526556 503.8989585844065 0 503.8989585844065 63.205374295979709 0 0 0 0 78.533801207275246 -122.92295463364553 0 -122.92295463364553 203.04985080100596 0 0 0 0 641.72951127168199 318.56644360451537 0 318.56644360451537 -149.80729478938156 0 0 0 0 204.45569696931852 85.047325775292848 0 85.047325775292848 65.410118154661177 0 0 0 0 189.56099144317704 -223.35248283304099 0 -223.35248283304099 12.64045914147755 0 0 0 0 310.84233654025593 337.41881240650764 0 337.41881240650764 653.44390330850729 0 0 0 0 333.25840410746969 4.6092850399118106 0 4.6092850399118106 76.317311977254576 0 0 0 0 52.481248215655796 -55.515646025821297 0 -55.515646025821297 196.42677479660415 0 0 0 0 200.34296805163103 -50.151363321519966 0 -50.151363321519966 100.68593704449813 0 0 0 0 283.61671714777185 -91.23094273026436 0 -91.23094273026436 116.90323778654783 0 0 0 0 155.69339550665973 -125.79785785995591 0 -125.79785785995591 236.78265669514803 0 0 0 0 94.003802728609116 -47.375410358441513 0 -47.375410358441513 38.71904821224598 0 0 0 0 204.63786396355863 107.25024496735386 0 107.25024496735386 242.91839140810771 0 0 0 0 210.68664032951347 98.586810433189385 0 98.586810433189385 190.08324254554236 0 0 0 0 -11.146242968876322 -5.9684597183586447 0 -5.9684597183586447 145.25586993270917 0 0 0 0 -4.7540004272159422 -9.5740886277935715 0 -9.5740886277935715 109.61592487657981 0 0 0 0 80.566786197980946 8.9133942315067998 0 8.9133942315067998 79.189286492935935 0 0 0 0 53.701337000675267 -60.91665536173241 0 -60.91665536173241 119.65121764208197 0 0 0 0 4.0925409983683494 -25.525040829678801 0 -25.525040829678801 102.96762417277932 0 0 0 0 -20.854161507886602 67.80914732940164 0 67.80914732940164 -20.278441907183151 0 0 0 0 2.2778970094277611 -32.362349734522013 0 -32.362349734522013 81.602639063326933 0 0 0 0 -24.820548654508457 -6.2795529745462773 0 -6.2795529745462773 70.64487143835413 0 0 0 0 -6.580967958671863 -6.5483251960781672 0 -6.5483251960781672 15.596570375080773 0 0 0 0 -31.703581719193608 25.852896494554443 0 25.852896494554443 77.079733607167782 0 0 0 0 -39.734439668638515 38.501753128064593 0 38.501753128064593 101.70770323011129 0 0 0 0 -9.9711217082199255 12.108935230869065 0 12.108935230869065 14.140708814633399 0 0 0 0 -18.845956653507528 -2.3923974927183735 0 -2.3923974927183735 32.876233022421616 0 0 0 0 24.419283543771598 2.3083369316382232 0 2.3083369316382232 -4.5349003180941736 0 0 0 0 -13.320423801755169 -9.2243416338433235 0 -9.2243416338433235 132.04548143352986 0 0 0 0 14.050982452617973 -4.1511102705671874 0 -4.1511102705671874 37.190314026382111 0 0 0 0 -16.778899020166136 8.7466852914349147 0 8.7466852914349147 46.664609144370388 0 0 0 0 0.66242890571150781 0.12961827567976769 0 0.12961827567976769 -0.070863212228251982 0 0 0 0 -4.5603908004691363 4.4764631161076505 0 4.4764631161076505 1.3419726489733348 0 0 0 0 -177.70215220399405 1.7635702225979912 0 1.7635702225979912 143.83255452200819 0 0 0 0 -53.363275381085259 38.36795305976193 0 38.36795305976193 127.35902994100979 0 0 0 0 0.99071115694823675 131.28441494849358 0 131.28441494849358 7.9898060541909217 0 0 0 0 38.306703898269916 60.412367533241195 0 60.412367533241195 -27.170365366408078 0 0 0 0 5.3750559016116313 44.198028235776292 0 44.198028235776292 28.066828347129558 0 0 0 0 -2.4668882816582851 2.4195157472435715 0 2.4195157472435715 2.4793840261079332 0 0 0 0 -5.2858238528824586 2.5616512685146517 0 2.5616512685146517 9.0984833231137827 0 0 0 0 20.092547095784539 16.010263469948768 0 16.010263469948768 -18.085458501022003 0 0 0 0 0.83175953971294803 -6.9058815797970965 0 -6.9058815797970965 23.630628337406961 0 0 0 0 -28.527690248643921 24.385766828721898 0 24.385766828721898 10.788515373339095 0 0 0 0 34.816873023701191 15.626447086979169 0 15.626447086979169 17.500605983503192 0 0 0 0 -8.0554655198284308 3.4090142141321849 0 3.4090142141321849 38.617117701291818 0 0 0 0 6.9051996706522338 13.427472435208266 0 13.427472435208266 5.665525751474993 0 0 0 0 13.266674671494911 18.319930832058162 0 18.319930832058162 10.34200059748764 0 0 0 0 0.56623677073400103 14.32783184101595 0 14.32783184101595 3.1619531134520091 0 0 0 0 -26.767484628277089 44.539255121263523 0 44.539255121263523 -3.1872988123391224 0 0 0 0 40.884198757109289 -3.3396257316256879 0 -3.3396257316256879 3.7706101227454383 0 0 0 0 26.620470297957937 16.786686434893141 0 16.786686434893141 -1.8460980627133559 0 0 0 0 -31.127738700330497 -2.9931954901887252 0 -2.9931954901887252 18.445009506463521 0 0 0 0 -20.755641536299663 -7.0450979649826877 0 -7.0450979649826877 21.281091036249563 0 0 0 0 46.156860628241702 -14.6933925948465 0 -14.6933925948465 -16.312886508935662 0 0 0 0 4.0526534035723643 5.0813930216576857 0 5.0813930216576857 3.332547013854219 0 0 0 0 24.904746386157058 26.298653544946774 0 26.298653544946774 -27.353719057109856 0 0 0 0 2.5530396977823671 1.3841609520221709 0 1.3841609520221709 0.46068069583912052 0 0 0 0 -25.18405715467452 -51.849828930264266 0 -51.849828930264266 186.47017592854991 0 0 0 0 132.6962736078749 31.379967310866959 0 31.379967310866959 -17.378055861550926 0 0 0 0 157.98381306948068 109.42814298738404 0 109.42814298738404 26.215166450774973 0 0 0 0 1.7263607133900223 9.4928053005419315 0 9.4928053005419315 41.695720663532029 0 0 0 0 38.832911139656062 111.70486380435909 0 111.70486380435909 232.90135433616206 0 0 0 0 94.232842725039518 58.059336421357784 0 58.059336421357784 13.031492849435381 0 0 0 0 96.599261575042419 48.448384449626928 0 48.448384449626928 31.450191672502115 0 0 0 0 86.29903724558244 56.78826056222897 0 56.78826056222897 19.227828765356549 0 0 0 0 106.00871361570171 36.5014968663736 0 36.5014968663736 -2.3844037920443952 0 0 0 0 35.660050292744927 16.321406888198453 0 16.321406888198453 6.6201947387362452 0 0 0 0 70.499884320808633 49.652499228404849 0 49.652499228404849 25.609642249795797 0 0 0 0 73.371503545429732 41.711207717918114 0 41.711207717918114 18.592347317304302 0 0 0 0 112.19324101797446 59.384675767030089 0 59.384675767030089 26.269626588898973 0 0 0 0 111.54511918800199 37.240640293260654 0 37.240640293260654 22.838144516626926 0 0 0 0 44.503561472258298 54.808122088148593 0 54.808122088148593 60.650671865951153 0 0 0 0 2.6591088874135949 26.217418382520776 0 26.217418382520776 48.3299480456335 0 0 0 0 72.21347923223675 1.4296539600802589 0 1.4296539600802589 34.877031609749793 0 0 0 0 99.265539683539828 -10.095986499691207 0 -10.095986499691207 28.044622630294953 0 0 0 0 146.22310610145905 -7.0565548594122447 0 -7.0565548594122447 27.564723155946922 0 0 0 0 107.81777799223346 39.476560780431555 0 39.476560780431555 21.991487253266314 0 0 0 0 56.556366556185822 -8.6535134396813191 0 -8.6535134396813191 28.390964735456237 0 0 0 0 17.953207979498984 -3.3307341457916664 0 -3.3307341457916664 27.760661420767065 0 0 0 0 53.229940663251909 43.134131730215358 0 43.134131730215358 58.196230913124509 0 0 0 0 37.832200533761352 12.196365518020912 0 12.196365518020912 -0.58028329653370747 0 0 0 0 58.192732186438661 -15.721753583812642 0 -15.721753583812642 -32.699189334243556 0 0 0 0 53.764901391554758 11.299998669770673 0 11.299998669770673 -114.35257389087337 0 0 0 0 -75.843994576140176 78.380766241133983 0 78.380766241133983 -59.739754099149536 0 0 0 0 -117.75395578229563 -279.13945536744416 0 -279.13945536744416 150.83229553882393 0 0 0 0 168.62419896320534 401.0489751276275 0 401.0489751276275 223.32584380188382 0 0 0 0 66.656026117580041 1.7387054972599572 0 1.7387054972599572 -237.95174620034118 0 0 0 0 -16.988248452452808 27.858793907270865 0 27.858793907270865 34.762357155243762 0 0 0 0 7.0874055983413751 -0.63379529679234636 0 -0.63379529679234636 -3.0143086531418124 0 0 0 0 30.557432578658954 -1.081879084502992 0 -1.081879084502992 -0.11722612546588884 0 0 0 0 13.166063464617764 12.807912003944693 0 12.807912003944693 -4.6674852722321702 0 0 0 0 11.313196655663104 7.9960255561059492 0 7.9960255561059492 0.67657837941950572 0 0 0 0 28.872003282351216 -10.69114401456417 0 -10.69114401456417 -26.41451377525555 0 0 0 0 152.43782917963836 37.856892114187708 0 37.856892114187708 -95.667725969981106 0 0 0 0 21.774032118559262 1.925832509364227 0 1.925832509364227 -0.15143295748021046 0 0 0 0 56.734717160950822 44.886538327371113 0 44.886538327371113 -12.784868653807337 0 0 0 0 37.758441405261692 -30.123457202595773 0 -30.123457202595773 -12.802531867628204 0 0 0 0 23.303210040279108 3.9095637542959381 0 3.9095637542959381 -5.7545578356408704 0 0 0 0 26.134267231958347 -1.2086739867691989 0 -1.2086739867691989 5.2562756359990743 0 0 0 0 27.248651540814301 -0.72505820060537485 0 -0.72505820060537485 -1.4254334265215221 0 0 0 0 17.006741350771584 4.0095709499789347 0 4.0095709499789347 -5.4959441497470456 0 0 0 0 14.560392693488556 1.0469797155653846 0 1.0469797155653846 -0.69438508540915755 0 0 0 0 0.17647051607562853 0.49940916766302523 0 0.49940916766302523 0.48490903788798256 0 0 0 0 43.243478699471552 -32.581639139631534 0 -32.581639139631534 32.448652989038123 0 0 0 0 23.142834574889093 3.3454414037012725 0 3.3454414037012725 -1.3666204583723811 0 0 0 0 -3.443628118493109 -5.6152614837487818 0 -5.6152614837487818 19.040921012395756 0 0 0 0 24.259101333794369 1.9620411936308406 0 1.9620411936308406 0.52628687618557279 0 0 0 0 7.6469490312117614 1.1289184961397041 0 1.1289184961397041 -0.45304486757686391 0 0 0 0 17.347280226382459 1.7406588306079867 0 1.7406588306079867 -0.85107077640552564 0 0 0 0 11.169004423503779 2.874075914717547 0 2.874075914717547 -0.28854402738814366 0 0 0 0 18.721033919910361 -17.943312535783093 0 -17.943312535783093 26.603630061787726 0 0 0 0 45.522048644700291 -26.093562260080489 0 -26.093562260080489 -5.171853332328169 0 0 0 0 29.512902357313578 -1.2325965144555084 0 -1.2325965144555084 -0.10587612897143117 0 0 0 0 27.227966857131378 -5.7621847358448122 0 -5.7621847358448122 2.1753263475457629 0 0 0 0 15.84789939914009 -10.262353261479831 0 -10.262353261479831 6.0889423074579554 0 0 0 0 10.926701894365756 -3.1718383600699456 0 -3.1718383600699456 2.2352334590514134 0 0 0 0 16.982648486399739 -11.702288222652442 0 -11.702288222652442 1.6419873004415422 0 0 0 0 1.6360546232170274 -0.54400017110115773 0 -0.54400017110115773 -0.44576184593394474 0 0 0 0 21.518706543482949 10.42033698252061 0 10.42033698252061 -3.374911627099209 0 0 0 0 24.026667657299619 -6.4490155615782374 0 -6.4490155615782374 0.22261367350665928 0 0 0 0 28.660209761027559 -8.3656732493557229 0 -8.3656732493557229 -9.8950668992372357 0 0 0 0 20.164740158035784 -4.9761857694923037 0 -4.9761857694923037 -2.9441560986870172 0 0 0 0 23.009078044616967 -2.6284174675742804 0 -2.6284174675742804 -3.5521891782222825 0 0 0 0 27.963923630977661 -2.9132064444011121 0 -2.9132064444011121 -3.6681786687804561 0 0 0 0 33.118748815682714 -6.6322651168850548 0 -6.6322651168850548 -2.0961984118103976 0 0 0 0 21.803728687242753 -6.4129934194737892 0 -6.4129934194737892 -8.9987888284021427 0 0 0 0 20.251244743596544 -4.1063716852467849 0 -4.1063716852467849 -12.839062938682559 0 0 0 0 25.678141675204024 -2.4066124034691834 0 -2.4066124034691834 -2.7261167429456905 0 0 0 0 43.884079167582968 -8.4563511620581266 0 -8.4563511620581266 -3.0441814000180898 0 0 0 0 35.47382535064753 -0.35910320167835152 0 -0.35910320167835152 7.3291871773899686 0 0 0 0 14.105918412646858 -13.873383049616136 0 -13.873383049616136 -0.30811290018431159 0 0 0 0 35.136321673727252 -19.112761689040255 0 -19.112761689040255 -7.3209137464334617 0 0 0 0 36.258566130224608 -11.259609581170954 0 -11.259609581170954 -8.5982557614221804 0 0 0 0 5.1821468401076576 4.0377118461120496 0 4.0377118461120496 -3.9153598720369498 0 0 0 0 17.354868209702158 0.51561507704191167 0 0.51561507704191167 -1.0224685095842607 0 0 0 0 16.156677839047916 -2.7873365554255543 0 -2.7873365554255543 -12.750591544684994 0 0 0 0 22.468136402446788 -2.2757016939237147 0 -2.2757016939237147 -1.873804282461947 0 0 0 0 56.347585064790238 -6.6831521925836039 0 -6.6831521925836039 -0.18447372796356476 0 0 0 0 62.00038911566503 20.691826976829233 0 20.691826976829233 -3.0156634090340049 0 0 0 0 73.744588613895303 -0.60227702389883575 0 -0.60227702389883575 -31.101146216886178 0 0 0 0 70.22682308813819 26.015687460471327 0 26.015687460471327 -72.955837741218375 0 0 0 0 34.845728161772755 -4.4276697586978528 0 -4.4276697586978528 0.37427081251393562 0 0 0 0 24.488199765266472 -4.6590674143544675 0 -4.6590674143544675 -4.4629914891597764 0 0 0 0 49.819314875570818 -34.936500291301542 0 -34.936500291301542 -10.589279123056485 0 0 0 0 52.729593427486066 -23.805093371503631 0 -23.805093371503631 -29.611203818020073 0 0 0 0 35.688020473399263 -19.216899192767642 0 -19.216899192767642 25.660237874934637 0 0 0 0 43.648032543189103 -23.3162865349002 0 -23.3162865349002 17.91068587930522 0 0 0 0 71.780284152200238 -20.257006587176875 0 -20.257006587176875 17.390283584938942 0 0 0 0 70.847203325603914 3.1108129623530658 0 3.1108129623530658 19.599525023795366 0 0 0 0 57.855456164904545 -5.2700798175108972 0 -5.2700798175108972 58.851168699727623 0 0 0 0 58.19491685412163 -12.623123551594858 0 -12.623123551594858 64.722310839586498 0 0 0 0 134.5831308655072 -3.7752410516228565 0 -3.7752410516228565 3.6837759006864417 0 0 0 0 63.293557895712183 4.2892879764463032 0 4.2892879764463032 56.808745917955321 0 0 0 0 59.727503876287301 7.290533938083172 0 7.290533938083172 6.1279316576245719 0 0 0 0 67.569985878080104 -2.5642326801004174 0 -2.5642326801004174 4.3133068067568274 0 0 0 0 81.70255763680143 3.0570670621256113 0 3.0570670621256113 8.6434923273768618 0 0 0 0 16.781560037576011 11.953632064316761 0 11.953632064316761 -1.2413963390192366 0 0 0 0 4.1916885190112225 11.909191816408566 0 11.909191816408566 -2.9211501768409107 0 0 0 0 62.578542056611013 -17.27040605192019 0 -17.27040605192019 54.597046434691151 0 0 0 0 87.758412510674361 5.0424703412588769 0 5.0424703412588769 -26.896167127076751 0 0 0 0 36.102308145656821 40.560630010782916 0 40.560630010782916 -15.095820503268328 0 0 0 0 17.889947209838216 6.2743403826891555 0 6.2743403826891555 -0.66442485248526229 0 0 0 0 53.118503978180343 -1.9375269974168532 0 -1.9375269974168532 -6.4892350429481667 0 0 0 0 87.150614862415523 9.7869609131084871 0 9.7869609131084871 -31.223157187280322 0 0 0 0 -65.307664703890623 156.00572907665446 0 156.00572907665446 70.204260365775554 0 0 0 0 30.398711414295928 17.282268144762035 0 17.282268144762035 -1.1278626276539061 0 0 0 0 55.541499703875161 25.462101299257483 0 25.462101299257483 -0.48882896107534179 0 0 0 0 67.712882271237277 20.572064654665155 0 20.572064654665155 0.92760789432213642 0 0 0 0 -10.587808281448925 2.9403528388545195 0 2.9403528388545195 5.571216565532386 0 0 0 0 54.870406219477445 84.98359314473646 0 84.98359314473646 -126.70298493444068 0 0 0 0 60.458755971387404 -8.8528463787720852 0 -8.8528463787720852 4.7732140557045568 0 0 0 0 66.934360517511095 8.8476292424661551 0 8.8476292424661551 -4.1411179433284815 0 0 0 0 59.030983427699084 10.495846671551135 0 10.495846671551135 2.169573758070328 0 0 0 0 45.168309303119031 19.063926910152077 0 19.063926910152077 2.8386374946039723 0 0 0 0 43.160759676244083 5.589343399622976 0 5.589343399622976 1.6347898146605075 0 0 0 0 45.735274050439557 -0.99386177656583641 0 -0.99386177656583641 3.0944704107489542 0 0 0 0 49.997842688508399 -1.4333394979817058 0 -1.4333394979817058 1.3902785569466687 0 0 0 0 24.274298079101754 -9.3677694796408559 0 -9.3677694796408559 6.5805998753749009 0 0 0 0 45.822578510782449 -13.710497090798933 0 -13.710497090798933 0.16891110865162773 0 0 0 0 6.56156888910545 1.5442125448525585 0 1.5442125448525585 3.5544615829690533 0 0 0 0 18.797747729929142 52.091042132897087 0 52.091042132897087 -127.4345784688569 0 0 0 0 4.6978921260447351 5.9483953037023412 0 5.9483953037023412 38.128851585036273 0 0 0 0 -269.71906831222776 14.307791535435475 0 14.307791535435475 274.28582665254822 0 0 0 0 -1.1061866267727993 1.4083223664385112 0 1.4083223664385112 5.2645853444571236 0 0 0 0 19.498774817354843 7.4136215722894576 0 7.4136215722894576 7.3811215810864041 0 0 0 0 54.125882345549144 -32.712717917216253 0 -32.712717917216253 39.775689286835131 0 0 0 0 0.068258548358244298 -6.6442707391483395 0 -6.6442707391483395 -2.3588250219916063 0 0 0 0 -0.42111443604251741 1.1893139805068444 0 1.1893139805068444 1.4333589345970528 0 0 0 0 -33.243380163075926 -11.480017346849536 0 -11.480017346849536 55.106948670810027 0 0 0 0 -9.3273172083027021 18.420546807264316 0 18.420546807264316 28.052113771107997 0 0 0 0 84.976499847761261 65.033165197354165 0 65.033165197354165 -59.511599135251004 0 0 0 0 17.659468039166768 -259.62132851397985 0 -259.62132851397985 138.04649450702567 0 0 0 0 -0.16785566190009193 0.17062758165003 0 0.17062758165003 2.6423098154357572 0 0 0 0 -188.87314119310759 -188.63713327007952 0 -188.63713327007952 349.78013329596922 0 0 0 0 24.25679081530852 -7.3678727317504782 0 -7.3678727317504782 2.4146707868959769 0 0 0 0 325.88941855236817 -390.68598756870955 0 -390.68598756870955 -224.52591536859387 0 0 0 0 -357.15799920495112 -403.59333172781544 0 -403.59333172781544 99.207126694439353 0 0 0 0 15.599970265940811 0.31714751553946163 0 0.31714751553946163 -0.68050264058698828 0 0 0 0 -152.36946434436072 6.2577405791257661 0 6.2577405791257661 9.2623120718150176 0 0 0 0 -38.758069888326645 100.53209698224993 0 100.53209698224993 -37.418581889696242 0 0 0 0 2593.9901719188742 -639.57569124196198 0 -639.57569124196198 1028.4142665528248 0 0 0 0 2501.2782903549369 -225.24200367020637 0 -225.24200367020637 -153.38502817123074 0 0 0 0 2585.0972328442381 197.13898467381725 0 197.13898467381725 -326.48132700583858 0 0 0 0 11.843149101945722 -0.72370757736490177 0 -0.72370757736490177 0.17338393094430521 0 0 0 0 1152.0446609637397 618.54432545432587 0 618.54432545432587 21.668961431598941 0 0 0 0 -287.2577605153615 290.07387239643742 0 290.07387239643742 240.91843754347977 0 0 0 0 1043.915357800714 221.08121104644079 0 221.08121104644079 94.945672914054626 0 0 0 0 1084.6542376712187 151.37304942976368 0 151.37304942976368 -217.45954121671369 0 0 0 0 1901.5271510545349 -55.315408644210919 0 -55.315408644210919 -292.82350176090779 0 0 0 0 567.25508226800821 -316.24727133949403 0 -316.24727133949403 145.40359544094528 0 0 0 0 516.78489982392603 1.5372935436412911 0 1.5372935436412911 -117.89989155875075 0 0 0 0 2103.255099676815 -498.85014788700681 0 -498.85014788700681 -316.28985448172045 0 0 0 0 1749.1229485422784 -875.3257603362606 0 -875.3257603362606 139.07706279628178 0 0 0 0 2494.672091668187 -508.59183392713732 0 -508.59183392713732 -407.14053698316684 0 0 0 0 171.62836157069097 -551.36499123874535 0 -551.36499123874535 630.97164037094399 0 0 0 0 269.42429111129059 197.59392306854124 0 197.59392306854124 -44.171576281000739 0 0 0 0 12.857208606373906 -3.4191640914272061 0 -3.4191640914272061 2.095046421092515 0 0 0 0 1283.274991956423 919.22824597934073 0 919.22824597934073 660.06513004480644 0 0 0 0 2030.5975679752792 813.88508192443737 0 813.88508192443737 4.5086323436582916 0 0 0 0 2497.0490688629297 297.57114849564192 0 297.57114849564192 -413.18972466266553 0 0 0 0 831.00081575552758 98.969182227901371 0 98.969182227901371 -105.12919545417839 0 0 0 0 1485.3860704406598 50.553027090895682 0 50.553027090895682 -419.21527552821249 0 0 0 0 2496.7659762727017 -488.26119503155707 0 -488.26119503155707 -440.64933341100732 0 0 0 0 1496.9510485088224 -23.871266895703702 0 -23.871266895703702 -277.00564504358698 0 0 0 0 513.49461873409018 127.95148983705111 0 127.95148983705111 7.458660345906388 0 0 0 0 171.27797382138488 -114.00264592801702 0 -114.00264592801702 156.13399786569437 0 0 0 0 693.57592388609191 -227.99039903924501 0 -227.99039903924501 145.92949567228288 0 0 0 0 33.513574226632045 75.362028179379649 0 75.362028179379649 102.02783787871286 0 0 0 0 -224.0008987102774 -2.7415065055668038 0 -2.7415065055668038 319.86323791848531 0 0 0 0 816.05802333605425 135.22495956767105 0 135.22495956767105 -163.8114083198314 0 0 0 0 0.60460970290245086 0.7417415875768878 0 0.7417415875768878 -0.60692029229906619 0 0 0 0 28.542557091269686 -10.585751823308863 0 -10.585751823308863 4.5759298484260933 0 0 0 0 28.194268272845875 -94.302176956614659 0 -94.302176956614659 -22.337491627936117 0 0 0 0 -23.229281394113059 9.0435722269554617 0 9.0435722269554617 25.833789362657996 0 0 0 0 -3.2020594361760359 0.01429062098489986 0 0.01429062098489986 3.0106923016456291 0 0 0 0 19.499175284905505 5.3735308571012865 0 5.3735308571012865 13.90939559575645 0 0 0 0 41.447934747012937 -4.4513944338331157 0 -4.4513944338331157 4.9625027844826946 0 0 0 0 25.11808333617747 -4.6455870052180206 0 -4.6455870052180206 1.3919647439751088 0 0 0 0 16.849689342188924 -7.6147711855036047 0 -7.6147711855036047 11.608598895611189 0 0 0 0 18.744316163136318 5.279238301600742 0 5.279238301600742 13.897881322385274 0 0 0 0 7.654193370970912 2.6714629629171252 0 2.6714629629171252 4.7065197217545336 0 0 0 0 1.3299384880419822 2.1805588185624671 0 2.1805588185624671 10.777238978741549 0 0 0 0 1.9779396823068964 5.4366265117735111 0 5.4366265117735111 10.601501483544553 0 0 0 0 -11.260447980654135 -170.66945408485537 0 -170.66945408485537 -132.49832075725516 0 0 0 0 -149.69066804232079 -23.672699883083169 0 -23.672699883083169 99.331720991109933 0 0 0 0 -43.526368636526058 -184.35342507453015 0 -184.35342507453015 26.221672610187056 0 0 0 0 -52.878111076977802 -10.952601354920141 0 -10.952601354920141 -50.680730432868955 0 0 0 0 -61.956570478367212 7.6423322353825993 0 7.6423322353825993 139.64755649632119 0 0 0 0 -28.347679755565878 -8.5138991440775698 0 -8.5138991440775698 -10.078754163795338 0 0 0 0 -59.245465231910202 156.5849428246687 0 156.5849428246687 -0.83738311725900871 0 0 0 0 -14.404457206660481 51.908186859980589 0 51.908186859980589 221.08089535795614 0 0 0 0 2.0772290268757416 6.7737463243971305 0 6.7737463243971305 12.737946551470396 0 0 0 0 -7.1637365022343147 24.021013348299903 0 24.021013348299903 28.225356929064219 0 0 0 0 -1.3075183752207522 -3.0932289536767712 0 -3.0932289536767712 26.495053139259085 0 0 0 0 -4.9906560193794576 2.3903246479931113 0 2.3903246479931113 47.911854131279142 0 0 0 0 0.99202090213135818 0.62986754023380342 0 0.62986754023380342 5.7576374896483458 0 0 0 0 -17.30330681730743 -25.385043862808359 0 -25.385043862808359 2.7036511849496492 0 0 0 0 1.2037804362931848 4.8626147152075632 0 4.8626147152075632 22.719931962507523 0 0 0 0 14.879751632939389 3.5296794602876407 0 3.5296794602876407 5.5671423801187618 0 0 0 0 14.683926144272846 92.859884682162601 0 92.859884682162601 -21.439137886494336 0 0 0 0 -7.776429168328832 18.573364126481749 0 18.573364126481749 53.569518312762511 0 0 0 0 -1.7439112404128423 -1.03280630894551 0 -1.03280630894551 3.5724653850181847 0 0 0 0 95.158791074310216 -103.76537290637685 0 -103.76537290637685 -269.08778147386602 0 0 0 0 74.172434449674256 116.41779114847401 0 116.41779114847401 -29.265500997458389 0 0 0 0 221.11891257041134 164.35989599958185 0 164.35989599958185 -0.68004207470116285 0 0 0 0 14.325834300703306 -7.1897510222338301 0 -7.1897510222338301 6.0432297634302117 0 0 0 0 2492.9213027550977 61.823222136935492 0 61.823222136935492 -489.67261272422343 0 0 0 0 26.951509515492035 -72.57347258414822 0 -72.57347258414822 157.33835987693169 0 0 0 0 2057.062665401103 672.49507986767696 0 672.49507986767696 95.082679187549545 0 0 0 0 6.2880519922235791 -3.1216143030971608 0 -3.1216143030971608 2.8927411844868574 0 0 0 0 -20.56569214147612 -623.23674027401978 0 -623.23674027401978 785.92380169835633 0 0 0 0 1309.9155372809219 -1136.5128259688379 0 -1136.5128259688379 445.73357904653642 0 0 0 0 858.70097029937097 -121.22225787725887 0 -121.22225787725887 34.898480356476142 0 0 0 0 212.04381928525618 89.754923706117737 0 89.754923706117737 52.058942399727094 0 0 0 0 225.7937246011661 -193.10467977193872 0 -193.10467977193872 439.10998959769881 0 0 0 0 283.2881610107288 -77.027910492025171 0 -77.027910492025171 -63.244600858771605 0 0 0 0 172.78854017710546 -11.651978102999578 0 -11.651978102999578 -99.150660650315103 0 0 0 0 264.12081578663492 -151.77237098573619 0 -151.77237098573619 -208.40440818258173 0 0 0 0 268.41003218985861 -0.82921927165875786 0 -0.82921927165875786 -155.52188508371043 0 0 0 0 0.95487723893756993 -2.3625101982942098 0 -2.3625101982942098 3.0623619107498117 0 0 0 0 458.94281354709528 200.83635699399247 0 200.83635699399247 83.920648275604435 0 0 0 0 633.49078166527033 -103.81977368249454 0 -103.81977368249454 -37.652826989301047 0 0 0 0 325.93403509401833 -88.202140473746681 0 -88.202140473746681 -37.001635325711959 0 0 0 0 411.67378194809862 62.767970155826291 0 62.767970155826291 -76.05550646590325 0 0 0 0 114.26587982849742 96.547172155739645 0 96.547172155739645 59.171156392222059 0 0 0 0 7.7382236149860546 43.447848556007102 0 43.447848556007102 -75.036581424671567 0 0 0 0 52.524547516237362 -14.919863857830663 0 -14.919863857830663 -18.388308904030396 0 0 0 0 7.377183195650332 -4.7157126430401988 0 -4.7157126430401988 1.8992968947052979 0 0 0 0 31.859400538633054 4.1218599522538995 0 4.1218599522538995 15.575386671259906 0 0 0 0 28.688661715688795 -37.830266982090507 0 -37.830266982090507 -150.84360409278815 0 0 0 0 38.374853388966585 5.6842015208692374 0 5.6842015208692374 -7.5601547270885021 0 0 0 0 194.58310486556729 994.52318508677365 0 994.52318508677365 1055.7082924113083 0 0 0 0 3.976569617399818 2.0953585033136761 0 2.0953585033136761 -5.5133721855239628 0 0 0 0 10.807641259044601 -0.97529320885965376 0 -0.97529320885965376 0.27084810294892137 0 0 0 0 12.252825403232364 7.1081954395261278 0 7.1081954395261278 -25.521711937492565 0 0 0 0 15.544295900013822 29.724075324566115 0 29.724075324566115 -11.851587080349873 0 0 0 0 32.043156099184841 -14.430931233014029 0 -14.430931233014029 3.0326248998685053 0 0 0 0 1840.7226958635292 634.43643112700533 0 634.43643112700533 -705.54687818492994 0 0 0 0 30.168038123840233 14.339768548815869 0 14.339768548815869 -18.931266643128676 0 0 0 0 -46.783006044897775 -23.996705109412602 0 -23.996705109412602 -37.311628121263141 0 0 0 0 48.009474479067165 -17.050629032763254 0 -17.050629032763254 -23.039538907203788 0 0 0 0 15.743125676730415 10.95647866742263 0 10.95647866742263 4.451009951571109 0 0 0 0 116.15492449064914 33.967845453667337 0 33.967845453667337 -5.5802621023896677 0 0 0 0 81.391063456452684 -3.1401845737368035 0 -3.1401845737368035 -20.335732201728433 0 0 0 0 18.962119042538689 0.29083897146870186 0 0.29083897146870186 -29.42870485446997 0 0 0 0 86.391378535467084 -12.040373014372449 0 -12.040373014372449 -51.144525196677478 0 0 0 0 9.153358838291112 5.0257212744830042 0 5.0257212744830042 -35.504866698314672 0 0 0 0 23.255807113784613 -55.042905492170121 0 -55.042905492170121 -41.318736613261535 0 0 0 0 69.278612862151931 47.736261309055408 0 47.736261309055408 -83.069528041296508 0 0 0 0 80.735527282726252 15.263030969664214 0 15.263030969664214 -116.59173877883404 0 0 0 0 9.0453969926265643 -1.3868557030351241 0 -1.3868557030351241 -3.7607831648000172 0 0 0 0 54.417815596360015 43.87987867708307 0 43.87987867708307 -27.192997892036146 0 0 0 0 10.786243143232241 31.264648036696315 0 31.264648036696315 -11.4408291752768 0 0 0 0 55.390645442927052 58.788451333721241 0 58.788451333721241 -87.50544606972835 0 0 0 0 49.742520962925482 84.15549772084529 0 84.15549772084529 203.12528782315053 0 0 0 0 78.28693372136695 7.9040434109856506 0 7.9040434109856506 -68.203597564959637 0 0 0 0 51.388286938206875 115.7542440207103 0 115.7542440207103 -80.367571409096627 0 0 0 0 49.438969919774536 -28.049986673521857 0 -28.049986673521857 -40.910716883613986 0 0 0 0 -3.2405200077919289 23.580554371383187 0 23.580554371383187 -44.470397051192776 0 0 0 0 3.933446539866452 3.2719417697762054 0 3.2719417697762054 -3.0123758595173502 0 0 0 0 52.749794634451973 49.605410825305398 0 49.605410825305398 38.128916818661537 0 0 0 0 17.497674685541938 -4.754647418029478 0 -4.754647418029478 -6.8652748064438853 0 0 0 0 75.3551862413442 155.64658566302501 0 155.64658566302501 147.98797110777332 0 0 0 0 161.8198597483788 78.814634949542665 0 78.814634949542665 -24.28996734113548 0 0 0 0 45.799578501697397 -19.999300551691704 0 -19.999300551691704 -28.635859290462349 0 0 0 0 64.854688650835669 -57.880982488321195 0 -57.880982488321195 11.525285449638886 0 0 0 0 380.53397127812059 -298.39093034888788 0 -298.39093034888788 -42.847625512340983 0 0 0 0 87.267904869991071 -207.45235048659865 0 -207.45235048659865 243.55260922870411 0 0 0 0 322.43919553159503 301.05846644977424 0 301.05846644977424 282.6257469871785 0 0 0 0 5.7570995911842999 -1.7388575526877439 0 -1.7388575526877439 1.1649983053428858 0 0 0 0 555.10139999024977 -136.79041824479862 0 -136.79041824479862 -113.82688512935022 0 0 0 0 41.047724806565711 0.66521008270146353 0 0.66521008270146353 -3.9533186070880588 0 0 0 0 57.988286396488547 -17.323815084904936 0 -17.323815084904936 7.503826233789141 0 0 0 0 0.35639378380084352 -15.923316516224929 0 -15.923316516224929 14.777266853236197 0 0 0 0 443.11223857741879 180.0180450343471 0 180.0180450343471 -273.57049949422731 0 0 0 0 -304.31739032958285 48.531505048397833 0 48.531505048397833 461.72893352142319 0 0 0 0 62.737797446447075 -8.076750809468713 0 -8.076750809468713 -3.6630028568664699 0 0 0 0 58.516010083367291 -0.14044855401471068 0 -0.14044855401471068 -11.086935208334125 0 0 0 0 47.261946465368965 -5.9331673986207534 0 -5.9331673986207534 1.6897082234416985 0 0 0 0 49.829888554468198 -16.225420692661373 0 -16.225420692661373 10.679352306988505 0 0 0 0 59.643401161665679 -36.214472698804911 0 -36.214472698804911 -197.29654719523896 0 0 0 0 40.098459260058306 -0.060628703250291238 0 -0.060628703250291238 -6.8025291332505438 0 0 0 0 43.966455222704099 -217.55820276211568 0 -217.55820276211568 -78.325128807762951 0 0 0 0 -33.277119882768602 -42.040598461957188 0 -42.040598461957188 179.24016046069028 0 0 0 0 4.2796196869913103 -2.6398164572828229 0 -2.6398164572828229 1.5501751707527374 0 0 0 0 -107.8867834907287 -85.597819988930155 0 -85.597819988930155 356.73421292290618 0 0 0 0 154.16440623380186 119.52866512713854 0 119.52866512713854 95.23772898453592 0 0 0 0 287.93078804193647 335.6593894298465 0 335.6593894298465 -149.44617319883037 0 0 0 0 -7.661128484432993 -280.68281298914445 0 -280.68281298914445 185.93882287188671 0 0 0 0 303.26909025469649 60.59919922509664 0 60.59919922509664 -48.754430171035438 0 0 0 0 130.51230238693097 -4.7262343356185283 0 -4.7262343356185283 -51.355915800506267 0 0 0 0 141.42518352047773 29.458621196042031 0 29.458621196042031 -13.090065262764256 0 0 0 0 16.300610195696208 23.777443430522339 0 23.777443430522339 28.846803255938539 0 0 0 0 0.80000454838659607 -3.8784183614805769 0 -3.8784183614805769 2.7990140263884933 0 0 0 0 -14.227420885472384 -26.638468793346362 0 -26.638468793346362 -6.3261397304104321 0 0 0 0 99.354775560344933 -193.12481653386027 0 -193.12481653386027 131.36501035327001 0 0 0 0 5.608277232459459 6.0296352791461203 0 6.0296352791461203 5.1289893217088798 0 0 0 0 -150.59576057837694 7.8533640529619788 0 7.8533640529619788 40.020985177280409 0 0 0 0 100.98219664951466 -101.4965487146801 0 -101.4965487146801 0.4112128167836886 0 0 0 0 71.066152706946013 21.284302109285363 0 21.284302109285363 16.697957342452654 0 0 0 0 161.56577976397602 -112.69369140573718 0 -112.69369140573718 22.0838041262773 0 0 0 0 -104.9283282422482 -0.81287520136893932 0 -0.81287520136893932 105.11773902737104 0 0 0 0 -0.62808481742691136 7.5464617130023015 0 7.5464617130023015 -1.3392872991392206 0 0 0 0 -27.794268870093219 -19.259229892081521 0 -19.259229892081521 -4.864692354673025 0 0 0 0 14.245644076062035 12.171154368691944 0 12.171154368691944 14.253423835350077 0 0 0 0 97.471410813224793 -16.61199267855477 0 -16.61199267855477 -32.108319644327366 0 0 0 0 5.892183514966729 5.897600254683482 0 5.897600254683482 -9.7625159848446437 0 0 0 0 47.616835610853741 82.932621972805919 0 82.932621972805919 -20.306784941973774 0 0 0 0 -18.656253906687198 52.756427969993638 0 52.756427969993638 -33.366223237305348 0 0 0 0 71.152845528253238 5.5341119236366012 0 5.5341119236366012 -20.354905974633311 0 0 0 0 121.37225146059791 -22.511795772685218 0 -22.511795772685218 -52.789684526911174 0 0 0 0 133.12650858044617 -8.7515503068920566 0 -8.7515503068920566 -45.751518315373687 0 0 0 0 97.391623080518912 -16.67015897966894 0 -16.67015897966894 -27.860938291596085 0 0 0 0 122.79402808841041 -15.643224369987138 0 -15.643224369987138 -25.318483890468997 0 0 0 0 92.213031260340358 -21.29112096997801 0 -21.29112096997801 -26.359916520340903 0 0 0 0 80.649069051014521 -26.012042293825402 0 -26.012042293825402 -2.4119025525660618 0 0 0 0 176.52036149993728 -2.7641324199024666 0 -2.7641324199024666 -37.645693370890513 0 0 0 0 148.49239318385662 -59.250749821935642 0 -59.250749821935642 -1.394311213528681 0 0 0 0 78.51700885991886 -22.836492647764544 0 -22.836492647764544 72.154045300306734 0 0 0 0 163.37601281770185 14.974073280871721 0 14.974073280871721 -10.467679115330611 0 0 0 0 46.633128395384119 -20.555453979092817 0 -20.555453979092817 15.18428835324562 0 0 0 0 37.658013489859115 -9.4551706581015686 0 -9.4551706581015686 -2.4982078125831491 0 0 0 0 67.70923328815843 -95.613863976418543 0 -95.613863976418543 -130.87068111353483 0 0 0 0 42.722839371010195 50.075745685312086 0 50.075745685312086 -126.82435733494731 0 0 0 0 0.22464711257487124 -2.394629509270791 0 -2.394629509270791 -1.4535770913191297 0 0 0 0 107.13150844647316 47.446030790334817 0 47.446030790334817 11.290975936897439 0 0 0 0 119.63286028210678 -81.58474467054009 0 -81.58474467054009 27.2541988493399 0 0 0 0 47.864127899534651 -26.150904659484695 0 -26.150904659484695 2.1748050327760211 0 0 0 0 -7.0314797651217305 11.858561288029705 0 11.858561288029705 81.897717691738762 0 0 0 0 3.3684006052012272 -14.810294810109724 0 -14.810294810109724 -6.4980524742411223 0 0 0 0 -26.134750686920597 -39.248697038329738 0 -39.248697038329738 239.38073377488104 0 0 0 0 319.61536872105353 203.94778280943547 0 203.94778280943547 110.00141083600283 0 0 0 0 -30.776601440506056 487.07224705222961 0 487.07224705222961 -57.058988087142097 0 0 0 0 3.2317977301979681 2.1148274551119499 0 2.1148274551119499 0.72366861699858909 0 0 0 0 250.70445387717336 88.102164328533945 0 88.102164328533945 -168.27808342391199 0 0 0 0 26.579272048939544 -5.0425461437583294 0 -5.0425461437583294 0.99316103920543419 0 0 0 0 -16.286752825442818 168.51944239687782 0 168.51944239687782 -0.70913926854245801 0 0 0 0 196.92334317296627 263.77006383750631 0 263.77006383750631 41.824520825877244 0 0 0 0 392.87900215799164 137.68868840122127 0 137.68868840122127 -151.06564680620795 0 0 0 0 85.198717331557418 -8.2309789706102947 0 -8.2309789706102947 13.967332895858135 0 0 0 0 16.661844224792731 64.40814742952557 0 64.40814742952557 -22.30610924307166 0 0 0 0 463.00729593544384 -131.18566969003302 0 -131.18566969003302 -9.2140317025868796 0 0 0 0 176.82128390965954 -56.369844376802575 0 -56.369844376802575 -283.9933013709699 0 0 0 0 100.7062223830435 50.013527791908018 0 50.013527791908018 -34.164754538518537 0 0 0 0 -8.8993944924659445 -296.3999008664872 0 -296.3999008664872 209.25174032828363 0 0 0 0 424.87252311716293 -315.50270614117198 0 -315.50270614117198 45.454422715120018 0 0 0 0 118.26706779780216 -205.84806595615964 0 -205.84806595615964 104.61122093102267 0 0 0 0 358.52916734724204 -298.19035178936724 0 -298.19035178936724 111.94668845914657 0 0 0 0 319.65862230135826 -305.60775498358862 0 -305.60775498358862 119.76398472796882 0 0 0 0 196.86146258433291 -172.82671492763507 0 -172.82671492763507 283.811478509072 0 0 0 0 219.10650753111622 122.60323251674413 0 122.60323251674413 141.36864738025361 0 0 0 0 118.00789349753177 101.62747642466002 0 101.62747642466002 -220.70828570962226 0 0 0 0 -134.73014914856685 302.82229103123336 0 302.82229103123336 -8.4861252766049802 0 0 0 0 -150.57360498406524 45.344235199558796 0 45.344235199558796 -13.560044471530091 0 0 0 0 -1.6682096481082453 1.1442362887077451 0 1.1442362887077451 0.054533606874448637 0 0 0 0 509.11134289999609 -123.12803967038053 0 -123.12803967038053 43.949073563265756 0 0 0 0 216.50176147742604 -43.300474339694574 0 -43.300474339694574 61.761613610063023 0 0 0 0 -58.275925472997187 41.375897394434901 0 41.375897394434901 71.148252955119915 0 0 0 0 -254.79912043566401 -597.34261715342632 0 -597.34261715342632 153.02251722212441 0 0 0 0 2.8706118617701577 -298.03137194497867 0 -298.03137194497867 200.91011583306772 0 0 0 0 468.0731314948498 -729.69744421117184 0 -729.69744421117184 -15.470805481305433 0 0 0 0 862.39911607828617 -29.907065974090301 0 -29.907065974090301 -100.39741373084598 0 0 0 0 348.06264378261403 427.08513156866275 0 427.08513156866275 520.65584217220749 0 0 0 0 407.28760043763759 367.7330754359275 0 367.7330754359275 -6.9239990323385427 0 0 0 0 183.09857237031974 93.445538871511417 0 93.445538871511417 833.81259467231212 0 0 0 0 705.29659661384358 -320.99990568588146 0 -320.99990568588146 356.9966241006573 0 0 0 0 298.75285598647315 -89.836033118466275 0 -89.836033118466275 231.92705851842629 0 0 0 0 333.72419239336159 431.97147469439915 0 431.97147469439915 502.86674459687947 0 0 0 0 9.4605694728205378 -2.4076194335178354 0 -2.4076194335178354 0.97525701195839876 0 0 0 0 915.23074456657559 189.10967475304892 0 189.10967475304892 155.63040706831998 0 0 0 0 240.30138421198353 116.56816156447439 0 116.56816156447439 147.992584320785 0 0 0 0 -12.592772497442638 213.39679366101086 0 213.39679366101086 368.73681871400186 0 0 0 0 368.58552278667048 286.7460569675859 0 286.7460569675859 76.713959623081792 0 0 0 0 184.8892674541712 -89.080014869284241 0 -89.080014869284241 -206.71490814066556 0 0 0 0 -161.13802016478439 230.64733960529179 0 230.64733960529179 84.91362614861464 0 0 0 0 603.43372852521861 -52.36484829826486 0 -52.36484829826486 -48.950096513064636 0 0 0 0 254.89708781577065 18.167852432748987 0 18.167852432748987 -54.573037642111558 0 0 0 0 309.50326377725651 -170.35462786920522 0 -170.35462786920522 -109.15120803844729 0 0 0 0 226.5525989750131 -101.75661042660101 0 -101.75661042660101 -80.704610076387326 0 0 0 0 234.94366558776528 -132.09994826497814 0 -132.09994826497814 28.396152789681764 0 0 0 0 155.52894053452474 -135.40934730209801 0 -135.40934730209801 218.24131218454204 0 0 0 0 332.85390365955027 -119.049991024164 0 -119.049991024164 23.936052296828166 0 0 0 0 58.284192424023786 -95.066890514984948 0 -95.066890514984948 16.52764588487571 0 0 0 0 105.65753750345175 -38.219007424697111 0 -38.219007424697111 37.156338264128863 0 0 0 0 124.28419775557995 -119.23167906910339 0 -119.23167906910339 39.238004482861285 0 0 0 0 77.828893662554037 -10.532776428974671 0 -10.532776428974671 -46.506052593006643 0 0 0 0 -66.203878967076889 -59.023054128815147 0 -59.023054128815147 61.407999635365741 0 0 0 0 53.064442151335243 4.947926955012008 0 4.947926955012008 -28.996235108473229 0 0 0 0 5.7716718045727262 3.7992339259363064 0 3.7992339259363064 -3.9733022987372628 0 0 0 0 10.259904713107971 16.935543384058292 0 16.935543384058292 0.81792703030987468 0 0 0 0 7.8095573761633617 13.236442106409768 0 13.236442106409768 1.815640062661549 0 0 0 0 -7.6622363306532861 27.096357751068439 0 27.096357751068439 11.152205654904265 0 0 0 0 38.191450091500883 27.161370653208905 0 27.161370653208905 -6.6573211095537772 0 0 0 0 11.108375204674417 17.286943588500606 0 17.286943588500606 9.4542979985838898 0 0 0 0 32.805657347926171 117.48396163965572 0 117.48396163965572 96.125266642487986 0 0 0 0 -3.3263212101526562 10.899970185577914 0 10.899970185577914 0.086748391701156891 0 0 0 0 19.730630391888553 5.6019147433066792 0 5.6019147433066792 18.989208576550027 0 0 0 0 66.106601366598625 30.857273064044193 0 30.857273064044193 -19.765996561795873 0 0 0 0 7.8559099600624904 38.492789054974196 0 38.492789054974196 0.83571303682947473 0 0 0 0 13.821062722241507 16.421122122241201 0 16.421122122241201 5.9345357474743334 0 0 0 0 10.456245414944519 1.0148906051080928 0 1.0148906051080928 -1.614642884044617 0 0 0 0 39.112982040237512 21.582341453970969 0 21.582341453970969 1.643898947989328 0 0 0 0 -35.753646107987151 21.369486891791894 0 21.369486891791894 7.7017185455280242 0 0 0 0 14.839240618283256 14.687950294050083 0 14.687950294050083 -0.87927436281327331 0 0 0 0 28.60540756311093 54.103832288811645 0 54.103832288811645 -24.275047873836229 0 0 0 0 61.593751681852154 23.927586883683944 0 23.927586883683944 -29.632366921115249 0 0 0 0 30.147202418476809 27.366965405110932 0 27.366965405110932 13.467817885678414 0 0 0 0 66.763021516235312 3.7920832098279789 0 3.7920832098279789 -15.77457055061268 0 0 0 0 -0.00096196445178264867 11.503912572299896 0 11.503912572299896 -1.006146389835898 0 0 0 0 63.240459746928536 4.3551036552189544 0 4.3551036552189544 -2.1472331722725357 0 0 0 0 72.945639835335896 -1.6393197211164079 0 -1.6393197211164079 -57.116358888696595 0 0 0 0 71.217365427342884 55.947172195883013 0 55.947172195883013 25.542031495011088 0 0 0 0 8.1239372227283297 6.1237438048231141 0 6.1237438048231141 -2.5429615008145028 0 0 0 0 -141.48335456151108 41.657689192036287 0 41.657689192036287 72.65710777419099 0 0 0 0 78.200595221149342 13.512736989766552 0 13.512736989766552 -21.082867083035126 0 0 0 0 0.41999427247347043 -0.58839309196736167 0 -0.58839309196736167 -0.59939726824234896 0 0 0 0 5.2131546869059093 24.181057214585962 0 24.181057214585962 -15.257388562730739 0 0 0 0 197.54542787703394 134.17559108493276 0 134.17559108493276 -120.82680627292012 0 0 0 0 767.858898238861 -49.733074282613416 0 -49.733074282613416 -338.30728777471359 0 0 0 0 567.93014311682782 202.34855306047166 0 202.34855306047166 -116.26705726751993 0 0 0 0 1.2626465393233275 2.3076573919099275 0 2.3076573919099275 -0.28285766735040241 0 0 0 0 350.97832775980351 -278.43839367739952 0 -278.43839367739952 -456.84230398572822 0 0 0 0 271.92590491593 82.942896905874932 0 82.942896905874932 138.04487095971137 0 0 0 0 244.67757466327748 80.154358332274569 0 80.154358332274569 388.39635954688674 0 0 0 0 35.048333965016354 -34.781170923378909 0 -34.781170923378909 186.69241882456663 0 0 0 0 -71.346502590517048 136.55955113133996 0 136.55955113133996 62.164041589071473 0 0 0 0 139.34482173929428 22.779809456386829 0 22.779809456386829 -4.5610111540042482 0 0 0 0 148.12649267400411 40.866864077023592 0 40.866864077023592 -5.2185268387574979 0 0 0 0 139.77687096877617 17.009163649774564 0 17.009163649774564 -14.515834106025977 0 0 0 0 83.293987095748889 32.484603318676591 0 32.484603318676591 -1.4658039619487226 0 0 0 0 135.27265901494684 32.329752603050565 0 32.329752603050565 -7.7120691976556373 0 0 0 0 26.723765479342546 17.543763216292518 0 17.543763216292518 14.388448720977976 0 0 0 0 75.247062550745795 6.9878620282254928 0 6.9878620282254928 -0.10533973185147261 0 0 0 0 19.73916362188902 9.4223167072293563 0 9.4223167072293563 10.06812278974121 0 0 0 0 20.994024830113631 14.377249178057127 0 14.377249178057127 12.910992649891796 0 0 0 0 27.539242445964192 8.0750562990456274 0 8.0750562990456274 0.34863139553397104 0 0 0 0 -13.126090947947887 20.353648091651905 0 20.353648091651905 13.318966414183706 0 0 0 0 -7.1883018852822715 -2.9219361281325291 0 -2.9219361281325291 4.4735515771008068 0 0 0 0 19.410839831209159 0.17655473247350528 0 0.17655473247350528 -5.5718895361451359 0 0 0 0 20.099458046406653 22.835929094830817 0 22.835929094830817 12.166947940875616 0 0 0 0 30.056910733219411 33.522943311131712 0 33.522943311131712 23.899037287108968 0 0 0 0 62.87797922284517 10.742491153573155 0 10.742491153573155 -8.5020339617626632 0 0 0 0 66.968030416077454 36.071346459667126 0 36.071346459667126 13.105611056541875 0 0 0 0 100.09840333536704 25.773073762966533 0 25.773073762966533 3.4776877333879384 0 0 0 0 143.75872103178699 68.952988330355311 0 68.952988330355311 12.94717365361339 0 0 0 0 25.81599083951005 -25.489112257489978 0 -25.489112257489978 61.035313303640578 0 0 0 0 90.107258353302313 172.93338666768705 0 172.93338666768705 163.86669938173827 0 0 0 0 13.679055021313957 -7.9004201735539894 0 -7.9004201735539894 0.71961582630058452 0 0 0 0 83.246242886052642 41.844830842570445 0 41.844830842570445 17.832566667628271 0 0 0 0 96.081984765180096 22.196531832732944 0 22.196531832732944 47.86529746299675 0 0 0 0 187.10852723635981 79.559839821806236 0 79.559839821806236 30.102864142547332 0 0 0 0 80.945510818732146 41.268001344011282 0 41.268001344011282 25.460412819709518 0 0 0 0 56.29462296096608 57.045428207000441 0 57.045428207000441 60.826373752860945 0 0 0 0 11.192624252047324 0.49192361718688815 0 0.49192361718688815 -3.5897640253657315 0 0 0 0 25.113715727749877 -4.7621799456543954 0 -4.7621799456543954 17.595489916778206 0 0 0 0 84.948174613853553 38.101805768288955 0 38.101805768288955 7.9523635358245883 0 0 0 0 12.147504825414615 0.081897803135312586 0 0.081897803135312586 -5.8752662343506721 0 0 0 0 -9.6353280208059005 37.753624285215665 0 37.753624285215665 -2.7486721756705492 0 0 0 0 51.525837962835794 62.218933887876119 0 62.218933887876119 55.342295346354149 0 0 0 0 -1.2458861570703448 -40.006776931383683 0 -40.006776931383683 -22.622479370504266 0 0 0 0 79.548963074896164 46.663190055882524 0 46.663190055882524 24.836283006721715 0 0 0 0 -9.3084192996175261 7.5600910403445596 0 7.5600910403445596 20.956090497114019 0 0 0 0 -13.347490619584278 -29.878623538180818 0 -29.878623538180818 103.86082848944716 0 0 0 0 99.707923583086085 58.009466412338043 0 58.009466412338043 -38.579708096893228 0 0 0 0 12.821415894511205 2.5967323262980244 0 2.5967323262980244 -3.0192350394611438 0 0 0 0 -1.4981749262792938 16.201202770854522 0 16.201202770854522 3.9749135720068871 0 0 0 0 9.5238149278593482 19.35068357713817 0 19.35068357713817 -2.2079335777752931 0 0 0 0 57.545758705280605 6.3655372529701708 0 6.3655372529701708 -55.883238001936661 0 0 0 0 23.31577406960605 16.17603493370757 0 16.17603493370757 -15.809744238382336 0 0 0 0 8.8343862746389661 3.306532905693274 0 3.306532905693274 -7.7031606562275297 0 0 0 0 35.387432000468834 -8.2896130364001692 0 -8.2896130364001692 12.728079285451713 0 0 0 0 71.110541133748484 -29.892421014075808 0 -29.892421014075808 16.388874467210371 0 0 0 0 36.990732862388541 64.005994731409373 0 64.005994731409373 58.248343823363939 0 0 0 0 1.9829989633450111 6.4114325842124433 0 6.4114325842124433 -1.3255275096223591 0 0 0 0 82.737377786048455 -14.853228523196776 0 -14.853228523196776 -12.341254814059539 0 0 0 0 109.26861588444808 -21.961642815091636 0 -21.961642815091636 -10.511461392434285 0 0 0 0 15.956425914013183 -9.0664784545864734 0 -9.0664784545864734 -1.9706081657317398 0 0 0 0 71.382247649554301 16.661394972605535 0 16.661394972605535 -31.317776388628772 0 0 0 0 54.601676089463581 6.7492043193221889 0 6.7492043193221889 0.44814853231582674 0 0 0 0 61.06374198388221 -20.522187719829162 0 -20.522187719829162 1.0908703541517752 0 0 0 0 88.534875929588452 35.154823941005816 0 35.154823941005816 -29.455152141752478 0 0 0 0 2.4521694090419146 -1.2504780734276224 0 -1.2504780734276224 -1.0313492140360232 0 0 0 0 24.43810095583207 8.9283421151952851 0 8.9283421151952851 0.81245265452102622 0 0 0 0 23.49867046058489 3.9058160106251947 0 3.9058160106251947 0.096429887677032866 0 0 0 0 59.336583906861051 4.0074961536724913 0 4.0074961536724913 -3.3295106065907021 0 0 0 0 50.353819971089251 -0.7241750594075711 0 -0.7241750594075711 -29.421823691671761 0 0 0 0 32.591729609260256 -0.6957655097575639 0 -0.6957655097575639 -10.683926271484779 0 0 0 0 20.652880054189154 1.6369005623380417 0 1.6369005623380417 -10.750160697054525 0 0 0 0 58.095433408710903 9.3125803829711415 0 9.3125803829711415 -4.2022934618343406 0 0 0 0 36.258994021399999 -0.43919333647158254 0 -0.43919333647158254 -4.6494380148480641 0 0 0 0 17.926235587874544 0.93218818453533459 0 0.93218818453533459 -7.5361490581381076 0 0 0 0 14.907107160770238 0.11038324307732417 0 0.11038324307732417 -2.2417298430541943 0 0 0 0 16.198032935557421 -1.1833923205394967 0 -1.1833923205394967 -9.847622331661114 0 0 0 0 35.154560006647728 10.319538455160359 0 10.319538455160359 -2.6280559447496721 0 0 0 0 19.442044725397423 0.41091472533796392 0 0.41091472533796392 -3.6853872403843244 0 0 0 0 52.282430532048252 18.870721985501412 0 18.870721985501412 2.3622038613091156 0 0 0 0 43.152184749566572 -1.0831274302751792 0 -1.0831274302751792 -1.1620722446257536 0 0 0 0 44.462716520953109 -15.798518171924115 0 -15.798518171924115 -3.9164060374737346 0 0 0 0 22.723574547494437 6.0044255543458291 0 6.0044255543458291 -2.4052694933882357 0 0 0 0 43.832440688090173 -12.11721756351966 0 -12.11721756351966 -9.6924397555376345 0 0 0 0 51.858548644915572 -22.759609409537006 0 -22.759609409537006 -10.744515535981009 0 0 0 0 37.749308745753297 -44.703497757859168 0 -44.703497757859168 6.5052459517919488 0 0 0 0 25.981451491665212 -29.505163626448848 0 -29.505163626448848 21.994075590862849 0 0 0 0 45.99911701043311 -31.030130427578115 0 -31.030130427578115 21.916354275076998 0 0 0 0 68.540089935269251 8.8409060923314833 0 8.8409060923314833 -4.3333141180256165 0 0 0 0 77.296529466675565 -34.125344706021679 0 -34.125344706021679 -70.265854908351685 0 0 0 0 218.30748340062928 -34.265150739607634 0 -34.265150739607634 -348.23436854745751 0 0 0 0 99.711023104304331 -69.890071394203915 0 -69.890071394203915 -13.460332188686607 0 0 0 0 120.94045469606861 6.7368861077904683 0 6.7368861077904683 -4.1793850579394505 0 0 0 0 8.0937032678048126 -54.960500258054708 0 -54.960500258054708 31.534093567665877 0 0 0 0 187.61589147250925 161.01154210105489 0 161.01154210105489 135.22730963998833 0 0 0 0 26.762136063101934 197.61452106516344 0 197.61452106516344 197.04016055417446 0 0 0 0 11.55822938134952 342.36802086707121 0 342.36802086707121 83.863485214762932 0 0 0 0 660.96092147375748 -420.31548862273621 0 -420.31548862273621 -705.39073149229353 0 0 0 0 41.538114958602819 50.381022229425071 0 50.381022229425071 -44.927374727578353 0 0 0 0 -98.442214373179013 239.90222790167354 0 239.90222790167354 411.36211826721956 0 0 0 0 -81.802854644629406 319.55639479555066 0 319.55639479555066 330.97041960897513 0 0 0 0 -16.201346997564542 47.51241621533336 0 47.51241621533336 538.94702848411839 0 0 0 0 60.283355279185344 106.8493177096102 0 106.8493177096102 299.50856915526703 0 0 0 0 279.5426886073401 -254.74987867183489 0 -254.74987867183489 -84.807955752045018 0 0 0 0 9.1025813900223795 3.7622784444852897 0 3.7622784444852897 -5.6622222548911791 0 0 0 0 131.13930588233052 -334.89296803278421 0 -334.89296803278421 344.92072155879356 0 0 0 0 130.7250684278406 662.60261260835944 0 662.60261260835944 1245.7763059298857 0 0 0 0 199.94420623449338 -454.54697104870917 0 -454.54697104870917 -50.417657830312237 0 0 0 0 2.2768568794053863 22.359517933503412 0 22.359517933503412 -9.0297623667147491 0 0 0 0 2.7021369289447534 13.264028981026318 0 13.264028981026318 -1.6022577046896291 0 0 0 0 6.9641418384417193 20.644497758159559 0 20.644497758159559 -12.481394197882764 0 0 0 0 14.297151646514436 8.8813438118104102 0 8.8813438118104102 -10.665165277968594 0 0 0 0 -8.8369043149286881 -1.2399383415740886 0 -1.2399383415740886 0.45871125627309084 0 0 0 0 -1.4788824744246085 25.591758883563671 0 25.591758883563671 -11.075306091283437 0 0 0 0 31.259589442182914 16.905305524518553 0 16.905305524518553 4.4668774996489446 0 0 0 0 41.922717786485009 21.080469815201013 0 21.080469815201013 -13.609927128924028 0 0 0 0 19.445467986882051 12.290655934410584 0 12.290655934410584 -3.7557143302637233 0 0 0 0 -2.3833720970433205 3.7945682910326468 0 3.7945682910326468 -11.675044172106823 0 0 0 0 26.211756375625555 23.989607652925315 0 23.989607652925315 1.6990177298011986 0 0 0 0 51.97831551618583 83.445677460286788 0 83.445677460286788 91.0425439564724 0 0 0 0 -7.8495915519160917 -14.930338809429031 0 -14.930338809429031 82.055077751775571 0 0 0 0 112.44595042257788 -125.65667392543082 0 -125.65667392543082 173.88150886785661 0 0 0 0 7.992045836979031 -2.5351867756079045 0 -2.5351867756079045 0.59678683220271012 0 0 0 0 -62.819587093530572 128.11470253832704 0 128.11470253832704 104.30430508475467 0 0 0 0 -31.584567120586144 904.09429210322605 0 904.09429210322605 644.18431774160672 0 0 0 0 -6.2954895243601641 93.883706180215086 0 93.883706180215086 -62.75246519709799 0 0 0 0 13.228870605608421 11.824833154992923 0 11.824833154992923 -4.0430155658217775 0 0 0 0 44.645250396701158 30.731342320626936 0 30.731342320626936 -66.593457281170913 0 0 0 0 1051.8594264307321 -211.82071936947614 0 -211.82071936947614 -579.68285666753582 0 0 0 0 11.799216241846871 -0.7034171173442445 0 -0.7034171173442445 -1.8858713598785677 0 0 0 0 43.472399558668258 42.305901946869653 0 42.305901946869653 -29.054762183097409 0 0 0 0 42.062871594534954 2.9013663552495927 0 2.9013663552495927 -6.4259698056484922 0 0 0 0 30.278600767735043 46.122083278363789 0 46.122083278363789 -4.9454392080099296 0 0 0 0 50.74688806530321 0.95878863970301609 0 0.95878863970301609 5.3045967804537213 0 0 0 0 31.802742852471468 11.776283478247045 0 11.776283478247045 6.4501701423977345 0 0 0 0 41.675732330717437 16.531629900345933 0 16.531629900345933 6.1363978627196047 0 0 0 0 82.938041356155736 -2.2296662862158882 0 -2.2296662862158882 1.3527155466090335 0 0 0 0 36.941307697291165 0.69310647017589311 0 0.69310647017589311 3.2184764378860802 0 0 0 0 -324.59306157754327 -197.43305489932936 0 -197.43305489932936 -27.109001599117278 0 0 0 0 -601.98282916308381 -158.63410220827063 0 -158.63410220827063 -31.038354025001809 0 0 0 0 76.405123206351988 26.085106508902474 0 26.085106508902474 1.7875314862813525 0 0 0 0 897.95639522158308 971.79260472251008 0 971.79260472251008 359.40444385304727 0 0 0 0 90.138642808873556 14.509651285430323 0 14.509651285430323 -13.990366135636577 0 0 0 0 -208.81987196787668 -261.84008397752586 0 -261.84008397752586 -334.19280432155574 0 0 0 0 185.20162199124752 -47.807620556893198 0 -47.807620556893198 -38.183924874646436 0 0 0 0 102.44828131484974 86.123686844776785 0 86.123686844776785 -284.20609945154683 0 0 0 0 26.878665051299322 -23.910461537429001 0 -23.910461537429001 -441.70975843113638 0 0 0 0 49.325314867368434 -22.440595445399595 0 -22.440595445399595 -76.257564842964712 0 0 0 0 38.591131941677304 -78.231601581368523 0 -78.231601581368523 -352.32496556041588 0 0 0 0 105.91394209070131 102.44953321393041 0 102.44953321393041 -224.90250012581419 0 0 0 0 267.26683298993339 -231.39977651806475 0 -231.39977651806475 55.828190016276494 0 0 0 0 461.70408194524089 -322.15534068857141 0 -322.15534068857141 19.840230028528822 0 0 0 0 312.46060080978714 -51.911052108382819 0 -51.911052108382819 -127.04897527057983 0 0 0 0 502.73495733036543 59.878389316587345 0 59.878389316587345 -7.9911862772223685 0 0 0 0 -172.87653060884259 -116.30923884459617 0 -116.30923884459617 -99.561961742030689 0 0 0 0 -53.419431356247514 -68.244495187323992 0 -68.244495187323992 -17.669562294482603 0 0 0 0 -43.16913902174565 -118.085646190224 0 -118.085646190224 -111.40498627464694 0 0 0 0 22.428186752276503 -8.6717701140455645 0 -8.6717701140455645 1.7752565387103889 0 0 0 0 461.02798320283182 47.112988273369865 0 47.112988273369865 15.385812419333888 0 0 0 0 -355.65676082819118 -221.78050361008354 0 -221.78050361008354 158.34068523673341 0 0 0 0 411.05135717551457 328.73182944403698 0 328.73182944403698 40.803048970719374 0 0 0 0 448.41035077802371 -183.52660893789471 0 -183.52660893789471 -437.67979263501365 0 0 0 0 -388.93382107058187 195.06013386516815 0 195.06013386516815 333.77849804965444 0 0 0 0 -16.539386852789903 6.5265972246893398 0 6.5265972246893398 -73.666972779991738 0 0 0 0 5.0553320216858992 -36.56528782777059 0 -36.56528782777059 -152.32736297871452 0 0 0 0 25.768343694013311 15.144838912121486 0 15.144838912121486 -149.50038953576461 0 0 0 0 61.446231491601793 -12.638257871517453 0 -12.638257871517453 -138.02824799389964 0 0 0 0 27.284088772183168 22.598640608981441 0 22.598640608981441 -123.99222856973893 0 0 0 0 152.4817847557315 -18.094001024259342 0 -18.094001024259342 -64.821181691223046 0 0 0 0 -17.915001143759582 6.1911564146030287 0 6.1911564146030287 -7.8748863167566014 0 0 0 0 1.0520054432125505 2.2802116684690574 0 2.2802116684690574 2.9001007862353561 0 0 0 0 23.362946556790831 -1.8522507693966759 0 -1.8522507693966759 -9.8634742044796084 0 0 0 0 107.14365674994983 2.2791346348459616 0 2.2791346348459616 -6.8648459916237732 0 0 0 0 4.2009805695679461 -194.4001772662385 0 -194.4001772662385 -175.95024382065424 0 0 0 0 29.247421846821453 -156.59195469608284 0 -156.59195469608284 -162.82583493054241 0 0 0 0 74.250506795592628 -225.5046088703173 0 -225.5046088703173 -319.80058685134247 0 0 0 0 727.18630498568382 171.53986873179562 0 171.53986873179562 -288.30511528121724 0 0 0 0 -217.20996365315659 -481.35344173721592 0 -481.35344173721592 816.08319447612098 0 0 0 0 7.2977796240773856 0.54483146989776499 0 0.54483146989776499 0.52206489497987374 0 0 0 0 23.068254950814229 4.1603894380283801 0 4.1603894380283801 -0.44548803173138274 0 0 0 0 41.329558247030945 15.820733166312948 0 15.820733166312948 -66.463335913498668 0 0 0 0 16.721358387474538 -338.2572560516943 0 -338.2572560516943 354.26174997933208 0 0 0 0 469.36768343148651 -167.20794640528061 0 -167.20794640528061 -391.44415854736042 0 0 0 0 45.955317347979872 8.5491708592965097 0 8.5491708592965097 -66.508038959248069 0 0 0 0 36.827621503947739 221.99833001426987 0 221.99833001426987 -395.87780638722302 0 0 0 0 185.42844029163552 -146.20805227721894 0 -146.20805227721894 -319.3920059471393 0 0 0 0 12.327199537760428 -10.616299383559552 0 -10.616299383559552 -9.9823883585266096 0 0 0 0 92.591134882455918 27.453106808286503 0 27.453106808286503 -0.11968562343605349 0 0 0 0 6.0370596408081667 11.848153742922953 0 11.848153742922953 -0.41756427072169311 0 0 0 0 197.77420845313463 -121.35458771748819 0 -121.35458771748819 -9.9770187090277069 0 0 0 0 128.41441987118742 85.588883551042272 0 85.588883551042272 -14.53539165222719 0 0 0 0 95.097239088790957 6.159452050301752 0 6.159452050301752 -10.796507000915881 0 0 0 0 86.595891901259165 2.8810571271060326 0 2.8810571271060326 -10.85467669758674 0 0 0 0 22.946612775188314 5.0467643547051608 0 5.0467643547051608 -3.5608135204877671 0 0 0 0 89.352182471131528 25.222462061656699 0 25.222462061656699 65.926321792803492 0 0 0 0 21.9299594589138 8.0743969830177065 0 8.0743969830177065 -16.873605170258969 0 0 0 0 105.47661865065311 -16.106640305220481 0 -16.106640305220481 -0.53617854167785595 0 0 0 0 45.453156237768781 9.9341238234380853 0 9.9341238234380853 -2.6607571169129187 0 0 0 0 28.370089866814411 7.3827093726813402 0 7.3827093726813402 -1.7059873315677656 0 0 0 0 18.87592240961385 8.5159007007058563 0 8.5159007007058563 -1.7250235719997704 0 0 0 0 18.525723171911242 7.1023342827272877 0 7.1023342827272877 1.9019106117629088 0 0 0 0 22.182304545413899 19.035468442757178 0 19.035468442757178 -30.941486937983655 0 0 0 0 40.423072157003844 22.265699266971296 0 22.265699266971296 -58.556907989428851 0 0 0 0 24.419576374853932 9.7354467917696184 0 9.7354467917696184 -23.084367556143206 0 0 0 0 7.374116563320058 46.647794150250547 0 46.647794150250547 -50.719322566013034 0 0 0 0 8.3193353291005359 -2.2781272917499846 0 -2.2781272917499846 -4.9329678271614812 0 0 0 0 13.630123638851728 32.309124061888497 0 32.309124061888497 40.14718512266063 0 0 0 0 35.964933595292678 52.930207173478777 0 52.930207173478777 16.670414762481244 0 0 0 0 37.410359908109967 64.040549626048673 0 64.040549626048673 9.5320347745649219 0 0 0 0 27.747284919437334 39.774610023811135 0 39.774610023811135 22.59153733169228 0 0 0 0 44.84665817076052 97.531824174766584 0 97.531824174766584 80.523715112683817 0 0 0 0 13.426096805746056 40.705537116314986 0 40.705537116314986 60.625813531658537 0 0 0 0 53.313916936855094 27.956437602918783 0 27.956437602918783 -31.361194870781198 0 0 0 0 42.051384752723607 26.789265340906663 0 26.789265340906663 -9.9035407899239658 0 0 0 0 80.00020266417846 55.57628879639185 0 55.57628879639185 -44.031973375272742 0 0 0 0 84.432092697414987 113.42073648319764 0 113.42073648319764 52.960073434635163 0 0 0 0 64.326024980431612 94.538142643663264 0 94.538142643663264 76.646821411770532 0 0 0 0 36.684990356765411 114.75624891204825 0 114.75624891204825 78.019869390905285 0 0 0 0 28.42187199151158 97.80035315014419 0 97.80035315014419 86.902768308719601 0 0 0 0 66.598540375567609 102.1144490755826 0 102.1144490755826 86.935129105316662 0 0 0 0 192.41462601678904 102.51947808873109 0 102.51947808873109 51.187860392906884 0 0 0 0 186.02712616050303 55.157117280522698 0 55.157117280522698 7.4927449758602052 0 0 0 0 353.94452169982469 124.16287714129244 0 124.16287714129244 27.345882397161873 0 0 0 0 187.47077750639619 121.29314538022862 0 121.29314538022862 73.94765925616025 0 0 0 0 100.80414321870558 178.53443274220371 0 178.53443274220371 264.03717968752602 0 0 0 0 570.4200553829786 226.57515600097452 0 226.57515600097452 88.676994618339108 0 0 0 0 -16.48482288534251 -10.572175682183968 0 -10.572175682183968 88.354140779405043 0 0 0 0 32.895365343018057 44.256457662676553 0 44.256457662676553 34.910524709027797 0 0 0 0 7.3599485053327953 98.182987112417834 0 98.182987112417834 169.72788507278483 0 0 0 0 190.72832394971579 138.04657022472753 0 138.04657022472753 90.270237336638218 0 0 0 0 58.148581520561038 173.72772021032733 0 173.72772021032733 42.004609534442807 0 0 0 0 11.555465155226925 14.085289671599998 0 14.085289671599998 -3.8924878381730101 0 0 0 0 27.845505261895028 50.731414582557591 0 50.731414582557591 4.1597074562050693 0 0 0 0 81.968352388571475 129.1760369244148 0 129.1760369244148 -294.61281702802535 0 0 0 0 88.326793764588047 92.698140510909298 0 92.698140510909298 -77.846965076173547 0 0 0 0 61.124698037716698 2.2095765202003079 0 2.2095765202003079 -4.5045818449177286 0 0 0 0 50.525274330040702 -1.1659809297789252 0 -1.1659809297789252 -37.264481808527989 0 0 0 0 16.614400427113992 39.044626042893469 0 39.044626042893469 -7.3422510394210185 0 0 0 0 -5.4039650007495936 9.7716630643299549 0 9.7716630643299549 -12.464115224695089 0 0 0 0 56.498422607780412 37.392602908734261 0 37.392602908734261 -12.168894477113781 0 0 0 0 -0.5645844753115612 19.348738790768788 0 19.348738790768788 -14.972645209638412 0 0 0 0 42.276329236799711 22.933829591996584 0 22.933829591996584 -7.611583773886311 0 0 0 0 67.131651875108219 13.510944615165727 0 13.510944615165727 -27.272513420520227 0 0 0 0 34.682286092990353 34.386933434255724 0 34.386933434255724 5.5023455647910851 0 0 0 0 56.839968496431538 54.387868466663349 0 54.387868466663349 -5.4396481634912561 0 0 0 0 36.455557890494205 24.543281436881784 0 24.543281436881784 -7.9218148588546757 0 0 0 0 29.465323916489726 11.252660469815572 0 11.252660469815572 -1.3826843770701855 0 0 0 0 42.822834915936255 22.249973679451273 0 22.249973679451273 -12.38381881891155 0 0 0 0 37.174414929973793 11.023849439853226 0 11.023849439853226 -8.2758823983333993 0 0 0 0 35.691864715379779 27.099933611924371 0 27.099933611924371 4.0520011687891611 0 0 0 0 24.935090426676201 10.446822865893978 0 10.446822865893978 -3.8182203842293809 0 0 0 0 54.810279102464847 17.247642571356891 0 17.247642571356891 -10.629825943258993 0 0 0 0 48.521604109679174 16.253772761629534 0 16.253772761629534 6.3684128654249434 0 0 0 0 84.822373215058178 13.039532483896437 0 13.039532483896437 -2.7092077792112832 0 0 0 0 65.247605844371719 31.887520502656116 0 31.887520502656116 25.196471053437563 0 0 0 0 9.7797286398950387 0.10663915694832937 0 0.10663915694832937 -0.076250319157136204 0 0 0 0 32.20454375831423 7.339956747323356 0 7.339956747323356 -39.168070445414514 0 0 0 0 2.8728063976993941 13.420926738402287 0 13.420926738402287 -9.2434163592251632 0 0 0 0 18.17821018650784 -4.6488529641546847 0 -4.6488529641546847 -36.377516268308568 0 0 0 0 58.268376638466634 11.714634575127434 0 11.714634575127434 -45.657395473347265 0 0 0 0 23.310386157646462 41.688452044245139 0 41.688452044245139 -72.858283017302767 0 0 0 0 -8.3848547997576084 10.44213848319419 0 10.44213848319419 -11.08067784588777 0 0 0 0 -51.55300552220524 -55.498893234162381 0 -55.498893234162381 7.1541718886186914 0 0 0 0 37.680236631509359 20.244531958255891 0 20.244531958255891 2.3908240954642679 0 0 0 0 50.299355272866904 37.779686523833846 0 37.779686523833846 -9.1315555442538425 0 0 0 0 10.999426440448914 8.5597208677844634 0 8.5597208677844634 -9.4309032773114723 0 0 0 0 23.231606673555774 15.059095160052038 0 15.059095160052038 -5.1270512990663519 0 0 0 0 6.6857848199827572 10.692324000752023 0 10.692324000752023 -13.733378170906917 0 0 0 0 8.4258989696825211 24.262806594420908 0 24.262806594420908 -1.4165312208988325 0 0 0 0 168.16015785226045 -211.48596298821508 0 -211.48596298821508 111.82288541891535 0 0 0 0 275.82309084337612 -203.15341711334167 0 -203.15341711334167 127.19290432140315 0 0 0 0 262.95796976781912 -133.16010389245014 0 -133.16010389245014 -125.92554605924761 0 0 0 0 318.98214795959393 -214.5521290208651 0 -214.5521290208651 95.635909995917928 0 0 0 0 37.990142023651742 28.740944223223323 0 28.740944223223323 -12.876095555565939 0 0 0 0 28.021044812985934 16.590077661775247 0 16.590077661775247 2.8738098360612323 0 0 0 0 426.59067436402984 -235.93680090052158 0 -235.93680090052158 225.93172897701555 0 0 0 0 269.69100488545519 -299.23626476787206 0 -299.23626476787206 252.19920084814385 0 0 0 0 12.531108844987418 1.1303624509898711 0 1.1303624509898711 -0.47417675889093558 0 0 0 0 277.68790907853872 -156.71267542063094 0 -156.71267542063094 239.77713945335285 0 0 0 0 311.47326067719769 -128.60569363495506 0 -128.60569363495506 186.7618522287994 0 0 0 0 164.70388643595288 -140.15822045326149 0 -140.15822045326149 289.05969629367678 0 0 0 0 63.432075530985976 28.660062651529906 0 28.660062651529906 0.92054157957942251 0 0 0 0 -29.419043273765055 182.74459813095791 0 182.74459813095791 -99.490938614763309 0 0 0 0 4.6033462463294956 14.82718741579767 0 14.82718741579767 -11.906647260488896 0 0 0 0 -121.66549931598729 -50.073898921699225 0 -50.073898921699225 144.70160274095792 0 0 0 0 134.6922156313467 -115.09859234039453 0 -115.09859234039453 98.572599310108899 0 0 0 0 387.42842196085985 277.31185709946465 0 277.31185709946465 162.74512198962159 0 0 0 0 -62.476368303707204 10.221240132029095 0 10.221240132029095 115.37503267763077 0 0 0 0 235.74748439655855 -111.54200653577237 0 -111.54200653577237 33.192184336783612 0 0 0 0 77.523603748094075 36.421991705383917 0 36.421991705383917 7.7576755182378605 0 0 0 0 240.12294995492357 208.88181342635229 0 208.88181342635229 -248.10536407808223 0 0 0 0 306.99402771128371 -92.973814351348665 0 -92.973814351348665 29.639309993633788 0 0 0 0 281.63342297645795 -131.86384098519011 0 -131.86384098519011 -26.123883017735352 0 0 0 0 267.02966111498245 -105.17758477264942 0 -105.17758477264942 -47.164407634068084 0 0 0 0 327.78245902738126 -216.63236242636731 0 -216.63236242636731 -2.6225718958203288 0 0 0 0 239.39327413315868 -143.59438859547274 0 -143.59438859547274 128.82435526623613 0 0 0 0 230.92450561097212 -213.59977666124746 0 -213.59977666124746 208.47059153707869 0 0 0 0 306.29279260654948 -163.90933513503023 0 -163.90933513503023 214.04142242723674 0 0 0 0 421.71126668039142 -411.06407637464054 0 -411.06407637464054 205.55398955815372 0 0 0 0 258.87034492533348 -147.62855293304256 0 -147.62855293304256 362.8421382672941 0 0 0 0 249.19737258756504 43.477823652891175 0 43.477823652891175 16.844556993709375 0 0 0 0 267.99873526152805 -33.791963668618791 0 -33.791963668618791 284.65581961301996 0 0 0 0 236.88168336231865 -90.333089472270331 0 -90.333089472270331 -97.565483376473367 0 0 0 0 336.10235252106395 -161.01298172568761 0 -161.01298172568761 -140.37833163502182 0 0 0 0 80.560770661535571 259.79892746926362 0 259.79892746926362 -369.20687492899492 0 0 0 0 733.72817269805455 -223.45717418708364 0 -223.45717418708364 -299.39384046288978 0 0 0 0 2.4336999168639011 8.3758138625876182 0 8.3758138625876182 0.080354821392912612 0 0 0 0 -206.95645204641551 403.05685675812492 0 403.05685675812492 770.77994251777545 0 0 0 0 -58.815940400711042 136.53317612031105 0 136.53317612031105 -56.33103838736497 0 0 0 0 75.162351700168983 822.2137342247147 0 822.2137342247147 -223.68272793519463 0 0 0 0 129.52731879591011 -346.05680999600918 0 -346.05680999600918 -215.11324669200258 0 0 0 0 5.0203017869139117 -1.965542583696648 0 -1.965542583696648 0.93359766325991878 0 0 0 0 239.22738272109018 -418.2079920474032 0 -418.2079920474032 -517.0914614903395 0 0 0 0 290.47288477699476 42.729505761819496 0 42.729505761819496 -217.03045869348534 0 0 0 0 21.856763964344282 6.2098134971514583 0 6.2098134971514583 -88.658941149569273 0 0 0 0 65.69866443326282 68.126022494055007 0 68.126022494055007 -4.9260374381103702 0 0 0 0 112.00079717538665 13.338347829248903 0 13.338347829248903 -22.252429693172417 0 0 0 0 154.60279525611804 40.947528346435092 0 40.947528346435092 -9.0944598570320068 0 0 0 0 257.14872267258261 39.041802521035251 0 39.041802521035251 -1.3890953766338043 0 0 0 0 154.46256954432465 4.2376130625008273 0 4.2376130625008273 16.152166175778746 0 0 0 0 77.237883520787364 58.631016559003228 0 58.631016559003228 44.350333260153889 0 0 0 0 117.1154815159166 71.352062941553783 0 71.352062941553783 34.958087080497307 0 0 0 0 46.162162382352108 23.529839215195011 0 23.529839215195011 5.7188789599433676 0 0 0 0 60.390102567788745 107.11189793303824 0 107.11189793303824 74.382460571168735 0 0 0 0 25.794494998744995 90.676911643151129 0 90.676911643151129 71.120469388088281 0 0 0 0 -8.0640113141635084 121.81274852850117 0 121.81274852850117 83.031327944291604 0 0 0 0 -0.56876188045316667 88.26889349070575 0 88.26889349070575 72.724543900348124 0 0 0 0 77.252124524129613 198.40011160614125 0 198.40011160614125 105.43813930105421 0 0 0 0 236.89782492185623 135.63706210439057 0 135.63706210439057 -4.0047577331581579 0 0 0 0 -83.616066353184578 90.501366926265291 0 90.501366926265291 64.687251790665641 0 0 0 0 1.3619749334187841 1.6916039740824154 0 1.6916039740824154 2.2582229830614011 0 0 0 0 525.67603514624898 -248.51639930253407 0 -248.51639930253407 -56.009117763050426 0 0 0 0 -63.062498926830813 159.98096528891278 0 159.98096528891278 121.19561194846409 0 0 0 0 -6.174479352288472 56.861123920742784 0 56.861123920742784 25.042449609072492 0 0 0 0 -24.28839218784924 95.263520083757271 0 95.263520083757271 -94.371555233799882 0 0 0 0 -105.5202860993013 79.480223356591296 0 79.480223356591296 20.48703309785401 0 0 0 0 7.7016583042047202 0.827213625017583 0 0.827213625017583 -1.0219025577009653 0 0 0 0 35.828094684658936 20.512174068121567 0 20.512174068121567 -92.481785190556934 0 0 0 0 -122.37203355107999 89.520950268089777 0 89.520950268089777 -23.101422553335397 0 0 0 0 8.253890594380703 4.5061840490449523 0 4.5061840490449523 6.5576587541836027 0 0 0 0 99.386916683910385 0.07153313047776777 0 0.07153313047776777 106.97449516033173 0 0 0 0 200.152181118096 -98.132606121982747 0 -98.132606121982747 -39.482327586796998 0 0 0 0 83.602630518254557 46.12881898501896 0 46.12881898501896 13.445702350039758 0 0 0 0 163.03010451418231 86.291096092854787 0 86.291096092854787 -12.778633013262152 0 0 0 0 129.87764320968654 59.9644267092267 0 59.9644267092267 -59.567868475062134 0 0 0 0 141.04059437875276 35.093777758821261 0 35.093777758821261 -6.8788289963213174 0 0 0 0 24.950863552367082 53.587162572941907 0 53.587162572941907 -14.796106566209232 0 0 0 0 29.933249112254117 -2.9280943985970351 0 -2.9280943985970351 2.5390662759042675 0 0 0 0 53.402240528780339 17.809098355062474 0 17.809098355062474 17.55676585020592 0 0 0 0 24.449958785379394 18.833427439216489 0 18.833427439216489 6.9917673654821808 0 0 0 0 12.132591621571919 45.804513979177273 0 45.804513979177273 -17.739616962189871 0 0 0 0 37.887713545236693 39.026923377298772 0 39.026923377298772 -11.601111905476955 0 0 0 0 84.260583846095869 49.48239885572707 0 49.48239885572707 -65.833463123496131 0 0 0 0 24.654877100967497 117.57539999657752 0 117.57539999657752 -97.730436782664611 0 0 0 0 41.715921646911738 83.438007217317079 0 83.438007217317079 -53.793053426551523 0 0 0 0 153.06312813194563 51.062223009938634 0 51.062223009938634 -66.83372078708976 0 0 0 0 159.42189185156258 33.800724989537684 0 33.800724989537684 -57.043581973899109 0 0 0 0 125.51817507393571 85.498656694949432 0 85.498656694949432 -40.236416390582917 0 0 0 0 112.42013890023918 53.05549515700568 0 53.05549515700568 -44.463326665826344 0 0 0 0 112.15031343378632 15.485012329726715 0 15.485012329726715 -25.388348022834634 0 0 0 0 112.30185038331001 39.342782615682836 0 39.342782615682836 -65.468766082281036 0 0 0 0 100.81874948977747 -11.832352866896144 0 -11.832352866896144 -77.971323724045419 0 0 0 0 126.55417059385218 0.97213745812314301 0 0.97213745812314301 -77.471813061984449 0 0 0 0 41.84669813654417 -18.86726730668931 0 -18.86726730668931 -23.757995924312311 0 0 0 0 20.930316319776466 -22.685149220186986 0 -22.685149220186986 7.2566828818169284 0 0 0 0 16.254404975501075 2.2904045259609802 0 2.2904045259609802 11.47366316390422 0 0 0 0 2.6886097815477115 -27.479681662141502 0 -27.479681662141502 -63.458572694763461 0 0 0 0 150.59290009068354 -127.92003936108449 0 -127.92003936108449 -82.665047706360156 0 0 0 0 44.986277959776089 -155.01498511229147 0 -155.01498511229147 -59.336124493695479 0 0 0 0 40.213806212142899 -10.473328106647177 0 -10.473328106647177 -7.0082585217554421 0 0 0 0 273.82681693905761 -20.539223541104434 0 -20.539223541104434 -83.882191785428034 0 0 0 0 180.2699103951054 4.5680324628922335 0 4.5680324628922335 -113.43732925762242 0 0 0 0 127.56769579916727 -48.414427668121107 0 -48.414427668121107 -87.229395641768406 0 0 0 0 73.399999999210422 -1.6297280787061368 0 -1.6297280787061368 5.8400984277004682 0 0 0 0 142.83217335400559 -9.773852370535451 0 -9.773852370535451 4.9609984400779013 0 0 0 0 67.963615730648598 -9.4048678960847383 0 -9.4048678960847383 13.101747440789921 0 0 0 0 56.576362925829926 -32.011954466355633 0 -32.011954466355633 16.660021222677216 0 0 0 0 39.752098363808273 -35.426582837965384 0 -35.426582837965384 -9.1921669797128231 0 0 0 0 27.006693607071497 -6.3848389757876589 0 -6.3848389757876589 -2.231288337832666 0 0 0 0 47.104637006934581 -7.7918254382644818 0 -7.7918254382644818 -3.4869953067875485 0 0 0 0 96.499212790441106 -7.7717031971823189 0 -7.7717031971823189 -8.0990741140460614 0 0 0 0 87.977089604289176 -1.236569645442728 0 -1.236569645442728 -17.488288917016007 0 0 0 0 -13.147597158807912 -91.64316859128428 0 -91.64316859128428 -54.249613240697272 0 0 0 0 31.577974109869615 -16.016154891794663 0 -16.016154891794663 -8.7932810611561258 0 0 0 0 -43.294340487280351 -33.478140849421379 0 -33.478140849421379 37.122071446133646 0 0 0 0 5.905715692022568 -83.927906816934012 0 -83.927906816934012 -93.409874387503692 0 0 0 0 -56.691095484403377 -76.639266419398751 0 -76.639266419398751 -9.2754846299702649 0 0 0 0 38.390589403248732 -12.252876019057453 0 -12.252876019057453 -8.4655846485201245 0 0 0 0 60.402986578225409 -19.483829418162713 0 -19.483829418162713 -13.63938652201 0 0 0 0 3.2134700002772263 -5.326621059675773 0 -5.326621059675773 0.59511382365165177 0 0 0 0 202.97314824867863 90.327682714018124 0 90.327682714018124 8.6301014955934079 0 0 0 0 174.97644671532407 -20.785647973240913 0 -20.785647973240913 89.889672731738301 0 0 0 0 -31.223766262585968 -28.657326324195708 0 -28.657326324195708 131.67584807900539 0 0 0 0 2.7903169302621507 0.12487148155818595 0 0.12487148155818595 -0.098509771511626987 0 0 0 0 182.48927403749985 12.98881426557864 0 12.98881426557864 -103.60354658872143 0 0 0 0 138.32791521391846 -27.651532227935832 0 -27.651532227935832 -7.5039902392816202 0 0 0 0 -20.567303251571957 42.728888321456964 0 42.728888321456964 -27.712823806713004 0 0 0 0 142.25320267807183 7.3722610172980012 0 7.3722610172980012 -34.574009607553194 0 0 0 0 264.54400327461303 -31.283414070821117 0 -31.283414070821117 -45.514924349172816 0 0 0 0 258.38305674843104 -47.127939344674019 0 -47.127939344674019 -79.598304526655284 0 0 0 0 256.65689301373459 -57.886720382006104 0 -57.886720382006104 -1.2253783852096376 0 0 0 0 248.23759123180207 -4.9841676404266622 0 -4.9841676404266622 -10.125336636507825 0 0 0 0 254.5732304610201 -29.211677922647596 0 -29.211677922647596 -26.099696637923103 0 0 0 0 380.07857815597026 -65.592652958354307 0 -65.592652958354307 16.108190413094235 0 0 0 0 517.88111670752403 -207.12924283941112 0 -207.12924283941112 212.03242707337944 0 0 0 0 117.50966645378503 133.6999477925475 0 133.6999477925475 523.47110287261569 0 0 0 0 201.72512935225313 -22.91728395259986 0 -22.91728395259986 112.323324137263 0 0 0 0 -0.54739124957667684 -0.37043217243701942 0 -0.37043217243701942 0.32273226349220951 0 0 0 0 178.60759116763802 91.433343351317262 0 91.433343351317262 -6.0706758731933803 0 0 0 0 34.53701871344856 -42.830152349732927 0 -42.830152349732927 121.60520141707792 0 0 0 0 206.03610902683067 -19.540802133123648 0 -19.540802133123648 46.009459615884708 0 0 0 0 115.35477433067717 -38.462369581272071 0 -38.462369581272071 56.299231721862 0 0 0 0 60.697329902515776 19.415422878127458 0 19.415422878127458 11.425562105649533 0 0 0 0 21.367323914301778 -39.462641245422496 0 -39.462641245422496 39.265605291105771 0 0 0 0 2.496615376243426 -11.481929488578089 0 -11.481929488578089 4.0917576533250823 0 0 0 0 -6.2461564842087682 -12.235455290077461 0 -12.235455290077461 44.841918840705318 0 0 0 0 1.502526152489736 5.5894146784596828 0 5.5894146784596828 71.544826044645404 0 0 0 0 41.957846399238406 -21.936598044416797 0 -21.936598044416797 -11.155171876784948 0 0 0 0 -28.066970548507015 -62.254064447196384 0 -62.254064447196384 -32.12184269319448 0 0 0 0 -12.473370496432835 -47.140248925921178 0 -47.140248925921178 4.9972378304506151 0 0 0 0 5.1848171218553034 -19.077732430260369 0 -19.077732430260369 -56.914075536595817 0 0 0 0 7.5052265519589128 -8.4421618076640144 0 -8.4421618076640144 15.515994607919881 0 0 0 0 -4.1058325630365289 -13.027390001278649 0 -13.027390001278649 46.593045995527675 0 0 0 0 9.6799125370644106 -19.493458993471826 0 -19.493458993471826 48.318909366653841 0 0 0 0 49.789693160833849 27.328269319471531 0 27.328269319471531 -23.476446450218162 0 0 0 0 25.915595523471424 11.461454592321756 0 11.461454592321756 0.76248745205570445 0 0 0 0 36.372738794643823 -0.63324470569208913 0 -0.63324470569208913 -6.2184451268841716 0 0 0 0 -18.667173267785984 7.21387910922655 0 7.21387910922655 12.386960162996957 0 0 0 0 12.139702343236422 11.553029114337235 0 11.553029114337235 52.212811740506424 0 0 0 0 -0.16474155633726895 4.3708015417749682 0 4.3708015417749682 1.5930665329963807 0 0 0 0 -35.361155300761311 -42.820479741208317 0 -42.820479741208317 -7.4073848812567178 0 0 0 0 14.511636122781056 15.548762446573534 0 15.548762446573534 57.480382036535048 0 0 0 0 20.977760455964926 5.1158556716480525 0 5.1158556716480525 50.860175488820786 0 0 0 0 -541.55417981825667 -98.426252478556023 0 -98.426252478556023 48.361591504002348 0 0 0 0 1.1483455622696965 4.0005503566865865 0 4.0005503566865865 2.2195815730814785 0 0 0 0 69.037245568462822 120.96048816300961 0 120.96048816300961 -102.9073343663911 0 0 0 0 150.97602168556818 131.64202090804002 0 131.64202090804002 -121.64021751189443 0 0 0 0 119.23044865016345 51.495797741134297 0 51.495797741134297 22.28092215718123 0 0 0 0 95.059743899733505 32.894367270015742 0 32.894367270015742 -0.53250736538334809 0 0 0 0 -12.076815598374424 46.451668891562235 0 46.451668891562235 -2.1413093189558325 0 0 0 0 95.410269968844659 27.565230664371143 0 27.565230664371143 -43.029472894138365 0 0 0 0 29.442456741919159 159.27651064926317 0 159.27651064926317 -60.288953871376634 0 0 0 0 101.28833257002933 28.698168773167701 0 28.698168773167701 -6.2250699342358526 0 0 0 0 764.15135032762191 458.19842505327102 0 458.19842505327102 -296.04338782506466 0 0 0 0 -29.042818165122299 119.93320833998234 0 119.93320833998234 32.278296428447902 0 0 0 0 100.75897846537009 192.91798189221569 0 192.91798189221569 -32.029678025547639 0 0 0 0 137.18263303977255 236.35268675829002 0 236.35268675829002 -43.282202207340418 0 0 0 0 129.34872770826041 -161.07781983112454 0 -161.07781983112454 -255.2517867177892 0 0 0 0 208.28769879379252 204.10220193510511 0 204.10220193510511 -52.863622567925006 0 0 0 0 371.85418077269969 467.98548564180385 0 467.98548564180385 284.27824352159763 0 0 0 0 111.4587460166556 79.020126207117585 0 79.020126207117585 88.726820689087901 0 0 0 0 251.22974391255866 282.23724942291824 0 282.23724942291824 -30.258456751387371 0 0 0 0 236.5581122157455 235.19588364580196 0 235.19588364580196 135.10507043155735 0 0 0 0 20.541534424428392 -40.601534910241753 0 -40.601534910241753 27.934250858922496 0 0 0 0 64.135024726776464 -22.424419164881151 0 -22.424419164881151 12.350088910366241 0 0 0 0 57.558726927489701 -12.900029214358284 0 -12.900029214358284 0.91928677006097836 0 0 0 0 43.28792655658799 -50.050781581558681 0 -50.050781581558681 81.997885648371721 0 0 0 0 8.3247031732328978 2.8683261464440619 0 2.8683261464440619 -0.66833275897490974 0 0 0 0 139.47600018829417 41.465026176598343 0 41.465026176598343 -53.105230072225368 0 0 0 0 15.677919731180737 -21.596953779976843 0 -21.596953779976843 -1.9456815672049288 0 0 0 0 29.866881864544833 -24.581620095864032 0 -24.581620095864032 -1.091684019437543 0 0 0 0 1.2693607329100018 -26.514288500644206 0 -26.514288500644206 8.4138351401744789 0 0 0 0 35.315703011418513 -17.569695690905132 0 -17.569695690905132 5.9954845491348783 0 0 0 0 11.77671844678116 -23.272036142203092 0 -23.272036142203092 -5.574535054521931 0 0 0 0 73.838976553448447 -6.7902747447732956 0 -6.7902747447732956 9.6889557949313598 0 0 0 0 43.784847387779593 -0.0045688301426380917 0 -0.0045688301426380917 -2.9246958871298143 0 0 0 0 58.375530728724698 -10.564919794047018 0 -10.564919794047018 9.3811081228906801 0 0 0 0 54.493145020493102 -17.758132018260063 0 -17.758132018260063 12.842499295288192 0 0 0 0 63.126951737802301 -15.398680323349829 0 -15.398680323349829 5.9452482769689841 0 0 0 0 55.194542144468869 -19.063212278384242 0 -19.063212278384242 9.5815118077480861 0 0 0 0 58.160701529708604 -18.23428950284665 0 -18.23428950284665 4.9213600751752438 0 0 0 0 9.0348465561382714 -17.312298435438308 0 -17.312298435438308 3.9722899247359056 0 0 0 0 18.390665389924834 -111.95978051733053 0 -111.95978051733053 -58.733918090841001 0 0 0 0 66.71456676512021 -5.3782741812175594 0 -5.3782741812175594 -1.0449496623163557 0 0 0 0 167.55773641136443 -78.017978727267945 0 -78.017978727267945 -88.187762471733436 0 0 0 0 55.17723450713315 -16.304848711814664 0 -16.304848711814664 2.0047718674477775 0 0 0 0 67.843791549734306 -51.971186227114686 0 -51.971186227114686 -37.795358183301289 0 0 0 0 26.537711007159228 -8.6561696788545817 0 -8.6561696788545817 -1.0467351547168118 0 0 0 0 71.212568348484638 -19.656399314196051 0 -19.656399314196051 20.269389747045807 0 0 0 0 72.611258808825369 -14.864175443370414 0 -14.864175443370414 0.90835189658264426 0 0 0 0 45.395251537622244 2.0607903524507947 0 2.0607903524507947 -5.1307785123185567 0 0 0 0 69.76593630053685 -10.782810252527952 0 -10.782810252527952 -6.8205654633406994 0 0 0 0 74.022088218252975 -13.776202213509464 0 -13.776202213509464 -12.312057274553581 0 0 0 0 37.037226428614403 1.6121296805936218 0 1.6121296805936218 -5.1422169140100946 0 0 0 0 66.025128527018751 -14.788745358926121 0 -14.788745358926121 -21.244470579324684 0 0 0 0 20.228561107237361 -1.1426507274520752 0 -1.1426507274520752 -5.862403544018461 0 0 0 0 38.911077010731105 -35.783764751510041 0 -35.783764751510041 -1.4901314371180661 0 0 0 0 32.056865344260586 -4.9765274617984687 0 -4.9765274617984687 1.531755611722474 0 0 0 0 36.019459800503682 -11.250637861328869 0 -11.250637861328869 -21.285713854249877 0 0 0 0 82.434208623009908 -15.789486732376645 0 -15.789486732376645 0.40185925962032343 0 0 0 0 49.833238056759569 4.0264697278063943 0 4.0264697278063943 -5.0294234108243714 0 0 0 0 129.55829915366849 27.138880560021335 0 27.138880560021335 11.744052475774879 0 0 0 0 1.8933283638691591 -34.467706141395006 0 -34.467706141395006 18.780680702740028 0 0 0 0 46.300631290947599 -20.85478146847878 0 -20.85478146847878 2.343963289914349 0 0 0 0 1.5829490715164809 2.1193595332892121 0 2.1193595332892121 -0.13679664696159444 0 0 0 0 38.264965655233027 -12.154539659339756 0 -12.154539659339756 -7.378378402914711 0 0 0 0 13.487687260980806 -13.217540814310155 0 -13.217540814310155 23.939471033462723 0 0 0 0 86.679250769855571 22.210879649941489 0 22.210879649941489 36.246803066689608 0 0 0 0 10.398354242585334 -7.0319296755730907 0 -7.0319296755730907 -3.8451349694935173 0 0 0 0 124.26620549475592 59.317533572608681 0 59.317533572608681 56.768815977970007 0 0 0 0 171.81318945347084 34.013413929746321 0 34.013413929746321 5.754945567386585 0 0 0 0 119.26339669481604 38.755283715977839 0 38.755283715977839 22.955825436899431 0 0 0 0 82.539779894700359 -23.369855198830862 0 -23.369855198830862 5.6304237514734723 0 0 0 0 138.28212065742264 -44.377434847624954 0 -44.377434847624954 -38.36239196941051 0 0 0 0 26.32910514305636 -31.175643615306615 0 -31.175643615306615 6.7550228728798309 0 0 0 0 77.806076671324263 -24.370895715768597 0 -24.370895715768597 -3.5402747294565415 0 0 0 0 114.70830458142882 -16.3200908789089 0 -16.3200908789089 -14.744071704667476 0 0 0 0 89.463187682493299 11.444070348773039 0 11.444070348773039 32.556772438440703 0 0 0 0 82.518975761701654 -1.5790261637551453 0 -1.5790261637551453 3.7471509801287084 0 0 0 0 99.068964275151302 -5.6058287305658041 0 -5.6058287305658041 2.9819020245514167 0 0 0 0 81.337935899705371 13.718273551054551 0 13.718273551054551 11.756620292401294 0 0 0 0 45.458106974377415 -2.5030120270203042 0 -2.5030120270203042 20.423379256925386 0 0 0 0 168.82602708122795 -53.524769335697499 0 -53.524769335697499 -17.129598904253498 0 0 0 0 112.0646113717894 64.28882347157321 0 64.28882347157321 49.555366780488612 0 0 0 0 180.89019746359008 -45.974691419385408 0 -45.974691419385408 10.492947409978683 0 0 0 0 -79.001967949400523 -39.038686436111732 0 -39.038686436111732 71.792726032036171 0 0 0 0 12.23701725326478 -1.9636210816472419 0 -1.9636210816472419 -1.4386030291053906 0 0 0 0 15.755811339490903 -11.517785388347271 0 -11.517785388347271 -1.2084525579064165 0 0 0 0 61.156412178714234 12.889772890376548 0 12.889772890376548 41.814573454915148 0 0 0 0 11.503442137341263 -7.6197607049814629 0 -7.6197607049814629 -0.077572594419207608 0 0 0 0 51.080581881149556 -46.498323191584859 0 -46.498323191584859 -5.8274872935585336 0 0 0 0 125.38854016409603 23.999554691709733 0 23.999554691709733 3.0527253199842335 0 0 0 0 67.200887496088626 12.122565718414663 0 12.122565718414663 0.63355073801609763 0 0 0 0 9.1692481230186011 -4.035909669839949 0 -4.035909669839949 6.595297868672505 0 0 0 0 71.924563295649818 -24.136993926089303 0 -24.136993926089303 -1.9053425244048867 0 0 0 0 47.172991392333643 -10.448845509808223 0 -10.448845509808223 3.3884482305657002 0 0 0 0 174.71428722164273 17.921965947247443 0 17.921965947247443 23.050157039903524 0 0 0 0 10.580228784381131 -18.074313800262424 0 -18.074313800262424 0.44811391158382419 0 0 0 0 51.801010474154808 -8.7901240477133324 0 -8.7901240477133324 -6.7804236816749928 0 0 0 0 83.724584555386642 -5.841075823353961 0 -5.841075823353961 -0.52487243495397706 0 0 0 0 80.005030370004988 -0.38523891060970072 0 -0.38523891060970072 -8.5274642605613735 0 0 0 0 10.65223741605994 2.5559925736020865 0 2.5559925736020865 -3.3716742242907651 0 0 0 0 48.730509624682782 1.1910706718957726 0 1.1910706718957726 -0.55804138817723015 0 0 0 0 6.7984040296621178 15.000213459204677 0 15.000213459204677 1.3928752806855895 0 0 0 0 97.569198240327751 16.614229695734025 0 16.614229695734025 -13.033112621751798 0 0 0 0 107.03685663340002 34.791209788698097 0 34.791209788698097 21.75862745635402 0 0 0 0 116.30467661210059 -12.293967594758897 0 -12.293967594758897 -29.599246790391589 0 0 0 0 3.7462399854194142 15.407547936233595 0 15.407547936233595 3.4895928508037937 0 0 0 0 103.78196969282726 -0.83089292847551199 0 -0.83089292847551199 -3.5966996962071742 0 0 0 0 74.954027430437236 39.590870153018898 0 39.590870153018898 6.7540450953260915 0 0 0 0 79.620299310855899 12.788841556244847 0 12.788841556244847 0.073358252279820846 0 0 0 0 110.41313949253481 24.060368662415613 0 24.060368662415613 4.8180396168958168 0 0 0 0 105.74165198334617 7.1359438369512418 0 7.1359438369512418 -6.5070106088189732 0 0 0 0 13.177787278851685 -10.599107962915651 0 -10.599107962915651 -0.35695169810731064 0 0 0 0 6.3036784269449564 0.020462276817895919 0 0.020462276817895919 2.3077055981634826 0 0 0 0 53.477678445656323 3.3976884555881952 0 3.3976884555881952 14.898448901734241 0 0 0 0 3.7025813264619898 4.6400461190149747 0 4.6400461190149747 3.3432625251818129 0 0 0 0 51.663151992427402 3.6394443227451916 0 3.6394443227451916 -5.2981250242746682 0 0 0 0 138.04222263138763 23.372566771079846 0 23.372566771079846 0.23230788980686157 0 0 0 0 123.99530959182084 21.231827733602131 0 21.231827733602131 14.174738939243753 0 0 0 0 -13.356135932972393 -9.8177408649819427 0 -9.8177408649819427 12.037905431676336 0 0 0 0 6.8499819886710611 -12.791142229260913 0 -12.791142229260913 3.2742428405462078 0 0 0 0 12.345413980692683 -15.930374125913204 0 -15.930374125913204 4.1028985912492999 0 0 0 0 35.50476392382825 -5.4800763677848749 0 -5.4800763677848749 -7.0939624249131157 0 0 0 0 0.56052037048357306 2.7999047441634275 0 2.7999047441634275 3.7247315120639541 0 0 0 0 18.138107451537508 0.92411042191565684 0 0.92411042191565684 -3.0874716810226346 0 0 0 0 43.700961600252413 -5.3055423109910862 0 -5.3055423109910862 -1.8978869970142114 0 0 0 0 80.554501450401176 13.225159557653967 0 13.225159557653967 -0.38267312830321742 0 0 0 0 88.718802268312402 4.1344888845520416 0 4.1344888845520416 0.82836685714045188 0 0 0 0 12.789616740101275 -18.751278127196702 0 -18.751278127196702 0.75878113909065648 0 0 0 0 105.13702215583123 6.1284515522207244 0 6.1284515522207244 -4.2757076592550902 0 0 0 0 148.67924555382342 49.217314322606057 0 49.217314322606057 -3.6455731525661577 0 0 0 0 -2.1033810138960689 -23.246378490136067 0 -23.246378490136067 -25.045430631056661 0 0 0 0 0.46151404387875061 -3.3078666240506251 0 -3.3078666240506251 4.6375065900308829 0 0 0 0 154.95315176023178 -5.8913123939978078 0 -5.8913123939978078 41.060950787757065 0 0 0 0 -5.8324325024359496 -29.159202127938102 0 -29.159202127938102 -14.84483659304442 0 0 0 0 -16.303580308705023 -26.147652939108696 0 -26.147652939108696 6.1751821998723244 0 0 0 0 24.047953158349628 -27.283509264063923 0 -27.283509264063923 -2.6955859028839768 0 0 0 0 -2.0349682578325883 -27.613983426565483 0 -27.613983426565483 5.4265328940264226 0 0 0 0 4.5991556901353761 -25.435486243537525 0 -25.435486243537525 0.91341726578502858 0 0 0 0 5.1194458483223571 -28.68078276360302 0 -28.68078276360302 -0.21365432237053028 0 0 0 0 1.5663265389157459 -35.717919241632444 0 -35.717919241632444 -6.8830583566586938 0 0 0 0 -5.1891232595298789 -32.703381870639532 0 -32.703381870639532 0.39908903541709151 0 0 0 0 -3.9313719620477059 -22.459277655786991 0 -22.459277655786991 -15.342466133280595 0 0 0 0 1.0100183821335715 -2.2688919359447333 0 -2.2688919359447333 2.4562376062145459 0 0 0 0 21.23027650494987 -28.080766304680083 0 -28.080766304680083 -21.577859368651389 0 0 0 0 -20.363270851663401 -32.819856751709267 0 -32.819856751709267 -4.4685971045801125 0 0 0 0 -100.54624209422673 -37.15512955098535 0 -37.15512955098535 14.913715990988521 0 0 0 0 2.9907266396148771 -24.307219140080633 0 -24.307219140080633 -13.412424638754146 0 0 0 0 -63.243087234230188 -48.363876543152628 0 -48.363876543152628 1.3213166437299151 0 0 0 0 -49.753453768440522 4.879842605445333 0 4.879842605445333 -21.454489290762467 0 0 0 0 163.45303955791132 69.761865268651491 0 69.761865268651491 -45.42419172861139 0 0 0 0 91.880501041583088 18.867165231757269 0 18.867165231757269 5.9742931485969137 0 0 0 0 72.599177844992028 -8.2147122731120987 0 -8.2147122731120987 9.7880594657070219 0 0 0 0 134.97711475820756 -42.854328560496185 0 -42.854328560496185 70.74962781206159 0 0 0 0 12.432425185199611 -18.911336067429129 0 -18.911336067429129 1.1341927368161318 0 0 0 0 -60.377664551182534 -63.719985869145148 0 -63.719985869145148 -13.902961290206804 0 0 0 0 -51.058293728216086 -0.94388244931997178 0 -0.94388244931997178 -47.029123552960812 0 0 0 0 -42.110872313246546 -25.31798761576988 0 -25.31798761576988 9.7048637775351381 0 0 0 0 9.7986940498558397 -44.418073163271401 0 -44.418073163271401 -26.277988936890324 0 0 0 0 -31.320823683570779 -29.089200944742288 0 -29.089200944742288 -3.0285503604054611 0 0 0 0 -42.775902119032253 -56.397171882523708 0 -56.397171882523708 -41.663682048015289 0 0 0 0 268.48475251464561 41.485474028362091 0 41.485474028362091 5.9881964336526607 0 0 0 0 17.933249097125781 2.1909478098010027 0 2.1909478098010027 19.715219936544713 0 0 0 0 -0.013921882984910816 -0.3158131577996266 0 -0.3158131577996266 0.85787259066462696 0 0 0 0 79.812363803854396 -40.872585274438393 0 -40.872585274438393 49.62808249271643 0 0 0 0 -0.58519900420156667 5.2531295820032966 0 5.2531295820032966 7.6505961372507123 0 0 0 0 71.206109450484988 -3.8404425584508033 0 -3.8404425584508033 15.437477414584919 0 0 0 0 234.11702467265332 -89.775891697797647 0 -89.775891697797647 37.229372580567542 0 0 0 0 157.92523358750509 -34.131563626345184 0 -34.131563626345184 -2.1679334388406915 0 0 0 0 96.554850855263595 19.631012328956203 0 19.631012328956203 12.091339574334143 0 0 0 0 6.6135853906544382 4.5891486562708073 0 4.5891486562708073 11.387859569715999 0 0 0 0 12.41912288170175 -17.429960957861379 0 -17.429960957861379 0.94318603645022758 0 0 0 0 192.7128564363822 24.613687216584125 0 24.613687216584125 21.040595066618152 0 0 0 0 -31.821459136166027 34.915522157726024 0 34.915522157726024 -26.196324353382352 0 0 0 0 35.362087197424614 -8.9253077618499539 0 -8.9253077618499539 12.31611084846978 0 0 0 0 32.552855182930728 -13.580922778411789 0 -13.580922778411789 39.578421236305076 0 0 0 0 169.75167011231679 602.31543865319099 0 602.31543865319099 -257.93064677875145 0 0 0 0 5.0126111537811537 -10.320205606641787 0 -10.320205606641787 0.017995956348370701 0 0 0 0 551.58466942767154 -106.60477937486075 0 -106.60477937486075 -255.95466440345899 0 0 0 0 2.0002101409795561 2.3643187077074312 0 2.3643187077074312 3.0170150578965851 0 0 0 0 -72.097682467777304 113.89076906310254 0 113.89076906310254 -8.920152498850257 0 0 0 0 -64.580508694865784 -79.175053541860507 0 -79.175053541860507 31.679617671345113 0 0 0 0 -69.609537078786502 -20.219538395697541 0 -20.219538395697541 46.409207083819638 0 0 0 0 12.175077949088518 -25.354335265965119 0 -25.354335265965119 -5.5613083041662321 0 0 0 0 -155.85906063250604 -32.447169365801926 0 -32.447169365801926 46.265725538483593 0 0 0 0 0.31576146456853138 -0.70179177853450625 0 -0.70179177853450625 0.77946383454438362 0 0 0 0 227.01841397041972 97.288302912201402 0 97.288302912201402 -112.90263370197272 0 0 0 0 -1.2121427462134307 -59.935146465362777 0 -59.935146465362777 29.179988366981974 0 0 0 0 68.971917636999933 -102.42325211258549 0 -102.42325211258549 95.093341150287415 0 0 0 0 67.628926736189896 9.988661506004064 0 9.988661506004064 -43.862336446632071 0 0 0 0 -17.592411199027993 -33.293636322820134 0 -33.293636322820134 45.407263553158373 0 0 0 0 1.5291243460524129 -30.014211922146615 0 -30.014211922146615 31.068270953427827 0 0 0 0 11.179206705708566 -22.597589173868073 0 -22.597589173868073 15.311836263768896 0 0 0 0 11.765341048332857 3.5581637431643145 0 3.5581637431643145 -11.572907850911179 0 0 0 0 4.6331742049349813 1.5657327924997402 0 1.5657327924997402 0.18544462350029312 0 0 0 0 25.984105308534708 -16.185890889377902 0 -16.185890889377902 4.5120022869995182 0 0 0 0 8.2693857393660437 -5.3456956252332475 0 -5.3456956252332475 9.6935950873702268 0 0 0 0 18.549995017665424 -10.613550676709337 0 -10.613550676709337 7.9248278066170315 0 0 0 0 22.987568431544787 -11.464127299044094 0 -11.464127299044094 -2.2328772412301987 0 0 0 0 8.0814271114550067 -1.5566494168125535 0 -1.5566494168125535 2.5430663269340625 0 0 0 0 15.916988950510586 -14.039977772771891 0 -14.039977772771891 3.4720983476763649 0 0 0 0 12.738344072053042 -17.570559942344868 0 -17.570559942344868 3.2182509324611468 0 0 0 0 7.9168185688731949 0.22342483364878518 0 0.22342483364878518 5.4038202577703283 0 0 0 0 78.394491442323897 0.88976212163848167 0 0.88976212163848167 1.3738979860953577 0 0 0 0 134.5288995822375 -149.17123586629725 0 -149.17123586629725 99.960245557311779 0 0 0 0 24.740418871326256 -9.1895325992492189 0 -9.1895325992492189 0.71232971986705707 0 0 0 0 80.410654232669458 87.320368412636071 0 87.320368412636071 -7.673469796416839 0 0 0 0 132.83896093509929 53.096412478556452 0 53.096412478556452 -8.3807248300361152 0 0 0 0 -13.232938785891747 110.5336420257172 0 110.5336420257172 -45.761637448404777 0 0 0 0 51.265931336022263 21.710785328293341 0 21.710785328293341 -3.5301591891349799 0 0 0 0 77.307376720667889 28.153787905208105 0 28.153787905208105 -17.543445085257531 0 0 0 0 19.246057522768741 -16.770233761665111 0 -16.770233761665111 -0.94622336292040865 0 0 0 0 69.889132449887256 15.617643741790168 0 15.617643741790168 35.091038353250696 0 0 0 0 57.710940864248187 -16.35940434869795 0 -16.35940434869795 3.1457533765942571 0 0 0 0 65.676630028341606 3.7322081341623061 0 3.7322081341623061 7.1719110668749408 0 0 0 0 68.169839594100267 1.4423040936639495 0 1.4423040936639495 2.7562472127879118 0 0 0 0 -0.92004738925449869 0.68088422050680819 0 0.68088422050680819 2.9126076452971139 0 0 0 0 101.66498330856029 -27.315482536392864 0 -27.315482536392864 5.6865262663995964 0 0 0 0 1.8497093739240142 -0.75115617745196417 0 -0.75115617745196417 0.062732216423910359 0 0 0 0 113.11659387436339 37.571981442063731 0 37.571981442063731 -21.934997800879501 0 0 0 0 15.105267954614888 17.133730678278226 0 17.133730678278226 -11.95983750756622 0 0 0 0 7.8034833595447708 8.0541044758233511 0 8.0541044758233511 -6.0811295159014662 0 0 0 0 -28.944698681152659 15.231244092370162 0 15.231244092370162 -38.469785897184465 0 0 0 0 -0.15508041060820688 22.995912006867457 0 22.995912006867457 -25.469582578591144 0 0 0 0 -7.9033307341688896 2.0107536257395857 0 2.0107536257395857 2.0724325650804172 0 0 0 0 -53.163022340944735 -80.256793446847041 0 -80.256793446847041 -42.949748822518814 0 0 0 0 -72.664228531939443 -148.51804615636502 0 -148.51804615636502 -88.766742171543228 0 0 0 0 -15.864646871406876 35.580954145512806 0 35.580954145512806 -34.844761328440654 0 0 0 0 -16.612180112257192 34.518876565875644 0 34.518876565875644 -36.256980445639783 0 0 0 0 -35.640503959613852 23.441746676830007 0 23.441746676830007 119.19738701922961 0 0 0 0 5.0616170471204214 9.325563322143763 0 9.325563322143763 2.0781047818180092 0 0 0 0 20.39502271015732 9.5907065391820403 0 9.5907065391820403 -9.9360990121862027 0 0 0 0 2.2525211775210749 1.8359721243876681 0 1.8359721243876681 1.305560551170867 0 0 0 0 -15.958971125179232 41.718128369959459 0 41.718128369959459 -36.898682100425503 0 0 0 0 2.7289258158841463 -0.8972983949594564 0 -0.8972983949594564 -0.89259309348525306 0 0 0 0 -65.238730177516118 -44.966111363891287 0 -44.966111363891287 -20.450784612090501 0 0 0 0 -1.5912099395663972 4.3634282268523066 0 4.3634282268523066 9.1105883940501826 0 0 0 0 56.347691973101973 -28.130881826105679 0 -28.130881826105679 16.945101746302612 0 0 0 0 51.080986087848942 33.713864751108758 0 33.713864751108758 -11.825658312990896 0 0 0 0 45.385326825449738 -4.9722217694857136 0 -4.9722217694857136 -8.4355800105840899 0 0 0 0 6.3612268988427152 0.80830134712435964 0 0.80830134712435964 0.019321061875799295 0 0 0 0 14.568804779903076 3.8810263629398492 0 3.8810263629398492 -4.8048968371399496 0 0 0 0 13.011271089564616 12.204726763183885 0 12.204726763183885 8.5951037145505325 0 0 0 0 29.186804955990738 5.1635629349900682 0 5.1635629349900682 3.9408468593948101 0 0 0 0 18.370360060798703 11.542002220507584 0 11.542002220507584 9.4448503218472979 0 0 0 0 66.812585047380708 19.947184978774999 0 19.947184978774999 4.9895206310891353 0 0 0 0 30.370392409429883 17.646112390580839 0 17.646112390580839 22.96292586012396 0 0 0 0 40.01833013713258 4.3273005396781627 0 4.3273005396781627 17.369299084614795 0 0 0 0 17.304681085344782 7.4713062009199689 0 7.4713062009199689 27.25886855545059 0 0 0 0 13.570934342584223 -7.0174489122870227 0 -7.0174489122870227 7.4256577885771549 0 0 0 0 38.837049620211474 -25.223083714600307 0 -25.223083714600307 -7.1238761661020362 0 0 0 0 63.456890086792555 44.261994062248505 0 44.261994062248505 -77.647389108764401 0 0 0 0 138.40096695996181 -122.14010087955648 0 -122.14010087955648 5.4178087268942363 0 0 0 0 313.91689567147841 -163.7730439585041 0 -163.7730439585041 12.171008605201337 0 0 0 0 278.73690446048204 -64.621871679534024 0 -64.621871679534024 -65.154869607542423 0 0 0 0 207.17588002757839 -74.333246137136712 0 -74.333246137136712 -34.58088156052554 0 0 0 0 213.19504837606655 -58.825199441492714 0 -58.825199441492714 -47.410964478309324 0 0 0 0 104.17317641363479 -18.976595364275681 0 -18.976595364275681 1.167886514170732 0 0 0 0 78.458568115071103 -43.358498065188769 0 -43.358498065188769 -18.158149936202562 0 0 0 0 86.620358729764121 70.265958109193207 0 70.265958109193207 69.858252698389379 0 0 0 0 -85.086793343893078 -79.213958601825198 0 -79.213958601825198 -16.538587205130625 0 0 0 0 138.27900095067162 159.68304308244046 0 159.68304308244046 52.325572467981146 0 0 0 0 6.8991003664167039 4.2401875620814415 0 4.2401875620814415 2.1907531492561727 0 0 0 0 -3.6993324152790592 183.98796221929592 0 183.98796221929592 -112.07513728627718 0 0 0 0 -37.497929990669945 -1.5523025715920085 0 -1.5523025715920085 -119.49060976242436 0 0 0 0 -72.564709593978478 25.212241205685132 0 25.212241205685132 -68.438629867011514 0 0 0 0 -63.32565684500878 55.35898715131998 0 55.35898715131998 29.883010268790258 0 0 0 0 6.0280398557733861 268.63482120781782 0 268.63482120781782 60.737584734393522 0 0 0 0 -19.395886681362754 63.294120639622861 0 63.294120639622861 107.07594076177747 0 0 0 0 -3.094758505111713 43.380591156021552 0 43.380591156021552 -18.349181326281723 0 0 0 0 2.6129628382541057 1.5832474210347662 0 1.5832474210347662 1.9040626011057533 0 0 0 0 -148.70951535113272 -252.08231589453726 0 -252.08231589453726 -120.11782673805828 0 0 0 0 94.785392256599152 18.426354767844032 0 18.426354767844032 -209.25178930363199 0 0 0 0 7.3572748277131979 4.374967169070203 0 4.374967169070203 2.2076843032467188 0 0 0 0 274.90956404570898 356.4224764979449 0 356.4224764979449 62.336482682467704 0 0 0 0 148.62499694408689 52.268548810485754 0 52.268548810485754 -82.122942172325565 0 0 0 0 19.660838747469825 -87.512375466742355 0 -87.512375466742355 -19.401262782181902 0 0 0 0 88.202480465763074 17.862537444325767 0 17.862537444325767 -101.47347383103306 0 0 0 0 80.778662391068792 119.89062086140245 0 119.89062086140245 27.022893233563082 0 0 0 0 -51.294594632374356 109.29799396606677 0 109.29799396606677 63.915081541504151 0 0 0 0 -45.861967348995677 43.559955370967486 0 43.559955370967486 -18.795568974577691 0 0 0 0 44.447477666044961 22.929057369116663 0 22.929057369116663 -9.9686113605630453 0 0 0 0 13.122283654249259 43.888433776683883 0 43.888433776683883 26.079508550222158 0 0 0 0 53.661239200193393 20.648879258857576 0 20.648879258857576 -2.3724396507854557 0 0 0 0 -26.568008109617949 121.06451263445223 0 121.06451263445223 -109.15659624698796 0 0 0 0 28.316340148902782 -27.286172942294229 0 -27.286172942294229 37.218152624669528 0 0 0 0 58.709264795954368 46.640845413387837 0 46.640845413387837 -66.153653428992413 0 0 0 0 -43.382462983863661 69.804153968658355 0 69.804153968658355 53.900912797215597 0 0 0 0 -74.908495592841064 -29.48324916875896 0 -29.48324916875896 19.526302002663215 0 0 0 0 -37.034236351418258 72.292684646187695 0 72.292684646187695 177.36322234013892 0 0 0 0 2.6527133626442065 1.9877021861999147 0 1.9877021861999147 1.4876339043668723 0 0 0 0 244.15948472619493 178.0663008372785 0 178.0663008372785 19.514907362535325 0 0 0 0 134.245196110297 -29.45786860596278 0 -29.45786860596278 -69.345638956225457 0 0 0 0 67.278021512116538 139.92240876097907 0 139.92240876097907 -91.3864201792952 0 0 0 0 53.676467930166005 20.683334960291738 0 20.683334960291738 -3.3333638334632552 0 0 0 0 95.440894697846488 -2.6030163313732828 0 -2.6030163313732828 -40.55064337249587 0 0 0 0 142.43960018090729 17.079013295941195 0 17.079013295941195 -47.514022163696154 0 0 0 0 198.78591553469232 47.829904573190106 0 47.829904573190106 -30.870939144253043 0 0 0 0 31.468387915348103 38.298737894727083 0 38.298737894727083 41.898084813334208 0 0 0 0 -25.512385143044185 -5.6376530473054913 0 -5.6376530473054913 -2.2272093022543231 0 0 0 0 93.662500493411244 4.8918807094739805 0 4.8918807094739805 -33.107121469102367 0 0 0 0 -50.344027645324786 -17.509512206712543 0 -17.509512206712543 5.0504361542639344 0 0 0 0 -61.760343856693908 83.833206262780777 0 83.833206262780777 -65.283077092670737 0 0 0 0 6.8159291375492881 7.1460534749078599 0 7.1460534749078599 7.3058446755918638 0 0 0 0 142.29303197053656 12.66714181787151 0 12.66714181787151 3.857320190263863 0 0 0 0 46.317564654691523 -40.950946320733465 0 -40.950946320733465 79.611200877061833 0 0 0 0 -151.83897409894507 199.47010316893807 0 199.47010316893807 131.83242741429513 0 0 0 0 9.0968839671047874 10.874408452641932 0 10.874408452641932 11.542868748820609 0 0 0 0 104.38972634290712 -73.5959083530106 0 -73.5959083530106 -17.414059922065007 0 0 0 0 23.485247969328611 33.930441470747041 0 33.930441470747041 34.138892464546188 0 0 0 0 20.462418086590674 -23.426643027860948 0 -23.426643027860948 33.072227287464102 0 0 0 0 189.67145705914118 -60.198856861094782 0 -60.198856861094782 28.095886263236935 0 0 0 0 67.929744338112869 -19.272143544860796 0 -19.272143544860796 44.680338140027516 0 0 0 0 31.790287509304108 33.522726525184758 0 33.522726525184758 -5.7656703803286291 0 0 0 0 7.8386617722397141 -6.2382947100920347 0 -6.2382947100920347 -3.1938159860889743 0 0 0 0 107.44597667439848 112.24155101225733 0 112.24155101225733 102.88036756065503 0 0 0 0 2.1178771342317901 2.1867051355855267 0 2.1867051355855267 0.31112446252941339 0 0 0 0 97.777084716757599 -143.88433559910209 0 -143.88433559910209 158.79676512810863 0 0 0 0 65.887403358630763 96.244729252217439 0 96.244729252217439 -151.44419076398026 0 0 0 0 18.639720030744151 11.160000423922597 0 11.160000423922597 10.335085070878598 0 0 0 0 305.76590241407575 -36.760938807479306 0 -36.760938807479306 -146.09330783431597 0 0 0 0 61.476249159964027 -46.061384791441256 0 -46.061384791441256 -49.802591537695662 0 0 0 0 26.535916930090934 -23.260331038752156 0 -23.260331038752156 -30.091564445362565 0 0 0 0 53.227912679845005 -10.821797767088354 0 -10.821797767088354 -20.550274518402254 0 0 0 0 10.542611271794613 -55.723698782458769 0 -55.723698782458769 -2.114614791902568 0 0 0 0 89.043498837358129 17.637095040769168 0 17.637095040769168 11.875465416729639 0 0 0 0 105.20771728174623 38.611295605312534 0 38.611295605312534 -16.582247885108927 0 0 0 0 35.974434015410225 9.2401566617354547 0 9.2401566617354547 9.7119328528176538 0 0 0 0 63.400710233558129 3.2979035497078257 0 3.2979035497078257 -28.019203934224151 0 0 0 0 68.529561106119218 9.913812356313267 0 9.913812356313267 -8.3176704189249673 0 0 0 0 64.08654961722641 -4.6781902732818708 0 -4.6781902732818708 -16.486604996865935 0 0 0 0 43.043284325527551 14.642185156729475 0 14.642185156729475 -7.353511710307103 0 0 0 0 33.634792496151931 2.760496005659661 0 2.760496005659661 6.3792171177210548 0 0 0 0 71.005964815801562 -3.6646991545135243 0 -3.6646991545135243 0.46258970760869822 0 0 0 0 18.450708894678144 -2.0140705985269491 0 -2.0140705985269491 -5.5484675707676114 0 0 0 0 43.716864444944804 7.6740544817862428 0 7.6740544817862428 20.687813027155329 0 0 0 0 47.952581062769241 4.1370287984141214 0 4.1370287984141214 5.4300440460865502 0 0 0 0 45.537265967388521 4.3549983703242106 0 4.3549983703242106 6.3340389592069641 0 0 0 0 33.794340344591305 8.0379462830528823 0 8.0379462830528823 4.1730430796303395 0 0 0 0 23.174011384158803 24.750786602770461 0 24.750786602770461 -18.384773677358908 0 0 0 0 46.974746853855322 3.3405107814905932 0 3.3405107814905932 6.3337971887302729 0 0 0 0 48.288118680846161 -7.4143822752772444 0 -7.4143822752772444 -8.7376410307379633 0 0 0 0 11.292919762219105 26.71744337291895 0 26.71744337291895 18.233316867345515 0 0 0 0 38.680163937919133 12.668323138861183 0 12.668323138861183 13.523376096288445 0 0 0 0 35.501937293627932 22.800077754361361 0 22.800077754361361 14.71127728101713 0 0 0 0 83.237738689053003 29.157568958842148 0 29.157568958842148 -10.899147036397153 0 0 0 0 29.658618484087796 12.810422734763064 0 12.810422734763064 9.8992163517896188 0 0 0 0 30.954332547937156 14.747956596683252 0 14.747956596683252 11.428066021429004 0 0 0 0 36.592634745510509 11.084951659543265 0 11.084951659543265 18.0302917139893 0 0 0 0 -6.4353326080672559 48.616059939377919 0 48.616059939377919 102.34440804920632 0 0 0 0 28.825821684077397 27.882912896833098 0 27.882912896833098 18.579039101704293 0 0 0 0 15.260905752125836 124.85250802193696 0 124.85250802193696 218.82759935647118 0 0 0 0 180.24040052917917 105.8554471224079 0 105.8554471224079 -59.904193043897976 0 0 0 0 101.46365380796487 72.91491338132073 0 72.91491338132073 -14.339124651298334 0 0 0 0 591.53491129499162 472.43225445573444 0 472.43225445573444 -1064.6128783379172 0 0 0 0 62.718518542147649 266.63900180065775 0 266.63900180065775 9.0139670399585157 0 0 0 0 81.041480373085506 525.55213154115063 0 525.55213154115063 -945.34434911634889 0 0 0 0 -12.091899960492427 3.8278718799438494 0 3.8278718799438494 9.4958219940168611 0 0 0 0 -113.1101167240613 1505.2660005332059 0 1505.2660005332059 1645.2657726150683 0 0 0 0 1988.3756391939642 -678.94548738620506 0 -678.94548738620506 -1782.3575819597027 0 0 0 0 569.3886656097111 -20.948571699389504 0 -20.948571699389504 73.925085960163415 0 0 0 0 287.33045858438709 -541.96632127676548 0 -541.96632127676548 684.9146908352659 0 0 0 0 -441.27076947613205 -97.717119743012063 0 -97.717119743012063 323.49411928836616 0 0 0 0 27.711290144317758 10.307852184269628 0 10.307852184269628 9.6286178852813293 0 0 0 0 0.61429384673473475 -6.3599105701341117 0 -6.3599105701341117 23.033308443494033 0 0 0 0 36.544488735002233 1.5314696692327487 0 1.5314696692327487 15.616369420768933 0 0 0 0 44.761698256173986 -1.7049106158942777 0 -1.7049106158942777 16.475450630994146 0 0 0 0 -291.55376503959633 60.417311359250562 0 60.417311359250562 213.01311451806941 0 0 0 0 202.00546721217324 -99.712977811374458 0 -99.712977811374458 -148.92663560087112 0 0 0 0 201.29975990066862 -48.222941822633494 0 -48.222941822633494 52.284131537577196 0 0 0 0 -145.06053367484674 -166.67234355613542 0 -166.67234355613542 19.030741975378739 0 0 0 0 118.0294714778347 6.3190152547275602 0 6.3190152547275602 -42.46265802516416 0 0 0 0 25.371228840750533 -18.705076908523932 0 -18.705076908523932 -2.7022115621077347 0 0 0 0 39.052465968083197 -7.3436179510462125 0 -7.3436179510462125 13.12425375133563 0 0 0 0 6.5845610446141798 -8.6012091140483626 0 -8.6012091140483626 11.965722826698308 0 0 0 0 95.214434967772831 -19.726899403720893 0 -19.726899403720893 -52.78249475564175 0 0 0 0 56.454273022139901 17.619001473825175 0 17.619001473825175 -4.4094215154135625 0 0 0 0 70.89086513791699 33.418103936131956 0 33.418103936131956 -18.131371467188728 0 0 0 0 106.63538329876974 -1.341032868115775 0 -1.341032868115775 -86.342550781387672 0 0 0 0 104.81365380212446 -14.994729738108532 0 -14.994729738108532 -51.132370920851827 0 0 0 0 39.557886427727446 -17.576712887724 0 -17.576712887724 -0.058877124202207476 0 0 0 0 63.654869100300857 -25.384740997423648 0 -25.384740997423648 -0.54478171452933566 0 0 0 0 44.558693814982689 -0.30623227524756658 0 -0.30623227524756658 8.9001926781156726 0 0 0 0 50.45185602986021 -58.793788103523184 0 -58.793788103523184 11.167177548373729 0 0 0 0 88.291644741639175 -90.034571267146475 0 -90.034571267146475 13.038912871310458 0 0 0 0 108.88869121343669 -4.983141702976809 0 -4.983141702976809 -203.14378137948734 0 0 0 0 82.458981042585947 -99.460569316843248 0 -99.460569316843248 -113.10503309908017 0 0 0 0 67.723146311179136 12.087702838826822 0 12.087702838826822 -1.6056020473772925 0 0 0 0 176.87391004725578 79.651500962946557 0 79.651500962946557 -547.19358494437438 0 0 0 0 48.635104917830425 9.3862605826787799 0 9.3862605826787799 0.63344281998031882 0 0 0 0 155.04856888531504 -121.81604108736428 0 -121.81604108736428 -421.49833889306501 0 0 0 0 12.214858099068806 41.697788940855844 0 41.697788940855844 -240.17454002300292 0 0 0 0 124.13222415275231 -261.25815321266327 0 -261.25815321266327 -9.166516429888361 0 0 0 0 11.475507225686471 -1.3734385896194152 0 -1.3734385896194152 0.74234946815216141 0 0 0 0 -831.1615082084918 34.26346299516581 0 34.26346299516581 744.0860277046886 0 0 0 0 156.00689010817223 73.173049879764221 0 73.173049879764221 -170.26437538308755 0 0 0 0 292.08642692603098 -113.67524923955807 0 -113.67524923955807 -103.09071612179832 0 0 0 0 200.40409074964646 -177.35004655694206 0 -177.35004655694206 380.39790007902775 0 0 0 0 526.10993463993873 -221.67311628566767 0 -221.67311628566767 -8.2358577446593699 0 0 0 0 422.60184202935488 -25.079868815809277 0 -25.079868815809277 -119.0201257268418 0 0 0 0 378.63475483016373 -7.4053170410661551 0 -7.4053170410661551 -16.801042410302671 0 0 0 0 714.68144715686503 -202.32587107906329 0 -202.32587107906329 -13.131932425421837 0 0 0 0 1434.9027823451615 -1160.8779667117415 0 -1160.8779667117415 -482.70412763631248 0 0 0 0 1416.5047128031656 1081.9793274579533 0 1081.9793274579533 -278.91867838320286 0 0 0 0 535.46923692173732 -870.26077661460658 0 -870.26077661460658 601.91082519155134 0 0 0 0 19.479928032283567 3.4110333528865198 0 3.4110333528865198 0.31343455786547381 0 0 0 0 793.45078903679678 14.419435883617552 0 14.419435883617552 28.95660797851815 0 0 0 0 570.35630244060303 -24.792537488288872 0 -24.792537488288872 82.436661511018883 0 0 0 0 449.93460123041223 -18.779349251688473 0 -18.779349251688473 -27.925396553120208 0 0 0 0 467.89354821739244 228.42592565095816 0 228.42592565095816 65.872102473331324 0 0 0 0 501.80377253479674 82.978902505898077 0 82.978902505898077 54.043857602286153 0 0 0 0 447.53916683717398 -106.36207703442778 0 -106.36207703442778 28.897931470481126 0 0 0 0 859.74262876712601 221.34379843282409 0 221.34379843282409 -49.17023808268641 0 0 0 0 177.34587734748857 -72.884631720626743 0 -72.884631720626743 -36.811891408990249 0 0 0 0 408.39566116827336 32.915347055762368 0 32.915347055762368 -84.108721139399677 0 0 0 0 451.87820427598672 191.27990301347 0 191.27990301347 -6.4177808269698744 0 0 0 0 593.84333446538767 459.18321655541104 0 459.18321655541104 261.28178352188115 0 0 0 0 -34.937337508684323 312.03794000176578 0 312.03794000176578 56.004454487353087 0 0 0 0 -67.302240823578359 83.472281000976977 0 83.472281000976977 202.27765591468415 0 0 0 0 32.784961503410173 -9.0832869340624285 0 -9.0832869340624285 -1.9065937181324077 0 0 0 0 260.33707424886597 260.36219111015981 0 260.36219111015981 147.40495687749558 0 0 0 0 304.24948046120335 -13.198772337394075 0 -13.198772337394075 -4.3521457508804247 0 0 0 0 3.435038531509008 -1.7555021171222407 0 -1.7555021171222407 4.1592003408425722 0 0 0 0 4.9945979115291266 -68.251055543737493 0 -68.251055543737493 256.58926603561031 0 0 0 0 -108.59294654264886 91.278420022656064 0 91.278420022656064 39.394741452107155 0 0 0 0 -162.24493977264638 484.10714610865404 0 484.10714610865404 9.1794066742622817 0 0 0 0 184.47779906889423 17.302774256746691 0 17.302774256746691 25.905362734849859 0 0 0 0 196.12703400827741 228.79600749192696 0 228.79600749192696 80.643351140680352 0 0 0 0 238.76637950307168 -20.495452026655045 0 -20.495452026655045 -13.685593669134505 0 0 0 0 233.02028934187183 24.605024176303004 0 24.605024176303004 -2.5376471738248938 0 0 0 0 68.195964267455565 69.924775764201513 0 69.924775764201513 39.431145681694488 0 0 0 0 258.09234028106221 102.32892490541883 0 102.32892490541883 97.831524517804269 0 0 0 0 249.14339903744258 -18.916497220005112 0 -18.916497220005112 -18.029645488972164 0 0 0 0 326.86106026891139 43.93838629392409 0 43.93838629392409 -70.634168943526959 0 0 0 0 163.69577596233285 74.657911793707854 0 74.657911793707854 -25.436112543908166 0 0 0 0 348.35398321700995 -106.94872632761235 0 -106.94872632761235 53.513970092871205 0 0 0 0 343.40032829671316 30.790282057458164 0 30.790282057458164 -28.481033772052797 0 0 0 0 6.6898022162920654 -3.1376896918156447 0 -3.1376896918156447 -1.0843088485376313 0 0 0 0 -32.420724567647994 -75.63813954318357 0 -75.63813954318357 245.37752170927342 0 0 0 0 193.36462286631377 468.06676738852218 0 468.06676738852218 -172.18934723141138 0 0 0 0 176.6280439668335 -27.260629562922986 0 -27.260629562922986 -522.33619205738796 0 0 0 0 42.396445340502396 -497.66274009932374 0 -497.66274009932374 -25.806418200683765 0 0 0 0 0.72141422199159422 -1.2478627377293279 0 -1.2478627377293279 -9.1907639865052744 0 0 0 0 -0.0072644050378585234 134.72615815339668 0 134.72615815339668 -240.19615416404122 0 0 0 0 -65.925603531541128 62.332158217918732 0 62.332158217918732 -24.161506743443169 0 0 0 0 77.971906204395054 -45.708492992735046 0 -45.708492992735046 -277.83737637162085 0 0 0 0 183.13580950038704 148.01597737026077 0 148.01597737026077 -143.07633958647602 0 0 0 0 219.67472620800982 58.50600177504657 0 58.50600177504657 -467.3478286889349 0 0 0 0 121.31223294242227 15.007224563099953 0 15.007224563099953 334.04742290527247 0 0 0 0 127.82483147940093 111.34458459221398 0 111.34458459221398 -134.1936500487991 0 0 0 0 84.923607809468194 93.702846311054941 0 93.702846311054941 -166.46820866443795 0 0 0 0 37.369717668891099 70.651277858836693 0 70.651277858836693 -156.17825806876863 0 0 0 0 -68.263072856712824 226.53608618387261 0 226.53608618387261 -172.17489765368771 0 0 0 0 446.74875781148148 56.411397633949491 0 56.411397633949491 8.7286666382233307 0 0 0 0 13.844912148438326 17.704116343193938 0 17.704116343193938 23.566730580881263 0 0 0 0 70.003184886432791 -64.742835892249644 0 -64.742835892249644 26.994655913764745 0 0 0 0 -28.497643535025418 -6.7243937682817432 0 -6.7243937682817432 76.034877498634614 0 0 0 0 71.460090290071093 -49.415588004205404 0 -49.415588004205404 183.35122539858872 0 0 0 0 101.1640692425899 -29.803035536046906 0 -29.803035536046906 -36.305067049199977 0 0 0 0 333.41246400961973 -120.68918904132804 0 -120.68918904132804 -3.9799714553868171 0 0 0 0 35.98638592217867 -94.458004256422484 0 -94.458004256422484 -20.04767043933748 0 0 0 0 -12.079617072849942 -19.225159214144242 0 -19.225159214144242 18.00881155421672 0 0 0 0 39.413475042860227 -80.78205427218154 0 -80.78205427218154 -37.917582540346984 0 0 0 0 6.270820626783177 -10.045793223718519 0 -10.045793223718519 3.7532235663892095 0 0 0 0 8.2710628897600689 -20.133861610308095 0 -20.133861610308095 -17.936357987107037 0 0 0 0 19.248697696424642 -37.315657260037369 0 -37.315657260037369 -18.73136915431769 0 0 0 0 -33.188777350194869 -49.807152021008733 0 -49.807152021008733 18.717670139159964 0 0 0 0 -45.094847911965189 -37.574656314437561 0 -37.574656314437561 33.675719579583301 0 0 0 0 -15.913120069159049 -11.397849194910805 0 -11.397849194910805 -55.867639823834452 0 0 0 0 -21.810802902444266 13.725920246563192 0 13.725920246563192 -30.436447136806237 0 0 0 0 181.83092846813634 -45.220490167662319 0 -45.220490167662319 -68.608420189357275 0 0 0 0 6.049571651388753 -15.938509208752677 0 -15.938509208752677 -29.06468405308912 0 0 0 0 20.734733854878868 43.641404777295975 0 43.641404777295975 46.620741881949925 0 0 0 0 184.0239343428475 -76.347044914511571 0 -76.347044914511571 -216.83306009367516 0 0 0 0 -1.9595326151468981 -2.0713570896200295 0 -2.0713570896200295 -4.364572351749235 0 0 0 0 18.332236098482099 4.6660529011851395 0 4.6660529011851395 -4.5369573285700255 0 0 0 0 11.696484773427073 27.827634324561814 0 27.827634324561814 8.2165819423082098 0 0 0 0 96.309654199245415 79.356966039584449 0 79.356966039584449 -25.675780768422555 0 0 0 0 116.93075583062455 -13.154911547296365 0 -13.154911547296365 -49.980671725345246 0 0 0 0 203.35880406879733 111.98966102865734 0 111.98966102865734 112.24391946930439 0 0 0 0 423.33629722490878 9.1602877386878845 0 9.1602877386878845 -54.45732944731526 0 0 0 0 116.91235896639409 22.382845897800053 0 22.382845897800053 -28.691335537174496 0 0 0 0 219.4310549592501 10.481812151131578 0 10.481812151131578 -51.169303703276455 0 0 0 0 193.61901611291978 1.409647021308956 0 1.409647021308956 -30.196713434822826 0 0 0 0 175.0578825717821 -18.164544497715042 0 -18.164544497715042 -9.4616857896453439 0 0 0 0 106.6792245047086 6.3800544658485308 0 6.3800544658485308 11.019141726496855 0 0 0 0 134.04728587215504 21.390613034731587 0 21.390613034731587 -7.8511895664605618 0 0 0 0 107.00175595541077 7.1828574951147175 0 7.1828574951147175 -6.8713751274672177 0 0 0 0 103.49300121917258 -1.7632449571892721 0 -1.7632449571892721 -16.246269468621904 0 0 0 0 40.526509338720643 25.409937041159083 0 25.409937041159083 4.5873518866483209 0 0 0 0 75.505553341885388 24.915183340801832 0 24.915183340801832 -8.6424336833765096 0 0 0 0 67.885994726912031 14.588833067967244 0 14.588833067967244 -11.045106692174159 0 0 0 0 74.799252026539762 30.621443502952843 0 30.621443502952843 -10.24013971483464 0 0 0 0 97.394748202354094 8.682581056847539 0 8.682581056847539 -3.3173275911676683 0 0 0 0 45.192060234076052 41.752402992339967 0 41.752402992339967 6.0610645597463133 0 0 0 0 27.012131948307797 10.210726443151771 0 10.210726443151771 -7.3724220178701216 0 0 0 0 43.140580455401505 17.468856729432218 0 17.468856729432218 -7.1335670945291554 0 0 0 0 3.3658690932847044 3.1395486072130154 0 3.1395486072130154 0.1858820879000227 0 0 0 0 44.730867414091335 136.25086549699427 0 136.25086549699427 35.961570342176628 0 0 0 0 17.720890951831564 1.1741508578377733 0 1.1741508578377733 -32.173049922565113 0 0 0 0 16.526932234187825 39.237722328993243 0 39.237722328993243 -16.459143842385856 0 0 0 0 18.160040031883909 25.287823354610737 0 25.287823354610737 -22.286364329661865 0 0 0 0 32.352803592602868 12.278227301033667 0 12.278227301033667 -20.477282213073067 0 0 0 0 43.928159400744335 34.330100174707241 0 34.330100174707241 -10.978990270294162 0 0 0 0 36.541169440039084 44.231860252052684 0 44.231860252052684 -23.379061783495217 0 0 0 0 3.6010937050741632 54.982522617410041 0 54.982522617410041 -13.044296689166003 0 0 0 0 62.597407029314581 90.144680788452604 0 90.144680788452604 -4.4656678300189014 0 0 0 0 56.556202073086752 18.522970846508088 0 18.522970846508088 -63.667981253451671 0 0 0 0 45.125508478566189 31.204789397341301 0 31.204789397341301 -24.106825848414019 0 0 0 0 69.157390355339885 33.877352324337693 0 33.877352324337693 -48.098776685086705 0 0 0 0 32.749788105262269 16.060275565594566 0 16.060275565594566 -39.481374302094537 0 0 0 0 75.042803329717572 97.938826861529833 0 97.938826861529833 20.034933785514113 0 0 0 0 7.0709450813811685 2.5852561049281846 0 2.5852561049281846 -1.7963552971442107 0 0 0 0 35.937159727684048 -8.8343233106847947 0 -8.8343233106847947 -56.278374907423085 0 0 0 0 133.64242964006553 76.670235841986141 0 76.670235841986141 -65.117272784213128 0 0 0 0 34.732368293472973 -47.466282428416434 0 -47.466282428416434 -70.128608295870436 0 0 0 0 -61.620710144925397 83.173126282744761 0 83.173126282744761 20.635294857734607 0 0 0 0 141.1094111558923 11.133826662372485 0 11.133826662372485 -158.01271485292 0 0 0 0 2.9928731346954009 61.559066210913898 0 61.559066210913898 -50.530931567613152 0 0 0 0 50.452647701786191 -2.1469349466688072 0 -2.1469349466688072 -111.43431684099323 0 0 0 0 58.685177039296832 22.665319931341855 0 22.665319931341855 -37.930430407393942 0 0 0 0 114.6305816986569 -13.55183343138583 0 -13.55183343138583 -43.181124918667138 0 0 0 0 151.25474838300579 18.819299549747029 0 18.819299549747029 -55.067054101697977 0 0 0 0 132.34790863067246 -0.039910519973091141 0 -0.039910519973091141 -44.590309233081825 0 0 0 0 104.23329153572195 22.711943927588209 0 22.711943927588209 -21.674711080883753 0 0 0 0 33.336347778546042 22.082449499761424 0 22.082449499761424 -8.4520922162340639 0 0 0 0 34.100875737447495 23.49804053953676 0 23.49804053953676 -6.1187457622845614 0 0 0 0 -70.095639455382297 -17.370523435061699 0 -17.370523435061699 -20.663823584342026 0 0 0 0 81.127712539586355 -9.4796673604653279 0 -9.4796673604653279 -48.455929017828566 0 0 0 0 44.221779061233974 66.328545437575485 0 66.328545437575485 79.597818085865583 0 0 0 0 230.33130401492963 63.099959218608547 0 63.099959218608547 26.77612387094814 0 0 0 0 76.590225611587812 -8.3728235446434383 0 -8.3728235446434383 13.11836775613574 0 0 0 0 25.251212833471072 31.692885751460835 0 31.692885751460835 20.335119876854151 0 0 0 0 16.998231085576023 30.427655846645507 0 30.427655846645507 36.876644303138278 0 0 0 0 28.391743063735703 77.751636331698819 0 77.751636331698819 71.206122076479005 0 0 0 0 53.522124277669718 44.863762566034893 0 44.863762566034893 48.309510863567994 0 0 0 0 79.339439679228235 61.636272805473709 0 61.636272805473709 12.626688534539426 0 0 0 0 7.9249690609550996 10.078259815046934 0 10.078259815046934 -16.770922737422687 0 0 0 0 71.178826394581847 -25.012546398864288 0 -25.012546398864288 -37.682527861201379 0 0 0 0 35.950310761090805 108.98908543217931 0 108.98908543217931 -26.395278390575186 0 0 0 0 77.328962624902488 13.403430357477191 0 13.403430357477191 -16.270739058256368 0 0 0 0 38.511881475405971 17.970451045718846 0 17.970451045718846 -31.455225920129124 0 0 0 0 36.112244350275432 23.394682795627318 0 23.394682795627318 -30.557328509523359 0 0 0 0 21.53120734320278 13.836334008167583 0 13.836334008167583 -32.685996980416164 0 0 0 0 30.593404777806427 18.69468815312257 0 18.69468815312257 -27.503515066559885 0 0 0 0 32.572167555853866 17.911153222026996 0 17.911153222026996 -31.181596201230604 0 0 0 0 16.39802202845749 9.7430741865991877 0 9.7430741865991877 -18.858295258549333 0 0 0 0 26.798608870660246 -5.013457779550663 0 -5.013457779550663 -24.522785291152388 0 0 0 0 18.992030954541299 11.6261619371829 0 11.6261619371829 -10.679624245095649 0 0 0 0 37.752070469789032 15.248363705173688 0 15.248363705173688 -17.551154214264898 0 0 0 0 30.971680146081781 11.532883084217247 0 11.532883084217247 -12.362482330355306 0 0 0 0 28.44943518666696 17.239923472980081 0 17.239923472980081 -17.97098034273904 0 0 0 0 22.020493562148062 7.4308539825028479 0 7.4308539825028479 -1.0275143141755176 0 0 0 0 20.277603187139903 15.736129446709128 0 15.736129446709128 -13.865719174772494 0 0 0 0 41.597461047640536 18.130460773506456 0 18.130460773506456 -8.3211916177160674 0 0 0 0 26.682915509736631 24.254417874410137 0 24.254417874410137 -29.954544477434865 0 0 0 0 21.524003425923425 13.065118546992608 0 13.065118546992608 -15.293737255460861 0 0 0 0 46.002717324154219 29.701917999704165 0 29.701917999704165 -5.2012260642295587 0 0 0 0 18.341083527747557 42.009780177223064 0 42.009780177223064 -3.6216707027633674 0 0 0 0 -13.413925479137106 16.226574195004105 0 16.226574195004105 21.351577458517568 0 0 0 0 10.397489789723394 22.724263237157082 0 22.724263237157082 6.7742949411783968 0 0 0 0 27.686417458470856 6.6117847613488863 0 6.6117847613488863 -11.19803153896212 0 0 0 0 -0.45130663696909323 11.143613596355863 0 11.143613596355863 22.072723275344742 0 0 0 0 32.814407692661916 11.553161752211963 0 11.553161752211963 1.1436353515528026 0 0 0 0 30.203584266054349 30.971926056969096 0 30.971926056969096 17.577636933176109 0 0 0 0 18.478300152492011 9.9899926905964094 0 9.9899926905964094 5.2762968881379493 0 0 0 0 14.887047140291543 16.18082813675619 0 16.18082813675619 7.3964794207022351 0 0 0 0 16.768704584130319 24.685888538003383 0 24.685888538003383 -5.988712662110629 0 0 0 0 26.472139341589354 18.559631372660078 0 18.559631372660078 1.8700016964576207 0 0 0 0 11.312538996967021 7.106682176438909 0 7.106682176438909 -6.0080596804602102 0 0 0 0 7.127614734020554 10.231250255136615 0 10.231250255136615 -5.7921101663841199 0 0 0 0 22.008341410270077 7.6712998503044219 0 7.6712998503044219 -6.5844069287195452 0 0 0 0 18.295811366577283 13.974417699759258 0 13.974417699759258 0.51129308209994662 0 0 0 0 20.212005294567476 6.2439551302167757 0 6.2439551302167757 -6.8955105431349928 0 0 0 0 11.394726383609196 10.789668716125519 0 10.789668716125519 -7.571024050088452 0 0 0 0 63.922280878279707 -12.484355023820171 0 -12.484355023820171 -6.3783358679820594 0 0 0 0 8.2595150844897205 0.58950922150226859 0 0.58950922150226859 -1.4077688539552948 0 0 0 0 25.712410852255147 -4.2374916465139307 0 -4.2374916465139307 -7.0955774826774842 0 0 0 0 6.9880283230420872 -0.090526083172989047 0 -0.090526083172989047 -1.5201031022402489 0 0 0 0 69.235860501124989 -14.680601415529964 0 -14.680601415529964 -5.4757020893302979 0 0 0 0 52.325039186020149 17.19933529863556 0 17.19933529863556 -3.5613116386284673 0 0 0 0 84.926714503541007 -0.59375873493900144 0 -0.59375873493900144 -8.7766304419528751 0 0 0 0 -6.4046912992416765 16.479905472452629 0 16.479905472452629 24.409169502543591 0 0 0 0 50.989225426885241 8.9020114813392865 0 8.9020114813392865 41.010058395526357 0 0 0 0 112.56466780264964 88.923869664592075 0 88.923869664592075 61.123410313437489 0 0 0 0 51.216387069929624 28.022416167185838 0 28.022416167185838 18.128201735276889 0 0 0 0 65.977757016182295 11.017457846120578 0 11.017457846120578 -10.30152897633161 0 0 0 0 78.429045235941885 29.186061271626386 0 29.186061271626386 -4.1278969672139283 0 0 0 0 33.795541983934527 7.8467285968536089 0 7.8467285968536089 -1.8466592156946717 0 0 0 0 53.123742109790328 17.773421582146057 0 17.773421582146057 -9.8031456282205909 0 0 0 0 58.862594698308385 7.8792241807550454 0 7.8792241807550454 -5.1081576036376646 0 0 0 0 68.871272040792974 17.447710946931693 0 17.447710946931693 -10.132486489828807 0 0 0 0 52.564892760092334 1.7846696321057607 0 1.7846696321057607 -8.7289521566781332 0 0 0 0 11.588864524243633 11.926316800088088 0 11.926316800088088 1.2452233349463633 0 0 0 0 34.447855462291045 8.1740837658799137 0 8.1740837658799137 -1.2039096334774513 0 0 0 0 19.511938942336201 10.250359816279342 0 10.250359816279342 -1.2359763270042095 0 0 0 0 28.870840780164144 13.568875797785722 0 13.568875797785722 -0.24311941253836267 0 0 0 0 8.7270215383510958 0.096211713367949869 0 0.096211713367949869 -1.2142153905796107 0 0 0 0 23.376333741754934 3.5290048529834621 0 3.5290048529834621 -6.5677521414208968 0 0 0 0 61.7346864259016 13.408443043507759 0 13.408443043507759 -9.7612832818394963 0 0 0 0 60.597270263635437 26.70942186819957 0 26.70942186819957 6.1589798565473757 0 0 0 0 71.119360100346967 39.852705124018939 0 39.852705124018939 9.1266227087123752 0 0 0 0 5.1795363130241299 2.2921349595493155 0 2.2921349595493155 0.065355258538339456 0 0 0 0 30.820031700030086 4.3639249002371798 0 4.3639249002371798 -5.689430371704475 0 0 0 0 21.68301453802269 10.217381812472922 0 10.217381812472922 -1.4198025792434237 0 0 0 0 8.765559886522496 7.284018655513762 0 7.284018655513762 -1.4244425009673805 0 0 0 0 16.905682765333353 2.5903440692512163 0 2.5903440692512163 -6.4657341397995864 0 0 0 0 27.1392742697426 11.405384675056212 0 11.405384675056212 -8.9850316228157681 0 0 0 0 22.719081346260651 3.8221259349794252 0 3.8221259349794252 -6.1764960954076127 0 0 0 0 51.424262315937085 15.227730727891867 0 15.227730727891867 -2.5798781028422582 0 0 0 0 55.864992076833005 9.506411999681859 0 9.506411999681859 -6.4468241536251298 0 0 0 0 23.567878212954383 0.70793912895715039 0 0.70793912895715039 57.017869610405342 0 0 0 0 19.207851244922495 14.109201065983143 0 14.109201065983143 -21.539995830118642 0 0 0 0 36.149285324034736 27.091273852173984 0 27.091273852173984 -15.30656928417789 0 0 0 0 40.40863931957351 2.1646976612498676 0 2.1646976612498676 -4.6879964091259154 0 0 0 0 33.586219656246897 18.632847129600243 0 18.632847129600243 -9.0563494429351525 0 0 0 0 52.840726581722265 7.510595168344139 0 7.510595168344139 7.534225703770062 0 0 0 0 49.805729949050146 7.3441477074863997 0 7.3441477074863997 -7.148229381244164 0 0 0 0 51.169707139649745 7.7053645093006224 0 7.7053645093006224 -7.5046344558650162 0 0 0 0 48.995241713964788 6.0409942544915793 0 6.0409942544915793 -7.4806414999675326 0 0 0 0 39.334587911420385 16.096447415036891 0 16.096447415036891 -1.929667179342232 0 0 0 0 40.700517869336181 3.926358963893108 0 3.926358963893108 6.0344242903629493 0 0 0 0 51.129195370260277 6.5449819915584158 0 6.5449819915584158 -7.6239568093767502 0 0 0 0 44.378639237125753 12.127006353030993 0 12.127006353030993 6.7933458119605348 0 0 0 0 19.675085335073959 -11.645223752968576 0 -11.645223752968576 -5.5790252460053438 0 0 0 0 -231.9650459042532 66.123645339076802 0 66.123645339076802 415.39532617197801 0 0 0 0 274.32012217995361 243.64030075755818 0 243.64030075755818 74.24382324502767 0 0 0 0 191.0018862009747 118.86581579465019 0 118.86581579465019 -2.4271164026395127 0 0 0 0 -45.352143485593842 95.219536474922052 0 95.219536474922052 46.841817724165594 0 0 0 0 35.386468394863186 40.502448231123708 0 40.502448231123708 -28.440725592308809 0 0 0 0 14.97879621895845 58.268180969314926 0 58.268180969314926 -3.6073843863889579 0 0 0 0 13.019540876335327 -1.6159578280873319 0 -1.6159578280873319 -1.5673132601672748 0 0 0 0 -25.492797738919762 17.975114972385882 0 17.975114972385882 7.0782150534287211 0 0 0 0 -162.91307513482752 29.851462515715866 0 29.851462515715866 47.462324814373346 0 0 0 0 -285.36667449663037 -257.83297239155411 0 -257.83297239155411 28.273822143353755 0 0 0 0 9.2687564792577177 3.4411064265505047 0 3.4411064265505047 -3.1036292449830398 0 0 0 0 39.325705082781496 6.4111210285900597 0 6.4111210285900597 9.0908561428987014 0 0 0 0 21.812278424633007 3.0573319431987613 0 3.0573319431987613 -4.562713883287862 0 0 0 0 43.427417116603465 -20.145084014767463 0 -20.145084014767463 -35.45725133967062 0 0 0 0 11.534049537696347 6.5492977749104568 0 6.5492977749104568 0.62395123920708784 0 0 0 0 15.38720973319505 7.6960229370113211 0 7.6960229370113211 6.0415931299976364 0 0 0 0 11.797993583194227 9.2854312673281072 0 9.2854312673281072 3.3033037150956055 0 0 0 0 36.346647139369452 11.378255517175148 0 11.378255517175148 3.3784174019037891 0 0 0 0 41.005048942304711 2.8345679124801109 0 2.8345679124801109 -2.3404656544425961 0 0 0 0 19.912063335374114 11.972479391820798 0 11.972479391820798 -3.027305767778671 0 0 0 0 6.7013682796969078 2.8270134977374255 0 2.8270134977374255 -5.1262292342364617 0 0 0 0 17.92720555341657 22.332992645218837 0 22.332992645218837 17.815339539022716 0 0 0 0 11.305912645367869 1.7669368288960499 0 1.7669368288960499 0.32402126295902356 0 0 0 0 0.037800896498083603 36.533221904228412 0 36.533221904228412 -108.91056567779287 0 0 0 0 31.332063435278542 19.188270933150307 0 19.188270933150307 -4.7396908991941018 0 0 0 0 8.5382416225170346 -0.91272712709371717 0 -0.91272712709371717 -0.44979632719990903 0 0 0 0 73.168636622547638 66.63953340356602 0 66.63953340356602 63.827650765440467 0 0 0 0 25.146911527539487 -0.3313087425312915 0 -0.3313087425312915 -17.84923591347615 0 0 0 0 167.85391510445334 106.39146808545138 0 106.39146808545138 8.1255782903399449 0 0 0 0 9.2912453784956597 -15.577874697295556 0 -15.577874697295556 -20.242398704004358 0 0 0 0 -0.59833644705022948 -0.3720851991300691 0 -0.3720851991300691 0.97665652526944591 0 0 0 0 6.1374796907621203 -21.239020376477129 0 -21.239020376477129 -60.018449858068379 0 0 0 0 122.32575852605805 49.344202601533652 0 49.344202601533652 -101.12122877718002 0 0 0 0 15.16993134366794 6.5415685965789301 0 6.5415685965789301 2.7511062795268302 0 0 0 0 48.668963462514512 20.610947789276906 0 20.610947789276906 -34.577701046803668 0 0 0 0 59.57996846459173 29.812080057444405 0 29.812080057444405 -32.51839618903432 0 0 0 0 94.080719864105049 -79.584778985467551 0 -79.584778985467551 32.128763261076529 0 0 0 0 41.45370232991263 23.403054426106337 0 23.403054426106337 -15.98265421084443 0 0 0 0 45.214661989371962 29.475039268288924 0 29.475039268288924 -26.321953797532842 0 0 0 0 6.2435814046839369 27.609597581437811 0 27.609597581437811 -22.892047364481186 0 0 0 0 -10.721835049962465 36.997139309640886 0 36.997139309640886 -6.6920369495619525 0 0 0 0 23.152936568270107 9.4920048227591138 0 9.4920048227591138 2.2829042738967642 0 0 0 0 2.3579781028483922 23.006946079309614 0 23.006946079309614 1.2541842836963042 0 0 0 0 5.7788057231610139 3.2739070662185839 0 3.2739070662185839 -0.89783987697255263 0 0 0 0 41.278565876527864 11.401485450805012 0 11.401485450805012 -10.976837729303043 0 0 0 0 29.807689764960941 7.9106100384547702 0 7.9106100384547702 -4.6228891426514593 0 0 0 0 37.372889389567717 39.735560075409012 0 39.735560075409012 12.493756641641994 0 0 0 0 31.780640346668036 12.144277773867888 0 12.144277773867888 -3.2268771565089942 0 0 0 0 10.629409554101585 7.6570686144837055 0 7.6570686144837055 -4.8626071157709703 0 0 0 0 -38.946703771936882 19.701047775557527 0 19.701047775557527 -15.692377183500639 0 0 0 0 27.978365370749984 16.39476151910592 0 16.39476151910592 -10.824642779813972 0 0 0 0 33.035801102676487 30.412440376387622 0 30.412440376387622 -14.462340438022693 0 0 0 0 1.2331923601668677 -4.1810315063353301 0 -4.1810315063353301 -29.828932062558124 0 0 0 0 5.2947551638208097 -13.22535682566604 0 -13.22535682566604 -21.636552116813618 0 0 0 0 -70.004222751260386 -0.15378894365630913 0 -0.15378894365630913 -11.860706783992555 0 0 0 0 -17.82457851653453 -14.815366032112252 0 -14.815366032112252 -8.2802826409515546 0 0 0 0 32.397479074751033 -12.448132009641824 0 -12.448132009641824 -8.5743284663933608 0 0 0 0 40.606854554384299 31.96557353502714 0 31.96557353502714 -4.7314887521450686 0 0 0 0 50.031098664941965 -141.87423033792584 0 -141.87423033792584 -141.71048534902548 0 0 0 0 15.539666978933383 128.12799755548258 0 128.12799755548258 -97.246296296507353 0 0 0 0 278.22578220591822 205.7794885876574 0 205.7794885876574 -76.009510832167507 0 0 0 0 473.21352101533557 -204.87586656150961 0 -204.87586656150961 -178.85832496706644 0 0 0 0 237.63791112026229 -114.91542396911223 0 -114.91542396911223 77.381051889595255 0 0 0 0 -1.807443646270201 11.714246419905258 0 11.714246419905258 0.57912006131903127 0 0 0 0 409.52125475139474 33.08829536333451 0 33.08829536333451 -44.084339527746124 0 0 0 0 175.28791658778209 20.957588640826543 0 20.957588640826543 -19.692603976496684 0 0 0 0 44.894946554775373 32.788098841083979 0 32.788098841083979 -2.525075052643647 0 0 0 0 -429.49441687186481 42.460391437268299 0 42.460391437268299 96.061592862775797 0 0 0 0 110.25255248887697 -39.595782350966147 0 -39.595782350966147 62.22429615179044 0 0 0 0 -82.69473396664398 75.639303948166344 0 75.639303948166344 142.32044786550432 0 0 0 0 894.30126035377907 920.19574387981083 0 920.19574387981083 -71.594817811075984 0 0 0 0 15.691016850978485 -304.04127846057509 0 -304.04127846057509 -59.594320279908736 0 0 0 0 14.046918537498499 20.569702958439496 0 20.569702958439496 4.0371591573507937 0 0 0 0 533.44110399698548 -83.906466203800846 0 -83.906466203800846 -98.80702331545308 0 0 0 0 -34.409154935594415 -158.38607702855006 0 -158.38607702855006 -27.576116686806699 0 0 0 0 255.52833317889417 -50.81234871679726 0 -50.81234871679726 -59.772847293666018 0 0 0 0 64.867760568944504 31.994520830154215 0 31.994520830154215 -44.610313085459893 0 0 0 0 35.431759693462482 227.51603219474907 0 227.51603219474907 297.74939726062439 0 0 0 0 171.595690932656 126.20708734153902 0 126.20708734153902 37.243763345775733 0 0 0 0 212.2165269237812 415.93630322019362 0 415.93630322019362 196.6865968099446 0 0 0 0 -552.68984812201234 -499.38632432756185 0 -499.38632432756185 -73.692063586055156 0 0 0 0 12.291792160810104 -1.616342015256869 0 -1.616342015256869 0.35344348799098046 0 0 0 0 -156.97684372446383 -137.67637207571806 0 -137.67637207571806 99.617157604246131 0 0 0 0 566.23607640603041 287.48862048819285 0 287.48862048819285 10.507173649714787 0 0 0 0 64.235113327871659 -159.67068989384006 0 -159.67068989384006 -167.87699700111864 0 0 0 0 109.99668338516494 -98.893612139694596 0 -98.893612139694596 -258.59238730040488 0 0 0 0 115.66463340251357 -16.703682555259547 0 -16.703682555259547 -242.43412085423824 0 0 0 0 2.6457304630427245 3.7485522272838168 0 3.7485522272838168 -2.1036067129918852 0 0 0 0 112.64008860669855 -147.46902031818809 0 -147.46902031818809 -368.48553986920615 0 0 0 0 212.76368150906637 -4.631992378819632 0 -4.631992378819632 -291.16244716097845 0 0 0 0 90.571704005822539 12.322756217581627 0 12.322756217581627 -97.943870195755153 0 0 0 0 54.363874836948526 -93.373507050691842 0 -93.373507050691842 -87.230484744648493 0 0 0 0 -43.215854162750475 141.6013555218874 0 141.6013555218874 289.34081341112164 0 0 0 0 495.6417048896601 -257.65655404906522 0 -257.65655404906522 -200.30252743521669 0 0 0 0 31.240229315247205 -7.9732814025143313 0 -7.9732814025143313 1.273955688726593 0 0 0 0 29.981931509202695 348.26527938118579 0 348.26527938118579 171.7402229378622 0 0 0 0 -27.974846304194216 339.89525273120898 0 339.89525273120898 347.69893654853604 0 0 0 0 -38.379176475373242 226.63384293316903 0 226.63384293316903 438.29078675928122 0 0 0 0 340.18762643879018 -157.23758957803057 0 -157.23758957803057 26.598935983455476 0 0 0 0 533.0109215452394 40.769140079139788 0 40.769140079139788 -69.459843523567542 0 0 0 0 5.2146896284060915 2.9448435629747198 0 2.9448435629747198 1.6497019812917166 0 0 0 0 100.3595495682639 89.839856089882915 0 89.839856089882915 22.826231390746216 0 0 0 0 345.37488160248176 297.3349499772562 0 297.3349499772562 137.68512626925326 0 0 0 0 201.57167941683292 122.92653387185692 0 122.92653387185692 -7.7847791192293698 0 0 0 0 250.37041247856178 38.697259373172074 0 38.697259373172074 -68.509586890272658 0 0 0 0 252.54088700447755 9.6902271014491816 0 9.6902271014491816 -75.348790333244324 0 0 0 0 238.19073294798727 30.991919887338099 0 30.991919887338099 -67.178871083929266 0 0 0 0 -0.49629006663963082 -10.988523686922463 0 -10.988523686922463 2.934246511242236 0 0 0 0 10.931863053181587 11.589399240127932 0 11.589399240127932 35.459255029749329 0 0 0 0 -14.323420624961727 -0.37987366576817294 0 -0.37987366576817294 29.990183882815472 0 0 0 0 100.95686933326215 45.100861731297755 0 45.100861731297755 -27.283932330903099 0 0 0 0 76.441631277113629 67.8330078728427 0 67.8330078728427 27.837438104356465 0 0 0 0 33.266104979353258 10.587060008120261 0 10.587060008120261 3.6252191573448727 0 0 0 0 -40.270151292963419 53.403076426643565 0 53.403076426643565 38.03793857190135 0 0 0 0 82.599138139532442 123.00178317128405 0 123.00178317128405 23.461595161208606 0 0 0 0 -15.15310240780309 8.392080532713635 0 8.392080532713635 19.216647084680517 0 0 0 0 -23.628040634499484 -16.932788631410176 0 -16.932788631410176 11.772020644394615 0 0 0 0 0.57051278190833443 -1.9899883099959936 0 -1.9899883099959936 1.1582914932455814 0 0 0 0 8.4685032747001969 -4.7145710371969471 0 -4.7145710371969471 -23.021921285577719 0 0 0 0 23.795539989201643 -20.684713068906603 0 -20.684713068906603 -37.038393515949792 0 0 0 0 21.026116637650603 -4.66998401770892 0 -4.66998401770892 1.4248180093111884 0 0 0 0 -169.84100940500866 -23.80640226880405 0 -23.80640226880405 193.39369603110526 0 0 0 0 -95.805847337025625 -99.251882428526187 0 -99.251882428526187 -40.430028562479492 0 0 0 0 17.465268226660299 -6.1891282532461069 0 -6.1891282532461069 1.3112226459238379 0 0 0 0 52.078224989185401 29.529408110204713 0 29.529408110204713 -194.14180161393779 0 0 0 0 25.522124659270446 -1.872802386257586 0 -1.872802386257586 -1.2199543921474554 0 0 0 0 40.471551290058414 129.44780043076253 0 129.44780043076253 0.300056324011166 0 0 0 0 -27.603898901674256 -26.812029164642809 0 -26.812029164642809 -149.00195869103482 0 0 0 0 151.76226135334582 55.308136894699601 0 55.308136894699601 -161.74405356521208 0 0 0 0 5.0108065690583317 20.562757084874647 0 20.562757084874647 -99.866477987678991 0 0 0 0 4.7596401605610481 32.992616772415424 0 32.992616772415424 -22.604805679020501 0 0 0 0 24.962497867287311 -11.077827110143971 0 -11.077827110143971 46.704875262166752 0 0 0 0 117.3353821291239 19.35821473080523 0 19.35821473080523 -45.82535193705553 0 0 0 0 8.476883864539559 -26.834703615514627 0 -26.834703615514627 -57.13567421492553 0 0 0 0 11.540880345915319 4.8621147653402375 0 4.8621147653402375 -11.896729637298971 0 0 0 0 -13.171687941576238 44.821431630844927 0 44.821431630844927 -14.453140155872461 0 0 0 0 61.540345056026126 89.157309289443219 0 89.157309289443219 -4.1306544329934241 0 0 0 0 18.979372348738252 1.9540781469854664 0 1.9540781469854664 -7.969454948346538 0 0 0 0 25.651897756943612 1.0696678600645324 0 1.0696678600645324 -2.4819174994970545 0 0 0 0 21.70530299918866 3.4466421746607523 0 3.4466421746607523 -3.5769654501935859 0 0 0 0 50.183953740401193 40.193693189452915 0 40.193693189452915 -28.610367854567357 0 0 0 0 20.263347050938542 2.9706065844441198 0 2.9706065844441198 -4.4078005789719441 0 0 0 0 59.625101892757812 -3.0041806715084931 0 -3.0041806715084931 -105.22265941226033 0 0 0 0 25.927136369837442 -3.0309623409821604 0 -3.0309623409821604 -0.80368164765321115 0 0 0 0 24.98194508200686 -10.808530203070404 0 -10.808530203070404 -23.824853876903944 0 0 0 0 18.506405411745234 -7.2316234542323734 0 -7.2316234542323734 1.4378959681151278 0 0 0 0 29.771645222790539 13.125062973930653 0 13.125062973930653 -46.263763827245839 0 0 0 0 41.740075928060833 43.054191999903168 0 43.054191999903168 -20.012207051986024 0 0 0 0 43.136731919352314 13.776572679638377 0 13.776572679638377 -14.481615936246669 0 0 0 0 43.48013477855055 13.606226499927679 0 13.606226499927679 -1.0234550011024428 0 0 0 0 38.567638474545674 24.455904609629897 0 24.455904609629897 -12.270762229642969 0 0 0 0 65.348510470917972 18.82343937982705 0 18.82343937982705 -32.634118897278313 0 0 0 0 163.54547963719233 29.590145920454091 0 29.590145920454091 -32.293980685246993 0 0 0 0 37.319389637304994 5.2062328583106137 0 5.2062328583106137 -11.092113601482311 0 0 0 0 20.17881530432939 -4.8176306139000644 0 -4.8176306139000644 -15.487739544523166 0 0 0 0 16.360757143162303 6.6415654956401795 0 6.6415654956401795 2.6034171148959881 0 0 0 0 51.524110454745824 4.8919022619211319 0 4.8919022619211319 -21.643365677502032 0 0 0 0 90.129204774071695 5.0927998331977165 0 5.0927998331977165 -21.657008789301649 0 0 0 0 59.821510498666612 48.631464608759302 0 48.631464608759302 11.887877092641247 0 0 0 0 57.626726604779833 25.317782589963826 0 25.317782589963826 -29.73281586906478 0 0 0 0 35.419480204280859 8.1092552544399368 0 8.1092552544399368 -8.0188744695429506 0 0 0 0 18.071432220385759 14.497460633859646 0 14.497460633859646 14.083313602918679 0 0 0 0 19.36024826351786 22.195065785149382 0 22.195065785149382 31.661389826965205 0 0 0 0 35.678081935679074 14.754535517433396 0 14.754535517433396 -25.199144731593151 0 0 0 0 50.469822934355761 40.435345752267949 0 40.435345752267949 11.863754990558846 0 0 0 0 56.192091152686771 37.348903263724196 0 37.348903263724196 -23.163783401023466 0 0 0 0 60.991438075376209 22.222511682863114 0 22.222511682863114 -44.390525812537817 0 0 0 0 50.049687608666943 13.65024970117716 0 13.65024970117716 -8.2440574120498091 0 0 0 0 47.606516033323715 20.756259556800956 0 20.756259556800956 -4.2919127289544718 0 0 0 0 17.293135001147192 0.7585730796881478 0 0.7585730796881478 -4.3494415470194578 0 0 0 0 14.5111564958518 4.1822713571122563 0 4.1822713571122563 -4.7141041640089494 0 0 0 0 48.787683989591187 8.3749631479448396 0 8.3749631479448396 0.55841329660074734 0 0 0 0 125.91141392182908 61.940114654757735 0 61.940114654757735 28.208371577773505 0 0 0 0 38.974274107109522 8.6764227903790925 0 8.6764227903790925 -2.1711997107383922 0 0 0 0 20.429694230284447 17.3488364997133 0 17.3488364997133 0.40594688428463144 0 0 0 0 29.362106851596764 15.544573411049782 0 15.544573411049782 -1.2005868725480013 0 0 0 0 145.2577140129797 -114.64299879249097 0 -114.64299879249097 3.0669975646487728 0 0 0 0 25.553483105351916 14.978535226200904 0 14.978535226200904 -0.93708853118619118 0 0 0 0 27.93928668677836 9.8558781204369552 0 9.8558781204369552 -5.7701887718139915 0 0 0 0 46.76545556282872 17.151218839008379 0 17.151218839008379 0.47963179241560283 0 0 0 0 26.35560642216533 5.8406255976284882 0 5.8406255976284882 -4.3931490096288801 0 0 0 0 11.795578961104923 20.15513979617814 0 20.15513979617814 -0.35829868491003936 0 0 0 0 47.817312469414901 16.602630549143214 0 16.602630549143214 0.41748137041940936 0 0 0 0 30.287409326199977 9.535588957264558 0 9.535588957264558 -2.3956775846947549 0 0 0 0 23.549739162225329 16.008132660059601 0 16.008132660059601 0.34726154840156376 0 0 0 0 27.862771310436756 7.9867752237499019 0 7.9867752237499019 -6.276914093972664 0 0 0 0 20.647727496450578 11.539018255269916 0 11.539018255269916 -1.2859001735647979 0 0 0 0 121.48751179194369 284.16487171260587 0 284.16487171260587 -102.47505678496736 0 0 0 0 34.58972753676062 43.796572521907365 0 43.796572521907365 42.140219602816614 0 0 0 0 2.3392680902485239 0.080932967706289105 0 0.080932967706289105 -1.2315676093987689 0 0 0 0 43.669904859413236 -53.786972240831801 0 -53.786972240831801 -21.92309948038519 0 0 0 0 41.262100067426729 3.2084186099505132 0 3.2084186099505132 -12.321467169050631 0 0 0 0 4.7455922133667627 -4.0672215283188962 0 -4.0672215283188962 -8.1116796932274156 0 0 0 0 2.3832699921049425 74.825395770371244 0 74.825395770371244 100.83357492091727 0 0 0 0 19.779002458768446 36.379840640415409 0 36.379840640415409 -3.1281846225192567 0 0 0 0 34.423727040680788 11.926761008228798 0 11.926761008228798 -9.2462640206138484 0 0 0 0 25.578345054600504 7.2693915559957532 0 7.2693915559957532 -6.4681099243771314 0 0 0 0 569.24974641446897 -138.71772428288659 0 -138.71772428288659 -722.26359478776794 0 0 0 0 -320.09780657717783 -261.11764368203876 0 -261.11764368203876 448.94710213641577 0 0 0 0 142.94822779585593 97.212927723961911 0 97.212927723961911 6.9379868337800872 0 0 0 0 248.84333365851489 171.79820254182277 0 171.79820254182277 23.133495467545799 0 0 0 0 -8.9774572071619332 283.90756086227884 0 283.90756086227884 467.21904991386691 0 0 0 0 -136.74147407758574 23.616785568958221 0 23.616785568958221 79.985223289811984 0 0 0 0 -70.401153419839829 -15.444572994745613 0 -15.444572994745613 -98.252853948157281 0 0 0 0 -72.264189197521773 57.088534977736799 0 57.088534977736799 62.37590758260194 0 0 0 0 -62.916145944624077 57.07176103826032 0 57.07176103826032 14.845556650165236 0 0 0 0 -94.198394513441599 127.38397594092748 0 127.38397594092748 173.13969266694221 0 0 0 0 62.752303679862962 35.585618607985225 0 35.585618607985225 2.3561411076407239 0 0 0 0 97.257791297723088 -32.642777041259933 0 -32.642777041259933 -70.804427912027677 0 0 0 0 12.778442209873887 2.7920694340738521 0 2.7920694340738521 -1.4274099187126943 0 0 0 0 -203.72431565113948 -473.37091705145576 0 -473.37091705145576 -227.39855675128183 0 0 0 0 20.747553388304354 14.482848697017623 0 14.482848697017623 -9.0727400027709635 0 0 0 0 12.292639762589829 9.4491742541159454 0 9.4491742541159454 -3.2208919367960522 0 0 0 0 20.337564714543987 11.072027584550142 0 11.072027584550142 -3.8752374492669333 0 0 0 0 24.367782372471993 9.6768573794270196 0 9.6768573794270196 -5.7223544022032229 0 0 0 0 13.22260769894169 12.3118188497271 0 12.3118188497271 -2.425851597406016 0 0 0 0 78.814782034576638 -25.57194759838967 0 -25.57194759838967 50.598593213384447 0 0 0 0 -25.819088280069991 1.2389942943700589 0 1.2389942943700589 41.086340979916031 0 0 0 0 27.84117243012588 6.8740827167207499 0 6.8740827167207499 36.840137940918339 0 0 0 0 5.3043096239449596 -0.59319939727193471 0 -0.59319939727193471 -0.32357263897298427 0 0 0 0 -23.765662755854464 -8.7576564146441456 0 -8.7576564146441456 65.552495478950732 0 0 0 0 38.497783231112408 19.44566996211779 0 19.44566996211779 13.618118342666094 0 0 0 0 46.953889132004406 37.435163374674175 0 37.435163374674175 13.553164120702149 0 0 0 0 53.957161495753098 115.46463267251238 0 115.46463267251238 -32.57221235610541 0 0 0 0 22.282131635496626 4.8121873996669819 0 4.8121873996669819 6.9463806432795536 0 0 0 0 21.128865322374182 2.0103847746782648 0 2.0103847746782648 -6.7946628730547811 0 0 0 0 2.7478451359077667 3.4445550624239587 0 3.4445550624239587 0.23840043742170547 0 0 0 0 533.48416547861416 -117.21492223954192 0 -117.21492223954192 -1174.3745123176959 0 0 0 0 5.3913130699050686 12.713503336199182 0 12.713503336199182 6.8391347369670044 0 0 0 0 8.0401588719178108 66.965492752102364 0 66.965492752102364 170.21698888925175 0 0 0 0 11.251629425296414 11.257438153082603 0 11.257438153082603 12.968619844642944 0 0 0 0 70.389823965606411 -5.1130946295354534 0 -5.1130946295354534 -2.7291281527986939 0 0 0 0 -0.209273061222639 -0.061964283314772217 0 -0.061964283314772217 0.72007162999585539 0 0 0 0 -5.5218859507367597 -15.672059902908131 0 -15.672059902908131 28.359663770014095 0 0 0 0 -4.9427912857208867 -20.497731338414042 0 -20.497731338414042 36.725603218013021 0 0 0 0 8.6983157682188903 10.688459772833994 0 10.688459772833994 -0.1482519872965895 0 0 0 0 1.3869336068994755 0.70125963783304712 0 0.70125963783304712 1.1798359341578681 0 0 0 0 23.865272325681872 -8.6503136633882605 0 -8.6503136633882605 10.276311037598134 0 0 0 0 19.036955513933208 25.345595683441388 0 25.345595683441388 -21.92153805865405 0 0 0 0 31.470637206362881 7.7073714780118507 0 7.7073714780118507 -15.683450207860005 0 0 0 0 5.0125927099622061 11.413616840349583 0 11.413616840349583 3.9777074609358944 0 0 0 0 -3.8895423519998076 23.187200098362041 0 23.187200098362041 -18.999003908123086 0 0 0 0 0.44078074367644149 21.062374142497447 0 21.062374142497447 -18.665850702777334 0 0 0 0 3.1520914242513793 12.890410468242756 0 12.890410468242756 -11.014971757028604 0 0 0 0 9.7527833233416459 16.660181448586854 0 16.660181448586854 -3.4704708574988672 0 0 0 0 19.501270464425033 0.56676962212236504 0 0.56676962212236504 -6.742702308891694 0 0 0 0 6.6947363769687342 5.037091755554485 0 5.037091755554485 4.7047296953372229 0 0 0 0 -2.9373080632622077 25.324866129349743 0 25.324866129349743 -19.728099527790619 0 0 0 0 44.200386107997474 70.428662773549604 0 70.428662773549604 -8.2238734358761576 0 0 0 0 38.138579065987869 43.72390116263432 0 43.72390116263432 -32.338357594078843 0 0 0 0 53.23329203107096 72.317527658148265 0 72.317527658148265 0.29121658748590562 0 0 0 0 126.5720873801547 60.174364712904662 0 60.174364712904662 -33.249673628285564 0 0 0 0 67.719491903428207 45.285036194673921 0 45.285036194673921 -27.462062861362028 0 0 0 0 161.78534867760754 -13.598863639065712 0 -13.598863639065712 -0.68497401539571001 0 0 0 0 82.518095964533131 -11.829526633044225 0 -11.829526633044225 4.8762286961457448 0 0 0 0 19.13657744964803 9.7866694691497287 0 9.7866694691497287 -2.2588544463121707 0 0 0 0 -0.2956297482778254 8.1982568190521778 0 8.1982568190521778 4.0220573702565163 0 0 0 0 -5.3247973402081925 7.0976154969861724 0 7.0976154969861724 -6.0356670867913635 0 0 0 0 -7.5269587461752963 54.74781613604523 0 54.74781613604523 -24.563424155693724 0 0 0 0 73.817778141772578 23.636696257138055 0 23.636696257138055 -15.639720889073033 0 0 0 0 63.809178139876167 52.265253571624044 0 52.265253571624044 -29.20336201570268 0 0 0 0 7.0818257343853475 67.166338664406339 0 67.166338664406339 29.022602285195262 0 0 0 0 40.334362549503567 50.558264661914336 0 50.558264661914336 15.831914685410084 0 0 0 0 1.572546454899566 71.753339397576781 0 71.753339397576781 26.728049987444308 0 0 0 0 52.843193110878929 -72.808128972193543 0 -72.808128972193543 -15.600037753238894 0 0 0 0 42.189185816394456 25.705211868864694 0 25.705211868864694 -51.278602469731112 0 0 0 0 -1.6437853823717532 -0.25666307272962996 0 -0.25666307272962996 2.0738345616409108 0 0 0 0 23.355486458409359 12.450692943535159 0 12.450692943535159 -8.6419377380252627 0 0 0 0 28.310297354611066 22.927618589621375 0 22.927618589621375 -5.1278213917848916 0 0 0 0 1.4436001777794445 34.89726685116284 0 34.89726685116284 -34.751038909146246 0 0 0 0 12.381238071678609 9.3478867925250686 0 9.3478867925250686 3.3597530064729004 0 0 0 0 -2.5784467261539632 2.324296722064517 0 2.324296722064517 -0.081427679964367283 0 0 0 0 30.391719083560019 20.29412037683818 0 20.29412037683818 -0.17190177471275092 0 0 0 0 58.177739164193554 -3.044686451217899 0 -3.044686451217899 1.5135375872903296 0 0 0 0 26.034887324471129 23.658568215532 0 23.658568215532 7.0704641190895927 0 0 0 0 32.220796153255833 13.88838245853222 0 13.88838245853222 9.9767224668858034 0 0 0 0 -31.40483585342372 32.436034586258302 0 32.436034586258302 -13.022275174125753 0 0 0 0 0.98192378060775809 41.974627952414721 0 41.974627952414721 -34.918987456657305 0 0 0 0 1.5185487582857604 45.791231200567267 0 45.791231200567267 -11.962422864540713 0 0 0 0 -28.367567762983526 -39.068827938215463 0 -39.068827938215463 -61.719681934740947 0 0 0 0 30.740414804175089 19.551607009534109 0 19.551607009534109 -24.568555835533289 0 0 0 0 4.4303457643673028 16.328654738700379 0 16.328654738700379 -31.372407987350812 0 0 0 0 5.6030662091762666 11.051214114552877 0 11.051214114552877 -15.010394934146886 0 0 0 0 195.24670510979195 -27.080594987382938 0 -27.080594987382938 -195.01692889453261 0 0 0 0 88.313347911229357 131.96369633264067 0 131.96369633264067 29.76889874500921 0 0 0 0 27.918889761345547 5.2258740425341372 0 5.2258740425341372 -12.457280099163608 0 0 0 0 13.529682618194755 12.901771418551853 0 12.901771418551853 -8.5595686367185877 0 0 0 0 7.9728862667384561 15.593954439142744 0 15.593954439142744 -6.9974243500114586 0 0 0 0 596.75464105809806 631.18017123943719 0 631.18017123943719 636.51744658185635 0 0 0 0 -7.6554764696920756 17.958668583266444 0 17.958668583266444 -11.280835107385428 0 0 0 0 549.60865204030415 175.16847577809312 0 175.16847577809312 -211.54465500458332 0 0 0 0 133.35078474259353 226.12936662373522 0 226.12936662373522 96.840471628693194 0 0 0 0 13.326188889957848 114.64478280023468 0 114.64478280023468 146.8931651126677 0 0 0 0 -41.722665562469047 37.751017012611555 0 37.751017012611555 65.534490851916871 0 0 0 0 -38.491194492569775 67.426121610596056 0 67.426121610596056 77.179654213381582 0 0 0 0 62.613532375915383 92.988700352139631 0 92.988700352139631 -3.5545174681010394 0 0 0 0 -32.408230158136575 57.491663583198715 0 57.491663583198715 11.934783534680946 0 0 0 0 -56.62786495265027 33.904669072599063 0 33.904669072599063 9.0208101004973287 0 0 0 0 -65.546129565831507 23.265896986893495 0 23.265896986893495 29.801630706829201 0 0 0 0 -38.467451601050314 56.130125952828926 0 56.130125952828926 35.914915732701047 0 0 0 0 -37.309230211732938 31.200046274914939 0 31.200046274914939 23.247425745685177 0 0 0 0 -88.825420752931677 -2.4065085515871942 0 -2.4065085515871942 2.9924263507764408 0 0 0 0 -0.48738494038493485 -0.23038627292596914 0 -0.23038627292596914 1.9804190721607675 0 0 0 0 -59.2628673723666 35.611622335952234 0 35.611622335952234 14.451010959630366 0 0 0 0 -88.146589155127003 27.793300432769684 0 27.793300432769684 0.95824252622696804 0 0 0 0 -41.13279455697193 30.819279326171454 0 30.819279326171454 -14.639055467277103 0 0 0 0 -80.903650281412411 15.522436434374868 0 15.522436434374868 6.5691901640675496 0 0 0 0 2.6099697547620337 2.0142095223381737 0 2.0142095223381737 2.1653305669319236 0 0 0 0 -36.139938700289349 42.366274535057528 0 42.366274535057528 -4.2327258015398002 0 0 0 0 1.3120478549290837 1.1580534703732539 0 1.1580534703732539 3.9967429531607443 0 0 0 0 8.32013104555881 2.435534160561474 0 2.435534160561474 3.1969577931413369 0 0 0 0 1.1259541997436742 0.71989574319790961 0 0.71989574319790961 0.58394449157987083 0 0 0 0 253.26643265173334 -103.22331120767603 0 -103.22331120767603 35.293720430545818 0 0 0 0 51.686038847350574 -38.917557373363707 0 -38.917557373363707 17.253448708653423 0 0 0 0 17.045693233048951 -3.0321046294326379 0 -3.0321046294326379 4.1947179575327027 0 0 0 0 98.790745747965047 68.041536181652646 0 68.041536181652646 59.204237033655772 0 0 0 0 78.164382135277265 93.79592946440755 0 93.79592946440755 80.510210087870291 0 0 0 0 163.77918977393711 -71.232275865397696 0 -71.232275865397696 82.959586613459123 0 0 0 0 308.01099567671554 -7.4247720028427011 0 -7.4247720028427011 1.0796567024294745 0 0 0 0 168.11179014129448 -32.819987733976177 0 -32.819987733976177 0.77075462313291609 0 0 0 0 152.51084369360979 -1.077154942750667 0 -1.077154942750667 -0.1978863811955307 0 0 0 0 178.93350638816628 44.298761101242235 0 44.298761101242235 77.683505797414327 0 0 0 0 292.5583567304202 32.031613004328847 0 32.031613004328847 -18.333014842553439 0 0 0 0 192.61413094126328 21.07863219173305 0 21.07863219173305 -43.772590561632569 0 0 0 0 191.31711873610038 8.6451399051538829 0 8.6451399051538829 -22.375785600066024 0 0 0 0 196.24393933078682 11.891920609301906 0 11.891920609301906 -48.963750030221036 0 0 0 0 159.10113346736034 33.990449611353597 0 33.990449611353597 -15.932657494342493 0 0 0 0 198.2422005517401 12.61652600407956 0 12.61652600407956 -48.801918396667133 0 0 0 0 191.13951095740049 22.575238628714487 0 22.575238628714487 -53.794104048839927 0 0 0 0 158.43769702702411 4.7474492922027594 0 4.7474492922027594 -60.987263413961045 0 0 0 0 216.59875648366869 -3.6526092244853317 0 -3.6526092244853317 -79.175276884991035 0 0 0 0 174.66091236177454 27.255054174876022 0 27.255054174876022 -59.710933973911779 0 0 0 0 204.71310822339001 38.11375051625572 0 38.11375051625572 -61.425025866283249 0 0 0 0 79.380281487294269 15.372576493482029 0 15.372576493482029 -4.9461066591982217 0 0 0 0 167.39377447801053 40.154021894925222 0 40.154021894925222 -28.930086529254368 0 0 0 0 -6.0717404528440966 18.900271209446828 0 18.900271209446828 15.77094393062589 0 0 0 0 24.498818248415773 15.201154633788065 0 15.201154633788065 9.5319735812831823 0 0 0 0 24.85178481672483 11.601482356544693 0 11.601482356544693 -7.5046083809756965 0 0 0 0 17.152632024442937 -14.85155284024404 0 -14.85155284024404 6.9176668651716682 0 0 0 0 53.498980319134716 5.6110223786713505 0 5.6110223786713505 -9.2583162875316702 0 0 0 0 87.517229200424481 -10.292308599715625 0 -10.292308599715625 -19.931400800305255 0 0 0 0 189.93516495920744 -22.728576829310441 0 -22.728576829310441 -20.698805830951642 0 0 0 0 -310.77907437153772 -71.839638579107486 0 -71.839638579107486 21.502408557822491 0 0 0 0 -456.59070879649698 -136.76621574299429 0 -136.76621574299429 -6.2214380416880886 0 0 0 0 7.650666907128798 -15.681009719395028 0 -15.681009719395028 36.236438607493305 0 0 0 0 2494.3158011490013 -249.83048775950232 0 -249.83048775950232 -418.39957920718081 0 0 0 0 -336.4095857687098 120.46948774557723 0 120.46948774557723 51.815104744500786 0 0 0 0 1277.5867529842508 184.90907616142005 0 184.90907616142005 1.5989880635823255 0 0 0 0 -497.0514241081255 -60.021532879897677 0 -60.021532879897677 169.7172651999208 0 0 0 0 2566.1151824953504 631.39687604119501 0 631.39687604119501 149.72672196843345 0 0 0 0 306.68524065509337 111.53956867482293 0 111.53956867482293 -282.98275339411794 0 0 0 0 34.633631230790343 -225.73223912636149 0 -225.73223912636149 -191.32403344316981 0 0 0 0 -873.23522848695575 -151.91798400248695 0 -151.91798400248695 114.61873170274066 0 0 0 0 -719.35232926981553 205.70233872960671 0 205.70233872960671 -51.547890868662762 0 0 0 0 -79.62179150414886 -862.16910206778334 0 -862.16910206778334 -257.7495833833309 0 0 0 0 -241.44296766364278 116.09188169875097 0 116.09188169875097 -521.52247681862536 0 0 0 0 3.668274776831943 -13.119331634879181 0 -13.119331634879181 28.749125511825014 0 0 0 0 141.65094656673318 -27.855268342571435 0 -27.855268342571435 -107.14307582302172 0 0 0 0 697.19295791913464 49.427069135378588 0 49.427069135378588 -209.18980810966332 0 0 0 0 554.14289626535174 21.444523985157502 0 21.444523985157502 -127.86432104882988 0 0 0 0 630.80656674559577 -122.8580666141097 0 -122.8580666141097 -298.96885530438885 0 0 0 0 668.49670218233223 -260.95121099256176 0 -260.95121099256176 -120.09993211168148 0 0 0 0 630.49253991675869 -98.109870996456721 0 -98.109870996456721 45.60701485467871 0 0 0 0 579.04985495538858 -314.88880907468956 0 -314.88880907468956 -29.579618574629421 0 0 0 0 477.8177784737054 -245.49956713566826 0 -245.49956713566826 -2.8341179484777967 0 0 0 0 324.81479766737175 -305.71792338703926 0 -305.71792338703926 -15.875734832658964 0 0 0 0 -227.65724005075754 124.16786375449556 0 124.16786375449556 255.04077079990748 0 0 0 0 961.11621424052282 -218.57703008783028 0 -218.57703008783028 -261.70866781353743 0 0 0 0 0.26810750425442365 -3.5217090221445204 0 -3.5217090221445204 12.207919567598474 0 0 0 0 561.90659899406637 3.4900817325922162 0 3.4900817325922162 -347.75738046990591 0 0 0 0 937.48822748776638 -619.97972067664568 0 -619.97972067664568 -293.87797594062249 0 0 0 0 -520.64266289990337 -92.845943654132498 0 -92.845943654132498 438.54962701238946 0 0 0 0 662.59563131133837 -616.67423276789532 0 -616.67423276789532 259.78371927252738 0 0 0 0 2.571387558064437 3.035959878645734 0 3.035959878645734 1.6350618455468151 0 0 0 0 722.0102822371191 312.84813616603424 0 312.84813616603424 -2.2159768612873449 0 0 0 0 66.173739705402113 364.19461307619349 0 364.19461307619349 618.31323485047506 0 0 0 0 1008.4347670526331 -130.92438294488966 0 -130.92438294488966 -1002.9828032789151 0 0 0 0 58.449758748390408 -33.700246818505406 0 -33.700246818505406 16.402712294640789 0 0 0 0 5.7153662169184827 73.317602382759105 0 73.317602382759105 -124.84486651048792 0 0 0 0 597.57810572186281 660.42884079053511 0 660.42884079053511 -807.4692035968983 0 0 0 0 -397.68141747972186 -815.70372535830802 0 -815.70372535830802 -296.90258095896934 0 0 0 0 34.162603055842474 -33.70814840635812 0 -33.70814840635812 29.469597191268907 0 0 0 0 -1.3632892799705587 -20.35815282005251 0 -20.35815282005251 24.956151195746315 0 0 0 0 22.487272774447195 -27.279298921980896 0 -27.279298921980896 26.53638646754753 0 0 0 0 -658.76036082203973 -289.45723685250687 0 -289.45723685250687 238.43198751541058 0 0 0 0 18.124202857306919 -28.575260417795764 0 -28.575260417795764 54.623886682584732 0 0 0 0 8.9520279238634757 -4.4413364386288618 0 -4.4413364386288618 10.147309432856721 0 0 0 0 122.80629534243417 -276.89008966936848 0 -276.89008966936848 553.51959501120405 0 0 0 0 2495.1679748090764 1178.0211745307192 0 1178.0211745307192 491.6779820426575 0 0 0 0 1120.576356047352 335.64409095324032 0 335.64409095324032 0.95884190506677669 0 0 0 0 1718.6181793008404 425.89484031956806 0 425.89484031956806 -97.55013991473291 0 0 0 0 2500.4711193255471 71.750177653872356 0 71.750177653872356 -500.91005413232307 0 0 0 0 2499.3019964438172 -233.30048279266575 0 -233.30048279266575 -398.00148542009094 0 0 0 0 2089.8755126319006 77.248611425948297 0 77.248611425948297 -490.80491971875381 0 0 0 0 1195.1966221377311 -154.28995781706001 0 -154.28995781706001 -55.737757769498387 0 0 0 0 1405.1161912943962 -541.38730529493091 0 -541.38730529493091 -140.15089312173816 0 0 0 0 1021.9833592253863 -892.99585522859672 0 -892.99585522859672 532.01053582394286 0 0 0 0 2442.8046058585273 47.664963817023484 0 47.664963817023484 376.22819592407609 0 0 0 0 2409.2004710218712 -441.50952486618382 0 -441.50952486618382 -203.71217112943157 0 0 0 0 21.763457161408041 -257.58650554789745 0 -257.58650554789745 -12.350313134518728 0 0 0 0 93.531376007967538 72.089318808780718 0 72.089318808780718 -14.347317405384274 0 0 0 0 24.64480224386017 -23.987772585766947 0 -23.987772585766947 14.730166629402166 0 0 0 0 11.607278833238524 33.864391886147132 0 33.864391886147132 89.930621719414376 0 0 0 0 -70.196102426028119 71.044374331811241 0 71.044374331811241 278.18730817798632 0 0 0 0 -113.74194633865318 -23.351091621655911 0 -23.351091621655911 88.447086370528496 0 0 0 0 41.037012041133494 45.128000729305086 0 45.128000729305086 -113.49842084240834 0 0 0 0 128.43761519228019 184.02561658296796 0 184.02561658296796 107.2246513166084 0 0 0 0 126.62587840946071 488.65426448324797 0 488.65426448324797 498.68059381582589 0 0 0 0 917.81080218384159 -24.723253317779381 0 -24.723253317779381 -609.15840657267654 0 0 0 0 416.07580746024178 221.45717984118983 0 221.45717984118983 121.4936686844394 0 0 0 0 5.2453394950968004 -1.1047889558251889 0 -1.1047889558251889 -1.2640883633792477 0 0 0 0 0.9640194089536962 -0.39535023203424569 0 -0.39535023203424569 0.50499230460419398 0 0 0 0 29.532273904780595 -60.617260690058174 0 -60.617260690058174 251.85348349335845 0 0 0 0 116.68588202713727 -163.8532612262552 0 -163.8532612262552 206.77605251902787 0 0 0 0 207.74361410101119 -162.54187140281374 0 -162.54187140281374 66.52181068954269 0 0 0 0 43.077302060377406 -73.633696972399775 0 -73.633696972399775 96.987443362797421 0 0 0 0 174.82076511521882 -118.8367673009061 0 -118.8367673009061 8.9534350840312982 0 0 0 0 422.89118052078538 -134.67117125887856 0 -134.67117125887856 103.01988257899592 0 0 0 0 15.801936013643946 -28.264819209147056 0 -28.264819209147056 27.970438809197145 0 0 0 0 -118.58564383787234 -71.008846100794926 0 -71.008846100794926 103.78972099768725 0 0 0 0 76.078129178950803 24.372352786586703 0 24.372352786586703 -13.182989150633148 0 0 0 0 77.301063619401248 -44.315463912727864 0 -44.315463912727864 -23.506927570845619 0 0 0 0 94.351251354184797 -45.090318299284945 0 -45.090318299284945 -35.417600920515724 0 0 0 0 54.446678942840663 75.666732149707968 0 75.666732149707968 -174.93939375225091 0 0 0 0 50.810813199794211 -71.952292528852013 0 -71.952292528852013 -6.124445903454216 0 0 0 0 63.546727178776557 -38.304420048543562 0 -38.304420048543562 18.310787605072438 0 0 0 0 10.027702668247002 3.2686321336932451 0 3.2686321336932451 -21.689228604754021 0 0 0 0 23.263361083161726 -42.632947745509227 0 -42.632947745509227 32.800295078478939 0 0 0 0 39.803783271599968 -43.245883124135162 0 -43.245883124135162 30.87091846246949 0 0 0 0 35.07928888663416 -18.433202211954992 0 -18.433202211954992 5.8481405441864922 0 0 0 0 10.046415394747143 -1.4455297728609025 0 -1.4455297728609025 0.15925328373046632 0 0 0 0 35.530770520736951 -84.739182697810747 0 -84.739182697810747 95.516897462942325 0 0 0 0 58.497800190218186 -90.794193203418217 0 -90.794193203418217 35.442207958994913 0 0 0 0 25.080000733636552 -53.46735039017949 0 -53.46735039017949 52.685453370351297 0 0 0 0 2.8494935363933109 7.9744981297451432 0 7.9744981297451432 81.275719972497427 0 0 0 0 13.055969161179746 -7.8107338522395366 0 -7.8107338522395366 -7.9972537719163483 0 0 0 0 4.1949455759436631 -1.606708081160185 0 -1.606708081160185 -0.96019891487272702 0 0 0 0 28.670710140906522 -5.2175102271421565 0 -5.2175102271421565 -0.21244621062578517 0 0 0 0 8.5050672455754466 -1.1471021374940165 0 -1.1471021374940165 0.91500169435494172 0 0 0 0 24.713231145076861 -3.5822461948464479 0 -3.5822461948464479 -2.86810521611892 0 0 0 0 26.103037625987781 -3.9296005796436475 0 -3.9296005796436475 -4.1352407089621011 0 0 0 0 23.829525114189892 24.994701494455967 0 24.994701494455967 7.5283957154633754 0 0 0 0 11.822147871286134 0.079092610642529593 0 0.079092610642529593 -2.9864519389467254 0 0 0 0 32.484327815186589 10.189647420139977 0 10.189647420139977 2.6673547845148278 0 0 0 0 6.3481343054664059 -2.8173108112761263 0 -2.8173108112761263 0.83540079879079343 0 0 0 0 56.235732962326438 4.8197285946705506 0 4.8197285946705506 -3.7298721798661063 0 0 0 0 62.352505055865549 -5.8366102683808094 0 -5.8366102683808094 -3.0256096956372858 0 0 0 0 54.418845630321812 6.4040278423253767 0 6.4040278423253767 -5.0079549584233973 0 0 0 0 50.904082491724694 2.8587033189351132 0 2.8587033189351132 5.2284949105351188 0 0 0 0 37.237288037407779 -0.31897675491131849 0 -0.31897675491131849 2.1366421345078379 0 0 0 0 16.606136375580189 -3.9740260195023751 0 -3.9740260195023751 -1.7167338305151425 0 0 0 0 44.004275676105863 7.0313970063273246 0 7.0313970063273246 -2.9968111644593591 0 0 0 0 10.869580414141151 -5.7203747723168661 0 -5.7203747723168661 -5.3331703213919166 0 0 0 0 28.393966462022945 -7.3604817407299379 0 -7.3604817407299379 -11.68143487171983 0 0 0 0 8.8249704696369413 -7.9601882120277594 0 -7.9601882120277594 -0.58860961917134347 0 0 0 0 45.667983944643311 -1.9474639105440019 0 -1.9474639105440019 -1.164416295439878 0 0 0 0 51.569277655633414 1.5486053583408648 0 1.5486053583408648 -5.1740063448305591 0 0 0 0 55.820304801887687 -2.0668690567608792 0 -2.0668690567608792 -4.7625639381285509 0 0 0 0 52.958492113724787 -1.8107085968536012 0 -1.8107085968536012 -2.9266494177627465 0 0 0 0 28.519796414671873 -6.7848501059852424 0 -6.7848501059852424 -18.06282189651165 0 0 0 0 53.375485345376831 -2.4549792127806711 0 -2.4549792127806711 -4.8194618737261408 0 0 0 0 37.540481557775891 -4.2144420430488871 0 -4.2144420430488871 -6.5214985856419592 0 0 0 0 33.559562320136607 -8.0756891411619467 0 -8.0756891411619467 -5.2405467317243364 0 0 0 0 25.372318641890175 1.7758715728790548 0 1.7758715728790548 -13.484986835833091 0 0 0 0 34.881367746975229 -10.535933193842993 0 -10.535933193842993 -12.067957303541334 0 0 0 0 42.040529893477554 -7.7676379414716621 0 -7.7676379414716621 -4.9276551817680279 0 0 0 0 53.683289049309678 -5.5940124912076499 0 -5.5940124912076499 0.49233392420228483 0 0 0 0 27.801831175691376 -4.7770152942290434 0 -4.7770152942290434 2.7046834058587024 0 0 0 0 82.58925979938067 0.10686382212770695 0 0.10686382212770695 -81.342411968294073 0 0 0 0 112.87234690201512 73.793137945476701 0 73.793137945476701 22.46215731810662 0 0 0 0 74.950832920029825 30.58039602319036 0 30.58039602319036 -21.321399491236662 0 0 0 0 32.507060090407322 -5.7827053106693711 0 -5.7827053106693711 -22.341426332519404 0 0 0 0 11.152532807825253 -4.7256173837669593 0 -4.7256173837669593 -4.3004761311230695 0 0 0 0 17.678859049658058 -8.452403012830473 0 -8.452403012830473 -22.528291841685132 0 0 0 0 1.6986412822643615 -15.173327120644217 0 -15.173327120644217 -10.067359990844125 0 0 0 0 50.017084437298763 -8.2610456184193026 0 -8.2610456184193026 -90.943326388141031 0 0 0 0 132.61845439343597 -34.952890100570585 0 -34.952890100570585 -114.50164506661167 0 0 0 0 176.84563719412836 -124.03207880023365 0 -124.03207880023365 8.5525092323732679 0 0 0 0 4.3358198519754296 -44.300441828866724 0 -44.300441828866724 22.941314056140982 0 0 0 0 1.222973345273985 -1.2047600826527969 0 -1.2047600826527969 1.3421007771513587 0 0 0 0 69.77880392492807 -215.45860204163819 0 -215.45860204163819 26.205265925229469 0 0 0 0 144.39451458711483 15.73119570453764 0 15.73119570453764 -160.71329377902293 0 0 0 0 147.97198828194814 249.23894716343784 0 249.23894716343784 -94.917451911558601 0 0 0 0 -127.65258039160108 -181.10802010543193 0 -181.10802010543193 -336.10992259100749 0 0 0 0 -138.67124289119965 21.382359903031102 0 21.382359903031102 -46.630558111144637 0 0 0 0 -38.743631268869649 -10.381159113208923 0 -10.381159113208923 -86.802996817976236 0 0 0 0 -38.023746783408569 -19.50019189417435 0 -19.50019189417435 26.051176511762606 0 0 0 0 -103.88050786410895 81.485278960841242 0 81.485278960841242 111.12217936753586 0 0 0 0 -72.13676755576671 136.95309187814928 0 136.95309187814928 110.16059497242532 0 0 0 0 -56.213066598531441 110.28526113489715 0 110.28526113489715 -59.690426902774561 0 0 0 0 -55.231811852092505 100.2447252368147 0 100.2447252368147 22.027177505413874 0 0 0 0 -77.932258180691861 47.927939067205443 0 47.927939067205443 171.11599114029013 0 0 0 0 -240.08503684784409 -59.342803645373806 0 -59.342803645373806 40.601760016845219 0 0 0 0 -2.5520403255691377 2.327305678312058 0 2.327305678312058 -5.3683529230476097 0 0 0 0 60.697039577120449 -22.977723166715805 0 -22.977723166715805 -110.63376389665063 0 0 0 0 335.91849039871886 -0.14689055274175189 0 -0.14689055274175189 -169.04585454009066 0 0 0 0 -128.89155583187676 178.17244768499222 0 178.17244768499222 -16.758151833535521 0 0 0 0 135.48542090243427 -42.722751449628049 0 -42.722751449628049 -105.96917190869135 0 0 0 0 -47.874245928389428 -131.78649655051777 0 -131.78649655051777 -35.968847487802122 0 0 0 0 14.345020905424576 5.9605184010170547 0 5.9605184010170547 -6.1376041699426054 0 0 0 0 -1.2966967048268998 -15.927318228978947 0 -15.927318228978947 -28.213596817363396 0 0 0 0 -218.808586822488 479.30229488080022 0 479.30229488080022 -109.45572853908379 0 0 0 0 342.29770150839613 -131.70743248347026 0 -131.70743248347026 -195.31986572912319 0 0 0 0 -102.56766036567933 90.2870792088288 0 90.2870792088288 168.92190722547821 0 0 0 0 248.74084438209684 -73.415477191559603 0 -73.415477191559603 14.914148086190835 0 0 0 0 359.2831915201532 183.27241645578943 0 183.27241645578943 -949.00617469332792 0 0 0 0 4.7496228700947896 6.5256735621800104 0 6.5256735621800104 6.1878113916719713 0 0 0 0 649.65966019896587 -18.057904577838599 0 -18.057904577838599 -31.482754531178216 0 0 0 0 435.25396642427222 -267.07066756413224 0 -267.07066756413224 -4.5966311187767133 0 0 0 0 0.61932972056195013 -0.20819907816273542 0 -0.20819907816273542 1.0139324540646584 0 0 0 0 3.548057311022859 -0.25048958271002419 0 -0.25048958271002419 -8.5194880451891422 0 0 0 0 173.21927383948423 49.990487957209552 0 49.990487957209552 0.011996479388471926 0 0 0 0 3.7199871264092508 -10.118070746398644 0 -10.118070746398644 -24.854148754180642 0 0 0 0 -29.363658979120373 -16.305258169188164 0 -16.305258169188164 -0.53601819463256106 0 0 0 0 -27.446542218436662 -51.212146407240652 0 -51.212146407240652 -39.26347079576226 0 0 0 0 12.514245240421587 -21.531627600773845 0 -21.531627600773845 -44.667350216659543 0 0 0 0 20.608501011069166 -33.302754417265533 0 -33.302754417265533 -34.644057320389038 0 0 0 0 58.919907989620697 -19.917881314981969 0 -19.917881314981969 -53.466360987265944 0 0 0 0 23.791064184675633 -29.776720918313913 0 -29.776720918313913 -51.971176313580145 0 0 0 0 25.201521852873384 -1.1624904757926515 0 -1.1624904757926515 -42.810236442956011 0 0 0 0 23.308006009861856 -24.352855856757742 0 -24.352855856757742 -65.924063298816691 0 0 0 0 22.071383080341604 3.9892344018534871 0 3.9892344018534871 -6.2897985287600839 0 0 0 0 2.7910530340377591 -19.198380762241868 0 -19.198380762241868 -42.82189682131775 0 0 0 0 30.170601268873725 -7.7152515932202732 0 -7.7152515932202732 -39.278049010292307 0 0 0 0 44.637971784948604 -2.5220294738137454 0 -2.5220294738137454 -46.084887088824871 0 0 0 0 42.069879724895145 3.9093104768028297 0 3.9093104768028297 -31.084970474716101 0 0 0 0 44.396060485383714 9.7426537428937081 0 9.7426537428937081 -33.044394972563168 0 0 0 0 47.980283160010003 12.702768443514287 0 12.702768443514287 -25.03732097926877 0 0 0 0 39.927470014314167 -6.625546313470295 0 -6.625546313470295 -41.917101947805349 0 0 0 0 39.707411144583602 6.8682818664119623 0 6.8682818664119623 -14.31879696586293 0 0 0 0 44.80266073346138 4.9504993547416234 0 4.9504993547416234 -31.952253993826162 0 0 0 0 37.252696649251448 7.7753601052336307 0 7.7753601052336307 -14.543888676705592 0 0 0 0 39.104556763966684 1.3056867607992899 0 1.3056867607992899 -12.142034618856087 0 0 0 0 41.934379805526987 7.3283994031808106 0 7.3283994031808106 -18.099932834494211 0 0 0 0 28.828664071537787 3.4013531571399653 0 3.4013531571399653 -13.828989897717065 0 0 0 0 16.627247343812144 -3.9433731954150488 0 -3.9433731954150488 -7.4063474053759855 0 0 0 0 21.521737455448601 -1.524873805925381 0 -1.524873805925381 -27.744694523910766 0 0 0 0 15.62570187421079 -8.9330760870607264 0 -8.9330760870607264 -24.492128734371363 0 0 0 0 45.529175146308262 -1.1911697181476484 0 -1.1911697181476484 -32.718733076672834 0 0 0 0 45.305956168849661 0.18849886900261481 0 0.18849886900261481 -40.500666448073389 0 0 0 0 38.147265903236985 -1.25840219381098 0 -1.25840219381098 -31.911021127147251 0 0 0 0 49.957136261444248 -14.872662714078615 0 -14.872662714078615 -31.406121810661716 0 0 0 0 32.202068197686458 -8.2311148846547439 0 -8.2311148846547439 -33.625040890294258 0 0 0 0 26.790142091446455 -11.374560216319068 0 -11.374560216319068 -16.97604457408417 0 0 0 0 26.428880581690464 -17.534888727404905 0 -17.534888727404905 -21.029723749432378 0 0 0 0 17.866240987210404 -57.734224284921993 0 -57.734224284921993 -26.549389360637178 0 0 0 0 25.46891508436056 -21.438783596795247 0 -21.438783596795247 -35.937040936876656 0 0 0 0 40.158616147353314 -50.114587698792093 0 -50.114587698792093 -88.90317692446115 0 0 0 0 35.308713855316057 -19.191986604057679 0 -19.191986604057679 -3.8286579105957692 0 0 0 0 33.754776386333944 -9.7479885243613893 0 -9.7479885243613893 -7.9963621897610011 0 0 0 0 22.130603218321625 -17.191001465782257 0 -17.191001465782257 -19.626014566960418 0 0 0 0 19.614022155215935 -39.02061884518298 0 -39.02061884518298 -51.816676909575108 0 0 0 0 37.62559246027871 -0.4217607851772911 0 -0.4217607851772911 -10.413178142500598 0 0 0 0 38.524651900064782 0.45349084884037438 0 0.45349084884037438 -38.720775243182288 0 0 0 0 46.090759307622648 -1.6330860567783247 0 -1.6330860567783247 -41.082700389011734 0 0 0 0 12.91808540376951 -43.458146691283446 0 -43.458146691283446 -78.89426486029879 0 0 0 0 28.819882978744971 0.4987417415315889 0 0.4987417415315889 -3.9864138396208304 0 0 0 0 36.547517338181933 -13.662180030598392 0 -13.662180030598392 -65.586753610012238 0 0 0 0 22.159921677925013 -4.6840249475844757 0 -4.6840249475844757 -20.313146823262286 0 0 0 0 22.824713758482346 -9.9915308098990305 0 -9.9915308098990305 -17.954092288637856 0 0 0 0 15.93932110282185 -30.044287549333603 0 -30.044287549333603 -4.0952795821031032 0 0 0 0 -27.465419994030526 24.792273255853615 0 24.792273255853615 -29.344305815791358 0 0 0 0 138.71456188141019 42.257328516583129 0 42.257328516583129 -96.41200271130856 0 0 0 0 -20.306209385904367 -33.309563186011928 0 -33.309563186011928 61.676552540242483 0 0 0 0 20.744553336746321 -24.241005262700128 0 -24.241005262700128 -19.976208368238986 0 0 0 0 164.10299448571823 -63.413148151559199 0 -63.413148151559199 -13.044939425842585 0 0 0 0 15.21503521528939 -29.034995897321096 0 -29.034995897321096 -12.957665047973251 0 0 0 0 32.09812088509716 -36.497576944757384 0 -36.497576944757384 -45.154437318274177 0 0 0 0 25.151477928333847 -12.245091525526497 0 -12.245091525526497 1.2480400559663281 0 0 0 0 17.701436682014901 -21.585120451828971 0 -21.585120451828971 -18.861869869565908 0 0 0 0 51.246837548280382 -8.455881498861288 0 -8.455881498861288 -17.643131560963411 0 0 0 0 28.377105183611121 -6.776072846002041 0 -6.776072846002041 -6.9200049733686875 0 0 0 0 32.888580539063696 -14.171893231530703 0 -14.171893231530703 -15.984417139788093 0 0 0 0 26.288243203340244 -11.882105058369234 0 -11.882105058369234 -10.243871411194959 0 0 0 0 27.630726970953447 -8.0125755342371576 0 -8.0125755342371576 -7.7627137442050298 0 0 0 0 33.601662095034726 -40.18473978020026 0 -40.18473978020026 -6.7807593980696765 0 0 0 0 25.397137052170141 -12.315343991296418 0 -12.315343991296418 -6.0603467550057903 0 0 0 0 34.002165931447962 -8.1561905737519282 0 -8.1561905737519282 -11.625779859137879 0 0 0 0 4.6580151621265031 1.6163834606063574 0 1.6163834606063574 -9.2621242617024109 0 0 0 0 64.976880880571116 28.791839360954782 0 28.791839360954782 16.369632369014454 0 0 0 0 110.44698521836654 -14.476703063086006 0 -14.476703063086006 -12.167941069217704 0 0 0 0 46.661711036642373 9.5362796935805818 0 9.5362796935805818 -1.9019336546380146 0 0 0 0 53.868640228527511 6.6188319508819404 0 6.6188319508819404 -1.5422985219965994 0 0 0 0 59.62777758937591 6.6114959969972915 0 6.6114959969972915 -17.549729311187569 0 0 0 0 35.140133957670777 -3.2241295808582464 0 -3.2241295808582464 -5.5307792793740793 0 0 0 0 38.823726323533265 6.6098738634809067 0 6.6098738634809067 -17.698494582158901 0 0 0 0 36.336188387654666 -5.0333100018905075 0 -5.0333100018905075 -7.0595496117556635 0 0 0 0 53.182324358584083 -27.372000778801066 0 -27.372000778801066 -6.7155478777872304 0 0 0 0 25.754621344026123 2.0483008392463162 0 2.0483008392463162 -11.409348483388344 0 0 0 0 35.332634606002102 -11.461313372239829 0 -11.461313372239829 -15.244992898498822 0 0 0 0 76.642310620845819 -29.675220603347043 0 -29.675220603347043 -57.397790298001382 0 0 0 0 49.204240322374972 24.594976408525326 0 24.594976408525326 -14.355938960748972 0 0 0 0 24.317584011077209 4.3803604393446243 0 4.3803604393446243 -17.380129776647085 0 0 0 0 39.855708355302717 -7.7579411060576682 0 -7.7579411060576682 -3.6144341889468752 0 0 0 0 44.737094362169046 -9.6563529786693927 0 -9.6563529786693927 -24.218069182979661 0 0 0 0 43.224834003271098 -5.4402961192702151 0 -5.4402961192702151 -15.383639670297242 0 0 0 0 44.222223506229057 -0.48218113998742496 0 -0.48218113998742496 -12.110681801597501 0 0 0 0 34.820835465006795 -6.4430719518124313 0 -6.4430719518124313 -11.084361755737698 0 0 0 0 89.431650832710147 50.339401990861461 0 50.339401990861461 -5.3063229777699235 0 0 0 0 3.5621200893814375 -0.34910215687823865 0 -0.34910215687823865 -4.715057404209535 0 0 0 0 13.28033781180784 -26.174962128483912 0 -26.174962128483912 34.822611588518157 0 0 0 0 43.212501952619277 -75.459246497497816 0 -75.459246497497816 -16.742462092165624 0 0 0 0 18.178232185749039 -35.087442719300952 0 -35.087442719300952 -16.173188766621934 0 0 0 0 10.099326739898274 -12.667520240064249 0 -12.667520240064249 -24.849747933065835 0 0 0 0 50.439606748361257 -13.288921153187971 0 -13.288921153187971 -44.482431695333617 0 0 0 0 50.564819821691344 -15.017780276302915 0 -15.017780276302915 -34.883221063853512 0 0 0 0 2.9530963957804488 -126.91677462115433 0 -126.91677462115433 -96.642296269418694 0 0 0 0 64.25477120060954 -14.816619736352482 0 -14.816619736352482 -8.9331700360399058 0 0 0 0 45.194786814652616 -6.1821216808275494 0 -6.1821216808275494 -30.936848904848148 0 0 0 0 63.155475834088065 -3.6043532028124901 0 -3.6043532028124901 -37.110834160188006 0 0 0 0 39.592610018589767 -17.662552834429334 0 -17.662552834429334 -35.490965698124683 0 0 0 0 48.663410474247939 -2.8726056254185721 0 -2.8726056254185721 -19.570255018212187 0 0 0 0 34.743325576178904 -21.185545894808911 0 -21.185545894808911 -15.756167023963755 0 0 0 0 37.107761276299158 -3.5156522564933432 0 -3.5156522564933432 -5.8096123944769209 0 0 0 0 55.917746900749989 13.047289492481866 0 13.047289492481866 3.424846286009597 0 0 0 0 51.07855586023652 -1.3603099462407044 0 -1.3603099462407044 -28.054362226223702 0 0 0 0 66.073122477725633 11.080861222866233 0 11.080861222866233 -21.402459744793305 0 0 0 0 91.447867240597475 -4.0641532011311199 0 -4.0641532011311199 -21.009113856822751 0 0 0 0 73.887992592417845 -48.920728716157981 0 -48.920728716157981 -22.454190359396307 0 0 0 0 101.02483987319306 -66.196555155822239 0 -66.196555155822239 31.376797176593755 0 0 0 0 34.67709842460566 -9.497325605017636 0 -9.497325605017636 -4.8671443565265129 0 0 0 0 32.47411523617123 -4.044182788435787 0 -4.044182788435787 -3.5711535798173273 0 0 0 0 76.635787022312797 -34.580531391434761 0 -34.580531391434761 -36.1112814393382 0 0 0 0 83.007323367179197 -3.3009307764868936 0 -3.3009307764868936 -88.806922406646436 0 0 0 0 63.213806789935205 -2.1497107936859496 0 -2.1497107936859496 -12.896667569614156 0 0 0 0 60.936021940247883 -5.573528697816073 0 -5.573528697816073 -65.121963730052812 0 0 0 0 57.095341871012351 -4.1181929376843982 0 -4.1181929376843982 -17.713065769244395 0 0 0 0 184.41073550746114 145.78689035722618 0 145.78689035722618 -73.861284687747684 0 0 0 0 96.523981073743926 -21.970086664526207 0 -21.970086664526207 -17.412035534071038 0 0 0 0 25.363146627343546 -4.5390473135207472 0 -4.5390473135207472 -11.5188543188943 0 0 0 0 66.965291821040566 -22.497095671651682 0 -22.497095671651682 -5.599689126080146 0 0 0 0 79.360245588848784 43.16949143697579 0 43.16949143697579 12.530820504318854 0 0 0 0 92.035474573742249 -94.456982411335957 0 -94.456982411335957 -4.3813677343539439 0 0 0 0 9.7346515394529547 -9.8536880094482981 0 -9.8536880094482981 -3.5816198623000237 0 0 0 0 48.082320973204332 -72.783705763670696 0 -72.783705763670696 6.0632075660016511 0 0 0 0 20.863979597127368 -11.544663654433641 0 -11.544663654433641 -26.38194133537932 0 0 0 0 103.14442086989584 -64.380891178887396 0 -64.380891178887396 -47.296695006412847 0 0 0 0 104.75931516284618 -39.336700790456234 0 -39.336700790456234 -77.014323918819628 0 0 0 0 15.266056576253781 -10.439192232829392 0 -10.439192232829392 -25.242301930200103 0 0 0 0 45.603157892062939 0.32393777201991014 0 0.32393777201991014 -9.8397030616057783 0 0 0 0 46.409786179545335 -57.327211776134163 0 -57.327211776134163 -53.683340538186826 0 0 0 0 9.1438862119794067 -29.670562576505063 0 -29.670562576505063 -37.122568575555761 0 0 0 0 46.881857951724669 -8.9753053553470181 0 -8.9753053553470181 -53.014499424340841 0 0 0 0 150.93352096340823 -15.276059658073791 0 -15.276059658073791 -52.677225113492568 0 0 0 0 69.967323042842963 -25.991526416867941 0 -25.991526416867941 -84.113005965262801 0 0 0 0 57.820789813061737 -6.596878609965696 0 -6.596878609965696 -2.8428258546728422 0 0 0 0 -119.49328304210212 -394.81787452363915 0 -394.81787452363915 -289.54277173522701 0 0 0 0 677.16348119373288 -180.52290941927095 0 -180.52290941927095 -729.99502622228124 0 0 0 0 -394.46285395527229 -178.84219062099214 0 -178.84219062099214 389.24247294114866 0 0 0 0 612.53172098590585 326.56210533875947 0 326.56210533875947 -17.596897233969685 0 0 0 0 429.38096808407863 231.99032234474112 0 231.99032234474112 -36.605928988234609 0 0 0 0 447.83277560852548 -230.9375807883707 0 -230.9375807883707 -213.29566896818733 0 0 0 0 6.8653993190557117 -2.9026440354834335 0 -2.9026440354834335 0.11569049203711668 0 0 0 0 1034.8312969111248 -161.06942898123333 0 -161.06942898123333 -269.07820143155095 0 0 0 0 3.5402204038707339 5.1498410289243068 0 5.1498410289243068 9.5388714806526771 0 0 0 0 1658.1784023443688 -407.85102235589375 0 -407.85102235589375 -230.05110207676989 0 0 0 0 1085.427390355464 682.17837353372897 0 682.17837353372897 194.0769518500897 0 0 0 0 -292.52277823655095 -307.94911453662576 0 -307.94911453662576 47.224015842305562 0 0 0 0 240.74587876934675 180.65437784007099 0 180.65437784007099 133.97732994106354 0 0 0 0 -105.51781791204121 -77.193996894032352 0 -77.193996894032352 51.311297342426769 0 0 0 0 440.60262575112574 -28.764101310394835 0 -28.764101310394835 -4.7934192166594585 0 0 0 0 -97.6312595019117 355.60193692081748 0 355.60193692081748 507.39095806365799 0 0 0 0 -477.30704506990151 -84.147287035518502 0 -84.147287035518502 522.9047100989435 0 0 0 0 65.621609979374625 -43.135326879420177 0 -43.135326879420177 -138.55505138389358 0 0 0 0 -80.665186059726693 214.65008555438249 0 214.65008555438249 278.69273630531382 0 0 0 0 -21.627408166401437 -26.723262691741979 0 -26.723262691741979 49.415163066738728 0 0 0 0 -62.358135104012035 -80.240871511067326 0 -80.240871511067326 14.247426898192771 0 0 0 0 -35.650312679630588 -55.766281848888312 0 -55.766281848888312 23.888499231672313 0 0 0 0 40.065635266029858 -29.440509801889675 0 -29.440509801889675 -38.133624028527265 0 0 0 0 40.636355497248587 -68.907730589618154 0 -68.907730589618154 -72.294851161438345 0 0 0 0 4.9399693001300164 -25.576874287942424 0 -25.576874287942424 -27.664900462327825 0 0 0 0 42.069735005919938 -36.010829359413947 0 -36.010829359413947 -18.183711902698633 0 0 0 0 14.974102277002032 -14.751593039637353 0 -14.751593039637353 -16.99520562327077 0 0 0 0 20.575443718411407 -5.2812394541367667 0 -5.2812394541367667 -35.233507037717573 0 0 0 0 27.371840300183976 -27.670118014978016 0 -27.670118014978016 -4.3696549798534932 0 0 0 0 29.200579885022307 -25.05513251610455 0 -25.05513251610455 -4.5489563880009882 0 0 0 0 30.76332598175577 -31.943001172148797 0 -31.943001172148797 -3.3928075569774592 0 0 0 0 30.436740551085677 -28.63775304362116 0 -28.63775304362116 -15.704426420692471 0 0 0 0 -3.5097083550936077 -10.180157269688721 0 -10.180157269688721 41.92406416357835 0 0 0 0 7.1680802634386112 -9.0163545560456058 0 -9.0163545560456058 3.9607778473871154 0 0 0 0 4.1676436263514915 -32.161852735379171 0 -32.161852735379171 24.564216229716845 0 0 0 0 -5.6585135969259426 -15.3068885368791 0 -15.3068885368791 -11.509577147803135 0 0 0 0 26.757605635197251 -26.161953613688638 0 -26.161953613688638 3.2488796073712365 0 0 0 0 10.012808520567106 -19.889142167131439 0 -19.889142167131439 -3.8457295600400379 0 0 0 0 -155.29614472400863 28.224378058172078 0 28.224378058172078 -135.45421861502064 0 0 0 0 -307.05305809927813 109.88699946494035 0 109.88699946494035 -23.065735104730265 0 0 0 0 73.528373384062434 107.21644535716769 0 107.21644535716769 -177.02836313257285 0 0 0 0 0.87526136392945375 -4.9163117920144401 0 -4.9163117920144401 -0.00084546723953593528 0 0 0 0 5.0218403488732974 -2.5054071047715425 0 -2.5054071047715425 -4.2642546147714082 0 0 0 0 -48.440508917919942 1.8943735054954232 0 1.8943735054954232 -12.020848940937867 0 0 0 0 18.939578910416458 -10.681327654105189 0 -10.681327654105189 -205.49577927517203 0 0 0 0 -30.128889618354151 -65.577103201200771 0 -65.577103201200771 -226.74846562450875 0 0 0 0 49.259009884786792 -104.84747089326993 0 -104.84747089326993 -213.43930221849223 0 0 0 0 55.939333989459556 -88.997643026070364 0 -88.997643026070364 -367.06946731089101 0 0 0 0 -132.68115052409121 -269.03361440182925 0 -269.03361440182925 -377.98348229421936 0 0 0 0 202.79026268360758 -108.74716799810949 0 -108.74716799810949 -614.01186385869005 0 0 0 0 144.61659620940918 25.006441943834943 0 25.006441943834943 -298.4782096025956 0 0 0 0 -9.200625720404787 -119.22601730903079 0 -119.22601730903079 -182.80230890063649 0 0 0 0 16.687488285326253 -11.707560647829723 0 -11.707560647829723 -32.316500489248938 0 0 0 0 13.908216410439337 0.14889524752955197 0 0.14889524752955197 -14.37272808053617 0 0 0 0 -13.534882690320956 -132.89975641203455 0 -132.89975641203455 -177.23885488456608 0 0 0 0 -128.46773703351209 -138.05815599725884 0 -138.05815599725884 -131.80007862586353 0 0 0 0 12.372049950230576 -158.16264616943863 0 -158.16264616943863 -164.74808293770184 0 0 0 0 58.356534804610419 -123.90906309590264 0 -123.90906309590264 -179.92650550963708 0 0 0 0 -31.689306674146792 -33.354877994180242 0 -33.354877994180242 -135.60348615573821 0 0 0 0 81.141254804242635 -102.36048353034676 0 -102.36048353034676 -226.02961416174978 0 0 0 0 2.8044125996093499 -119.55822541970792 0 -119.55822541970792 -225.82258714232375 0 0 0 0 53.466457552684005 -131.88220115986041 0 -131.88220115986041 -215.28234209128482 0 0 0 0 36.806189777838881 -129.1600274386501 0 -129.1600274386501 -172.03473860815575 0 0 0 0 147.88715956294618 -127.33496199707406 0 -127.33496199707406 -176.17847952686452 0 0 0 0 161.48367267397407 26.863798793272508 0 26.863798793272508 -128.5425452999807 0 0 0 0 207.89628406109841 0.50516944663422692 0 0.50516944663422692 -121.67246932329726 0 0 0 0 216.28470252467378 143.81816770492424 0 143.81816770492424 -216.35618367294774 0 0 0 0 271.90743063329137 76.820783845922051 0 76.820783845922051 -171.97908117712768 0 0 0 0 559.61414400791909 227.67284864041949 0 227.67284864041949 -264.92057384298096 0 0 0 0 388.55597947411297 168.84439170813675 0 168.84439170813675 -141.49884393386401 0 0 0 0 488.17984604485537 0.27599074934596501 0 0.27599074934596501 62.809182406112086 0 0 0 0 444.48259298595076 65.20816725470786 0 65.20816725470786 -22.082458150568527 0 0 0 0 519.29926032092044 132.19030219085835 0 132.19030219085835 -165.28002682950046 0 0 0 0 628.98842575591698 29.667807338543753 0 29.667807338543753 -92.051336430632546 0 0 0 0 811.40972202229023 -345.04947599559364 0 -345.04947599559364 119.28160560443041 0 0 0 0 875.9529581044726 127.95805617035603 0 127.95805617035603 -273.27750128551816 0 0 0 0 250.8829356496135 88.66051885086199 0 88.66051885086199 68.695120692213095 0 0 0 0 -195.52922695153393 -133.00266806110812 0 -133.00266806110812 -153.28183904871275 0 0 0 0 242.72309298322034 40.828543498963086 0 40.828543498963086 -114.44294775973322 0 0 0 0 -317.2017000781525 167.24121789319702 0 167.24121789319702 -198.75868865501616 0 0 0 0 301.51893348636804 164.43209177279095 0 164.43209177279095 -465.72028093574136 0 0 0 0 362.89044304743584 11.423109518284036 0 11.423109518284036 -178.91468309514858 0 0 0 0 653.1862003593269 432.05877932160365 0 432.05877932160365 354.14187632980429 0 0 0 0 577.59598592109978 65.701759188946198 0 65.701759188946198 49.502151907954612 0 0 0 0 528.80189954875095 79.22014094836959 0 79.22014094836959 111.95762517976073 0 0 0 0 17.947482257994125 144.03468301607245 0 144.03468301607245 91.303140485119457 0 0 0 0 354.9145856583491 292.91071717323075 0 292.91071717323075 123.91002828523938 0 0 0 0 587.68729451930813 165.94936087905148 0 165.94936087905148 -71.578152923775633 0 0 0 0 529.41376854436112 197.40789161405291 0 197.40789161405291 -83.497422405192992 0 0 0 0 518.00877434327685 117.28301488067075 0 117.28301488067075 -145.44723363155572 0 0 0 0 469.80740075162612 186.92763946275045 0 186.92763946275045 -20.030378019602722 0 0 0 0 501.32835031386094 32.579476836092908 0 32.579476836092908 -122.35035580275508 0 0 0 0 344.53365382408083 86.437485600237778 0 86.437485600237778 -99.118786891202944 0 0 0 0 348.91769931768067 -48.181737403752777 0 -48.181737403752777 -37.738447559926044 0 0 0 0 50.048832877146197 -131.19814978625709 0 -131.19814978625709 -115.61281759232043 0 0 0 0 243.75450654843735 -75.939190301206054 0 -75.939190301206054 -170.61117204488255 0 0 0 0 190.9952821008992 -14.672539866774969 0 -14.672539866774969 -15.320604220120003 0 0 0 0 32.076335243102221 -154.0294564770802 0 -154.0294564770802 -78.090448887644015 0 0 0 0 -27.628570063257939 -197.51334298848542 0 -197.51334298848542 -154.00714073183008 0 0 0 0 -44.870087737916037 -55.683071556131836 0 -55.683071556131836 -194.78170856913675 0 0 0 0 226.17007253588235 28.283771033875382 0 28.283771033875382 -138.10745991869794 0 0 0 0 -10.265176764405624 -141.04398830026093 0 -141.04398830026093 -84.719768567769279 0 0 0 0 275.24006596003164 -59.532575132851889 0 -59.532575132851889 18.96225797111947 0 0 0 0 454.35281202606711 162.22925663472415 0 162.22925663472415 28.37730511325185 0 0 0 0 403.05194781763566 179.93929902338914 0 179.93929902338914 32.125819603986088 0 0 0 0 530.81994285058317 64.645114452503094 0 64.645114452503094 63.993939621230311 0 0 0 0 231.836210443038 -40.355214776487628 0 -40.355214776487628 22.784039323947582 0 0 0 0 148.63933825241838 57.372292145862957 0 57.372292145862957 -27.324344009732158 0 0 0 0 212.18486016777752 142.48774201618971 0 142.48774201618971 70.286375814238113 0 0 0 0 395.49307111834423 26.603068108612888 0 26.603068108612888 14.95432405669726 0 0 0 0 722.92611149168806 225.63551396015282 0 225.63551396015282 44.933111015444638 0 0 0 0 658.77854580456915 279.69674053558083 0 279.69674053558083 42.704486167600407 0 0 0 0 771.55451827468642 344.29938839037277 0 344.29938839037277 28.099399632981203 0 0 0 0 906.09956384995894 363.08865709556903 0 363.08865709556903 29.686961990187228 0 0 0 0 754.52113734431623 307.31304945273678 0 307.31304945273678 218.39159924513842 0 0 0 0 913.58398864528135 112.88519691402234 0 112.88519691402234 104.77833596000164 0 0 0 0 1201.3306169813877 436.00830504550504 0 436.00830504550504 2.8548207245003141 0 0 0 0 677.48692555721209 322.68642377363449 0 322.68642377363449 151.93178400515535 0 0 0 0 28.268603657226777 -108.61594350731684 0 -108.61594350731684 438.71336248988518 0 0 0 0 8.3517910296868649 64.168487449631812 0 64.168487449631812 170.94230543707999 0 0 0 0 -44.752069630274491 114.66804439034831 0 114.66804439034831 131.93087084022227 0 0 0 0 0.70652252620414657 0.51392316647859104 0 0.51392316647859104 3.4249346730008199 0 0 0 0 1.5437461557227721 1.6007263138515384 0 1.6007263138515384 1.2048045025402114 0 0 0 0 125.2204541756073 -350.04001360857001 0 -350.04001360857001 196.02536032489297 0 0 0 0 84.571316125555313 -37.347909160571362 0 -37.347909160571362 104.92623960574338 0 0 0 0 -0.63954324440419441 102.0882602871061 0 102.0882602871061 -74.443992606467873 0 0 0 0 216.22439683369885 31.626754253671606 0 31.626754253671606 -292.06304438371973 0 0 0 0 380.95085983852186 -395.00092989557834 0 -395.00092989557834 -307.69115719201727 0 0 0 0 34.058036448986968 50.42872767418703 0 50.42872767418703 7.9320147612290839 0 0 0 0 73.966696083494753 22.100374446849855 0 22.100374446849855 -3.3884033886897669 0 0 0 0 -43.108658265071426 42.382383869110981 0 42.382383869110981 3.7846558169621858 0 0 0 0 -1.362380023065441 3.0280207184471948 0 3.0280207184471948 9.5182576998306949 0 0 0 0 44.776570218142297 10.581223791118646 0 10.581223791118646 7.9563849957266939 0 0 0 0 876.38623899662343 285.56523167859996 0 285.56523167859996 -15.841896601323242 0 0 0 0 0.82756606377649433 5.20152674394987 0 5.20152674394987 13.201442369616736 0 0 0 0 526.71128496277015 219.87248108681842 0 219.87248108681842 270.16061506497317 0 0 0 0 43.553006474925496 19.660973928206204 0 19.660973928206204 29.521528859279897 0 0 0 0 19.590343708942498 -6.1467339044365161 0 -6.1467339044365161 -8.3027692522898349 0 0 0 0 40.19746534092701 -27.070087469783175 0 -27.070087469783175 -44.804448706456242 0 0 0 0 79.747933655205998 20.570643228151312 0 20.570643228151312 -46.620694644817007 0 0 0 0 54.449816565895162 29.571039054314042 0 29.571039054314042 17.959593908817624 0 0 0 0 92.273190877909656 42.430577076034751 0 42.430577076034751 -82.887582880607624 0 0 0 0 -25.738693248480558 -41.545797924567069 0 -41.545797924567069 -31.221028628817294 0 0 0 0 3.3359820100013167 -85.875810564295534 0 -85.875810564295534 -116.39982259154385 0 0 0 0 19.095957579161933 -4.2334928973325248 0 -4.2334928973325248 -8.0880180489171565 0 0 0 0 26.373674181406386 -35.466070885118825 0 -35.466070885118825 -133.08167428140405 0 0 0 0 -171.56092913780594 -274.72093814494838 0 -274.72093814494838 -362.17870274792949 0 0 0 0 4.7239542628913611 1.8751714381381248 0 1.8751714381381248 -0.14532961370897013 0 0 0 0 96.21375892755168 94.4480523211123 0 94.4480523211123 -423.4012567046484 0 0 0 0 59.807363776300917 -31.411853884454104 0 -31.411853884454104 -182.75292073807032 0 0 0 0 59.78271351470903 97.879825273757888 0 97.879825273757888 -82.980700802725551 0 0 0 0 119.74670070798311 187.15266585833433 0 187.15266585833433 -138.88335379607452 0 0 0 0 35.5709257889539 90.725255078853934 0 90.725255078853934 222.43486375257089 0 0 0 0 -128.8219858139928 157.97468437304724 0 157.97468437304724 -109.46081788645279 0 0 0 0 51.209890879803424 -27.850978712028109 0 -27.850978712028109 76.910096888061162 0 0 0 0 523.07268156370264 96.978024412121613 0 96.978024412121613 107.56323718716089 0 0 0 0 69.18483780722454 86.348844486872167 0 86.348844486872167 -2.7814459571004591 0 0 0 0 333.14834029178019 -113.4857645774232 0 -113.4857645774232 495.71327115284112 0 0 0 0 6.0390443425807803 -0.964582108316975 0 -0.964582108316975 3.2095656923908535 0 0 0 0 561.42909089945897 -486.45669640665665 0 -486.45669640665665 50.158226350627956 0 0 0 0 -130.67943242919864 -191.43978072313621 0 -191.43978072313621 -241.1243195142888 0 0 0 0 27.557655150696519 -436.4379331962582 0 -436.4379331962582 45.831553243729104 0 0 0 0 1101.4993390190648 441.91882194896789 0 441.91882194896789 114.17392203866439 0 0 0 0 714.33608918134996 344.67187435528103 0 344.67187435528103 112.0863746980813 0 0 0 0 1094.5373307071879 61.670666096951038 0 61.670666096951038 239.16055782420517 0 0 0 0 87.679530777269974 154.14315595281869 0 154.14315595281869 236.2191110540798 0 0 0 0 790.51035022285578 405.22197091546468 0 405.22197091546468 47.778177093969134 0 0 0 0 3.9897599035140558 0.0014806178612456478 0 0.0014806178612456478 -0.11126794895286718 0 0 0 0 883.87412764548935 267.39539481827978 0 267.39539481827978 119.82704268503221 0 0 0 0 615.59379775401612 175.11037880377444 0 175.11037880377444 248.24167234168453 0 0 0 0 785.94086247921223 255.59244913085968 0 255.59244913085968 25.254510002632742 0 0 0 0 835.01739652254037 329.10813140389018 0 329.10813140389018 63.077042033633916 0 0 0 0 767.34767812567588 119.1404608870389 0 119.1404608870389 -106.27580179400138 0 0 0 0 653.52548563186429 266.21749193363621 0 266.21749193363621 53.650250965602027 0 0 0 0 357.98199107329128 -128.6153061193645 0 -128.6153061193645 -118.13181811929462 0 0 0 0 840.75171733062461 198.85846882418491 0 198.85846882418491 -61.167446179251783 0 0 0 0 -39.262295939923206 77.880627118132452 0 77.880627118132452 99.475600683125776 0 0 0 0 -26.145569298707414 87.588844922525823 0 87.588844922525823 -18.996277046440468 0 0 0 0 -6.959070604547378 81.717098354329437 0 81.717098354329437 -25.783576344354515 0 0 0 0 97.041373774867679 18.4424830203684 0 18.4424830203684 -75.302038471222659 0 0 0 0 6.6131186721913764 -0.15705225299917647 0 -0.15705225299917647 -0.14450673486215049 0 0 0 0 40.45859756957816 -177.13444885418966 0 -177.13444885418966 323.52355290454852 0 0 0 0 136.56929108705663 -33.798696100772304 0 -33.798696100772304 375.47622300598391 0 0 0 0 140.10264439396997 -179.69367819060608 0 -179.69367819060608 496.44470795834695 0 0 0 0 -27.125816735177068 -131.23366761900843 0 -131.23366761900843 491.49565212557809 0 0 0 0 328.74080766122643 -138.78243194738798 0 -138.78243194738798 381.16091942339608 0 0 0 0 -388.21947528587043 317.07077226780257 0 317.07077226780257 256.63618137393632 0 0 0 0 46.087708948543877 -85.24286470088532 0 -85.24286470088532 556.33265953155819 0 0 0 0 22.315723266008717 -252.20087160645744 0 -252.20087160645744 714.42392242259348 0 0 0 0 329.28056925604324 -448.05449442858753 0 -448.05449442858753 524.65912884034697 0 0 0 0 0.1846485494126 0.59476789151564446 0 0.59476789151564446 2.3375849698064481 0 0 0 0 105.49931195937825 -11.738518966593347 0 -11.738518966593347 425.71527167937029 0 0 0 0 131.86459519114533 -189.35137813549036 0 -189.35137813549036 423.89257593131242 0 0 0 0 123.34102683434685 -37.103301690794524 0 -37.103301690794524 309.87554931419709 0 0 0 0 2.7376558747662045 -0.91250275920767798 0 -0.91250275920767798 -0.069785932382937066 0 0 0 0 -44.731993292698462 -154.85668670475525 0 -154.85668670475525 347.14801559629723 0 0 0 0 181.285034241424 -115.69503916816393 0 -115.69503916816393 30.478785098611297 0 0 0 0 17.707274947366386 -8.7692037417341453 0 -8.7692037417341453 -114.73857526192205 0 0 0 0 -34.166193487937562 88.787710434342443 0 88.787710434342443 105.12356711891766 0 0 0 0 69.310853613296786 -135.68632864350138 0 -135.68632864350138 -377.36218305230614 0 0 0 0 -23.539121962472564 -56.051741170651894 0 -56.051741170651894 -179.27377288480056 0 0 0 0 -99.310328633584504 -291.89254070796369 0 -291.89254070796369 -360.23966074397867 0 0 0 0 -18.050483237209846 -60.395381343743793 0 -60.395381343743793 -23.599858200626841 0 0 0 0 12.789193295235236 -7.9438960429424412 0 -7.9438960429424412 0.99716053452906195 0 0 0 0 -162.31602319190279 -187.52234637010133 0 -187.52234637010133 -237.43151961505828 0 0 0 0 -119.66209474069183 -134.6014674684011 0 -134.6014674684011 -282.13605948036457 0 0 0 0 -64.565338314583641 -146.68699431449022 0 -146.68699431449022 -295.55012746426837 0 0 0 0 -100.62693091576875 -79.564736367715795 0 -79.564736367715795 -154.54516092741869 0 0 0 0 -28.289031427753798 -72.844137680437598 0 -72.844137680437598 -176.02325136484615 0 0 0 0 -79.561139441480918 -75.792704528976174 0 -75.792704528976174 -117.79966051336396 0 0 0 0 -69.948969008532003 -26.527481540119879 0 -26.527481540119879 -9.3562994236104942 0 0 0 0 -6.0885486124925592 -25.101344062217777 0 -25.101344062217777 -110.3531060354544 0 0 0 0 -22.073390790508711 47.478821374642393 0 47.478821374642393 39.195339178402719 0 0 0 0 208.07815975966764 -32.893400982284319 0 -32.893400982284319 4.9790989679258928 0 0 0 0 -11.198767718713498 -104.96173565911158 0 -104.96173565911158 -34.889365260728027 0 0 0 0 -31.648987270069483 -51.242165511100666 0 -51.242165511100666 -160.9246895134329 0 0 0 0 -122.57800944938208 -122.68785329131606 0 -122.68785329131606 -80.979525614619433 0 0 0 0 -79.611066675777693 -107.42174261027549 0 -107.42174261027549 -228.61638485512412 0 0 0 0 -114.48486438443069 -176.66061330152388 0 -176.66061330152388 -205.08544785778804 0 0 0 0 -74.985608207587575 -102.64217995623545 0 -102.64217995623545 19.515250472981279 0 0 0 0 -119.39117817772421 -226.50060072405222 0 -226.50060072405222 -339.58055047002563 0 0 0 0 -182.61391350999475 -179.43360057520113 0 -179.43360057520113 -217.07484238540326 0 0 0 0 -147.14780134400644 -193.1600873190273 0 -193.1600873190273 -139.0022282866064 0 0 0 0 -96.105788541870425 -122.69889086226885 0 -122.69889086226885 -380.16981173811109 0 0 0 0 -7.3910309107814101 -96.197776979855007 0 -96.197776979855007 -232.94815660109271 0 0 0 0 -134.57648387096651 -156.75722300845916 0 -156.75722300845916 13.174468501902084 0 0 0 0 -1.1391120177359255 0.40537977353578469 0 0.40537977353578469 -0.40997315970107984 0 0 0 0 -94.157288080234139 -379.48324747408424 0 -379.48324747408424 -507.08882383936088 0 0 0 0 -271.63168828441121 -290.99891941625447 0 -290.99891941625447 -159.96084377170837 0 0 0 0 -27.250586625741562 106.67344081678129 0 106.67344081678129 0.75541627096390584 0 0 0 0 38.103538061106519 22.627730935543696 0 22.627730935543696 12.807890105822253 0 0 0 0 42.741116900659108 21.493426536507286 0 21.493426536507286 3.4927161950490699 0 0 0 0 42.16140856941638 11.263525439479054 0 11.263525439479054 -15.856118414452339 0 0 0 0 35.468299908163317 11.432076981102909 0 11.432076981102909 14.846466462377066 0 0 0 0 41.818336480537255 15.705826351275391 0 15.705826351275391 11.045897105645054 0 0 0 0 59.773757149319863 16.562638000534207 0 16.562638000534207 -27.8791509704497 0 0 0 0 37.787743719112768 29.055075419822515 0 29.055075419822515 16.885923496371106 0 0 0 0 39.661604223669201 36.767703065554315 0 36.767703065554315 46.25780955457958 0 0 0 0 34.957122154257377 23.198501095519532 0 23.198501095519532 50.385724851905252 0 0 0 0 -2.9114078261423515 -5.6350394276054132 0 -5.6350394276054132 0.85418423782970976 0 0 0 0 -7.8948809711267813 -3.0079588027539188 0 -3.0079588027539188 0.42233368039360286 0 0 0 0 40.471558516910591 16.702716254596453 0 16.702716254596453 12.6665333299552 0 0 0 0 19.721060081344064 -7.6637684550233018 0 -7.6637684550233018 -3.8988074276729812 0 0 0 0 69.305777266417863 34.568896006370778 0 34.568896006370778 27.229649439683271 0 0 0 0 93.490628668514546 31.21457668354924 0 31.21457668354924 27.686746893623877 0 0 0 0 77.885585928699584 36.908063181844227 0 36.908063181844227 -13.158462587813119 0 0 0 0 40.928833085781662 4.3682978234487564 0 4.3682978234487564 -25.183001435063488 0 0 0 0 53.821515837116749 5.7618791332315595 0 5.7618791332315595 -30.824494889501693 0 0 0 0 31.376269744658202 -32.911390567644958 0 -32.911390567644958 -52.799683770814227 0 0 0 0 112.91324051728589 26.440918078893446 0 26.440918078893446 -67.468309778887487 0 0 0 0 37.993388200971822 -50.085665700730942 0 -50.085665700730942 -57.408992571094132 0 0 0 0 0.30935773742524475 -0.16811069042113758 0 -0.16811069042113758 -2.4225339228383831 0 0 0 0 -117.95901266494911 -47.325516809484725 0 -47.325516809484725 -10.98850252190914 0 0 0 0 -37.724075303791324 -103.04732252718077 0 -103.04732252718077 -89.001163664604974 0 0 0 0 297.19008159230725 -132.2950463658226 0 -132.2950463658226 -32.484348559238015 0 0 0 0 56.182156080543791 97.065701171002274 0 97.065701171002274 -13.474965864412297 0 0 0 0 350.25636668311199 -120.04891562711919 0 -120.04891562711919 105.5186271519633 0 0 0 0 187.16722787820618 -324.74893938667628 0 -324.74893938667628 -95.280921702329806 0 0 0 0 77.118401802885273 -43.171648860601863 0 -43.171648860601863 -120.2600191248348 0 0 0 0 0.63395765671884874 59.713914631453008 0 59.713914631453008 52.140064771733705 0 0 0 0 277.30924899492311 -90.722365366822487 0 -90.722365366822487 25.479750153893292 0 0 0 0 239.58463563818077 -95.533310763536974 0 -95.533310763536974 89.99195986073164 0 0 0 0 485.30470334316487 -383.75572746851685 0 -383.75572746851685 152.37351905533978 0 0 0 0 451.57605307959238 -142.84564027993508 0 -142.84564027993508 62.748286398207711 0 0 0 0 521.43493375444814 -302.544926375876 0 -302.544926375876 63.242634166828793 0 0 0 0 604.37812292602757 -232.45434411175893 0 -232.45434411175893 69.221768241844302 0 0 0 0 322.43822427064151 81.585092868901029 0 81.585092868901029 -21.866631731642883 0 0 0 0 93.477136016626901 -11.836186656750669 0 -11.836186656750669 76.617892333520331 0 0 0 0 92.244813246787089 -29.436988676670808 0 -29.436988676670808 130.11323454684998 0 0 0 0 86.294312478770735 28.944460907026041 0 28.944460907026041 86.118529771065369 0 0 0 0 88.393062052951791 41.124661531323568 0 41.124661531323568 45.151514649176534 0 0 0 0 0.4072910373868126 -0.37261782816797506 0 -0.37261782816797506 0.17504813788583995 0 0 0 0 73.373540913591569 67.102787687746059 0 67.102787687746059 71.536657075410403 0 0 0 0 80.539178566432383 35.811557888298921 0 35.811557888298921 66.309489409006346 0 0 0 0 84.436234213913849 26.278661357953752 0 26.278661357953752 44.977189004854154 0 0 0 0 -103.04495501601195 -12.844262012771651 0 -12.844262012771651 120.10476474497591 0 0 0 0 -278.25811587513454 -411.47098342205322 0 -411.47098342205322 -336.05123231932157 0 0 0 0 129.8718357788639 -14.46138160297528 0 -14.46138160297528 -54.974653500323257 0 0 0 0 12.203354667674759 -8.2323703404675683 0 -8.2323703404675683 3.661032010466041 0 0 0 0 225.09576315856248 -277.52118267935862 0 -277.52118267935862 -379.23386917691369 0 0 0 0 -239.75020678841975 34.586932166931092 0 34.586932166931092 96.906838853243244 0 0 0 0 -284.09150132776904 -710.02234615715929 0 -710.02234615715929 155.53160178034341 0 0 0 0 212.78729927841778 -149.59450050605392 0 -149.59450050605392 171.26614377084206 0 0 0 0 174.54148172045097 -86.364834968880132 0 -86.364834968880132 316.90466084241052 0 0 0 0 655.85615257361496 -95.427982311376581 0 -95.427982311376581 316.78461919515235 0 0 0 0 153.2571877951973 -578.05077223301009 0 -578.05077223301009 333.42998622679534 0 0 0 0 591.76588989377251 -555.48634945868787 0 -555.48634945868787 330.40068754224558 0 0 0 0 4.9318587503595523 1.8463498355776338 0 1.8463498355776338 0.82720584855609758 0 0 0 0 153.00572797091809 79.565083035937619 0 79.565083035937619 577.43835476921436 0 0 0 0 885.72366415914439 -576.23995536488405 0 -576.23995536488405 396.7084563834303 0 0 0 0 503.98232771853873 -623.44855514761139 0 -623.44855514761139 607.96202713193361 0 0 0 0 275.61908777697681 -250.19949696764252 0 -250.19949696764252 417.15774912302516 0 0 0 0 545.53633319796791 -563.05162496526509 0 -563.05162496526509 362.55878805228713 0 0 0 0 564.60318858221581 -337.29958879476862 0 -337.29958879476862 118.05641261555388 0 0 0 0 497.55762722099098 -317.62027803886269 0 -317.62027803886269 639.28524516431662 0 0 0 0 700.17551499220281 -265.51570760238201 0 -265.51570760238201 374.07587925319331 0 0 0 0 260.38111491662858 -314.11676605305001 0 -314.11676605305001 475.227532067217 0 0 0 0 349.61013534721133 -45.217569438556893 0 -45.217569438556893 255.06885225779092 0 0 0 0 763.15676994467503 7.0915831054126102 0 7.0915831054126102 472.21634621829253 0 0 0 0 429.91994846799207 -574.73172263770175 0 -574.73172263770175 179.6115910199087 0 0 0 0 9.0694695760977595 4.903480347138462 0 4.903480347138462 2.4732885566077538 0 0 0 0 1050.3424448746518 102.79989967900156 0 102.79989967900156 -21.362399680735507 0 0 0 0 4.4427011392382667 -3.9818281797947392 0 -3.9818281797947392 3.1545127994734266 0 0 0 0 292.10668805910245 -293.18204758313959 0 -293.18204758313959 66.508440647126918 0 0 0 0 316.14028268230049 -136.5365708906358 0 -136.5365708906358 70.083496659264711 0 0 0 0 878.4438007290446 -674.6780490877095 0 -674.6780490877095 7.634654343065904 0 0 0 0 6.1505370501695324 2.6262675546376215 0 2.6262675546376215 0.73189032411717037 0 0 0 0 1113.8471338192321 -363.86704280472668 0 -363.86704280472668 176.00230753083451 0 0 0 0 705.27123618772021 143.58422375435862 0 143.58422375435862 -393.96381710901915 0 0 0 0 1117.1909086192609 -323.24632745620738 0 -323.24632745620738 93.401047833286157 0 0 0 0 244.74016325210687 104.58839075698984 0 104.58839075698984 536.95903888194198 0 0 0 0 455.89643389455159 -501.0082102937813 0 -501.0082102937813 428.42532179491627 0 0 0 0 764.57980240975303 -544.76485459223181 0 -544.76485459223181 365.43169520798892 0 0 0 0 937.04878914163965 -315.57488948430665 0 -315.57488948430665 633.40176409966671 0 0 0 0 1.8468352536466353 -4.1666927150721449 0 -4.1666927150721449 4.9055194207621344 0 0 0 0 3200.6388783649854 -1137.3015501870623 0 -1137.3015501870623 231.18504485496396 0 0 0 0 1280.468553482302 -1159.583275391677 0 -1159.583275391677 1554.8436752848143 0 0 0 0 1805.081723628562 -352.28326393580994 0 -352.28326393580994 160.38878502586294 0 0 0 0 1167.6807360202874 -1061.4988040833241 0 -1061.4988040833241 862.34650285440352 0 0 0 0 2500.0824513521948 -1223.1987763547136 0 -1223.1987763547136 1181.9473326763289 0 0 0 0 1692.9279397701575 -675.87098187015499 0 -675.87098187015499 -122.98960974882644 0 0 0 0 1652.5515062115155 -502.12998292349641 0 -502.12998292349641 -427.44211933867467 0 0 0 0 -916.00382791855236 -495.17469935923452 0 -495.17469935923452 556.14253495547678 0 0 0 0 1569.8008085513102 -2299.3803561596219 0 -2299.3803561596219 1280.0063160952666 0 0 0 0 1975.8663467009792 -275.71289994007566 0 -275.71289994007566 -369.29088822574863 0 0 0 0 3053.2911729502575 -1514.7562507666937 0 -1514.7562507666937 -76.113207640368614 0 0 0 0 2.8310421866856501 -6.6113789168284285 0 -6.6113789168284285 14.709208263757423 0 0 0 0 -1212.5085391166976 -335.48646607171167 0 -335.48646607171167 1067.1008028888573 0 0 0 0 575.13335177736735 -1287.3153354111005 0 -1287.3153354111005 1474.9092865843402 0 0 0 0 993.59371070625275 -549.62486170415866 0 -549.62486170415866 -402.57762179366853 0 0 0 0 2498.0160531458732 -1814.7364574636256 0 -1814.7364574636256 33.722234664931356 0 0 0 0 -63.687889977492887 -1161.1967074711538 0 -1161.1967074711538 2370.8270757454497 0 0 0 0 3.8809223961385939 -6.3901721161719891 0 -6.3901721161719891 15.958313151593485 0 0 0 0 -245.48505930777901 480.30730584948242 0 480.30730584948242 1086.1546050539123 0 0 0 0 -154.57248174078995 -429.57591726544962 0 -429.57591726544962 -385.92767810041801 0 0 0 0 3.6082724610673935 -13.241980381707315 0 -13.241980381707315 28.269181989160518 0 0 0 0 -708.99154396171434 -1371.633557236172 0 -1371.633557236172 906.3755587168373 0 0 0 0 -13.834655933973409 -547.04899299955468 0 -547.04899299955468 134.24337292627024 0 0 0 0 738.47880453219113 -173.25416960854909 0 -173.25416960854909 8.1836738735446488 0 0 0 0 985.04108474030181 -528.70613943713965 0 -528.70613943713965 127.70269199333961 0 0 0 0 1146.5683453567071 -227.74701069001526 0 -227.74701069001526 -257.94227136636619 0 0 0 0 1536.1631906184557 -468.31822447988179 0 -468.31822447988179 -130.38631944400368 0 0 0 0 1010.088659458419 -841.13307206022273 0 -841.13307206022273 1140.495281166699 0 0 0 0 -1302.8376488012345 -40.460846955347051 0 -40.460846955347051 755.10433864148217 0 0 0 0 0.8620845966521884 -3.9893228056950178 0 -3.9893228056950178 14.831551201235271 0 0 0 0 685.3916198929146 -200.88742415646266 0 -200.88742415646266 113.82521725092568 0 0 0 0 546.80360230212682 -361.32598992619569 0 -361.32598992619569 90.886733651037503 0 0 0 0 383.69270467960632 44.242284659566849 0 44.242284659566849 238.98143325342608 0 0 0 0 667.44452966963581 90.891531271611711 0 90.891531271611711 -89.628909569724783 0 0 0 0 962.7992063671627 339.08192213482744 0 339.08192213482744 60.906583647321895 0 0 0 0 580.81194385165509 -146.58813227541214 0 -146.58813227541214 -311.30206759433349 0 0 0 0 615.81735929890419 -1066.0865574185902 0 -1066.0865574185902 650.3165992134891 0 0 0 0 -920.81717793033476 -680.06057825882829 0 -680.06057825882829 538.03297097415452 0 0 0 0 -751.5424785783398 38.600828883641043 0 38.600828883641043 -152.10105024060067 0 0 0 0 5.2582943549318486 -16.315265212874081 0 -16.315265212874081 32.733394760145558 0 0 0 0 -1147.7336251350207 -1110.3828657334134 0 -1110.3828657334134 843.01726723242689 0 0 0 0 3.8684777077984549 -4.2361936507835622 0 -4.2361936507835622 11.702731488427645 0 0 0 0 -395.16890695417533 -632.12701172445281 0 -632.12701172445281 -424.35335923296708 0 0 0 0 2503.4449484511133 -359.22334029327283 0 -359.22334029327283 1601.0300099973072 0 0 0 0 290.25788508129654 274.54491826322982 0 274.54491826322982 235.63796737163875 0 0 0 0 -576.49786786378536 -448.14477551056973 0 -448.14477551056973 468.57991574531275 0 0 0 0 3191.464370642243 -1942.9815245784259 0 -1942.9815245784259 1356.4306995890825 0 0 0 0 -425.72265289659845 10.447501929534269 0 10.447501929534269 1568.5453841664635 0 0 0 0 2496.2885636156539 -397.39296555157409 0 -397.39296555157409 -918.74945971099487 0 0 0 0 -741.97593547627184 -83.729726490964651 0 -83.729726490964651 578.18184846333634 0 0 0 0 -970.71654955193299 507.7097412865437 0 507.7097412865437 598.10641336870231 0 0 0 0 -418.20202904932012 3.6069851900183494 0 3.6069851900183494 -222.25231690768851 0 0 0 0 2502.3550857476603 130.88810946785679 0 130.88810946785679 149.79917932745656 0 0 0 0 2551.4444920088736 -199.40376475553862 0 -199.40376475553862 -296.86580704774985 0 0 0 0 1348.7171931094254 -943.7749471955874 0 -943.7749471955874 450.21967015007857 0 0 0 0 256.12305506636767 212.03431242592933 0 212.03431242592933 72.519847944801711 0 0 0 0 352.08365515293553 -394.28729565872959 0 -394.28729565872959 127.36690532133873 0 0 0 0 64.029853598447517 138.40597706243287 0 138.40597706243287 168.11803895087638 0 0 0 0 21.813587217213524 -12.652672419291591 0 -12.652672419291591 6.3248439782142123 0 0 0 0 26.327556578930739 -11.221218706857194 0 -11.221218706857194 2.5101890541939245 0 0 0 0 192.18484029592946 -382.30523739432147 0 -382.30523739432147 -597.23622068498037 0 0 0 0 -118.69831024296946 -86.448535664992775 0 -86.448535664992775 27.368638499533816 0 0 0 0 128.99464810247446 -23.528352685094887 0 -23.528352685094887 -913.58750939687411 0 0 0 0 -58.781659065971326 -136.63936118395657 0 -136.63936118395657 -386.92168725626743 0 0 0 0 63.430361093705869 23.89136878113527 0 23.89136878113527 -8.8706604393924806 0 0 0 0 733.43179338425398 385.30731748377366 0 385.30731748377366 -700.46484498975224 0 0 0 0 20.9280536580942 -6.0882596063423833 0 -6.0882596063423833 -2.3779054001710236 0 0 0 0 -491.01615621840756 -426.09000554726367 0 -426.09000554726367 -297.22555973829384 0 0 0 0 0.45384042647267409 -0.93733175246313749 0 -0.93733175246313749 1.3864351208992629 0 0 0 0 525.32259950363368 -627.18666525358356 0 -627.18666525358356 -104.19000951280111 0 0 0 0 89.754800248832908 -19.106299495591884 0 -19.106299495591884 -299.30005346232838 0 0 0 0 8.9204259357466071 -248.1131621332475 0 -248.1131621332475 50.615254379322664 0 0 0 0 228.783615080125 -407.26728404781278 0 -407.26728404781278 113.7974207906052 0 0 0 0 74.632094916900314 -62.894921275433006 0 -62.894921275433006 -87.250116470039643 0 0 0 0 231.03321300902462 -185.676911355318 0 -185.676911355318 -84.945488772863641 0 0 0 0 2646.0929520597674 720.86796145448147 0 720.86796145448147 -687.20768432834723 0 0 0 0 1609.3513828679097 234.23523144560048 0 234.23523144560048 -78.237057253595935 0 0 0 0 1304.8599128062269 994.43390221733102 0 994.43390221733102 -740.70084139817584 0 0 0 0 11.237887923340452 0.75717774275576488 0 0.75717774275576488 -1.634181486656312 0 0 0 0 816.18712629906952 694.7016057680537 0 694.7016057680537 -272.82804981659535 0 0 0 0 -2009.3728534104303 -1035.0207907501447 0 -1035.0207907501447 -775.40171478027582 0 0 0 0 1805.4256996363583 183.59771343796029 0 183.59771343796029 -176.01410003582393 0 0 0 0 1876.614733791841 -0.21685988063686068 0 -0.21685988063686068 -88.851119373730995 0 0 0 0 2137.576602224055 -88.94059000195675 0 -88.94059000195675 -165.64535911628047 0 0 0 0 2498.2388914347653 -471.45920933139035 0 -471.45920933139035 -463.07767200930601 0 0 0 0 976.00322560716086 -399.82652683323965 0 -399.82652683323965 -83.358683650554156 0 0 0 0 1147.4766519827285 -641.63705908002657 0 -641.63705908002657 165.82027069675405 0 0 0 0 2.5545275460073578 -10.553653157226123 0 -10.553653157226123 9.6193101262968472 0 0 0 0 1294.244109926949 -436.63158751402557 0 -436.63158751402557 148.12267482020138 0 0 0 0 561.61251046339385 -234.13079773883726 0 -234.13079773883726 100.97291097904923 0 0 0 0 1094.4569884847078 -293.44794616123147 0 -293.44794616123147 61.804696203656476 0 0 0 0 835.97665005030103 -372.90028914948209 0 -372.90028914948209 59.398904692016458 0 0 0 0 2.5623771626252276 -9.40094655248528 0 -9.40094655248528 8.0367418658593373 0 0 0 0 1.8648223496874823 -5.0690044747618686 0 -5.0690044747618686 4.6854547162536484 0 0 0 0 44.660976035392082 -203.97207221323134 0 -203.97207221323134 94.563169591192036 0 0 0 0 357.4983543424969 -142.32832304227964 0 -142.32832304227964 8.5842751765391654 0 0 0 0 731.66869516851148 -349.74531179992402 0 -349.74531179992402 -72.054170472259557 0 0 0 0 708.86533449708077 -459.33086617639754 0 -459.33086617639754 204.98887209590174 0 0 0 0 1646.9996140727162 -227.45153703934065 0 -227.45153703934065 -17.088680045256496 0 0 0 0 1075.3223130205961 -353.89346531792779 0 -353.89346531792779 264.15291879242386 0 0 0 0 734.84590400859815 -473.34620441952137 0 -473.34620441952137 149.07363571665792 0 0 0 0 1083.1207017998822 -520.42231084877653 0 -520.42231084877653 51.642827480805636 0 0 0 0 958.1354839476553 -524.71409603331222 0 -524.71409603331222 93.891423316083433 0 0 0 0 971.91273063634253 -484.77644157933349 0 -484.77644157933349 208.17999105864737 0 0 0 0 1022.4669370067713 -472.78365307071806 0 -472.78365307071806 150.13495167280121 0 0 0 0 684.00211263870551 -392.76457826720571 0 -392.76457826720571 236.90726641532069 0 0 0 0 742.67788389544148 -288.25341458022501 0 -288.25341458022501 418.74966243209201 0 0 0 0 834.74651227655704 -618.73627814724409 0 -618.73627814724409 422.26069579750117 0 0 0 0 442.56060083431294 -295.9896707400834 0 -295.9896707400834 280.9260988867677 0 0 0 0 661.96761510701617 -138.02397685234291 0 -138.02397685234291 142.37232364095803 0 0 0 0 1018.3162515073564 -197.20197344876169 0 -197.20197344876169 65.064885886007232 0 0 0 0 701.65699541803042 -297.95960080342252 0 -297.95960080342252 145.84445211582388 0 0 0 0 487.52629012128455 -71.476227170273773 0 -71.476227170273773 -13.296029867026846 0 0 0 0 518.95400771878485 -326.65226302903068 0 -326.65226302903068 87.466396021911578 0 0 0 0 627.61883717835008 -193.73722121120227 0 -193.73722121120227 221.23263227107896 0 0 0 0 1745.1795133839369 -312.97141964290768 0 -312.97141964290768 -281.28824603508713 0 0 0 0 4.1478037152387799 3.4404521761846212 0 3.4404521761846212 1.6139500189008782 0 0 0 0 128.47475453638617 -18.868208511805221 0 -18.868208511805221 322.93827613367137 0 0 0 0 570.74500547711432 -275.00003214839506 0 -275.00003214839506 21.371010386572266 0 0 0 0 151.44346472605321 -81.953249062212336 0 -81.953249062212336 43.623111838566501 0 0 0 0 5.4051679172983711 5.9306427899722394 0 5.9306427899722394 2.0192067200353172 0 0 0 0 885.73672357565738 -36.957858535820904 0 -36.957858535820904 824.16408934704623 0 0 0 0 689.88325468236144 531.80088702751527 0 531.80088702751527 276.9309556991667 0 0 0 0 2173.0261853574557 -175.11364127684647 0 -175.11364127684647 -275.01949221938679 0 0 0 0 1229.9431258075383 -700.21172620455809 0 -700.21172620455809 -71.826590408161906 0 0 0 0 596.8603912820472 -507.13800278408218 0 -507.13800278408218 -69.699290293436803 0 0 0 0 -175.30445826184587 -761.93187082978693 0 -761.93187082978693 377.09425780947561 0 0 0 0 321.81559371593175 -179.73382568099191 0 -179.73382568099191 -537.81751559603163 0 0 0 0 2046.5771199248484 -1213.1702446610325 0 -1213.1702446610325 -79.02584231680089 0 0 0 0 12.514358758767344 -5.801293539883325 0 -5.801293539883325 2.9275283677297823 0 0 0 0 2359.1393052158382 -251.8147169440935 0 -251.8147169440935 -524.06720902556651 0 0 0 0 2144.3036439251009 -1059.3896848401869 0 -1059.3896848401869 524.54662446859174 0 0 0 0 3554.7408890169063 -4.9487716636571975 0 -4.9487716636571975 -520.426909363959 0 0 0 0 2832.6521838426561 1180.2257468793905 0 1180.2257468793905 296.65038057542165 0 0 0 0 2.8524272357950906 -7.2660852148523638 0 -7.2660852148523638 1.9284381378583069 0 0 0 0 510.01534770847502 -193.71413710431864 0 -193.71413710431864 55.162432648077129 0 0 0 0 62.462991000047623 -337.52695412237699 0 -337.52695412237699 -624.08491452466205 0 0 0 0 960.41362099186517 732.40363103624236 0 732.40363103624236 218.61773444304345 0 0 0 0 30.896361813569825 -16.76346080922756 0 -16.76346080922756 4.2924708195255317 0 0 0 0 254.41606225963096 400.16722605313811 0 400.16722605313811 -285.27940414639943 0 0 0 0 1005.4090968400633 52.330656979526339 0 52.330656979526339 -164.58487335285918 0 0 0 0 992.0315754491603 -49.70132145153093 0 -49.70132145153093 672.09413670709819 0 0 0 0 2302.5295935345202 -322.71927093832483 0 -322.71927093832483 -477.0067748308137 0 0 0 0 2298.6733352730516 4.880844219394703 0 4.880844219394703 -291.23334873696581 0 0 0 0 109.01219517605932 142.81681359085172 0 142.81681359085172 235.48529309325977 0 0 0 0 1.0330670474358783 0.83961683468858439 0 0.83961683468858439 -7.9458836323072015 0 0 0 0 1641.2558286230924 -302.12804340981745 0 -302.12804340981745 -309.80044795918155 0 0 0 0 419.85976631237281 -335.61348341782525 0 -335.61348341782525 -16.535486144665924 0 0 0 0 121.23045029950299 -64.775849153910372 0 -64.775849153910372 53.386883178229368 0 0 0 0 66.17737371757903 -83.513734279699293 0 -83.513734279699293 54.087695856266691 0 0 0 0 91.984126277566247 -21.430512239618565 0 -21.430512239618565 -8.1967557557406963 0 0 0 0 151.36499940543035 -152.61842584621456 0 -152.61842584621456 70.339614292588521 0 0 0 0 75.196445586712798 -86.170555717476191 0 -86.170555717476191 113.34986477870007 0 0 0 0 139.27414705233969 -198.83426310868299 0 -198.83426310868299 213.63716943418393 0 0 0 0 123.73447013250552 -210.50586816304985 0 -210.50586816304985 208.37330239284745 0 0 0 0 137.17876788373178 -240.36214843786047 0 -240.36214843786047 230.4833222097036 0 0 0 0 276.77635258733062 -216.10973473720657 0 -216.10973473720657 93.177003710131871 0 0 0 0 80.730318996953429 -185.34122179522316 0 -185.34122179522316 202.67926979164474 0 0 0 0 130.6415063521199 -211.8080831781981 0 -211.8080831781981 167.276426996547 0 0 0 0 196.9396667132969 -273.22895930352865 0 -273.22895930352865 188.95496055610454 0 0 0 0 0.11393307280970077 0.075812285083074471 0 0.075812285083074471 -0.60872813206170928 0 0 0 0 188.1015765403281 -247.91699941726554 0 -247.91699941726554 91.863892197762027 0 0 0 0 248.62515196936147 -12.640145806941746 0 -12.640145806941746 -32.084037130406386 0 0 0 0 -206.30910922123803 -4.9938317747282781 0 -4.9938317747282781 83.847769180603336 0 0 0 0 375.29361198598417 -270.29373598986251 0 -270.29373598986251 137.1021558979528 0 0 0 0 186.28894532810227 -170.89999145076217 0 -170.89999145076217 93.383875126292651 0 0 0 0 148.00242468880606 -223.15602476747267 0 -223.15602476747267 198.89354941251963 0 0 0 0 261.47519214308704 -170.46505363620071 0 -170.46505363620071 63.100469285771503 0 0 0 0 150.76895984909788 -222.87672149006238 0 -222.87672149006238 198.81123091208542 0 0 0 0 3.6301955959103509 -1.7872508758252801 0 -1.7872508758252801 0.41016972432478493 0 0 0 0 167.89163234258012 -393.25875609092907 0 -393.25875609092907 649.28890833701735 0 0 0 0 123.54131460742065 -154.4806175089609 0 -154.4806175089609 193.22443776179716 0 0 0 0 90.035188411944546 -184.1077318955081 0 -184.1077318955081 174.09993988944552 0 0 0 0 9.3992336453911776 -4.18835960197252 0 -4.18835960197252 0.25688126792936977 0 0 0 0 2.8054773453277448 -166.15972898119327 0 -166.15972898119327 93.715036751535536 0 0 0 0 -69.683972032547899 -67.39309078626934 0 -67.39309078626934 -40.318533619620894 0 0 0 0 168.09399940240837 25.505328319994305 0 25.505328319994305 -210.71494371235715 0 0 0 0 -256.52845883118425 53.246618935308106 0 53.246618935308106 75.798849674727279 0 0 0 0 -0.9346532151327267 0.041001836261159497 0 0.041001836261159497 4.9033050910285301 0 0 0 0 9.765883127161942 -57.616372176966706 0 -57.616372176966706 216.56545622043359 0 0 0 0 67.872123556790029 -159.26967779107304 0 -159.26967779107304 -16.259622664529161 0 0 0 0 109.12468629736395 -25.679392788793848 0 -25.679392788793848 216.83007827347819 0 0 0 0 151.3970269179772 -193.82576419045699 0 -193.82576419045699 389.84471347278759 0 0 0 0 488.67710699353484 -66.65026418148409 0 -66.65026418148409 228.75649694228173 0 0 0 0 215.77026085524631 -239.76835657658171 0 -239.76835657658171 156.9629651431751 0 0 0 0 221.54367489852302 -108.70437311637829 0 -108.70437311637829 19.207527566462886 0 0 0 0 182.2926474726446 -171.61608408062273 0 -171.61608408062273 202.82882725865056 0 0 0 0 504.94941749401914 -203.12831966882868 0 -203.12831966882868 97.626222013519055 0 0 0 0 -5.8991787418053718 -108.73610344305575 0 -108.73610344305575 218.82657918074619 0 0 0 0 418.16642294244957 -420.20285143184265 0 -420.20285143184265 315.4049014877055 0 0 0 0 3.8021870979285382 -1.4125766584894333 0 -1.4125766584894333 0.20421209691381875 0 0 0 0 1.3973375259136418 -1.9258674274919514 0 -1.9258674274919514 2.7539953124839833 0 0 0 0 115.24769442879187 -16.35412339466626 0 -16.35412339466626 -63.56035852910145 0 0 0 0 9.1197446867375334 -3.170154506090153 0 -3.170154506090153 0.071413990607225586 0 0 0 0 -26.480113676494511 47.854964597072922 0 47.854964597072922 76.82524476254855 0 0 0 0 -23.717776672696345 -25.720036589883421 0 -25.720036589883421 -9.9220056003127866 0 0 0 0 2.0433264945197465 -2.2030875057227348 0 -2.2030875057227348 -1.3800773515280094 0 0 0 0 102.94903926771076 -119.91317681100145 0 -119.91317681100145 135.36297445550213 0 0 0 0 21.817134342716599 -91.167390458643183 0 -91.167390458643183 44.268910307337137 0 0 0 0 421.48306129510456 179.06937271356799 0 179.06937271356799 -71.050747632418734 0 0 0 0 776.22863075352507 -242.59530481016282 0 -242.59530481016282 -67.011580311039211 0 0 0 0 605.80505447574978 -353.48145981186872 0 -353.48145981186872 233.48098383088882 0 0 0 0 584.40877285612805 -270.87134501378614 0 -270.87134501378614 3.9625538035958812 0 0 0 0 539.45037813208182 -267.74754490207556 0 -267.74754490207556 3.7470842491603804 0 0 0 0 501.26646327685012 -294.90605403947143 0 -294.90605403947143 112.21306567058809 0 0 0 0 515.29932058507256 -169.1565468465742 0 -169.1565468465742 99.994885488645195 0 0 0 0 587.96687894688512 -223.77488735596262 0 -223.77488735596262 40.91550431696669 0 0 0 0 732.57913742100936 -49.598695069027144 0 -49.598695069027144 233.74608518082968 0 0 0 0 938.22868922005 -228.0714664603031 0 -228.0714664603031 50.601912956263732 0 0 0 0 502.21119926155689 -230.45888693391873 0 -230.45888693391873 58.762019667580716 0 0 0 0 709.27408070481033 -123.98323667932527 0 -123.98323667932527 91.801932864936589 0 0 0 0 562.80370926478645 -243.39199424642175 0 -243.39199424642175 -7.116234717669613 0 0 0 0 712.79872976957995 -126.27263283399998 0 -126.27263283399998 33.957399911848995 0 0 0 0 763.0143934583466 -299.41227766431541 0 -299.41227766431541 218.97318008413276 0 0 0 0 544.79001359352696 -96.680778731507417 0 -96.680778731507417 38.847881837975365 0 0 0 0 482.34370142295529 -179.07043589348876 0 -179.07043589348876 115.27536593121931 0 0 0 0 871.63153040793259 60.040343761399072 0 60.040343761399072 254.64633628821093 0 0 0 0 -46.34651790328644 -145.74818002332267 0 -145.74818002332267 30.56204813446675 0 0 0 0 24.066320663609076 115.14333105096961 0 115.14333105096961 -104.92138372730369 0 0 0 0 330.87208553080563 -302.7475597818202 0 -302.7475597818202 -139.06892958543017 0 0 0 0 3.3535670448180213 -1.0078172912639332 0 -1.0078172912639332 0.42530214793040422 0 0 0 0 140.61508088461414 266.42482352351362 0 266.42482352351362 344.18502262315269 0 0 0 0 348.53785587655148 -183.59879362594074 0 -183.59879362594074 26.205502661920775 0 0 0 0 357.22127922348591 -164.16878174849444 0 -164.16878174849444 64.351292318313426 0 0 0 0 125.84839918890066 -107.31452018822711 0 -107.31452018822711 55.856323208353842 0 0 0 0 347.39651564532323 -150.97048311269259 0 -150.97048311269259 25.694009762905353 0 0 0 0 296.88856701824261 -157.61769213133584 0 -157.61769213133584 42.539868206343726 0 0 0 0 443.00750922338921 -242.09899100469829 0 -242.09899100469829 58.582181155832529 0 0 0 0 328.94007989409874 -159.81145838788825 0 -159.81145838788825 66.340412984493014 0 0 0 0 461.80160078497283 -227.32505137409589 0 -227.32505137409589 15.190756738444179 0 0 0 0 424.94626890656946 -230.19430702486534 0 -230.19430702486534 64.56937781078409 0 0 0 0 485.3664501641033 -258.98973909616973 0 -258.98973909616973 24.81466052989623 0 0 0 0 455.88614551852515 -186.56212442530148 0 -186.56212442530148 -13.36939447893451 0 0 0 0 371.67059869130026 -157.19097174117974 0 -157.19097174117974 0.041598944639190449 0 0 0 0 369.61109162632783 -194.00444416568848 0 -194.00444416568848 19.718311700413437 0 0 0 0 367.64559019198407 -120.17209832152221 0 -120.17209832152221 -19.819418877949374 0 0 0 0 462.91783535455397 -212.38375828857565 0 -212.38375828857565 -1.2299444969883098 0 0 0 0 544.15781051089289 -187.62274109798193 0 -187.62274109798193 18.182408115459552 0 0 0 0 482.46707440226965 -110.17616447841735 0 -110.17616447841735 103.83853811794359 0 0 0 0 627.03235915019468 -222.62709208085045 0 -222.62709208085045 0.25911303991031076 0 0 0 0 531.53804631927051 -175.13845269400963 0 -175.13845269400963 11.949234837454924 0 0 0 0 539.91779413945278 -245.40705369842703 0 -245.40705369842703 -28.404440171250371 0 0 0 0 535.71745402564557 -255.82351073529753 0 -255.82351073529753 -22.89210238997839 0 0 0 0 561.20890902941028 -280.45107593554161 0 -280.45107593554161 -51.213123434389217 0 0 0 0 518.97604150539701 -96.233541386382626 0 -96.233541386382626 -123.23965810685678 0 0 0 0 282.6045757002712 -201.14240249556343 0 -201.14240249556343 -27.914160955084753 0 0 0 0 435.91510411385025 -238.73093704346414 0 -238.73093704346414 23.871768433212537 0 0 0 0 379.28640408629144 -135.28135235302062 0 -135.28135235302062 -48.16196494415307 0 0 0 0 545.60332469372952 -225.30395842102325 0 -225.30395842102325 5.8595680468828277 0 0 0 0 544.83690443387604 -215.87681782510361 0 -215.87681782510361 -75.904660297545348 0 0 0 0 526.10512835146073 -236.45409944527134 0 -236.45409944527134 97.368339348013834 0 0 0 0 737.44033783748455 -245.07698003341903 0 -245.07698003341903 97.506201174322356 0 0 0 0 525.58615462701709 -224.65282220509241 0 -224.65282220509241 21.779801204507184 0 0 0 0 329.16622281376476 -294.9463652815819 0 -294.9463652815819 160.47640023422298 0 0 0 0 522.73755486121081 -291.82428126554441 0 -291.82428126554441 160.52532541207381 0 0 0 0 215.98312994807929 -387.23334555514754 0 -387.23334555514754 385.49751032669587 0 0 0 0 520.21322512147162 -290.35205222028594 0 -290.35205222028594 222.12382685527996 0 0 0 0 1182.976589480415 -285.02182114751395 0 -285.02182114751395 208.01292660918767 0 0 0 0 670.17883445112966 -43.654903858252986 0 -43.654903858252986 253.05728296517404 0 0 0 0 590.21475031715818 -138.9811738521006 0 -138.9811738521006 314.42808956194932 0 0 0 0 565.44978704169625 -110.86276931238785 0 -110.86276931238785 254.12744311863764 0 0 0 0 577.32662212075593 -125.33412519990218 0 -125.33412519990218 106.259556651293 0 0 0 0 590.5458625839965 -126.90261185237556 0 -126.90261185237556 97.182614134889562 0 0 0 0 553.08373528770244 -166.35463299154526 0 -166.35463299154526 147.77629114379062 0 0 0 0 371.10290082129359 -357.08244093983672 0 -357.08244093983672 283.8952898979623 0 0 0 0 568.59783406626957 -343.40265754148402 0 -343.40265754148402 276.56781551600386 0 0 0 0 673.50784751859464 -390.56979873545708 0 -390.56979873545708 201.51021385431181 0 0 0 0 510.22917842493916 -523.69879877348956 0 -523.69879877348956 113.67092535010511 0 0 0 0 519.70225426510297 -360.93399102291136 0 -360.93399102291136 383.7811331234177 0 0 0 0 542.72824020242842 -119.75346238593261 0 -119.75346238593261 423.41742803384523 0 0 0 0 763.65163145340193 115.65601384943454 0 115.65601384943454 687.66931650193828 0 0 0 0 524.13491254530527 -442.21775121314323 0 -442.21775121314323 785.97895025582989 0 0 0 0 6.1567296189520562 -3.5036923574501628 0 -3.5036923574501628 2.2748282601928422 0 0 0 0 273.65457012923434 -518.55815899708841 0 -518.55815899708841 801.37705169226319 0 0 0 0 16.848736849962734 -96.732982088295557 0 -96.732982088295557 408.17213786956029 0 0 0 0 208.91010714171716 -10.767196551366169 0 -10.767196551366169 -29.076833555643589 0 0 0 0 205.83734732888843 -6.8317638242416479 0 -6.8317638242416479 4.8721190390801894 0 0 0 0 1217.8910202905827 -9.3145352474813876 0 -9.3145352474813876 -0.16959782228582299 0 0 0 0 304.35065563363605 83.113307437459525 0 83.113307437459525 74.58732524342588 0 0 0 0 423.54949802513875 116.1495035942919 0 116.1495035942919 -156.07627488473668 0 0 0 0 173.67250918556965 -88.460405503639549 0 -88.460405503639549 51.216755758033742 0 0 0 0 375.31089961159159 65.065739687976929 0 65.065739687976929 13.087785052335079 0 0 0 0 4.9240936388424359 2.3823307312588398 0 2.3823307312588398 -0.64640228204199301 0 0 0 0 -116.8297534014273 722.01215490803008 0 722.01215490803008 -643.37894136510363 0 0 0 0 247.17655814360478 626.68864445843792 0 626.68864445843792 -1061.6873611811025 0 0 0 0 415.72108145983657 -217.9706229330418 0 -217.9706229330418 81.314218792252404 0 0 0 0 471.9226763914703 47.077226173240661 0 47.077226173240661 -561.5144466041711 0 0 0 0 565.26061173762719 -124.43924741804108 0 -124.43924741804108 -273.43124262944042 0 0 0 0 -16.201944504260609 189.98501955571885 0 189.98501955571885 -176.70335278987352 0 0 0 0 820.47118108522409 -128.43698449042392 0 -128.43698449042392 -4.1191027953575485 0 0 0 0 253.68672819026688 -37.068500479151169 0 -37.068500479151169 14.22999765802183 0 0 0 0 891.05725100138079 -524.45647281164122 0 -524.45647281164122 -9.4538262950462695 0 0 0 0 7.9332413361444765 -2.6375308100465631 0 -2.6375308100465631 0.55747993369673265 0 0 0 0 158.45565205388084 -701.74940891147946 0 -701.74940891147946 -22.245644577523763 0 0 0 0 1013.9261061982252 245.12723438557134 0 245.12723438557134 4.189061825970839 0 0 0 0 243.48823534337134 -21.407467424162906 0 -21.407467424162906 -1.1659204691498215 0 0 0 0 61.180313745751846 -1.1177450432196359 0 -1.1177450432196359 0.21262861082152967 0 0 0 0 293.27961267976207 146.89202073302829 0 146.89202073302829 44.378351587387897 0 0 0 0 94.270163400869933 -80.255610470760274 0 -80.255610470760274 23.882305786398774 0 0 0 0 62.635147045373742 -30.799686853561724 0 -30.799686853561724 -17.779225999143819 0 0 0 0 230.74140737245762 55.160026346622431 0 55.160026346622431 0.17175900982053349 0 0 0 0 25.607415748501808 -39.612641515425707 0 -39.612641515425707 72.034361240334647 0 0 0 0 -21.644709603519004 4.2208388345802064 0 4.2208388345802064 -6.1532019141894239 0 0 0 0 340.24396721833909 -150.67632823122261 0 -150.67632823122261 11.716309251949497 0 0 0 0 0.494803687927174 -0.0074319141477587891 0 -0.0074319141477587891 -1.1590353548739463 0 0 0 0 1.0063851782537938 -0.038314467365765381 0 -0.038314467365765381 -0.32636361513784429 0 0 0 0 539.6475738305453 -178.83293259872309 0 -178.83293259872309 -6.7377426086120522 0 0 0 0 -9.117979517664935 36.902019163177769 0 36.902019163177769 27.850928085114401 0 0 0 0 19.059207359954598 -2.6588989164223165 0 -2.6588989164223165 -89.951217523256503 0 0 0 0 87.418790109652036 59.884563818356817 0 59.884563818356817 -39.567789424806122 0 0 0 0 -5.008114025091345 19.116283623776553 0 19.116283623776553 8.3667756574427585 0 0 0 0 2.9077536460125089 -2.7069483186522945 0 -2.7069483186522945 -2.6461713996577592 0 0 0 0 6.1995057997555705 39.436415195215062 0 39.436415195215062 -2.6427083806021621 0 0 0 0 17.247308623344679 -4.485870666876103 0 -4.485870666876103 -0.90995837112035183 0 0 0 0 74.272162205248605 -359.7644219154497 0 -359.7644219154497 -423.35384288939963 0 0 0 0 -290.1696747266069 818.07283815704432 0 818.07283815704432 -1065.9428604868917 0 0 0 0 11.89531688702499 -2.8336853452188748 0 -2.8336853452188748 -1.4370842784515248 0 0 0 0 304.73438315838575 350.87780954145592 0 350.87780954145592 155.86954914506811 0 0 0 0 348.33722726590349 417.26326231486257 0 417.26326231486257 -198.56610443639568 0 0 0 0 4.847820469729669 -1.8333673854933465 0 -1.8333673854933465 -1.7083937094133459 0 0 0 0 453.60261293328949 -1.7748749966992818 0 -1.7748749966992818 60.369804147674074 0 0 0 0 478.18558087467682 143.82930960663396 0 143.82930960663396 -456.61594005590371 0 0 0 0 97.094742101868178 59.243664064966438 0 59.243664064966438 72.349916733071211 0 0 0 0 728.480491483062 -126.68715394607008 0 -126.68715394607008 -0.025738195017742355 0 0 0 0 100.31864561323891 350.11557815726781 0 350.11557815726781 -139.92041829599123 0 0 0 0 169.44584372633835 -72.051452042407163 0 -72.051452042407163 -37.195645055253138 0 0 0 0 420.29357018650626 44.803226416826021 0 44.803226416826021 -466.13273777646521 0 0 0 0 332.98061711713672 -48.016299615425623 0 -48.016299615425623 -35.482581219077758 0 0 0 0 486.35160667763557 -251.72896826774706 0 -251.72896826774706 190.45652933783043 0 0 0 0 300.77412943002128 -116.34796271784887 0 -116.34796271784887 335.310980133501 0 0 0 0 4.0818125784554127 -0.50076868263404606 0 -0.50076868263404606 0.16926309586997046 0 0 0 0 129.70501331881678 -242.30194828681394 0 -242.30194828681394 78.036610449291942 0 0 0 0 593.40878815084579 544.13153949164735 0 544.13153949164735 430.28898327731076 0 0 0 0 541.4342324162244 -122.83003202969591 0 -122.83003202969591 300.81005135479944 0 0 0 0 580.43353333429695 -190.79688356151809 0 -190.79688356151809 -63.875942049753625 0 0 0 0 838.67473273818177 -172.86373939898024 0 -172.86373939898024 142.30627732299541 0 0 0 0 424.94354545552051 -251.5069481809461 0 -251.5069481809461 264.59541098339741 0 0 0 0 691.71058680668648 -198.77635185747101 0 -198.77635185747101 166.37637804424639 0 0 0 0 435.12734235874814 -171.17111762846628 0 -171.17111762846628 233.822552635021 0 0 0 0 264.64879053892219 -224.7019802986193 0 -224.7019802986193 225.23952454101774 0 0 0 0 385.30793642762001 -161.67887362586561 0 -161.67887362586561 30.368027447171414 0 0 0 0 387.78195799756213 -262.90237302781389 0 -262.90237302781389 -182.96278322039782 0 0 0 0 111.71269428718369 -161.13914585699939 0 -161.13914585699939 32.555215185747144 0 0 0 0 294.5092464698464 -87.445944988623964 0 -87.445944988623964 -285.38186938523683 0 0 0 0 677.24960590325645 -414.38971759742424 0 -414.38971759742424 -124.14392419433581 0 0 0 0 370.84403187300995 -317.67130504251105 0 -317.67130504251105 126.4084959304854 0 0 0 0 422.74265762683353 -171.38585493456284 0 -171.38585493456284 20.227680599320919 0 0 0 0 739.47650109304232 -189.18918069069395 0 -189.18918069069395 -219.22483487110125 0 0 0 0 492.33995685863192 -287.2498897712112 0 -287.2498897712112 -568.23793192683638 0 0 0 0 259.99143800252932 -54.561882420855341 0 -54.561882420855341 -357.00982439797821 0 0 0 0 461.71680719640062 -349.99100948694979 0 -349.99100948694979 -264.31497633817582 0 0 0 0 429.71133618892054 -59.910445918791311 0 -59.910445918791311 -296.80140565431077 0 0 0 0 217.31406449255883 -104.69351684476561 0 -104.69351684476561 21.103714280368877 0 0 0 0 732.05716303843656 -311.27185054380027 0 -311.27185054380027 -152.640199404025 0 0 0 0 420.20229706249665 -108.02087132098859 0 -108.02087132098859 -422.4940918217128 0 0 0 0 125.71593700122321 26.621757081712076 0 26.621757081712076 -5.9035553167705075 0 0 0 0 130.44159933556512 14.826892034428511 0 14.826892034428511 -10.483650923131677 0 0 0 0 24.488847007363802 -0.32049468340113663 0 -0.32049468340113663 -13.306777670175222 0 0 0 0 22.38481190158646 -2.2743234780808166 0 -2.2743234780808166 -5.4579228148900576 0 0 0 0 24.811484242715153 6.4827702726121998 0 6.4827702726121998 -8.0102852164079668 0 0 0 0 -118.29642941671773 269.57416420911005 0 269.57416420911005 -553.44893983947281 0 0 0 0 2.3271751872605648 2.3928666058067947 0 2.3928666058067947 -2.3210664492829305 0 0 0 0 3.9901304900900669 -0.33553857032565304 0 -0.33553857032565304 -2.5870025483408101 0 0 0 0 -155.72959120482847 -146.21792367424734 0 -146.21792367424734 -112.16287036447204 0 0 0 0 -1.1999762163322885 -41.585931483812431 0 -41.585931483812431 -667.90577481365779 0 0 0 0 -252.39071458467515 12.218999937297575 0 12.218999937297575 -444.55801845888664 0 0 0 0 124.02454061762546 76.408349566658728 0 76.408349566658728 -645.54765128336817 0 0 0 0 288.74884079540061 -41.007104271579223 0 -41.007104271579223 -955.34104058766184 0 0 0 0 -5.449281019566115 -386.06472063090223 0 -386.06472063090223 -599.56729791763553 0 0 0 0 302.44603081623791 -123.05725489346997 0 -123.05725489346997 -378.34648970890953 0 0 0 0 28.668509584706044 -225.45488907248651 0 -225.45488907248651 -171.7909150705357 0 0 0 0 55.878548916065483 64.182460689111906 0 64.182460689111906 -336.41051888527028 0 0 0 0 263.40972339868313 -112.39141131502066 0 -112.39141131502066 -419.06036774224378 0 0 0 0 238.81033651594771 93.198450825012628 0 93.198450825012628 -702.98816101931436 0 0 0 0 116.97216717034462 -58.827852121310286 0 -58.827852121310286 -474.34509479630549 0 0 0 0 -311.4256031679397 161.67231651504466 0 161.67231651504466 -222.75547655876858 0 0 0 0 43.271053057454992 -77.269422083417112 0 -77.269422083417112 -505.37113366483965 0 0 0 0 25.043169629891054 17.512498251260467 0 17.512498251260467 48.861209799441667 0 0 0 0 10.871952720204717 -16.662538446416193 0 -16.662538446416193 5.9582004006689431 0 0 0 0 119.47967965235875 148.42909613208286 0 148.42909613208286 -697.69829683769251 0 0 0 0 15.647840323112462 -0.58013865325695235 0 -0.58013865325695235 -1.3740012330135116 0 0 0 0 57.773253928288796 -39.470192828440304 0 -39.470192828440304 -48.675833887719818 0 0 0 0 25.907242581184505 -9.7128068118081003 0 -9.7128068118081003 2.7440491252395773 0 0 0 0 39.7846233878372 13.611540033795336 0 13.611540033795336 14.110345156870608 0 0 0 0 16.079538910425555 -9.0223948890941017 0 -9.0223948890941017 4.9853499493716464 0 0 0 0 19.56149107615056 -98.240758308605109 0 -98.240758308605109 76.265775779934529 0 0 0 0 20.025700661673909 -55.656123917764489 0 -55.656123917764489 212.36559678626145 0 0 0 0 110.48885668397998 -68.876576712171413 0 -68.876576712171413 85.505378258631481 0 0 0 0 74.746054281056786 -83.387624054548041 0 -83.387624054548041 85.256711998497394 0 0 0 0 56.39026340131386 -23.961139388811148 0 -23.961139388811148 41.361480947839482 0 0 0 0 23.470598819949373 2.5879518382137121 0 2.5879518382137121 20.155237468641872 0 0 0 0 57.899736436567764 -73.271691646552654 0 -73.271691646552654 -169.241903768253 0 0 0 0 5.7848521542032358 -8.8418926379767129 0 -8.8418926379767129 -27.12827216925621 0 0 0 0 37.931610135535124 16.792051331125109 0 16.792051331125109 -0.18381594631800002 0 0 0 0 51.931564269407772 8.1839715876102161 0 8.1839715876102161 -47.039216770260282 0 0 0 0 27.475523292017044 -3.5524492672245316 0 -3.5524492672245316 -14.719874068734256 0 0 0 0 60.158585453289561 -44.395750936455897 0 -44.395750936455897 -1.6338192730677292 0 0 0 0 976.32162755529862 -419.82841313512608 0 -419.82841313512608 -50.67347539987918 0 0 0 0 650.16147535474738 -553.95707244886262 0 -553.95707244886262 574.29972710924358 0 0 0 0 1617.254694420224 -681.03921225038687 0 -681.03921225038687 41.039492950882959 0 0 0 0 467.71479224151699 -175.85121674778247 0 -175.85121674778247 148.46478876390228 0 0 0 0 552.79432055508369 -312.07217088566085 0 -312.07217088566085 148.31866050390508 0 0 0 0 78.668657192756655 -147.78948136705822 0 -147.78948136705822 -7.9470524425078111 0 0 0 0 419.21911635461947 442.5152212853834 0 442.5152212853834 -155.49087955779396 0 0 0 0 14.80270451119685 4.2233383509819404 0 4.2233383509819404 2.6562933718368207 0 0 0 0 1783.8653000472768 -1370.081562311047 0 -1370.081562311047 809.55114477379072 0 0 0 0 2546.8446866888662 300.8600099005269 0 300.8600099005269 205.39672099859263 0 0 0 0 902.03363226771762 450.05321103724759 0 450.05321103724759 256.87940806968936 0 0 0 0 330.66924774309882 367.94264087156307 0 367.94264087156307 380.66838940488446 0 0 0 0 -351.28548099322506 252.23212378804931 0 252.23212378804931 267.24163875531849 0 0 0 0 697.8844408486184 -98.375469574255249 0 -98.375469574255249 221.92846363538251 0 0 0 0 1557.3542117278716 37.962550166609311 0 37.962550166609311 -118.86867534579824 0 0 0 0 445.0664672463754 93.069977011387351 0 93.069977011387351 -155.82371758514796 0 0 0 0 1039.6722430851805 -58.75080233947574 0 -58.75080233947574 -277.29181073293125 0 0 0 0 1034.0528430553677 -4.1705543247012429 0 -4.1705543247012429 -96.684737350076716 0 0 0 0 10.723501566721438 7.3945887193008275 0 7.3945887193008275 1.8157799164142978 0 0 0 0 833.41985319756714 -265.27993581653266 0 -265.27993581653266 142.83411337366476 0 0 0 0 1027.897200625499 -344.56912822705362 0 -344.56912822705362 2.4844743567042507 0 0 0 0 1123.886496860694 -323.39779625575659 0 -323.39779625575659 -277.40116249581672 0 0 0 0 1052.3262150633382 -312.60158690515112 0 -312.60158690515112 -258.20557667182811 0 0 0 0 1321.33489691266 -413.57886115556062 0 -413.57886115556062 -221.40009818434646 0 0 0 0 866.72411894814286 -282.78313501671335 0 -282.78313501671335 -168.66995757343147 0 0 0 0 1000.2947956524586 -379.88884231818901 0 -379.88884231818901 -148.94277266039984 0 0 0 0 812.59667814172644 -198.23732812115577 0 -198.23732812115577 -275.05469085156687 0 0 0 0 920.23379202409706 -392.50051417167111 0 -392.50051417167111 -235.3418990644588 0 0 0 0 997.08140735318011 -288.52174225425784 0 -288.52174225425784 -97.62717751059003 0 0 0 0 1151.0758178599935 -461.45303461950039 0 -461.45303461950039 -99.635942706400243 0 0 0 0 941.97372746863402 -188.92899959509583 0 -188.92899959509583 51.436012431897211 0 0 0 0 1041.3787862027057 -407.68044258899948 0 -407.68044258899948 277.28050472059704 0 0 0 0 4.8355965558426135 1.5709714211476751 0 1.5709714211476751 -0.46877696235996313 0 0 0 0 1674.6204008319401 -932.55233969235746 0 -932.55233969235746 273.17975642153573 0 0 0 0 312.92546361455607 60.230639562141619 0 60.230639562141619 15.788958459464311 0 0 0 0 717.90663978185694 -384.16037890377498 0 -384.16037890377498 181.88805326823137 0 0 0 0 1431.4871229051423 -295.8017649896928 0 -295.8017649896928 45.813218353412879 0 0 0 0 1046.5777976429963 -349.84832086757837 0 -349.84832086757837 146.88313073890336 0 0 0 0 880.11367497052197 -151.55627684632472 0 -151.55627684632472 -15.653531459369106 0 0 0 0 805.50140354556061 -305.45004823435215 0 -305.45004823435215 -60.181285106668724 0 0 0 0 1.9418106539728086 -0.69199014555080396 0 -0.69199014555080396 -1.0309907008722461 0 0 0 0 1138.4899030612687 -524.18427238238314 0 -524.18427238238314 20.258029595948358 0 0 0 0 581.55218048733877 -426.87339448190937 0 -426.87339448190937 258.82472751728528 0 0 0 0 10.167438314874673 5.5327000492411997 0 5.5327000492411997 -0.27444426671200528 0 0 0 0 1130.7933246312168 -430.57111012962264 0 -430.57111012962264 -47.226044456198792 0 0 0 0 639.23194263294135 -165.00925450608716 0 -165.00925450608716 116.38235784274679 0 0 0 0 1020.7379734333008 -544.96201316477982 0 -544.96201316477982 202.34331342624171 0 0 0 0 1054.9783279450239 -179.09395153925664 0 -179.09395153925664 0.42596779152889336 0 0 0 0 1239.6338263036469 -47.646909501887038 0 -47.646909501887038 -46.211653340669812 0 0 0 0 1585.4084685322669 -131.79482688620118 0 -131.79482688620118 -65.79897140800658 0 0 0 0 2497.5648435974363 -651.67671829616586 0 -651.67671829616586 -104.44892395954588 0 0 0 0 3.1554118655633374 -0.5748280553414844 0 -0.5748280553414844 -1.6201475415866364 0 0 0 0 1013.922038107552 -837.33513800780997 0 -837.33513800780997 778.45049781855982 0 0 0 0 3.0713176926632428 0.079246703851055145 0 0.079246703851055145 -0.87802027305510366 0 0 0 0 1162.3395121789399 -614.05835016741753 0 -614.05835016741753 234.54988569236968 0 0 0 0 1031.3832337879248 119.45880755856302 0 119.45880755856302 528.90494500251475 0 0 0 0 5.4162288059565071 3.6443264449685415 0 3.6443264449685415 1.32707887097457 0 0 0 0 1473.2069881874122 -304.24902449067986 0 -304.24902449067986 286.68616113175017 0 0 0 0 572.04711221776961 234.2927675158528 0 234.2927675158528 -274.31075630357816 0 0 0 0 282.6202146313808 -605.96609412501459 0 -605.96609412501459 -617.51724460733976 0 0 0 0 -70.054702435911167 -319.67095656354269 0 -319.67095656354269 480.45534741002984 0 0 0 0 9.8256637103755793 -5.1652274714668991 0 -5.1652274714668991 3.8093160945895113 0 0 0 0 148.01434764590522 -748.35756078079737 0 -748.35756078079737 1139.6866427434732 0 0 0 0 -561.52009845758585 -303.9312956563046 0 -303.9312956563046 1108.6094002396892 0 0 0 0 1376.0230776580429 1023.0863072756888 0 1023.0863072756888 215.03948595907352 0 0 0 0 2005.8139373774902 -417.86096434763988 0 -417.86096434763988 635.8480393126722 0 0 0 0 3670.0258009417012 -1172.4118686505788 0 -1172.4118686505788 516.08035756761944 0 0 0 0 33.961649588781711 8.0929920727627334 0 8.0929920727627334 9.894993042056285 0 0 0 0 33.71608739142539 11.107221294810415 0 11.107221294810415 31.097631547491119 0 0 0 0 44.223985507162979 36.452814741228707 0 36.452814741228707 93.561734981794871 0 0 0 0 48.05689137934678 17.396844838010566 0 17.396844838010566 17.471386637710566 0 0 0 0 49.917713611895124 2.7895024503478112 0 2.7895024503478112 13.784172955801296 0 0 0 0 33.670597320226079 2.9819781376012315 0 2.9819781376012315 16.255626549898466 0 0 0 0 51.09729297740796 -2.1628612781418894 0 -2.1628612781418894 1.392240321585632 0 0 0 0 29.385949430448818 6.2886080342468631 0 6.2886080342468631 15.55788895607111 0 0 0 0 26.272343225497025 15.925164171328504 0 15.925164171328504 -1.5085918633963047 0 0 0 0 44.34231754491563 7.9070291837249442 0 7.9070291837249442 -3.3800370980860368 0 0 0 0 27.373458103007579 54.181626092459339 0 54.181626092459339 -45.356370189805148 0 0 0 0 29.921614818614216 19.613437351236314 0 19.613437351236314 1.8474595122200732 0 0 0 0 10.891950145151156 17.507307182774724 0 17.507307182774724 -2.4944219858609991 0 0 0 0 24.314478321479328 63.607272336161259 0 63.607272336161259 -26.836164853503078 0 0 0 0 -29.127627382360515 82.731202467155384 0 82.731202467155384 9.6866185736998602 0 0 0 0 24.520297108568442 24.228455382510546 0 24.228455382510546 9.8517300483151189 0 0 0 0 54.07394858229236 43.022664972369455 0 43.022664972369455 -39.245329250932102 0 0 0 0 46.187571290016422 17.748202737521162 0 17.748202737521162 -3.547094950231326 0 0 0 0 68.539141742061474 112.44412670415899 0 112.44412670415899 96.234399185874707 0 0 0 0 13.95100286550587 37.038990676445565 0 37.038990676445565 -5.8678115624324434 0 0 0 0 32.121306196750098 27.344624238864412 0 27.344624238864412 13.2853501395492 0 0 0 0 26.86452621447097 23.971681718031277 0 23.971681718031277 40.094593795950459 0 0 0 0 22.901334978931118 35.97274265683518 0 35.97274265683518 12.747523534152378 0 0 0 0 73.326029052542253 37.087106466201135 0 37.087106466201135 8.7372233601236076 0 0 0 0 139.00579178698536 61.786965478834645 0 61.786965478834645 17.985404357468951 0 0 0 0 72.454296481249912 31.234788241008118 0 31.234788241008118 -0.094496150567920267 0 0 0 0 69.645283319943701 35.201759977706388 0 35.201759977706388 1.6700621683946792 0 0 0 0 72.81058381791081 27.527471031190998 0 27.527471031190998 -2.9548443160767874 0 0 0 0 92.818729648526642 31.209341491211944 0 31.209341491211944 -2.5471456360007778 0 0 0 0 47.763710120144168 -10.089644387652285 0 -10.089644387652285 -14.243499982375599 0 0 0 0 61.467489229049534 13.006852282598288 0 13.006852282598288 -29.572560953228958 0 0 0 0 15.333517920441523 -7.7812125066567432 0 -7.7812125066567432 -11.977707347480347 0 0 0 0 85.114979168880382 -15.434682601500754 0 -15.434682601500754 -25.446316837766972 0 0 0 0 -12.452191591699375 22.668011044909235 0 22.668011044909235 30.489277417656922 0 0 0 0 28.320773394785647 92.926047910547823 0 92.926047910547823 -86.836086509829329 0 0 0 0 96.169766437320504 -37.585983261364163 0 -37.585983261364163 36.387839923039905 0 0 0 0 52.020407236370374 27.743706304139778 0 27.743706304139778 67.001430599563719 0 0 0 0 64.817946330120321 13.44682739669679 0 13.44682739669679 2.147099547471953 0 0 0 0 114.91472172911745 35.299050911803079 0 35.299050911803079 -24.383544040893185 0 0 0 0 73.746195065163192 -10.949739394415474 0 -10.949739394415474 -0.56204919521587726 0 0 0 0 125.71920778862113 -12.079468981482819 0 -12.079468981482819 78.542562907447973 0 0 0 0 26.239558211463731 -4.1017461689839294 0 -4.1017461689839294 -5.5476858964850102 0 0 0 0 4.31916127736622 -36.178369827194501 0 -36.178369827194501 -9.1437633370587719 0 0 0 0 52.08899225674395 -2.647072711203009 0 -2.647072711203009 -43.098363286007725 0 0 0 0 29.228026333324522 5.3165260650247816 0 5.3165260650247816 -4.7181945248448889 0 0 0 0 28.032740725408075 1.7128760771197449 0 1.7128760771197449 -43.147108623327611 0 0 0 0 28.64405171796534 -4.8613662366790322 0 -4.8613662366790322 -12.528344437439046 0 0 0 0 28.864591121616172 0.50118052866773866 0 0.50118052866773866 -10.620934354561339 0 0 0 0 137.03369893446506 -110.54452588502568 0 -110.54452588502568 -35.722935119413705 0 0 0 0 29.489334930225596 2.8058285022669907 0 2.8058285022669907 -5.7599220436466112 0 0 0 0 31.887064926380845 0.20268610956890143 0 0.20268610956890143 -11.723908426630715 0 0 0 0 30.536173382408379 -1.58038637258759 0 -1.58038637258759 -16.356975975238697 0 0 0 0 -12.280465877702227 -46.624137152512958 0 -46.624137152512958 -38.238701676086748 0 0 0 0 30.847396012031822 0.029774952692662282 0 0.029774952692662282 -11.739346835817656 0 0 0 0 25.364239483406323 -4.6916723967340417 0 -4.6916723967340417 -9.7252756979560324 0 0 0 0 -1.1449615094819592 -11.139682652002659 0 -11.139682652002659 -8.7891732718488349 0 0 0 0 56.311434706614818 43.678014508723209 0 43.678014508723209 -11.259916735023126 0 0 0 0 52.88742389777326 37.081319205337422 0 37.081319205337422 33.040179113992508 0 0 0 0 0.95242088662038782 -1.2976828120658617 0 -1.2976828120658617 -1.1347144488776033 0 0 0 0 -48.39541671887855 -1.1761913021227883 0 -1.1761913021227883 -59.070156170917244 0 0 0 0 0.23216505786979269 -1.1810330615763149 0 -1.1810330615763149 -0.72611214813132996 0 0 0 0 128.65766161963984 49.699324756034002 0 49.699324756034002 24.578126857273674 0 0 0 0 153.62740081630909 -1.5885865289349113 0 -1.5885865289349113 22.702441931554858 0 0 0 0 107.4395504698914 52.304311443257575 0 52.304311443257575 8.1268356461778239 0 0 0 0 119.18765114071721 30.635430463368721 0 30.635430463368721 10.655733012208657 0 0 0 0 25.283521343015309 30.882326478019422 0 30.882326478019422 27.43439001081606 0 0 0 0 106.27676420595526 46.887203090763251 0 46.887203090763251 12.712429362492912 0 0 0 0 102.2495516022027 40.13658672811448 0 40.13658672811448 7.1301408280851319 0 0 0 0 102.41258884332638 36.48357563975901 0 36.48357563975901 8.3906657810657634 0 0 0 0 123.80940369443852 41.517081322666854 0 41.517081322666854 2.6178838697260289 0 0 0 0 87.485168880055426 47.854276335443501 0 47.854276335443501 10.874070004499117 0 0 0 0 73.221133380600804 10.686680930410603 0 10.686680930410603 15.857308156717409 0 0 0 0 58.929500409576576 53.128504722577418 0 53.128504722577418 15.88443890283861 0 0 0 0 6.8040869528865358 -2.5756416871819283 0 -2.5756416871819283 -2.9857345257626191 0 0 0 0 14.25930648506619 -2.3361229574711615 0 -2.3361229574711615 -5.1005758525426472 0 0 0 0 36.153387018981448 0.3691582025382445 0 0.3691582025382445 8.6899627539419271 0 0 0 0 27.490210378473421 -6.4440773502096818 0 -6.4440773502096818 25.850103269003512 0 0 0 0 188.39944883355201 97.188989167915224 0 97.188989167915224 35.957742073108648 0 0 0 0 0.31215450802521616 -0.62433799099635223 0 -0.62433799099635223 0.79267183983262157 0 0 0 0 89.480177139354055 89.283935563036266 0 89.283935563036266 100.00121942472254 0 0 0 0 111.10414175051847 56.870687972918859 0 56.870687972918859 53.38000838630569 0 0 0 0 109.74546226239181 16.883179025164281 0 16.883179025164281 25.674426836126258 0 0 0 0 38.747345988987945 11.05696096353995 0 11.05696096353995 59.249517069669309 0 0 0 0 102.94557127190637 13.257774409527883 0 13.257774409527883 58.170902487015837 0 0 0 0 111.37779671384487 30.614113733713566 0 30.614113733713566 26.542346014361556 0 0 0 0 107.49706392000371 34.631600688465369 0 34.631600688465369 22.664789411825041 0 0 0 0 81.697516832500696 33.454415821124712 0 33.454415821124712 51.689827366181817 0 0 0 0 113.67646263627103 49.051840465341229 0 49.051840465341229 55.315406457143126 0 0 0 0 132.15598020709876 59.690083806339771 0 59.690083806339771 29.661993763910232 0 0 0 0 125.38259208385716 48.726494805910306 0 48.726494805910306 12.568879308082614 0 0 0 0 116.43219506854075 42.52867697573538 0 42.52867697573538 7.4401614060252541 0 0 0 0 121.13234953094798 51.614156334128893 0 51.614156334128893 24.932490531598148 0 0 0 0 117.54278911814617 50.648025281422179 0 50.648025281422179 11.974853438572609 0 0 0 0 126.11408446406131 53.87188704111577 0 53.87188704111577 12.633795181366992 0 0 0 0 125.13937125873053 55.844083098289047 0 55.844083098289047 12.161441931390982 0 0 0 0 125.59257721787435 52.068576752109948 0 52.068576752109948 7.1991928953966635 0 0 0 0 114.27052491120412 38.549719642487162 0 38.549719642487162 13.703106570330988 0 0 0 0 118.20607301949167 58.964723188692574 0 58.964723188692574 14.92935325032704 0 0 0 0 142.54407637322947 42.97561162752902 0 42.97561162752902 14.395901289590256 0 0 0 0 1.3834316414981629 -0.3001181207670669 0 -0.3001181207670669 2.9894528122955411 0 0 0 0 16.626207989414979 2.3240985632129423 0 2.3240985632129423 4.9383506433659932 0 0 0 0 73.735682070837356 44.227415702634744 0 44.227415702634744 43.887348963937711 0 0 0 0 19.042618720239261 11.427989883650412 0 11.427989883650412 1.7462246603808342 0 0 0 0 5.7387546114236443 2.0406820071680158 0 2.0406820071680158 0.64361829257711456 0 0 0 0 140.79275330438395 58.950655340232061 0 58.950655340232061 9.2328702374834393 0 0 0 0 135.48436042491812 71.638553779049516 0 71.638553779049516 23.555556582409736 0 0 0 0 133.42291672465944 50.259776562323395 0 50.259776562323395 9.5882428874092511 0 0 0 0 86.845389518915908 76.512164673724101 0 76.512164673724101 66.358651761197507 0 0 0 0 0.9945913467184937 -0.001384830635164036 0 -0.001384830635164036 0.26519248870930445 0 0 0 0 173.63779573624925 -37.895889065491701 0 -37.895889065491701 -150.21531609300155 0 0 0 0 142.42321638119756 119.65877191979439 0 119.65877191979439 94.780313519332367 0 0 0 0 8.8071558358817867 -1.2935322018385023 0 -1.2935322018385023 -3.1709179634873177 0 0 0 0 22.159246978560986 6.5375315083470014 0 6.5375315083470014 2.2880744660686787 0 0 0 0 17.920441855327226 -15.628759065305985 0 -15.628759065305985 -32.308654049937104 0 0 0 0 10.566877085074026 -3.3555401303283077 0 -3.3555401303283077 -5.9727138837726983 0 0 0 0 9.4566563344388896 -2.4868962773248739 0 -2.4868962773248739 -4.3405050009435442 0 0 0 0 53.325265471112289 20.994776488357275 0 20.994776488357275 2.2455776344813785 0 0 0 0 22.532541762400797 35.457187791557317 0 35.457187791557317 19.780889760802893 0 0 0 0 13.023646790257771 27.925539973688956 0 27.925539973688956 29.440710436171912 0 0 0 0 50.751966388095752 24.610657086012907 0 24.610657086012907 21.487367332907979 0 0 0 0 31.351186429368681 14.669788363581574 0 14.669788363581574 42.79709615703905 0 0 0 0 100.80036528582059 18.712723635502016 0 18.712723635502016 21.002356803654948 0 0 0 0 105.06115776891238 5.6269752370562856 0 5.6269752370562856 17.025979750338138 0 0 0 0 134.44428094149043 49.638050731566182 0 49.638050731566182 7.2567320153443688 0 0 0 0 220.95472696959769 24.972170017656026 0 24.972170017656026 -69.131331956479471 0 0 0 0 210.46851698191313 94.066511087937215 0 94.066511087937215 30.477119347382654 0 0 0 0 214.96218523038988 19.809354144411145 0 19.809354144411145 -4.1170741967657705 0 0 0 0 95.949982134843594 -54.231427979684668 0 -54.231427979684668 34.676843387185727 0 0 0 0 -35.117735257044842 -30.682257840702619 0 -30.682257840702619 16.154833801006362 0 0 0 0 72.779266066896525 16.754091054878415 0 16.754091054878415 26.308483548550157 0 0 0 0 -40.289616126322244 73.860826013751847 0 73.860826013751847 29.237320160105355 0 0 0 0 117.36859581437602 -50.831133427361124 0 -50.831133427361124 -115.01608611152051 0 0 0 0 105.90845454097143 298.54833316097347 0 298.54833316097347 201.52851940104881 0 0 0 0 6.5817151900243118 -0.10862590805824368 0 -0.10862590805824368 -0.12465297241327655 0 0 0 0 65.280912376198103 22.128875849653468 0 22.128875849653468 72.796696361112623 0 0 0 0 125.98264330071106 50.239161499204428 0 50.239161499204428 23.125344250246087 0 0 0 0 119.31052617315436 41.184314535707493 0 41.184314535707493 19.454267656954073 0 0 0 0 58.843286005333539 32.330150198791685 0 32.330150198791685 13.140744298081927 0 0 0 0 61.974871566977527 7.0223470277195474 0 7.0223470277195474 38.276326435217698 0 0 0 0 75.327960705337318 37.439087377558877 0 37.439087377558877 2.8800626261265734 0 0 0 0 -3.625654907678836 -18.205530993971024 0 -18.205530993971024 -24.902315414525674 0 0 0 0 -231.32447227345256 110.43210412893154 0 110.43210412893154 352.26237421053702 0 0 0 0 582.44222882302711 -180.43462218526804 0 -180.43462218526804 -355.21616621322755 0 0 0 0 10.786169294876956 -7.2957609088367121 0 -7.2957609088367121 -15.853005451300746 0 0 0 0 41.362023827445228 26.159929674512114 0 26.159929674512114 15.32557396150878 0 0 0 0 3.8975663234204276 2.0792617934376381 0 2.0792617934376381 -0.096704907391938377 0 0 0 0 -24.844468177518138 -72.613947227651352 0 -72.613947227651352 5.7153875701497157 0 0 0 0 -21.580376387239085 -105.97092951956068 0 -105.97092951956068 -240.28763734320515 0 0 0 0 7.0252976584640505 3.4968956449392437 0 3.4968956449392437 -0.79231907652678868 0 0 0 0 0.017110303844049213 -0.63115100507741317 0 -0.63115100507741317 1.5029888501895137 0 0 0 0 23.355531416345912 -3.3976097548228381 0 -3.3976097548228381 -20.177751691875528 0 0 0 0 -24.042985440864868 76.358880122852042 0 76.358880122852042 42.608981223209909 0 0 0 0 -9.8092799703335913 104.75604723785432 0 104.75604723785432 2.4218700575065668 0 0 0 0 12.634772230179806 73.718803347434914 0 73.718803347434914 36.122493729943699 0 0 0 0 115.08077672346553 275.63542270561368 0 275.63542270561368 376.23444443780591 0 0 0 0 -142.98163088167439 -114.45847215769032 0 -114.45847215769032 373.03064534062378 0 0 0 0 -3.1491580607812466 -34.888270418882321 0 -34.888270418882321 -33.225046769540313 0 0 0 0 1.0052798498087583 -1.845818171606183 0 -1.845818171606183 2.4432916760801717 0 0 0 0 -125.39752954339929 -207.49021602662378 0 -207.49021602662378 161.23608079210021 0 0 0 0 1.3513752742401266 -24.23699970652865 0 -24.23699970652865 -28.636441092495261 0 0 0 0 3.3526280213700375 -24.17985381092285 0 -24.17985381092285 -37.021906500306613 0 0 0 0 1.0019869301352742 -1.1488541135474435 0 -1.1488541135474435 1.0430388678473186 0 0 0 0 -42.146209425702182 -90.173551204508385 0 -90.173551204508385 -97.672421350353943 0 0 0 0 -173.90483088578912 -14.582985589547206 0 -14.582985589547206 33.826173523288162 0 0 0 0 37.320260252723529 -0.0037432855054362335 0 -0.0037432855054362335 -4.7519957917445481 0 0 0 0 35.188205116186765 -0.10272240676317423 0 -0.10272240676317423 -3.6787148279461226 0 0 0 0 52.165420529578114 14.437750904613495 0 14.437750904613495 -0.8765186355028618 0 0 0 0 30.38222573095436 1.5638498738912823 0 1.5638498738912823 -5.6266974107330148 0 0 0 0 46.243539464230338 38.709867255322642 0 38.709867255322642 6.6558564881306683 0 0 0 0 -10.315795924570921 135.27856553616434 0 135.27856553616434 -54.083106100773875 0 0 0 0 5.6547032070002388 39.227464306115394 0 39.227464306115394 -61.9517880683361 0 0 0 0 3.2809637512327754 70.362843971383199 0 70.362843971383199 4.0629561765858853 0 0 0 0 100.16688229780993 81.951148879345055 0 81.951148879345055 -81.839170373825255 0 0 0 0 234.85038868368429 22.736648594342114 0 22.736648594342114 -123.86565525927199 0 0 0 0 192.83552397136373 0.71702374958431392 0 0.71702374958431392 -195.09591872425153 0 0 0 0 566.05448104679817 200.13625249107645 0 200.13625249107645 -113.43857216096148 0 0 0 0 148.47424338752171 -17.639684228178339 0 -17.639684228178339 -120.11003962597167 0 0 0 0 460.94022784769186 -28.689415865238061 0 -28.689415865238061 -162.42190593878615 0 0 0 0 183.2421701636049 86.307153571237905 0 86.307153571237905 -83.921335408931554 0 0 0 0 204.0114155086485 -78.654525259425554 0 -78.654525259425554 -140.61845113134677 0 0 0 0 94.165899293532675 103.37915149418046 0 103.37915149418046 -95.406511933279944 0 0 0 0 88.536820490116952 82.975070585276171 0 82.975070585276171 -35.785121113217883 0 0 0 0 25.351933406411263 53.393432211420304 0 53.393432211420304 315.89303597452363 0 0 0 0 24.511968101789535 36.645006524663614 0 36.645006524663614 10.151634910454959 0 0 0 0 5.4124684337552935 2.141486000835485 0 2.141486000835485 1.1857551771272794 0 0 0 0 310.27663813293475 236.69653065286275 0 236.69653065286275 70.357041870792727 0 0 0 0 372.2612118107354 -138.06298844577259 0 -138.06298844577259 -97.175175476537333 0 0 0 0 423.38707537467781 111.4641760801801 0 111.4641760801801 -72.356383594840736 0 0 0 0 126.03069893790962 -196.91732143362151 0 -196.91732143362151 221.96288744225058 0 0 0 0 93.41210737999063 -69.47791062354645 0 -69.47791062354645 -161.93247189630554 0 0 0 0 -22.759079832532734 7.4801556966363023 0 7.4801556966363023 83.43245353092243 0 0 0 0 18.062823506221321 5.0520913102338625 0 5.0520913102338625 1.7669341893960828 0 0 0 0 9.7537822963240615 6.1697860282697548 0 6.1697860282697548 -50.983337817679057 0 0 0 0 76.410774487765593 -135.95100654497037 0 -135.95100654497037 -335.17525816848229 0 0 0 0 40.510649171328964 34.453486791446664 0 34.453486791446664 2.1172857443615438 0 0 0 0 -87.20792692143732 143.52466738049952 0 143.52466738049952 4.7196123956973679 0 0 0 0 -81.744386384765676 63.62376927465175 0 63.62376927465175 98.544868300822145 0 0 0 0 88.81217177164217 17.894338314494007 0 17.894338314494007 -9.8502740585294077 0 0 0 0 41.422683502007587 29.353658388477683 0 29.353658388477683 -6.8079043831468375 0 0 0 0 -59.849426956745447 76.299945623355597 0 76.299945623355597 10.764064908402361 0 0 0 0 88.332529790117405 -12.644380453293707 0 -12.644380453293707 32.133040180307034 0 0 0 0 79.44973314179515 13.365345833000447 0 13.365345833000447 -11.508195312547286 0 0 0 0 142.91104163746058 6.1356862267421093 0 6.1356862267421093 -47.844819737102625 0 0 0 0 153.28192825458245 29.002732598637522 0 29.002732598637522 -49.068207161872124 0 0 0 0 184.58681986444572 44.74474142021154 0 44.74474142021154 -50.983228611293271 0 0 0 0 195.89598840168037 -43.267652645360613 0 -43.267652645360613 -6.9438703120822538 0 0 0 0 92.318029424452106 52.571710359442932 0 52.571710359442932 -46.327744258265739 0 0 0 0 131.64509185620045 43.801144994193123 0 43.801144994193123 -77.125791611519162 0 0 0 0 120.98021321880515 13.744615010081361 0 13.744615010081361 -40.812226398727262 0 0 0 0 100.90206097191549 34.118424366533873 0 34.118424366533873 -70.998812959793213 0 0 0 0 110.21921771221969 29.289033467274294 0 29.289033467274294 -61.65651463970471 0 0 0 0 123.48726073236321 50.755446237080832 0 50.755446237080832 -48.847123131063199 0 0 0 0 76.088112325673137 59.91994767491542 0 59.91994767491542 -70.573621159322101 0 0 0 0 104.32344006417406 29.529143384568897 0 29.529143384568897 -63.86719631656706 0 0 0 0 77.09996614535703 25.267858353780184 0 25.267858353780184 -36.564460432319038 0 0 0 0 143.87098429780599 52.399594629780495 0 52.399594629780495 -62.518275867102943 0 0 0 0 129.73606289903546 105.39083736831162 0 105.39083736831162 -1.8650302174557964 0 0 0 0 3.6615750375422067 71.983035440927665 0 71.983035440927665 9.5396762831992419 0 0 0 0 66.051141146985174 53.830911056434843 0 53.830911056434843 -23.671168462849892 0 0 0 0 49.453395742209977 54.869177101080368 0 54.869177101080368 -21.075810156378338 0 0 0 0 76.437838997495419 66.026705103550285 0 66.026705103550285 -29.905406719729854 0 0 0 0 211.61013943515354 -4.1034480837832916 0 -4.1034480837832916 -55.103241977758444 0 0 0 0 218.4147011153691 -23.582054551084639 0 -23.582054551084639 -63.379257128628751 0 0 0 0 217.50163538083143 -27.763191359797929 0 -27.763191359797929 -39.717636582791329 0 0 0 0 211.33154311735416 -4.8724418849610629 0 -4.8724418849610629 -28.832421677880802 0 0 0 0 200.18334130547009 -80.445150269253645 0 -80.445150269253645 -340.43610582221277 0 0 0 0 -89.730753618918243 115.24229496962744 0 115.24229496962744 -86.877676775474754 0 0 0 0 -40.87389810908644 85.574562463559914 0 85.574562463559914 -80.762322287498137 0 0 0 0 -44.974880203808425 78.482057797968082 0 78.482057797968082 -91.304534016258458 0 0 0 0 -67.852400495065012 56.686485713601996 0 56.686485713601996 -55.223484423044283 0 0 0 0 1.9892319238101379 0.99085825291916763 0 0.99085825291916763 -0.5026895320074054 0 0 0 0 -38.641174221178517 90.036217300161525 0 90.036217300161525 -93.993276098095521 0 0 0 0 -38.055189143386087 64.117150645395213 0 64.117150645395213 -48.363917626888451 0 0 0 0 -22.723035842078389 69.102313831926949 0 69.102313831926949 -76.454911681312296 0 0 0 0 -9.1112547961092787 43.741347875141855 0 43.741347875141855 -70.997248502353614 0 0 0 0 8.2147693069127854 57.209846736623149 0 57.209846736623149 -63.069674529754138 0 0 0 0 41.129004539398011 17.024356352683753 0 17.024356352683753 -65.902953832704952 0 0 0 0 4.6738399404040649 0.84527734813843836 0 0.84527734813843836 -1.62128948275247 0 0 0 0 -7.5407271006552037 32.882223629851978 0 32.882223629851978 -68.902356694753507 0 0 0 0 -20.087452664706689 45.590388871245864 0 45.590388871245864 -46.051303475271197 0 0 0 0 33.387255783527507 47.368219411706377 0 47.368219411706377 -41.11868156298442 0 0 0 0 -74.611057462156168 8.4355626297260642 0 8.4355626297260642 -31.244486814033735 0 0 0 0 14.648607796763827 73.461173562272052 0 73.461173562272052 -45.729511208393888 0 0 0 0 96.722936041827779 76.616875100783545 0 76.616875100783545 -39.904911871961303 0 0 0 0 97.827905920828925 56.641156644841431 0 56.641156644841431 -65.491784678431486 0 0 0 0 39.557915302255424 60.949139742280295 0 60.949139742280295 -56.335235262964943 0 0 0 0 32.779825934863766 48.791445321051015 0 48.791445321051015 -74.361329243421096 0 0 0 0 39.21412423311267 27.47218154700704 0 27.47218154700704 -64.86162578530184 0 0 0 0 36.002146840241039 66.326066376478366 0 66.326066376478366 -63.560068024001794 0 0 0 0 -21.576569136239414 158.03070329160892 0 158.03070329160892 -95.729478010048069 0 0 0 0 3.3804196080285749 2.4252859469499839 0 2.4252859469499839 0.59544778036152213 0 0 0 0 7.9651769457777846 -14.444680995541034 0 -14.444680995541034 28.704347535963279 0 0 0 0 3.4220426575848251 2.254442102765239 0 2.254442102765239 0.2446505965836927 0 0 0 0 72.812068700226519 18.364884571900774 0 18.364884571900774 -12.384851913566763 0 0 0 0 81.510429932037368 54.396051198845612 0 54.396051198845612 -134.07620249771389 0 0 0 0 291.14829940447817 -71.193515007610131 0 -71.193515007610131 -44.948654072446061 0 0 0 0 210.55157614426571 -50.053610334336099 0 -50.053610334336099 -8.1036084833868358 0 0 0 0 182.63510552772641 -76.006508951285923 0 -76.006508951285923 -12.749650275265139 0 0 0 0 329.72672343934937 -62.832728927802108 0 -62.832728927802108 106.09369179379701 0 0 0 0 477.03294192923931 -143.4931420140727 0 -143.4931420140727 19.270996035885332 0 0 0 0 272.60877209297905 -105.40481374072209 0 -105.40481374072209 20.078754767737678 0 0 0 0 424.56717926269266 -89.684044971216039 0 -89.684044971216039 -4.8780883369743151 0 0 0 0 128.67451069848175 -43.704194150928174 0 -43.704194150928174 51.019732927230507 0 0 0 0 128.82197465318313 51.756273213659597 0 51.756273213659597 -5.1715305893108052 0 0 0 0 373.95519758533192 49.255715595947919 0 49.255715595947919 65.382832027472887 0 0 0 0 83.626218280765897 124.0395604289362 0 124.0395604289362 134.02216364688502 0 0 0 0 68.50489596517582 82.541943694252041 0 82.541943694252041 145.94058260988768 0 0 0 0 -59.825897349903244 -1.5008404133492945 0 -1.5008404133492945 30.692224020916058 0 0 0 0 1.7811849824876447 1.1215762659402628 0 1.1215762659402628 0.050646947869633863 0 0 0 0 -83.202918679096001 190.12032404917579 0 190.12032404917579 147.71212824198346 0 0 0 0 8.0624516083626077 104.93693113789351 0 104.93693113789351 104.30109438372619 0 0 0 0 11.150225106259313 118.12501250046724 0 118.12501250046724 160.4762334772181 0 0 0 0 4.0836321860115277 53.754818590186119 0 53.754818590186119 149.31844639216115 0 0 0 0 15.370189885987202 70.924683982594161 0 70.924683982594161 76.800745864089038 0 0 0 0 15.168075187073555 85.729717330770654 0 85.729717330770654 120.30479714986515 0 0 0 0 9.3606310690884129 63.419016504840343 0 63.419016504840343 -18.193057005054783 0 0 0 0 1.1190794559151982 18.45564487468809 0 18.45564487468809 75.48998503554958 0 0 0 0 20.669386908833985 31.123321261309201 0 31.123321261309201 22.753620236755353 0 0 0 0 -28.317296465218533 20.528217876570139 0 20.528217876570139 168.57522313256868 0 0 0 0 256.83330357342493 -271.26440467058046 0 -271.26440467058046 295.7691482297214 0 0 0 0 -3.7425350031990092 120.74336915678339 0 120.74336915678339 202.90156533078027 0 0 0 0 -25.514890184698743 -49.342933236528992 0 -49.342933236528992 64.766069088685128 0 0 0 0 20.933604778358131 -60.283329360042444 0 -60.283329360042444 -25.379316541859303 0 0 0 0 66.012206755411171 78.676985423326187 0 78.676985423326187 194.17054386943005 0 0 0 0 59.84065350794117 96.958089324745345 0 96.958089324745345 141.56762274484731 0 0 0 0 165.62464077647746 154.20652898440281 0 154.20652898440281 157.08489664147339 0 0 0 0 513.53779500417841 -126.04110562377031 0 -126.04110562377031 254.77637592275053 0 0 0 0 589.45679848495638 69.12744929513606 0 69.12744929513606 67.230907637100685 0 0 0 0 220.54698613236542 40.536038088574003 0 40.536038088574003 120.04560005118998 0 0 0 0 273.35570837427804 238.01765219449683 0 238.01765219449683 173.33180480925199 0 0 0 0 653.02636154955871 -219.01755090774779 0 -219.01755090774779 54.394163052098861 0 0 0 0 715.61130620761105 8.3610989065512626 0 8.3610989065512626 202.76730558105578 0 0 0 0 3.4375972323479118 1.1983815663862742 0 1.1983815663862742 0.26148130478251808 0 0 0 0 521.83749561352306 -37.546380298616945 0 -37.546380298616945 330.68346358272487 0 0 0 0 525.98695047036745 -111.2603218169134 0 -111.2603218169134 265.74082537429325 0 0 0 0 543.3088894848479 -73.577950273488469 0 -73.577950273488469 99.27394121249003 0 0 0 0 494.92291904822923 -88.170923757477524 0 -88.170923757477524 254.34045624751897 0 0 0 0 41.782651211091434 5.8019516569137295 0 5.8019516569137295 35.840857882165892 0 0 0 0 35.40164321257987 30.239612514404296 0 30.239612514404296 100.28767217966674 0 0 0 0 35.269585172063671 20.837033149805279 0 20.837033149805279 16.589077521822219 0 0 0 0 13.604449919250328 49.047794341967347 0 49.047794341967347 -3.3528754677195138 0 0 0 0 45.494671980093699 21.853076874086355 0 21.853076874086355 -10.266845308529895 0 0 0 0 50.126883532255306 64.286328372252115 0 64.286328372252115 -16.008694242218553 0 0 0 0 35.370522497032653 34.412214379694944 0 34.412214379694944 -4.3588212424165249 0 0 0 0 53.48453220637748 59.479652503300542 0 59.479652503300542 33.29902542914806 0 0 0 0 49.842480268845975 69.077078904480118 0 69.077078904480118 9.6075810935726622 0 0 0 0 36.044879329205287 41.243144139217918 0 41.243144139217918 35.739055753222146 0 0 0 0 74.647124761424493 96.275860799494126 0 96.275860799494126 198.5763880517668 0 0 0 0 70.131948721013032 65.328227619003769 0 65.328227619003769 33.61132863731325 0 0 0 0 293.82683229181566 73.971632955219093 0 73.971632955219093 -28.449942974214508 0 0 0 0 150.6044062833389 4.3403641117327538 0 4.3403641117327538 75.312598632271261 0 0 0 0 131.10073835436197 165.98779365614791 0 165.98779365614791 132.27659480153875 0 0 0 0 44.796519758149998 35.441643881395649 0 35.441643881395649 72.966675366692925 0 0 0 0 46.815026497410145 -21.858568108274767 0 -21.858568108274767 47.622257088887096 0 0 0 0 72.37684592896403 19.204382002676368 0 19.204382002676368 27.966784345215501 0 0 0 0 -26.770312291846494 -1.2881160115202874 0 -1.2881160115202874 35.876698034325443 0 0 0 0 34.567142153409804 -0.1527670422163645 0 -0.1527670422163645 -72.552581862752831 0 0 0 0 -7.2004491390398471 -6.2022718895192952 0 -6.2022718895192952 26.538987827089315 0 0 0 0 7.0206943445664365 -48.605895024890344 0 -48.605895024890344 14.649389264694989 0 0 0 0 39.204932670129892 -24.911239927352796 0 -24.911239927352796 15.541936220552429 0 0 0 0 41.379422679383424 -7.3688314621381323 0 -7.3688314621381323 25.981872549601007 0 0 0 0 72.311830907070544 3.245816190477143 0 3.245816190477143 -23.78511956925459 0 0 0 0 76.702434565770091 -35.147039308591843 0 -35.147039308591843 12.557339822722554 0 0 0 0 179.92277204780112 -6.6513786692875954 0 -6.6513786692875954 -29.365969562529244 0 0 0 0 185.83418957221147 87.661745826496173 0 87.661745826496173 51.253445443999794 0 0 0 0 1.822342194151787 -0.37676993181458673 0 -0.37676993181458673 0.0021495773963712342 0 0 0 0 79.764966873088269 -63.884217179190472 0 -63.884217179190472 -9.529678194900697 0 0 0 0 2.7740696294640657 48.789162703019883 0 48.789162703019883 30.457473925582065 0 0 0 0 4.6465876527654473 14.564745236329401 0 14.564745236329401 62.697514375563152 0 0 0 0 2.4085495310282568 43.176308884033119 0 43.176308884033119 64.66333470136064 0 0 0 0 7.7726639299035014 17.397121328195169 0 17.397121328195169 43.190313923753138 0 0 0 0 12.680093529546866 2.6901614213869038 0 2.6901614213869038 -2.5843104508115857 0 0 0 0 23.998557061539032 -1.3213299094103377 0 -1.3213299094103377 -1.733746402742895 0 0 0 0 4.231357506600034 -0.22383384501771442 0 -0.22383384501771442 -0.12488079313537376 0 0 0 0 -0.4777709127520211 -1.5572916174922398 0 -1.5572916174922398 4.2137895636262783 0 0 0 0 2.2775496712383756 1.2563074579770159 0 1.2563074579770159 4.0799618565063156 0 0 0 0 6.6245152902993141 -3.8087165169415584 0 -3.8087165169415584 8.2804146513083197 0 0 0 0 40.89531092715697 69.57307379613394 0 69.57307379613394 31.350529941321611 0 0 0 0 0.95752458327325485 0.57663885010812521 0 0.57663885010812521 0.3281363066935139 0 0 0 0 66.480459552098182 13.655171545054259 0 13.655171545054259 1.6625814218347728 0 0 0 0 10.475542770663651 -88.8792456026829 0 -88.8792456026829 84.075134929089018 0 0 0 0 -39.648346728776232 32.333539747827786 0 32.333539747827786 133.52694768630317 0 0 0 0 -42.261727589067959 21.817507468411947 0 21.817507468411947 100.56813430967281 0 0 0 0 -11.258382254643948 -33.333655721283094 0 -33.333655721283094 -28.486165076983184 0 0 0 0 5.7762614008551054 -4.1084736616914626 0 -4.1084736616914626 1.9562294093308319 0 0 0 0 63.725879971141694 -6.5458149481922874 0 -6.5458149481922874 94.740632454660044 0 0 0 0 0.34907778245542431 46.984646257798886 0 46.984646257798886 50.32363601513498 0 0 0 0 -88.863645458593965 -33.260148537868872 0 -33.260148537868872 37.011250219615931 0 0 0 0 112.81686120919403 42.850376080385161 0 42.850376080385161 -43.812337950373148 0 0 0 0 -18.234459924515249 -3.9916134699479358 0 -3.9916134699479358 -44.680251552420486 0 0 0 0 -2.2393899351736763 98.514054863227216 0 98.514054863227216 70.543661256231758 0 0 0 0 94.797765079536475 65.563806671785358 0 65.563806671785358 39.095046056693562 0 0 0 0 101.47946953523206 2.0834673375856312 0 2.0834673375856312 -28.967562628437829 0 0 0 0 139.10230039570888 137.62410747576598 0 137.62410747576598 50.095445293501058 0 0 0 0 3.9848218820242778 -2.3522752552370036 0 -2.3522752552370036 1.372246325484336 0 0 0 0 68.144624139327789 115.80033181792334 0 115.80033181792334 -12.38391201318187 0 0 0 0 1.2723886211368267 -0.63358365447292897 0 -0.63358365447292897 0.66773416480172232 0 0 0 0 203.68162003777115 235.42406257314684 0 235.42406257314684 121.8108928757307 0 0 0 0 137.73776664549951 38.189056347058568 0 38.189056347058568 71.655724770240568 0 0 0 0 672.40164128704055 -226.96282405356612 0 -226.96282405356612 47.709634650389944 0 0 0 0 721.23596770941003 -276.44244296459732 0 -276.44244296459732 97.843001508890893 0 0 0 0 626.9579922820194 -143.59214354269639 0 -143.59214354269639 60.762877395367923 0 0 0 0 619.66142864411813 -129.94390820350498 0 -129.94390820350498 224.2337505713158 0 0 0 0 563.24756579335371 -136.94166112431822 0 -136.94166112431822 86.628887751433695 0 0 0 0 550.15879115063944 -192.86113391252297 0 -192.86113391252297 17.123785960289752 0 0 0 0 570.37274655181682 -103.51109701233509 0 -103.51109701233509 55.291743883176196 0 0 0 0 678.82641228246212 -223.02543852022563 0 -223.02543852022563 28.916728463699997 0 0 0 0 250.64277870586329 -43.087862873315409 0 -43.087862873315409 -51.647574002467763 0 0 0 0 257.84818384922983 -167.49830468947812 0 -167.49830468947812 102.20702369168555 0 0 0 0 76.425714457744107 75.315754139305412 0 75.315754139305412 15.981795050285655 0 0 0 0 3.1041601147687743 0.9730727871973528 0 0.9730727871973528 0.1189012747944207 0 0 0 0 146.10767242751899 -176.38940877145262 0 -176.38940877145262 86.411980776910582 0 0 0 0 147.03210930067144 -177.41667403360321 0 -177.41667403360321 -133.45805485771052 0 0 0 0 -0.15755238413663619 0.89106258911730496 0 0.89106258911730496 0.22592213669238501 0 0 0 0 4.6026121976028662 -0.83074409645473679 0 -0.83074409645473679 -1.5653498760294298 0 0 0 0 4.632091263022545 0.49734049469192554 0 0.49734049469192554 0.20038454256675314 0 0 0 0 62.590677684347611 6.7205287946899368 0 6.7205287946899368 -108.7105458194261 0 0 0 0 2.0458540307503768 1.4535208895862155 0 1.4535208895862155 0.88275830507684194 0 0 0 0 106.44706158625195 -118.77738806643447 0 -118.77738806643447 80.655936541721985 0 0 0 0 3.531589715872542 82.145287016176439 0 82.145287016176439 4.8880776031930964 0 0 0 0 102.83988127212797 -69.323120774596191 0 -69.323120774596191 60.579745898442752 0 0 0 0 195.16586170696246 -3.0631018579767897 0 -3.0631018579767897 47.693176091499936 0 0 0 0 137.57454504427733 45.529198594601894 0 45.529198594601894 29.278607972462851 0 0 0 0 105.05749774866854 68.327956272758911 0 68.327956272758911 0.46980425427136652 0 0 0 0 313.99734681515838 -40.02958081231759 0 -40.02958081231759 24.267756416403344 0 0 0 0 305.86973859991122 -58.773858518989755 0 -58.773858518989755 5.4365286137099247 0 0 0 0 395.22925702371867 -107.64809961865762 0 -107.64809961865762 8.0322712072604645 0 0 0 0 230.15514987157076 -85.640778137202346 0 -85.640778137202346 107.37185223522511 0 0 0 0 456.22693495174462 -144.31069348655615 0 -144.31069348655615 40.378059070044856 0 0 0 0 385.54104816087056 -183.14068551577145 0 -183.14068551577145 117.38775310233632 0 0 0 0 375.58776417773333 -79.946237118001704 0 -79.946237118001704 40.014785486459914 0 0 0 0 251.05709005444805 -155.54008634731429 0 -155.54008634731429 167.38419955035351 0 0 0 0 636.73407346148815 -120.48981401994462 0 -120.48981401994462 381.93853927462669 0 0 0 0 401.77850323264829 -192.41639768624458 0 -192.41639768624458 146.73222210516928 0 0 0 0 630.49759289262875 -164.79969946517372 0 -164.79969946517372 87.192687303010644 0 0 0 0 457.394822264563 -241.00947399279772 0 -241.00947399279772 268.24576757015211 0 0 0 0 681.73048392872442 -289.74707987721126 0 -289.74707987721126 48.960938918494776 0 0 0 0 704.3445494917687 -432.03310303274202 0 -432.03310303274202 349.48296134351421 0 0 0 0 1157.3219020968063 -362.90935051448724 0 -362.90935051448724 -19.049125248345035 0 0 0 0 1024.6665025053808 -180.45268839333482 0 -180.45268839333482 49.336832661930657 0 0 0 0 491.3133819817449 -59.877849132875781 0 -59.877849132875781 -75.772065866060473 0 0 0 0 821.81088644478587 -106.27958538431378 0 -106.27958538431378 -110.44231124213155 0 0 0 0 689.83680591332086 -192.40192505638834 0 -192.40192505638834 -66.640537474804418 0 0 0 0 728.1808976555767 -276.18459919668396 0 -276.18459919668396 18.443684926859532 0 0 0 0 652.72571508184046 -205.72838037427991 0 -205.72838037427991 -37.048613208725243 0 0 0 0 648.23746550193027 -180.30096806539652 0 -180.30096806539652 111.58095337523747 0 0 0 0 584.67087876307778 -288.32612748490078 0 -288.32612748490078 82.998110146098725 0 0 0 0 596.32022978697205 -240.95389914583828 0 -240.95389914583828 9.3647934343803172 0 0 0 0 493.68782171596831 -173.34700167322808 0 -173.34700167322808 8.2483656057484041 0 0 0 0 1.457887368976742 -1.2973043545579657 0 -1.2973043545579657 0.93961069629365523 0 0 0 0 532.07281698908082 23.528732974331888 0 23.528732974331888 9.9489347430733233 0 0 0 0 499.02424953989976 -166.84224147266855 0 -166.84224147266855 15.833665110766105 0 0 0 0 428.66987065397552 -10.324913197560136 0 -10.324913197560136 -44.708226096012822 0 0 0 0 133.5273539746704 65.034163134251912 0 65.034163134251912 5.8863114203668374 0 0 0 0 115.80027621168847 -141.57544440565991 0 -141.57544440565991 171.09760499860329 0 0 0 0 617.26959571118641 -246.20980640701282 0 -246.20980640701282 43.774533958354141 0 0 0 0 703.92467116042269 -78.203471812462155 0 -78.203471812462155 -115.05239641478647 0 0 0 0 722.30219317714364 -183.61376660080685 0 -183.61376660080685 0.057267103286217896 0 0 0 0 791.55597005863092 -151.47468405275777 0 -151.47468405275777 -54.003126271513793 0 0 0 0 673.40937348759326 -171.49864019755444 0 -171.49864019755444 -0.10843078755529126 0 0 0 0 687.56584302960255 -149.77712373325318 0 -149.77712373325318 -25.628077438711955 0 0 0 0 703.32832046464728 -139.13867818835763 0 -139.13867818835763 -19.384814158541587 0 0 0 0 661.99092853683396 -179.07500942526116 0 -179.07500942526116 -4.485578307213359 0 0 0 0 631.93501463407301 -130.63715303129715 0 -130.63715303129715 -28.145631413009255 0 0 0 0 529.77093222924304 -108.60979575247424 0 -108.60979575247424 -12.672319358384357 0 0 0 0 622.19840510655195 -160.32622296351633 0 -160.32622296351633 0.23605757755423529 0 0 0 0 671.51877815804892 -132.56114642448313 0 -132.56114642448313 -63.481162531837924 0 0 0 0 11.911148598272121 -44.619029551142688 0 -44.619029551142688 -26.616743553665476 0 0 0 0 -45.971586357598426 -33.07920084319705 0 -33.07920084319705 -27.454469820549853 0 0 0 0 -24.877218060975792 -29.474382901481746 0 -29.474382901481746 -34.60671389042335 0 0 0 0 -14.338424982448487 -51.760621521374162 0 -51.760621521374162 -86.771080840213017 0 0 0 0 4.0664296940651639 -1.8526899083311292 0 -1.8526899083311292 0.24118161905847768 0 0 0 0 81.492475906230538 66.396947627171173 0 66.396947627171173 46.291472060580418 0 0 0 0 91.23366170207737 72.850726846438846 0 72.850726846438846 45.973368837519104 0 0 0 0 105.49302558381169 71.624068633166303 0 71.624068633166303 38.795432289324083 0 0 0 0 115.04052804913954 2.6798843961690419 0 2.6798843961690419 -28.73642449175054 0 0 0 0 188.33054706353869 161.10845599182477 0 161.10845599182477 70.95929327733829 0 0 0 0 -218.60250227322103 -65.305741299466717 0 -65.305741299466717 15.27380924903764 0 0 0 0 2.1052601082165907 -1.430123661425398 0 -1.430123661425398 -0.66158617534528741 0 0 0 0 -3.7462980034470093 -34.165341386225919 0 -34.165341386225919 -53.201726100034648 0 0 0 0 133.95378589585016 94.193991987331657 0 94.193991987331657 -27.95826886094239 0 0 0 0 1.8792044080683468 -2.4889249914832732 0 -2.4889249914832732 1.5693512044286446 0 0 0 0 -6.3106493534141919 -4.2196304962346298 0 -4.2196304962346298 111.91060881130772 0 0 0 0 55.270179507198918 -54.934204948441106 0 -54.934204948441106 101.50808972631707 0 0 0 0 -14.329841351907817 -102.44322811633722 0 -102.44322811633722 -60.859800078522696 0 0 0 0 258.67362564431096 11.993577954717889 0 11.993577954717889 -7.3488199739243356 0 0 0 0 1.7445185291057328 -0.5814141986124497 0 -0.5814141986124497 -0.0523534025232264 0 0 0 0 18.989908997238672 -35.579755913802813 0 -35.579755913802813 -20.468725604115448 0 0 0 0 113.26516843527497 -75.485683933966669 0 -75.485683933966669 -55.27572070568251 0 0 0 0 132.86951124126062 26.022129334522372 0 26.022129334522372 -39.023281826710132 0 0 0 0 54.89859915310808 -8.225310694586101 0 -8.225310694586101 -0.026703717953453155 0 0 0 0 47.396083047060529 11.351724983774494 0 11.351724983774494 -29.395099356808185 0 0 0 0 0.9030259210827154 -1.2356472163731098 0 -1.2356472163731098 1.115538415567745 0 0 0 0 42.795687732548686 -31.582648719547798 0 -31.582648719547798 -21.446415965071555 0 0 0 0 14.839666607564141 -18.935019107893357 0 -18.935019107893357 0.0016160570016242881 0 0 0 0 0.025281450209149625 -13.87974077306432 0 -13.87974077306432 -22.86997155459602 0 0 0 0 -13.203909909796494 -29.042968777684194 0 -29.042968777684194 -6.0782942285138191 0 0 0 0 2.4774992406746605 -18.185419611134833 0 -18.185419611134833 4.8409301214335088 0 0 0 0 9.4357936626620358 -25.312332699550563 0 -25.312332699550563 -5.8746785845432976 0 0 0 0 19.305236455489649 -18.011276270472869 0 -18.011276270472869 0.011154206259126652 0 0 0 0 54.171414581869612 -0.4655962076382803 0 -0.4655962076382803 0.030746768865566813 0 0 0 0 26.165589895863377 -6.9624248599313772 0 -6.9624248599313772 15.365851101955773 0 0 0 0 54.795964912234922 -17.458676744920862 0 -17.458676744920862 0.080415070114892018 0 0 0 0 28.853486835199874 14.463442757567535 0 14.463442757567535 5.5229122097182 0 0 0 0 58.757374893043561 21.916072895203047 0 21.916072895203047 -3.7174256627017144 0 0 0 0 24.004777421272593 -18.393612421039919 0 -18.393612421039919 -7.9755618904173957 0 0 0 0 23.315125451605127 -12.20078374343327 0 -12.20078374343327 -21.732457871401337 0 0 0 0 -0.231443450844381 -18.801488072264675 0 -18.801488072264675 -5.6054498386444465 0 0 0 0 23.867528805873008 -19.459652563070968 0 -19.459652563070968 -6.0078787114933192 0 0 0 0 17.606888408001396 -6.0284181371951178 0 -6.0284181371951178 0.19387873895783514 0 0 0 0 3.4585603147888833 25.499074298352483 0 25.499074298352483 19.648004990249973 0 0 0 0 64.657654633869242 3.4578610424271536 0 3.4578610424271536 -0.03716930323241692 0 0 0 0 0.27723701416749691 -0.15303168468354045 0 -0.15303168468354045 0.040663760392954065 0 0 0 0 4.7344140268178307 -12.805949508469826 0 -12.805949508469826 -3.0054340625520295 0 0 0 0 20.321398341300664 -20.66905133718252 0 -20.66905133718252 -2.4075722763491996 0 0 0 0 0.59975297742960265 -0.38882267883468558 0 -0.38882267883468558 0.089971697615229718 0 0 0 0 14.898486109981604 1.1652423435521939 0 1.1652423435521939 -14.158147998403535 0 0 0 0 0.98381466243881732 -16.730768966979014 0 -16.730768966979014 -20.60839460869272 0 0 0 0 -2.3797664975900261 -17.628415712186296 0 -17.628415712186296 -3.6054817660957497 0 0 0 0 -1.1233219351124717 -22.924454756248096 0 -22.924454756248096 -19.918463617099476 0 0 0 0 7.3927841249314952 -31.447249600784133 0 -31.447249600784133 -44.795639669465707 0 0 0 0 17.056832438476704 -8.8331776246709239 0 -8.8331776246709239 -36.028114682483618 0 0 0 0 7.8603504940620041 -7.5343361397784321 0 -7.5343361397784321 -8.9747989278647964 0 0 0 0 3.531741370796226 -28.38902370210613 0 -28.38902370210613 -41.032300171827956 0 0 0 0 4.8522633532926989 -2.4536498778348204 0 -2.4536498778348204 0.59703183218564959 0 0 0 0 -8.5375691394947353 -43.048561515168245 0 -43.048561515168245 -67.793728863010529 0 0 0 0 218.2788250543822 28.523361864555838 0 28.523361864555838 -52.319276326326985 0 0 0 0 35.604750767552105 -126.06351813507268 0 -126.06351813507268 -60.334080875299264 0 0 0 0 2.8747931406525424 -2.4369687027871549 0 -2.4369687027871549 0.70148248945186165 0 0 0 0 6.3105933918050141 -26.787892351795676 0 -26.787892351795676 -53.933038476972342 0 0 0 0 -11.977959737791025 -22.832290525700852 0 -22.832290525700852 -34.839434830776213 0 0 0 0 15.209558096114051 -32.208016842011574 0 -32.208016842011574 -63.900470501157088 0 0 0 0 8.6630100546444737 -14.659768918150647 0 -14.659768918150647 -36.068317767864983 0 0 0 0 7.400769396139367 -31.244743792557927 0 -31.244743792557927 -36.701180720666997 0 0 0 0 25.312812216368911 14.732265520236098 0 14.732265520236098 -48.378791570683859 0 0 0 0 6.9439967303696619 3.2319727844151629 0 3.2319727844151629 1.3091180405168366 0 0 0 0 8.0124150365237483 -1.0141352510138972 0 -1.0141352510138972 -2.6572888716086345 0 0 0 0 48.901434095032641 -6.7509416835196987 0 -6.7509416835196987 -13.058480222236668 0 0 0 0 -47.087220491965127 55.93819522755178 0 55.93819522755178 46.263319420539517 0 0 0 0 -41.397194501027116 -5.9091535899394501 0 -5.9091535899394501 21.732421233704827 0 0 0 0 23.073204035172239 -9.6954300854557687 0 -9.6954300854557687 91.127302936058129 0 0 0 0 -17.147088555429946 5.6864229433176092 0 5.6864229433176092 102.15979313268269 0 0 0 0 185.90716825220443 84.298522781542729 0 84.298522781542729 69.336261067956571 0 0 0 0 -23.36025326638628 -90.699122657993797 0 -90.699122657993797 -18.532684098446452 0 0 0 0 -15.026328334181017 30.66783389952792 0 30.66783389952792 53.019915832267998 0 0 0 0 68.713491197835538 -32.717436181083315 0 -32.717436181083315 -51.123659623703929 0 0 0 0 79.380734179576393 -24.953546895693535 0 -24.953546895693535 -70.044498157697745 0 0 0 0 18.183107451244723 -22.926559901253313 0 -22.926559901253313 -75.103992374574773 0 0 0 0 32.640722770589491 7.2643531256463802 0 7.2643531256463802 -31.858201741521043 0 0 0 0 3.5593814286362431 66.491659881891778 0 66.491659881891778 -123.01212563015019 0 0 0 0 -3.2205285374584491 -6.6630674712085636 0 -6.6630674712085636 -1.851791429341251 0 0 0 0 40.75178422938302 19.03594508074282 0 19.03594508074282 -137.42183697135511 0 0 0 0 0.77714424247551506 25.601511512947717 0 25.601511512947717 -63.945259640688619 0 0 0 0 46.081159422494238 5.6113786960065681 0 5.6113786960065681 -90.133459636985435 0 0 0 0 54.937689002676052 -7.7095280082507998 0 -7.7095280082507998 -75.719107551770549 0 0 0 0 39.290108708716161 -13.577614392717667 0 -13.577614392717667 -74.194954846329892 0 0 0 0 68.160634268351714 -28.759932628334639 0 -28.759932628334639 -60.4768314809603 0 0 0 0 56.268720274500083 -12.221141833431375 0 -12.221141833431375 -66.379681121020212 0 0 0 0 60.450956800690619 -8.3408880244450643 0 -8.3408880244450643 -65.091277073004221 0 0 0 0 58.167396327175084 -16.071818680833417 0 -16.071818680833417 -28.604888547078321 0 0 0 0 51.271340287341445 -15.225567307716233 0 -15.225567307716233 -14.566421210604062 0 0 0 0 49.085593530951883 -31.212180832679564 0 -31.212180832679564 -47.340730590441353 0 0 0 0 53.111636456444103 -58.75478986154269 0 -58.75478986154269 -69.102560978558131 0 0 0 0 24.833564617292723 -40.30423289598366 0 -40.30423289598366 -23.419098158977818 0 0 0 0 73.069505802202912 -27.7151277077636 0 -27.7151277077636 -62.492368976912303 0 0 0 0 74.81672474482184 -36.561019742029202 0 -36.561019742029202 -46.831685381625448 0 0 0 0 76.6010279096663 -2.5682543171595853 0 -2.5682543171595853 -76.618540312499718 0 0 0 0 22.046385977901082 -54.587812319785115 0 -54.587812319785115 -16.192517886073745 0 0 0 0 72.518491843835363 -12.770962976958899 0 -12.770962976958899 11.075470056990298 0 0 0 0 72.269531985111826 17.955388793085859 0 17.955388793085859 15.14581615368445 0 0 0 0 92.193165706623404 -9.273887031140589 0 -9.273887031140589 -46.731998506973127 0 0 0 0 98.230764535808703 13.083604880124142 0 13.083604880124142 -32.97180137413568 0 0 0 0 97.354214631675859 7.7219551152946053 0 7.7219551152946053 19.282284888166544 0 0 0 0 99.351534003625375 89.460974631768877 0 89.460974631768877 98.533065669240955 0 0 0 0 181.90827432671722 120.73913902545149 0 120.73913902545149 79.16880100665864 0 0 0 0 128.97404142844607 65.356830828934477 0 65.356830828934477 70.928665791422176 0 0 0 0 105.19212304430766 11.280576963857829 0 11.280576963857829 46.878781253621291 0 0 0 0 140.86089376581367 61.127366642184143 0 61.127366642184143 56.811446294788965 0 0 0 0 169.40364881895221 55.403352422663957 0 55.403352422663957 68.362163325189115 0 0 0 0 172.37823160316839 60.944989501871603 0 60.944989501871603 33.9920620303064 0 0 0 0 232.85219964444696 110.50434160286093 0 110.50434160286093 66.603636817822604 0 0 0 0 0.47170545335598035 -0.23342822958422005 0 -0.23342822958422005 -0.051947423875740695 0 0 0 0 107.56375104287144 -5.3607582137202954 0 -5.3607582137202954 2.4287638198591139 0 0 0 0 119.64530019478843 9.0081321649764021 0 9.0081321649764021 3.4481742981045258 0 0 0 0 148.85556935242494 24.536984549760373 0 24.536984549760373 -2.4076710166213573 0 0 0 0 143.35742419695453 59.012324060681536 0 59.012324060681536 55.219813276671076 0 0 0 0 90.771170846797759 45.075394863996102 0 45.075394863996102 7.0202875267750571 0 0 0 0 30.059086519349876 31.564609487070783 0 31.564609487070783 36.881078136033587 0 0 0 0 86.019894835982996 4.3850051835473387 0 4.3850051835473387 28.382229132667234 0 0 0 0 178.53741870368322 19.365926592788767 0 19.365926592788767 0.25229871201301174 0 0 0 0 280.57820415702736 154.90224761722615 0 154.90224761722615 63.023544724272128 0 0 0 0 92.167604959868186 60.101641439627727 0 60.101641439627727 29.104915239225608 0 0 0 0 277.67448884210899 176.73762187240885 0 176.73762187240885 152.87346753229048 0 0 0 0 0.69553844353194449 0.039159561958243216 0 0.039159561958243216 -0.051200360483790508 0 0 0 0 181.44371272180433 66.887967330517313 0 66.887967330517313 25.055919126002927 0 0 0 0 200.03791882118094 104.93375545878247 0 104.93375545878247 73.602907647165225 0 0 0 0 247.58591805198375 49.023437261006457 0 49.023437261006457 1.0592860355503348 0 0 0 0 0.69187251374836478 0.11826942186985434 0 0.11826942186985434 0.075742327589603947 0 0 0 0 1.3414736311784168 -0.11437548538539488 0 -0.11437548538539488 -0.37942663886524519 0 0 0 0 364.68258713204705 291.52445245014991 0 291.52445245014991 114.52110876340774 0 0 0 0 4.9372821886718157 17.617139053576764 0 17.617139053576764 29.314961863835617 0 0 0 0 31.241459549331921 -33.311531836090374 0 -33.311531836090374 -0.022199215278142885 0 0 0 0 0.13217705726856366 -0.04758238797745111 0 -0.04758238797745111 -0.00029403744141710109 0 0 0 0 -1.773430752895365 -0.46694349900262866 0 -0.46694349900262866 -0.035286428726353403 0 0 0 0 0.16384263040481528 0.0010758516378004401 0 0.0010758516378004401 -0.022352249961156239 0 0 0 0 0.12614478210190327 0.0059747607292592875 0 0.0059747607292592875 -0.029354969676173119 0 0 0 0 2.8280740857848627 -0.84015218918045775 0 -0.84015218918045775 -0.99468823881783819 0 0 0 0 22.22312522564971 18.79868751672139 0 18.79868751672139 -5.489835238349599 0 0 0 0 10.761524831526913 1.9173731105529441 0 1.9173731105529441 10.200874756890755 0 0 0 0 0.39353730700653955 -0.26493195422315807 0 -0.26493195422315807 0.11813914694026602 0 0 0 0 282.06164214899763 171.83276478649378 0 171.83276478649378 123.84435588458214 0 0 0 0 11.845905135356588 -1.0930246388248221 0 -1.0930246388248221 -2.412773511963767 0 0 0 0 -0.0087865968263258765 -0.015795331208266816 0 -0.015795331208266816 0.0099570823962985312 0 0 0 0 3.4592340205163055 -3.6423124123332582 0 -3.6423124123332582 3.3577443262701916 0 0 0 0 11.150898451305693 -2.6435376863367659 0 -2.6435376863367659 -1.2410211997294862 0 0 0 0 30.286506336808088 3.3462228229851081 0 3.3462228229851081 0.11566142611973253 0 0 0 0 9.5579712339240359 2.9348462983765762 0 2.9348462983765762 10.691292914894275 0 0 0 0 12.857831882531173 -0.0098164723701383849 0 -0.0098164723701383849 3.0045165819545865 0 0 0 0 10.966634207143215 -5.0124949702338135 0 -5.0124949702338135 4.3479043896386447 0 0 0 0 212.12223288314999 147.68236466222277 0 147.68236466222277 48.326025298582209 0 0 0 0 73.949737551505677 25.858079328380441 0 25.858079328380441 11.620901275362975 0 0 0 0 14.526915408510831 -3.8701045903119065 0 -3.8701045903119065 10.120021757497042 0 0 0 0 34.947231526282849 8.4091656057677469 0 8.4091656057677469 2.0281908100529948 0 0 0 0 18.718652249517618 71.327156510134571 0 71.327156510134571 18.949259098664491 0 0 0 0 -29.606792275342741 37.477787563422595 0 37.477787563422595 20.343838013115928 0 0 0 0 0.74933730707972046 1.0320269182746244 0 1.0320269182746244 1.0399236384288832 0 0 0 0 529.81268377115703 59.766283740797277 0 59.766283740797277 -49.065516540700173 0 0 0 0 -19.628190545758116 -0.59399962189403155 0 -0.59399962189403155 3.0243215538848744 0 0 0 0 8.2428183888405329 -0.12195973460337939 0 -0.12195973460337939 -6.2124638931272926 0 0 0 0 -7.9873437299975194 11.199971276920046 0 11.199971276920046 1.9658178820385768 0 0 0 0 -11.059795264198328 -7.547806570790577 0 -7.547806570790577 -6.2017621785507444 0 0 0 0 7.1556086030905135 -3.0835400818553573 0 -3.0835400818553573 -15.945148492720413 0 0 0 0 530.94845277044806 124.19286198012412 0 124.19286198012412 141.87991953566393 0 0 0 0 424.64564879509271 -166.5199078031012 0 -166.5199078031012 -63.113690759616588 0 0 0 0 12.884642595672631 2.7551160919160012 0 2.7551160919160012 -1.9817180946526434 0 0 0 0 11.814219389649224 -1.3481375790777292 0 -1.3481375790777292 -0.11340860244020945 0 0 0 0 12.323219349302235 -3.0188026977657092 0 -3.0188026977657092 -9.2471827034520899 0 0 0 0 6.7777355403231923 -3.2901635507398268 0 -3.2901635507398268 1.4057102630625877 0 0 0 0 8.4410884057433577 1.7413861786847846 0 1.7413861786847846 -5.867404619745983 0 0 0 0 10.538965909276158 0.18997175939408883 0 0.18997175939408883 3.7046999257876578 0 0 0 0 6.2343771731175366 4.9387000698006478 0 4.9387000698006478 -1.4842992926512828 0 0 0 0 12.841886989519935 0.64089901165584284 0 0.64089901165584284 -7.5880908019436362 0 0 0 0 0.56346725378794815 1.638882718307471 0 1.638882718307471 2.1179132562322791 0 0 0 0 6.5191775619896362 5.2417395419441473 0 5.2417395419441473 -6.6794384294469324 0 0 0 0 111.54617645054896 -19.865493113935855 0 -19.865493113935855 44.388509633495687 0 0 0 0 195.89985407609493 -142.91771903791062 0 -142.91771903791062 44.077148389875219 0 0 0 0 126.62622794311028 -14.696145250818347 0 -14.696145250818347 -27.408990305706276 0 0 0 0 215.60260825976729 3.4900111463586541 0 3.4900111463586541 -24.662481095568978 0 0 0 0 18.603504058257386 6.3805287130984256 0 6.3805287130984256 3.471208915767384 0 0 0 0 3.5012081657462346 0.33023729840499527 0 0.33023729840499527 1.8110442549443708 0 0 0 0 37.507982175669895 21.746963489954055 0 21.746963489954055 12.637901294730511 0 0 0 0 194.02470852045371 169.53225466276012 0 169.53225466276012 114.44780794562794 0 0 0 0 21.543731739286159 9.4213917879215074 0 9.4213917879215074 12.263330279835714 0 0 0 0 181.6653405638499 116.24962918735419 0 116.24962918735419 93.801490926950621 0 0 0 0 183.62422364497252 150.63113248501824 0 150.63113248501824 142.35130144362466 0 0 0 0 14.353127210895764 4.2368551284447271 0 4.2368551284447271 -4.3802746451449508 0 0 0 0 4.1663984549811346 -1.7224501510085872 0 -1.7224501510085872 -1.3740694772505688 0 0 0 0 0.23070016283423911 -0.76473774511788406 0 -0.76473774511788406 0.48307290875476228 0 0 0 0 30.395398871878569 13.700319584675071 0 13.700319584675071 1.4076023549617958 0 0 0 0 7.2129889929291267 1.0975276469340614 0 1.0975276469340614 -0.28376428674097465 0 0 0 0 -0.30238784789293049 1.4625029722256118 0 1.4625029722256118 0.0604646411015584 0 0 0 0 18.77840818506229 5.030561144724583 0 5.030561144724583 -33.459244640246148 0 0 0 0 -21.925394051882904 11.737634842173691 0 11.737634842173691 9.7225054476178769 0 0 0 0 16.645786674882402 33.516878795586166 0 33.516878795586166 -133.05532255949987 0 0 0 0 29.377761547177215 11.406816001776351 0 11.406816001776351 0.012968506311228105 0 0 0 0 33.45444126125949 -18.362443474800202 0 -18.362443474800202 -15.930703104235008 0 0 0 0 6.7951033050776459 -0.6149887707050663 0 -0.6149887707050663 18.542813147317283 0 0 0 0 7.0927234669347854 -4.261812495272344 0 -4.261812495272344 -4.0716147120636155 0 0 0 0 2.8220262651520898 -3.7356871299226251 0 -3.7356871299226251 0.010655340430777441 0 0 0 0 4.5024991362151923 -4.3680257749989808 0 -4.3680257749989808 -4.0753416944861582 0 0 0 0 5.0054020255920477 -2.9799055239652281 0 -2.9799055239652281 -7.6221221559060961 0 0 0 0 2.3624106738990349 1.0750290909144411 0 1.0750290909144411 -0.12473285169994885 0 0 0 0 1.8719070653314702 1.5871341647954864 0 1.5871341647954864 -2.6321524155378757 0 0 0 0 3.5737893088079034 1.3971736498849647 0 1.3971736498849647 -0.035252315526585747 0 0 0 0 3.8043858250479055 0.15591408003783158 0 0.15591408003783158 -1.2862341347533299 0 0 0 0 0.52564272959076774 0.24050295774877384 0 0.24050295774877384 -0.91302721952876387 0 0 0 0 -121.11551531701116 6.3716249320248508 0 6.3716249320248508 118.82938493917163 0 0 0 0 2.1886611995068961 -1.78446227050053 0 -1.78446227050053 -3.7193910777971402 0 0 0 0 -1.9268679837114178 77.187522271098388 0 77.187522271098388 70.786928086988155 0 0 0 0 195.39473233302124 125.60609067196293 0 125.60609067196293 47.653168715227508 0 0 0 0 316.72228445345536 60.52986786010888 0 60.52986786010888 14.655434863929997 0 0 0 0 347.36172013847681 37.838423869042245 0 37.838423869042245 -0.15351468265222229 0 0 0 0 521.99438274970089 91.162514074195954 0 91.162514074195954 -80.153052682367218 0 0 0 0 354.04980677591811 -15.272266987673106 0 -15.272266987673106 -79.513430334821351 0 0 0 0 351.2189030086156 156.78232425833158 0 156.78232425833158 60.43027936448793 0 0 0 0 1.9766509561711416 -0.1489894034614393 0 -0.1489894034614393 -0.55095906044640253 0 0 0 0 282.22234532596485 -85.047204807061348 0 -85.047204807061348 -96.972243152149701 0 0 0 0 534.62911749217892 38.277125262324262 0 38.277125262324262 -93.84330122148242 0 0 0 0 27.751464375134674 -91.049395908972315 0 -91.049395908972315 -2.0916918318204125 0 0 0 0 7.7290672818780877 -8.6821892582372584 0 -8.6821892582372584 10.847014187735567 0 0 0 0 288.1604682100151 78.167269662347991 0 78.167269662347991 -28.258949185095503 0 0 0 0 182.26302062377363 120.99159320942942 0 120.99159320942942 80.102491807286015 0 0 0 0 489.77184931284864 21.93942019799357 0 21.93942019799357 -35.871829983839234 0 0 0 0 254.77767019293242 15.196351550446082 0 15.196351550446082 39.847769094235218 0 0 0 0 0.38762510182888832 0.32790760763588622 0 0.32790760763588622 0.061309424891963893 0 0 0 0 240.07821887017053 -25.823817551462867 0 -25.823817551462867 -6.9765259924058682 0 0 0 0 99.186193203437142 91.839766005720804 0 91.839766005720804 -27.433072327686531 0 0 0 0 163.94248757660534 44.256258946707604 0 44.256258946707604 -18.730401772307459 0 0 0 0 33.236162652101484 89.496659117673545 0 89.496659117673545 -6.3687842387873133 0 0 0 0 90.403371670923661 63.683340542901121 0 63.683340542901121 -0.54246950059524579 0 0 0 0 0.57108824036449235 0.051067761444485882 0 0.051067761444485882 -0.05595257644836682 0 0 0 0 -62.572688453987212 49.940518592988703 0 49.940518592988703 -22.17328264216593 0 0 0 0 -7.5281359936780063 31.532694226059377 0 31.532694226059377 -48.015987418165309 0 0 0 0 5.628252012480516 44.302694725218572 0 44.302694725218572 -56.912635348766514 0 0 0 0 20.444708130104118 53.542257147498589 0 53.542257147498589 -43.359272087761781 0 0 0 0 9.4076342112020939 39.807299220425904 0 39.807299220425904 0.9607509465899966 0 0 0 0 12.881242462637601 28.24720127631133 0 28.24720127631133 -12.894100037029716 0 0 0 0 35.178719370640465 42.172602117418137 0 42.172602117418137 -7.495020031291773 0 0 0 0 25.752976097384817 34.832391947989919 0 34.832391947989919 -50.125561769408137 0 0 0 0 -1.0250038302619942 34.184763209887393 0 34.184763209887393 -49.757147960322186 0 0 0 0 9.2650915345584508 12.021073491386076 0 12.021073491386076 -102.04840736833421 0 0 0 0 52.687018469528994 43.578181855094257 0 43.578181855094257 50.19504120705141 0 0 0 0 48.791366803372512 35.117049553789343 0 35.117049553789343 38.785307012446019 0 0 0 0 52.536311905329057 25.336632166894738 0 25.336632166894738 12.036891208870486 0 0 0 0 22.464589533985418 27.293836449902486 0 27.293836449902486 12.594797397150671 0 0 0 0 24.996779925088049 34.669520302378871 0 34.669520302378871 15.847515366228919 0 0 0 0 38.390861518771999 49.028214596934909 0 49.028214596934909 28.25638038863616 0 0 0 0 46.91741729270143 49.167263449593491 0 49.167263449593491 23.74222933736614 0 0 0 0 35.237465351849096 62.828245256159207 0 62.828245256159207 9.4067224330019599 0 0 0 0 48.054428598494269 57.802453350204757 0 57.802453350204757 28.332099924690276 0 0 0 0 56.865244576383702 43.767673542234157 0 43.767673542234157 45.810917456370717 0 0 0 0 66.251160008745501 56.861294007433649 0 56.861294007433649 15.117723514900046 0 0 0 0 55.584448561425233 75.522127699474908 0 75.522127699474908 3.7068372748408933 0 0 0 0 84.968388483095623 55.699069067694069 0 55.699069067694069 14.98542397390554 0 0 0 0 86.157764660445537 50.12640393574118 0 50.12640393574118 -18.499811659247598 0 0 0 0 76.504688393386459 40.389676617284564 0 40.389676617284564 39.003547348666984 0 0 0 0 16.745956314637567 -10.766367421482983 0 -10.766367421482983 2.3684223280733043 0 0 0 0 70.821928428224055 50.099326474660877 0 50.099326474660877 38.581511178177252 0 0 0 0 183.52014371394762 284.97922753215835 0 284.97922753215835 -98.360914302360698 0 0 0 0 113.60141703173576 96.046994260595511 0 96.046994260595511 -59.939462993548204 0 0 0 0 65.189913571188299 34.536469407455051 0 34.536469407455051 55.179163762941606 0 0 0 0 55.383733236310945 44.085742852101305 0 44.085742852101305 45.943242249146536 0 0 0 0 53.41987014003098 27.958664784636809 0 27.958664784636809 53.741859473984043 0 0 0 0 61.275548983275797 33.215576049142598 0 33.215576049142598 77.688725850987339 0 0 0 0 61.273735432325338 31.433918393429387 0 31.433918393429387 59.071200187235533 0 0 0 0 65.545652981192688 31.692057710640881 0 31.692057710640881 54.417202707939254 0 0 0 0 52.102244259389408 37.639001236371548 0 37.639001236371548 66.347493786320882 0 0 0 0 36.667961180166458 25.716086405380565 0 25.716086405380565 44.620394700679242 0 0 0 0 102.90813419831829 161.28935480660053 0 161.28935480660053 138.44537278793575 0 0 0 0 200.04041340450931 129.068716842512 0 129.068716842512 66.449468184711748 0 0 0 0 197.45314072181645 129.32594160577582 0 129.32594160577582 66.460762074303091 0 0 0 0 6.1201018157167368 -1.4964493995482684 0 -1.4964493995482684 0.13963125159440171 0 0 0 0 196.68438571685874 126.41735926164039 0 126.41735926164039 67.137075573691106 0 0 0 0 199.14970016353254 126.21046688336313 0 126.21046688336313 67.124049161748474 0 0 0 0 106.99825693713501 26.958070429901767 0 26.958070429901767 6.8327817815889773 0 0 0 0 3.6938724404221546 1.9538705031287265 0 1.9538705031287265 1.1110623018707728 0 0 0 0 84.071493278286653 14.736490352723685 0 14.736490352723685 0.33825408389401446 0 0 0 0 5.1561161498071044 1.9204617960143082 0 1.9204617960143082 -0.42103766140955745 0 0 0 0 11.944451589629892 -4.456285405851375 0 -4.456285405851375 -3.5134743441431642 0 0 0 0 75.244285129560012 32.455914237417147 0 32.455914237417147 6.0565720108848211 0 0 0 0 65.67551090469351 46.592506392011728 0 46.592506392011728 56.018653873567018 0 0 0 0 2.5004206651243166 0.91824702101463629 0 0.91824702101463629 6.0793321133273182 0 0 0 0 557.2944563777055 186.28357320273864 0 186.28357320273864 16.825525478329894 0 0 0 0 25.916631793377746 -20.894332753725593 0 -20.894332753725593 98.531805723914545 0 0 0 0 403.33117318081395 -150.43490960526358 0 -150.43490960526358 -107.42957901131899 0 0 0 0 444.6475355282746 328.74075715517438 0 328.74075715517438 127.25139458891238 0 0 0 0 105.59690293252606 129.36390383354941 0 129.36390383354941 168.09445642806804 0 0 0 0 29.769605241206591 180.1263532648868 0 180.1263532648868 297.46093800246263 0 0 0 0 10.331215663914918 36.040453298754642 0 36.040453298754642 76.812531765012977 0 0 0 0 181.80944165465053 146.04678221079757 0 146.04678221079757 0.43927006222202181 0 0 0 0 178.26738028800173 191.96622450505492 0 191.96622450505492 -0.23069353665641756 0 0 0 0 108.77719565061852 204.72588002304565 0 204.72588002304565 15.6987896523176 0 0 0 0 98.702007163185044 123.99309262014185 0 123.99309262014185 11.993079453283826 0 0 0 0 -41.290435267263092 -109.80036287435553 0 -109.80036287435553 -7.6008355231588212 0 0 0 0 105.03536832226382 -83.437490768589669 0 -83.437490768589669 -8.3765404697473969 0 0 0 0 77.422895626485115 344.49896478881055 0 344.49896478881055 271.57743937334897 0 0 0 0 -70.488177173123404 -27.029413801279119 0 -27.029413801279119 18.459101893869615 0 0 0 0 10.305489829908765 84.25093383519436 0 84.25093383519436 -192.76737049567691 0 0 0 0 -29.935022919543371 -30.93740558633759 0 -30.93740558633759 28.307126402263293 0 0 0 0 -3.3618860228490632 -0.67922270918134586 0 -0.67922270918134586 0.14311661458580627 0 0 0 0 1.3353575723685935 -28.914949559275243 0 -28.914949559275243 -39.99627712577967 0 0 0 0 -0.34137004068907117 -12.13565604897758 0 -12.13565604897758 8.5969888868642101 0 0 0 0 2.2874247341242153 -36.798023636684775 0 -36.798023636684775 -21.015898304645816 0 0 0 0 17.229616665645153 -48.185467474733287 0 -48.185467474733287 -39.426150636290913 0 0 0 0 14.557035547186388 -42.376830862741372 0 -42.376830862741372 -47.78272885521892 0 0 0 0 20.599797205294266 3.2174841014393039 0 3.2174841014393039 -9.44637241788136 0 0 0 0 20.800667179864831 4.2404421387536217 0 4.2404421387536217 -19.754471828185046 0 0 0 0 22.730134150813683 -3.0452502931951244 0 -3.0452502931951244 -10.664371621773114 0 0 0 0 17.167890781165625 1.5006516384859196 0 1.5006516384859196 -14.454323122196655 0 0 0 0 17.665331401124774 -0.045133497921966637 0 -0.045133497921966637 -3.8759491568795688 0 0 0 0 17.253346196572238 0.77550006526371362 0 0.77550006526371362 -8.7231945603617191 0 0 0 0 19.139727354907308 1.1724635602460864 0 1.1724635602460864 -4.9195087531839121 0 0 0 0 29.743122279984163 9.2675576980475824 0 9.2675576980475824 -10.544522702248514 0 0 0 0 22.085800114102312 7.879673693736521 0 7.879673693736521 -10.79594548065495 0 0 0 0 26.465793419803958 1.8755873238189906 0 1.8755873238189906 -12.87061770707453 0 0 0 0 24.766542247147299 10.686563855959974 0 10.686563855959974 -3.6968942560479974 0 0 0 0 22.478135341560119 5.7234783495443082 0 5.7234783495443082 -4.9141672988791925 0 0 0 0 11.71306073244341 -0.249466631931341 0 -0.249466631931341 -3.8721230264163751 0 0 0 0 10.922119233967237 0.4989140973253825 0 0.4989140973253825 -6.9701500973040416 0 0 0 0 2.3303006531845654 1.6415912359395008 0 1.6415912359395008 2.5845575801056615 0 0 0 0 21.674113065359052 -30.07220553132143 0 -30.07220553132143 61.358443119380809 0 0 0 0 10.958947857239764 15.171023957953716 0 15.171023957953716 27.465542115068246 0 0 0 0 35.220195068366593 -12.54590580354278 0 -12.54590580354278 8.9530826709201961 0 0 0 0 7.4493353164995 1.8142350315978177 0 1.8142350315978177 0.46325076102422535 0 0 0 0 10.275064098851942 1.2257686480642889 0 1.2257686480642889 -6.9342588916913677 0 0 0 0 15.72068313100317 4.6570443124206236 0 4.6570443124206236 -13.090150780275849 0 0 0 0 15.426984360645292 4.9811857059648901 0 4.9811857059648901 -5.6308947245895524 0 0 0 0 26.871294638287509 3.5869706029262431 0 3.5869706029262431 -6.9827295265430678 0 0 0 0 9.9376110700906963 4.5213685708526725 0 4.5213685708526725 -6.6680094064468003 0 0 0 0 13.305106507342089 5.734688907119498 0 5.734688907119498 -6.6878171310664678 0 0 0 0 18.45352080000157 15.709124976088106 0 15.709124976088106 -4.844527997982965 0 0 0 0 36.927969394324464 11.672349465893149 0 11.672349465893149 -5.6592141867008223 0 0 0 0 20.770931337785441 7.2072810904405742 0 7.2072810904405742 -5.7643821057590685 0 0 0 0 15.645290075946832 10.95721603045331 0 10.95721603045331 -4.4766490578185767 0 0 0 0 10.086202237682301 42.04421561778463 0 42.04421561778463 -10.034958078374984 0 0 0 0 7.2436026105512354 2.0478224488474979 0 2.0478224488474979 -4.362147792231573 0 0 0 0 10.771179161166941 7.1400817893016892 0 7.1400817893016892 2.8525466938544932 0 0 0 0 12.658418477494706 2.4384418336300087 0 2.4384418336300087 -5.7491820478053342 0 0 0 0 17.721779325317328 6.1022815159589214 0 6.1022815159589214 -0.55319275253304312 0 0 0 0 97.880135404950124 9.3003785638475165 0 9.3003785638475165 -139.3553474717487 0 0 0 0 17.850511263168301 10.667201564648849 0 10.667201564648849 -17.341970311977093 0 0 0 0 49.145821583020734 15.162300421888517 0 15.162300421888517 -68.322596359679665 0 0 0 0 210.83315342479909 6.2757340236526034 0 6.2757340236526034 -67.834508601166817 0 0 0 0 124.90899267105851 167.03183419506763 0 167.03183419506763 80.091272651829513 0 0 0 0 -59.783466386026703 50.079700968460202 0 50.079700968460202 57.298336562160785 0 0 0 0 103.8911132994981 343.49067867854365 0 343.49067867854365 160.81907821565073 0 0 0 0 32.778461439498642 184.94120719384864 0 184.94120719384864 252.35266742239719 0 0 0 0 115.13025596792249 243.01565214859255 0 243.01565214859255 84.51127373849431 0 0 0 0 17.054924459024193 -15.678490016730166 0 -15.678490016730166 9.0211472439600655 0 0 0 0 256.90546707576868 -449.95538715190469 0 -449.95538715190469 -42.877060958634502 0 0 0 0 186.96279240169679 -410.58764529765995 0 -410.58764529765995 332.23473538788858 0 0 0 0 173.81300054254098 341.51640983188827 0 341.51640983188827 60.803028911675028 0 0 0 0 356.55796051544166 263.30499272560564 0 263.30499272560564 -512.29172211245168 0 0 0 0 642.36460183677264 164.79775281112052 0 164.79775281112052 314.56266876593429 0 0 0 0 438.20629623478453 -31.448070587715847 0 -31.448070587715847 291.6815806497525 0 0 0 0 370.45652832480846 565.15385953906025 0 565.15385953906025 372.56730914351124 0 0 0 0 -106.43416821610299 261.25006403975476 0 261.25006403975476 345.96853655442646 0 0 0 0 -348.40754969503905 -96.375014520071545 0 -96.375014520071545 74.323881142664959 0 0 0 0 641.33991614190745 223.15075016471201 0 223.15075016471201 120.84691881545041 0 0 0 0 762.70243285778633 -471.19432078918555 0 -471.19432078918555 1.9148083003174179 0 0 0 0 886.56422650790773 386.64350794353095 0 386.64350794353095 15.377329941059543 0 0 0 0 4.0483398797000802 2.0489206978119796 0 2.0489206978119796 0.93666097410363847 0 0 0 0 5.3270664858111161 3.3276716465653919 0 3.3276716465653919 2.1751445375260827 0 0 0 0 -59.258660468622111 88.971268566041545 0 88.971268566041545 -42.848859447122777 0 0 0 0 56.781243038421962 -44.892403487859156 0 -44.892403487859156 32.135703073470722 0 0 0 0 661.25178004871304 189.21670576226779 0 189.21670576226779 -120.95006488586523 0 0 0 0 55.495159329861053 19.798819930366854 0 19.798819930366854 95.9430491695434 0 0 0 0 59.821390729630366 10.914413451897872 0 10.914413451897872 34.672888060875835 0 0 0 0 54.046399532984651 31.150844076446262 0 31.150844076446262 64.623711452352381 0 0 0 0 25.575904836043264 -7.1395704019945896 0 -7.1395704019945896 9.0004054735809742 0 0 0 0 316.40856495072876 -54.013532663169087 0 -54.013532663169087 -29.474581305464653 0 0 0 0 -263.42569982657733 766.57976385637937 0 766.57976385637937 1136.7460401060171 0 0 0 0 -446.89734380047594 554.84380689916406 0 554.84380689916406 354.94921226876249 0 0 0 0 83.232802529551918 -9.8856306145455051 0 -9.8856306145455051 59.575399446035362 0 0 0 0 0.84821575180248487 2.857602067304839 0 2.857602067304839 2.8425300672866278 0 0 0 0 -96.509180837028907 595.79904813778762 0 595.79904813778762 76.134397443060152 0 0 0 0 221.92138755292399 1245.5300736481222 0 1245.5300736481222 162.38859281522855 0 0 0 0 67.436991336879146 -6.7756186082807801 0 -6.7756186082807801 15.431877254040387 0 0 0 0 68.637758002994815 -0.48235420741622193 0 -0.48235420741622193 39.22965817405661 0 0 0 0 169.2212119013966 2.3951731610532079 0 2.3951731610532079 21.320053580102012 0 0 0 0 107.02751229614557 28.797593461083764 0 28.797593461083764 5.2502805365948779 0 0 0 0 129.07128608858329 124.80954117100687 0 124.80954117100687 -49.711952355782508 0 0 0 0 101.56412109022858 -22.103274410664611 0 -22.103274410664611 49.976359620828589 0 0 0 0 116.98023067201484 31.583323402483074 0 31.583323402483074 20.832880465241033 0 0 0 0 114.98772853690753 22.039001785085702 0 22.039001785085702 22.046306559904224 0 0 0 0 174.00111029187201 37.420512537496109 0 37.420512537496109 23.736878544425053 0 0 0 0 259.35104346013395 -36.121852578523999 0 -36.121852578523999 -48.27484694663508 0 0 0 0 258.29751628283702 -40.113251670781665 0 -40.113251670781665 0.7263400641862745 0 0 0 0 42.402915455968468 -5.1430702847487737 0 -5.1430702847487737 -84.32682445890714 0 0 0 0 232.89910022560798 -162.02545242735482 0 -162.02545242735482 197.90112697376071 0 0 0 0 8.0116183676436776 153.06051616517732 0 153.06051616517732 -80.114476253827775 0 0 0 0 16.805940118604298 7.0142046487889473 0 7.0142046487889473 4.6798783944410474 0 0 0 0 139.05660712945974 10.670976078216654 0 10.670976078216654 -55.699922463909388 0 0 0 0 378.09218039408734 -60.003157312275334 0 -60.003157312275334 -329.01193779077585 0 0 0 0 75.475432453252878 36.336403698606453 0 36.336403698606453 11.106552326644778 0 0 0 0 180.44590640745446 -30.217041774823088 0 -30.217041774823088 -21.207272083105181 0 0 0 0 169.07749690595665 47.828068584481116 0 47.828068584481116 -72.257559416316326 0 0 0 0 -15.769873536907824 10.275178944041613 0 10.275178944041613 13.803699806064019 0 0 0 0 201.93289878072392 -15.776041271408985 0 -15.776041271408985 40.200564143025304 0 0 0 0 197.53607527841814 -4.5574992562235366 0 -4.5574992562235366 -10.335776265297227 0 0 0 0 261.75885903944436 -28.735072310584087 0 -28.735072310584087 -8.5668912032280105 0 0 0 0 272.14586568865343 4.1168022453020967 0 4.1168022453020967 13.647000538224546 0 0 0 0 209.38480886028992 -3.4820491967386147 0 -3.4820491967386147 -12.755159258242884 0 0 0 0 141.53837819367618 44.213536152142524 0 44.213536152142524 40.547262904298691 0 0 0 0 101.53766844950587 40.29600102741415 0 40.29600102741415 16.022880461041836 0 0 0 0 40.067677887641686 45.202995554180333 0 45.202995554180333 11.846163753487946 0 0 0 0 142.90886887859233 47.888324401727004 0 47.888324401727004 27.55302381393949 0 0 0 0 117.64854782022303 24.189811543693281 0 24.189811543693281 -2.1915440155705426 0 0 0 0 61.435126446373033 56.837209737285605 0 56.837209737285605 21.018235405824043 0 0 0 0 36.267758054343901 37.602227336412213 0 37.602227336412213 -3.3801272561152391 0 0 0 0 90.743239947252732 -10.184326012319843 0 -10.184326012319843 3.7654248010479705 0 0 0 0 140.48728166765795 -17.28366492528346 0 -17.28366492528346 -14.214736059494498 0 0 0 0 157.60856087648244 25.6131607715987 0 25.6131607715987 -12.310161170223182 0 0 0 0 139.37061263592113 13.725102854388979 0 13.725102854388979 14.691924504763733 0 0 0 0 127.80789163399459 35.229620028795807 0 35.229620028795807 -3.5435453683037395 0 0 0 0 184.34119142008421 30.869162554199193 0 30.869162554199193 -11.42008683398808 0 0 0 0 141.47601491624209 44.116729784801848 0 44.116729784801848 -12.578469978406702 0 0 0 0 178.93918068169296 84.02701308846008 0 84.02701308846008 21.33945540024672 0 0 0 0 141.79614410881982 40.688077539310534 0 40.688077539310534 6.1290312945009191 0 0 0 0 129.77775330695295 18.370243282367483 0 18.370243282367483 29.76576091741893 0 0 0 0 85.544706557371683 23.444841749304828 0 23.444841749304828 65.804840170314264 0 0 0 0 79.77712320059436 76.801724134747019 0 76.801724134747019 52.31333786447226 0 0 0 0 101.81203476767041 91.740172777251928 0 91.740172777251928 62.426681466575474 0 0 0 0 128.99733710186047 51.61478346000797 0 51.61478346000797 15.023222269242638 0 0 0 0 10.193933261214738 4.7954907386496046 0 4.7954907386496046 -1.7781449359124908 0 0 0 0 20.551851072939058 -2.1950113542461906 0 -2.1950113542461906 -1.7740589145610763 0 0 0 0 37.927300375085906 -6.6951156610065823 0 -6.6951156610065823 4.1414695701114397 0 0 0 0 38.014195712021319 -11.133836280036689 0 -11.133836280036689 33.679735389885423 0 0 0 0 69.380303697729687 -6.6578552168008684 0 -6.6578552168008684 0.12653511954255237 0 0 0 0 70.432465002715617 -12.180558361766856 0 -12.180558361766856 0.05728701919406376 0 0 0 0 50.357891882620983 -24.795984274990531 0 -24.795984274990531 -2.3843674919180211 0 0 0 0 67.370092882138124 -48.983404317320947 0 -48.983404317320947 -29.06872066935739 0 0 0 0 67.284213750972413 -4.5535243810822408 0 -4.5535243810822408 1.5337302401938757 0 0 0 0 61.562916594804847 -4.0466202676665262 0 -4.0466202676665262 1.5735672151095059 0 0 0 0 58.701139136748679 -16.265535432243496 0 -16.265535432243496 11.73961346128408 0 0 0 0 60.642178933616378 -18.427297558031341 0 -18.427297558031341 -3.6098155687213875 0 0 0 0 56.143952902173623 -8.1021511838480365 0 -8.1021511838480365 1.3291768104629682 0 0 0 0 64.634030729474034 -7.7436153595112955 0 -7.7436153595112955 1.2925037256482028 0 0 0 0 54.01666117527202 -3.5911033208800518 0 -3.5911033208800518 3.0442575586253042 0 0 0 0 66.780108746956103 -8.4726057576826861 0 -8.4726057576826861 0.1119312528780938 0 0 0 0 54.431049922932289 -3.8663822758967399 0 -3.8663822758967399 2.169878037583203 0 0 0 0 64.566204103255274 -23.349099466890522 0 -23.349099466890522 0.54972193375240419 0 0 0 0 86.061845988646382 -44.610708838851679 0 -44.610708838851679 24.758558307796761 0 0 0 0 48.228059162836871 -20.768405694448688 0 -20.768405694448688 20.119229906140731 0 0 0 0 16.510856219769664 3.7390681141065443 0 3.7390681141065443 -4.0252016437131903 0 0 0 0 75.430844197697297 -1.605267084305126 0 -1.605267084305126 -5.8238100969141442 0 0 0 0 162.13363813563592 73.273714563252597 0 73.273714563252597 -54.340399037326506 0 0 0 0 10.630494359596341 1.2295690493204319 0 1.2295690493204319 -5.056074201381386 0 0 0 0 76.119779378767632 -6.3363267727407067 0 -6.3363267727407067 -4.4435243209700097 0 0 0 0 100.9783295973757 -37.006074701764078 0 -37.006074701764078 -37.905197713009784 0 0 0 0 95.686249297454196 -25.653226461662143 0 -25.653226461662143 -56.792713988168771 0 0 0 0 115.20867119727336 -24.05482003964562 0 -24.05482003964562 -66.487963650329675 0 0 0 0 63.703932804135547 -26.602475704861604 0 -26.602475704861604 -7.0016573876528128 0 0 0 0 142.9872605988021 41.935712131769833 0 41.935712131769833 27.617852815737251 0 0 0 0 28.900180866271874 15.885910282921195 0 15.885910282921195 4.20523902761561 0 0 0 0 40.22467359478793 23.061530712652988 0 23.061530712652988 0.46069980089039753 0 0 0 0 82.217071906237607 95.074693468885684 0 95.074693468885684 18.995993289195212 0 0 0 0 -7.5461914079600945 10.225357964403484 0 10.225357964403484 3.5841782434778158 0 0 0 0 32.123896335232757 26.51637875668726 0 26.51637875668726 -0.46300660633278312 0 0 0 0 32.1948217152094 27.494453333928391 0 27.494453333928391 -3.1901836813343039 0 0 0 0 24.108157043556275 33.904299160915116 0 33.904299160915116 24.235685008795258 0 0 0 0 34.744288179834257 19.144944846131125 0 19.144944846131125 6.4145055914685827 0 0 0 0 36.730482797800505 38.918578127415117 0 38.918578127415117 26.073734689045978 0 0 0 0 109.13114251985826 17.061129802622759 0 17.061129802622759 -76.405309783506254 0 0 0 0 19.789378310628223 3.5535006129304385 0 3.5535006129304385 -0.55960529693700123 0 0 0 0 -12.030302179671708 28.208976091328623 0 28.208976091328623 20.018437451818045 0 0 0 0 93.876799170593586 -42.657098680908803 0 -42.657098680908803 -56.072402499987447 0 0 0 0 47.054113869409775 30.38995808648184 0 30.38995808648184 -50.727242843345039 0 0 0 0 29.6004743186773 27.255555868324116 0 27.255555868324116 0.09321192622770158 0 0 0 0 22.913292533789487 16.708132762537453 0 16.708132762537453 -0.14203386267813478 0 0 0 0 -20.808651551225921 28.507398427090266 0 28.507398427090266 102.72990651713462 0 0 0 0 4.2998320424958365 7.6174313423080093 0 7.6174313423080093 15.499537426865118 0 0 0 0 1.5907505107050497 -0.24628514047162753 0 -0.24628514047162753 0.39629671839470682 0 0 0 0 6.3197496870998293 0.081535260811506305 0 0.081535260811506305 2.2126782229061064 0 0 0 0 13.168711632326449 6.8782005906473387 0 6.8782005906473387 -6.363738073321656 0 0 0 0 9.4799118170049042 12.9093025130569 0 12.9093025130569 -2.4574549120998199 0 0 0 0 1.4081294118046515 0.42789259565041959 0 0.42789259565041959 -0.59635255866146508 0 0 0 0 47.415123074461007 47.4721867891692 0 47.4721867891692 25.270739248393966 0 0 0 0 66.149632606880914 11.310502550204774 0 11.310502550204774 -1.1751112389620175 0 0 0 0 12.463103815407521 3.8380519317517496 0 3.8380519317517496 1.4568863406976789 0 0 0 0 8.0096845158566339 -1.615576936298325 0 -1.615576936298325 -2.2995505856400023 0 0 0 0 20.949070734503039 -5.0162888794934588 0 -5.0162888794934588 3.1251616888785065 0 0 0 0 13.466501487933073 0.43061193080308158 0 0.43061193080308158 -3.8927404711395255 0 0 0 0 12.931943047526147 3.434469656139072 0 3.434469656139072 0.85892801317413614 0 0 0 0 16.39455329766497 8.4933057968200956 0 8.4933057968200956 -2.280748392057717 0 0 0 0 11.755305687568523 4.3672463737833453 0 4.3672463737833453 2.0004946644131065 0 0 0 0 17.150088324697606 8.3906648364234258 0 8.3906648364234258 -1.3900126069073788 0 0 0 0 19.169863149469165 14.777674051188455 0 14.777674051188455 -1.6393539094715379 0 0 0 0 36.570697571180062 -0.32431115230964025 0 -0.32431115230964025 -1.9369863945026964 0 0 0 0 20.932456937295143 9.2863767662500649 0 9.2863767662500649 1.3767069641399647 0 0 0 0 13.801456045822405 -1.9660421427463319 0 -1.9660421427463319 -5.220779854461993 0 0 0 0 23.327739928528899 -2.266584514506377 0 -2.266584514506377 0.1324286881175567 0 0 0 0 24.717233407995082 -19.867222272567176 0 -19.867222272567176 11.414258460011069 0 0 0 0 79.548985381785315 -27.467941552120237 0 -27.467941552120237 -8.041055873485675 0 0 0 0 90.561073682649294 -77.305377571567988 0 -77.305377571567988 38.259311325309 0 0 0 0 76.722128652952961 -45.580911083671253 0 -45.580911083671253 -8.5854593551330254 0 0 0 0 61.069899081503536 -17.965965145985592 0 -17.965965145985592 -1.5120552028261045 0 0 0 0 169.26553399400291 -14.084201542437086 0 -14.084201542437086 -56.332116997399226 0 0 0 0 68.390448640690011 22.293025222306824 0 22.293025222306824 -33.621519665566666 0 0 0 0 27.218172506905731 18.054319355820212 0 18.054319355820212 1.6008956769665552 0 0 0 0 12.545050916525724 11.0568211274568 0 11.0568211274568 -3.5487227941275705 0 0 0 0 50.575725983844521 -17.325463442380332 0 -17.325463442380332 -0.12899216399719649 0 0 0 0 79.865614407921385 -10.72913077793919 0 -10.72913077793919 -1.0149489684440596 0 0 0 0 5.9214685393886555 12.950910851073086 0 12.950910851073086 2.0829546541491535 0 0 0 0 178.11379642670727 219.08441158525875 0 219.08441158525875 228.98814117724373 0 0 0 0 3.1193034694819346 1.8533954406961719 0 1.8533954406961719 -0.108812647358144 0 0 0 0 518.04927209441666 93.349792729565308 0 93.349792729565308 -166.28601581080477 0 0 0 0 274.3550457424426 -158.95252255638275 0 -158.95252255638275 -386.6216030262442 0 0 0 0 64.622219856180891 97.548132444629658 0 97.548132444629658 365.15285349288911 0 0 0 0 111.07008838190086 95.828115134194263 0 95.828115134194263 102.59723748692932 0 0 0 0 134.00698382593691 -4.5499423193955408 0 -4.5499423193955408 254.59716766306383 0 0 0 0 -198.99568635954347 141.71332974838811 0 141.71332974838811 23.529288402150996 0 0 0 0 70.141946461691987 30.390505881148783 0 30.390505881148783 67.843983258818753 0 0 0 0 -67.192688059200009 258.05546903296317 0 258.05546903296317 21.603717226599656 0 0 0 0 14.079117807428702 283.1644171992773 0 283.1644171992773 -206.0445680019152 0 0 0 0 6.7864275850588456 131.68199307290297 0 131.68199307290297 108.48251762469999 0 0 0 0 79.454751941120776 221.21704964500722 0 221.21704964500722 150.54294892990902 0 0 0 0 -158.68330954749399 42.728495695806714 0 42.728495695806714 285.21101490640513 0 0 0 0 64.745684565652482 -16.159195599005244 0 -16.159195599005244 190.2060547261585 0 0 0 0 -26.611893242312362 272.21325754245709 0 272.21325754245709 282.94342214591069 0 0 0 0 2.4977473506673959 -0.75742325921235931 0 -0.75742325921235931 -0.9849442351593316 0 0 0 0 -130.68405836738384 242.18033476546378 0 242.18033476546378 303.32130285051016 0 0 0 0 158.49503524877946 -143.7198693127857 0 -143.7198693127857 -2.444686090740106 0 0 0 0 5.7576937070116401 -158.20618416251818 0 -158.20618416251818 -2.4955902128926262 0 0 0 0 37.866742843092652 108.339939297824 0 108.339939297824 -137.3430222306788 0 0 0 0 30.922613741595683 -5.7336271025638403 0 -5.7336271025638403 3.2719077606408296 0 0 0 0 141.42388201088761 170.30081615892959 0 170.30081615892959 -4.6910292942502565 0 0 0 0 -11.631787586542487 101.65278711952209 0 101.65278711952209 39.220018879928602 0 0 0 0 17.689704427772085 54.682742757353992 0 54.682742757353992 -61.812047114477991 0 0 0 0 16.931216998298424 5.3867757643170506 0 5.3867757643170506 1.7047884095630303 0 0 0 0 171.92507006233791 163.62658112166059 0 163.62658112166059 -9.0089292540578754 0 0 0 0 256.3294692645286 48.530226435047325 0 48.530226435047325 -8.386754090708564 0 0 0 0 127.28520499964361 167.99671785513556 0 167.99671785513556 -1.4171081745230367 0 0 0 0 55.05188740936623 0.57148593920508617 0 0.57148593920508617 4.3738569842348332 0 0 0 0 80.514918231856427 -17.886365716098226 0 -17.886365716098226 15.721816233787195 0 0 0 0 88.011222671018913 155.87290488133203 0 155.87290488133203 -5.1414692542086868 0 0 0 0 -32.867132873449009 53.871848782204324 0 53.871848782204324 -4.8732450238148886 0 0 0 0 65.003451965298154 -11.979977870132188 0 -11.979977870132188 27.234754071047973 0 0 0 0 73.80416766628332 -18.484751391498094 0 -18.484751391498094 17.704544265619006 0 0 0 0 24.41964945892682 32.85963278190539 0 32.85963278190539 0.59807397972118359 0 0 0 0 87.13737387835863 -29.915464049657203 0 -29.915464049657203 -460.82778504646012 0 0 0 0 121.55639264434285 -10.143101279965663 0 -10.143101279965663 10.517830712746218 0 0 0 0 22.023477312650357 55.981057001943554 0 55.981057001943554 30.591614595050508 0 0 0 0 72.64066504285438 130.71454549532154 0 130.71454549532154 -368.63687419230337 0 0 0 0 72.403157114027977 5.1607106752603844 0 5.1607106752603844 -8.460012325625744 0 0 0 0 92.605295308225323 23.813560279582362 0 23.813560279582362 -5.9095749222508882 0 0 0 0 88.77719696717395 -11.61487804739545 0 -11.61487804739545 31.240095612793084 0 0 0 0 83.864322768291458 -12.298258728997553 0 -12.298258728997553 21.233459841700096 0 0 0 0 75.904842680422007 -6.2764699058056976 0 -6.2764699058056976 29.50241868755802 0 0 0 0 -19.118740627573175 92.13403368289211 0 92.13403368289211 -63.703353728914863 0 0 0 0 7.5455777229010579 10.287344754714766 0 10.287344754714766 11.04958444323694 0 0 0 0 170.53238171179692 -33.512455672020565 0 -33.512455672020565 30.081105408368913 0 0 0 0 136.82269336481113 -9.21152165592747 0 -9.21152165592747 66.95453468761616 0 0 0 0 144.62696070987295 34.837126505039123 0 34.837126505039123 7.0572624571259439 0 0 0 0 78.419973643445701 87.665222216608072 0 87.665222216608072 34.093835695276539 0 0 0 0 16.496906712007188 38.521338017776102 0 38.521338017776102 14.790980715979739 0 0 0 0 37.365598657132068 42.931420263127848 0 42.931420263127848 18.188800041492414 0 0 0 0 140.84879869302677 88.968827810221683 0 88.968827810221683 8.6160140147931088 0 0 0 0 235.41804602961929 55.292873656615029 0 55.292873656615029 -15.202482231503382 0 0 0 0 195.54053500235204 -41.189416333035751 0 -41.189416333035751 -139.45656084720576 0 0 0 0 -175.08951829301077 -498.03741492971687 0 -498.03741492971687 -81.204550121514643 0 0 0 0 90.838250265545241 -47.8922455906214 0 -47.8922455906214 -18.695779351236617 0 0 0 0 888.98210586117057 182.53563450005231 0 182.53563450005231 -99.159043572192346 0 0 0 0 322.15532173318934 57.300946293240983 0 57.300946293240983 -212.5743828294905 0 0 0 0 142.03607983335314 -160.490261138395 0 -160.490261138395 -251.58479752484263 0 0 0 0 480.31744587243156 103.27800650237475 0 103.27800650237475 -126.06748960034322 0 0 0 0 367.93747516832809 233.0631369644039 0 233.0631369644039 6.3042196076452797 0 0 0 0 71.792950616785674 146.61951927228984 0 146.61951927228984 107.07990296284129 0 0 0 0 305.67194783317973 8.2915518865590343 0 8.2915518865590343 -118.19410464318287 0 0 0 0 179.50361777499347 81.701782771655417 0 81.701782771655417 -82.364243181237725 0 0 0 0 184.53896293084472 27.718550271189997 0 27.718550271189997 -60.38830675558188 0 0 0 0 239.21239144062201 42.998532212424152 0 42.998532212424152 -57.395659818397235 0 0 0 0 -90.655224536001697 -267.40284929939753 0 -267.40284929939753 -33.075127037060724 0 0 0 0 91.925055233714389 -49.729199800522785 0 -49.729199800522785 -16.233852053957705 0 0 0 0 166.27758084207926 5.9290488280983027 0 5.9290488280983027 28.984707799352691 0 0 0 0 176.03787206147899 -8.1844242820288855 0 -8.1844242820288855 -42.911378077358677 0 0 0 0 43.781295838329243 -283.1924801599273 0 -283.1924801599273 -65.865407273994379 0 0 0 0 95.17989812578088 -50.253391210516938 0 -50.253391210516938 -16.122606368462826 0 0 0 0 434.47570510089281 36.900317836739191 0 36.900317836739191 -91.746639550348021 0 0 0 0 41.807319569110405 23.431471590931494 0 23.431471590931494 116.89768018390197 0 0 0 0 432.81832316354485 14.789717388339142 0 14.789717388339142 -1.5569251616826705 0 0 0 0 865.48445933280891 168.12243921846706 0 168.12243921846706 52.548453862181873 0 0 0 0 483.59690252379005 -179.17710099831183 0 -179.17710099831183 182.09165360108648 0 0 0 0 165.33118303454648 -5.9498915443785734 0 -5.9498915443785734 76.4990011557598 0 0 0 0 217.90096346822975 151.59223140173307 0 151.59223140173307 393.43410915921083 0 0 0 0 664.43493069071701 44.466565531241415 0 44.466565531241415 -57.258274177332083 0 0 0 0 535.18739982164698 231.10590080359322 0 231.10590080359322 97.201625829963191 0 0 0 0 96.887230924874004 -41.231249664956252 0 -41.231249664956252 -15.774520778194578 0 0 0 0 64.843463600744144 55.919134330552168 0 55.919134330552168 69.430945994310648 0 0 0 0 119.64829697745881 94.742603888382305 0 94.742603888382305 151.04117961987276 0 0 0 0 -41.883456368253974 -100.31337451988942 0 -100.31337451988942 -10.567120018371725 0 0 0 0 -63.932693232949532 -26.601221360000778 0 -26.601221360000778 117.17165965020968 0 0 0 0 14.970716963037091 -11.845589947108174 0 -11.845589947108174 -2.6436525677684739 0 0 0 0 34.560896247901837 -19.155307531981151 0 -19.155307531981151 53.227478883986947 0 0 0 0 32.729821332221036 49.834210786958572 0 49.834210786958572 144.65207423247261 0 0 0 0 -2.1162888520539695 1.5912504871849293 0 1.5912504871849293 2.7835808570961342 0 0 0 0 139.74378871801309 0.84800503850294717 0 0.84800503850294717 -19.395803303491036 0 0 0 0 213.32104231148696 36.543155591580266 0 36.543155591580266 46.836850747055408 0 0 0 0 155.03946290184467 64.35782416952479 0 64.35782416952479 77.033037484512406 0 0 0 0 157.9116554440252 42.727317958465491 0 42.727317958465491 67.156808073824081 0 0 0 0 82.547020849524415 38.565186996212439 0 38.565186996212439 81.817387442341612 0 0 0 0 83.016981142704026 36.141060271333295 0 36.141060271333295 67.778263779859572 0 0 0 0 343.65116929665965 103.11621705859935 0 103.11621705859935 12.266505773292785 0 0 0 0 327.48491663646564 -65.704635951094673 0 -65.704635951094673 -67.531897680984059 0 0 0 0 384.34492892464186 2.6889791496226838 0 2.6889791496226838 -20.456840599745632 0 0 0 0 286.28911838255226 38.617468512712136 0 38.617468512712136 16.101602290175244 0 0 0 0 252.36263074388989 91.91145083745954 0 91.91145083745954 85.121479687383001 0 0 0 0 313.48457804841746 11.712481426786823 0 11.712481426786823 23.567527052657926 0 0 0 0 299.99143372070102 -44.400202929804195 0 -44.400202929804195 -43.653364867165138 0 0 0 0 276.92395329108695 22.048899741167617 0 22.048899741167617 -55.945322289989498 0 0 0 0 407.99264700867934 -32.347412452280182 0 -32.347412452280182 -57.387323373032878 0 0 0 0 26.011678046619636 35.528048000234605 0 35.528048000234605 -36.368825630331429 0 0 0 0 67.426824108017172 -9.4522525855715891 0 -9.4522525855715891 -2.3240913741440181 0 0 0 0 4.3405472083468339 -41.248894616452887 0 -41.248894616452887 29.608584925698779 0 0 0 0 51.570545730792219 -143.00346659182154 0 -143.00346659182154 -38.444537912322687 0 0 0 0 121.97702807295718 38.461283233087357 0 38.461283233087357 -27.098775472742261 0 0 0 0 0.9691819473297727 -1.8613369624121674 0 -1.8613369624121674 2.4680906953907749 0 0 0 0 62.163627212037682 -89.820672911891478 0 -89.820672911891478 86.667100638605206 0 0 0 0 418.74356324097243 -287.52194949295159 0 -287.52194949295159 85.308166149423599 0 0 0 0 213.91155269126466 -26.342835390950796 0 -26.342835390950796 -69.518799485356453 0 0 0 0 190.55739569942307 -114.19512127766039 0 -114.19512127766039 28.3583126708142 0 0 0 0 -191.34790731831527 19.702448282059613 0 19.702448282059613 105.32419267874161 0 0 0 0 0.40854274821576553 -0.77733198468044407 0 -0.77733198468044407 1.4524788529023507 0 0 0 0 296.71816436652443 -49.217663168325885 0 -49.217663168325885 -17.85736997142908 0 0 0 0 46.055478785798186 17.389326313541858 0 17.389326313541858 -59.701586365745982 0 0 0 0 -70.317737495424808 -93.355813542760387 0 -93.355813542760387 226.72577375857998 0 0 0 0 -186.61902128554357 35.016992696056917 0 35.016992696056917 139.95880581339472 0 0 0 0 -169.81797523991554 22.689692715197452 0 22.689692715197452 176.14511490093241 0 0 0 0 82.981706916587427 131.70385813809082 0 131.70385813809082 106.55160902538785 0 0 0 0 -168.96544851834426 89.620522816416724 0 89.620522816416724 -77.973607261636062 0 0 0 0 285.40791747882031 136.04424750177554 0 136.04424750177554 185.42622460052718 0 0 0 0 269.20595239973045 -117.3013250090417 0 -117.3013250090417 284.82222790958349 0 0 0 0 65.854085450991988 -136.73367778120473 0 -136.73367778120473 429.28446923601473 0 0 0 0 161.98225646500941 -25.459661183312392 0 -25.459661183312392 255.22592883843816 0 0 0 0 -1.8638731032551732 -14.574686749124339 0 -14.574686749124339 373.30931892221724 0 0 0 0 314.15544524986763 294.55933294357578 0 294.55933294357578 502.31291571017618 0 0 0 0 17.328755531860224 17.982282296162936 0 17.982282296162936 409.36038451647823 0 0 0 0 7.7289572074008106 -1.0348315312910259 0 -1.0348315312910259 0.54429462783361693 0 0 0 0 -5.6276382037176518 -107.88176116267266 0 -107.88176116267266 238.42146078208992 0 0 0 0 -15.651063587734825 12.708746363587181 0 12.708746363587181 50.896348400660315 0 0 0 0 25.87178421477438 12.014795124881516 0 12.014795124881516 37.095819943505418 0 0 0 0 -133.48539377513225 44.359859550502051 0 44.359859550502051 43.950183652867508 0 0 0 0 -52.091521996779193 -130.77084012154705 0 -130.77084012154705 72.676616766967641 0 0 0 0 373.39989711344242 -107.06258823056442 0 -107.06258823056442 -30.167361766258182 0 0 0 0 20.517268148637697 -4.2171862593780531 0 -4.2171862593780531 0.53288726391027352 0 0 0 0 298.82187773090845 -109.99888988211509 0 -109.99888988211509 9.4199641509534899 0 0 0 0 34.782060250698123 -163.10475220059163 0 -163.10475220059163 66.120762875962455 0 0 0 0 84.485935299260746 -61.330327250711662 0 -61.330327250711662 38.874221502175146 0 0 0 0 78.93524291634094 -61.692087264915585 0 -61.692087264915585 38.850850864650269 0 0 0 0 108.12160517870871 -33.369655976975253 0 -33.369655976975253 26.67257882557584 0 0 0 0 73.065181189815121 -25.819878279402324 0 -25.819878279402324 25.066847900776338 0 0 0 0 58.877549214070314 -28.878954628826051 0 -28.878954628826051 47.75131217732212 0 0 0 0 -0.47328686322175884 -1.6075282923355587 0 -1.6075282923355587 3.2437987393022061 0 0 0 0 0.20714625270430531 -0.21446323284720847 0 -0.21446323284720847 0.31122188591446598 0 0 0 0 219.7608309814168 -49.725206292744645 0 -49.725206292744645 0.46842591187532889 0 0 0 0 121.58934945770307 8.9519849524655797 0 8.9519849524655797 0.23429565165679378 0 0 0 0 207.71265832605422 -9.4920301803741722 0 -9.4920301803741722 0.25133761321187387 0 0 0 0 131.8572364844149 -45.243133393427968 0 -45.243133393427968 17.418059269763035 0 0 0 0 0.15754709672624756 -0.27316258287099515 0 -0.27316258287099515 1.3674044503463409 0 0 0 0 279.06581667240971 -27.620779970417345 0 -27.620779970417345 -39.986188649221617 0 0 0 0 0.65420389726061501 -0.68130869619903933 0 -0.68130869619903933 1.152459225290448 0 0 0 0 -13.828815680233674 -30.064056415318021 0 -30.064056415318021 27.141950021350794 0 0 0 0 76.902342484041583 -53.561571123636554 0 -53.561571123636554 28.653926337108942 0 0 0 0 139.5573608580853 -45.448480629156563 0 -45.448480629156563 -5.332673262983576 0 0 0 0 115.32370290556719 -62.360573295759195 0 -62.360573295759195 19.424807318051307 0 0 0 0 113.10531110135344 -36.941063969209296 0 -36.941063969209296 12.296031361431005 0 0 0 0 58.325090048565471 28.438400076480264 0 28.438400076480264 68.146996305689328 0 0 0 0 84.209246468744823 -29.377820390654293 0 -29.377820390654293 48.685028428504921 0 0 0 0 0.13241022409448888 -0.10661333930390526 0 -0.10661333930390526 1.908592763150337 0 0 0 0 237.18739464663668 -113.30037032453714 0 -113.30037032453714 -24.547590216884601 0 0 0 0 38.46893298329087 -101.57461768551354 0 -101.57461768551354 87.823200949858943 0 0 0 0 83.656313528859755 -7.1870942242638307 0 -7.1870942242638307 -2.0131413699915655 0 0 0 0 -47.308914095312502 -54.875760432766775 0 -54.875760432766775 64.716025791518689 0 0 0 0 0.68244367963649211 -0.91525075991357596 0 -0.91525075991357596 1.1151799478780675 0 0 0 0 241.69513716421352 -130.5950392130986 0 -130.5950392130986 32.854164020881583 0 0 0 0 268.49833279420636 -31.215150769395891 0 -31.215150769395891 19.684211745923335 0 0 0 0 168.0084625217587 -40.636046401619524 0 -40.636046401619524 -8.2858567648254393 0 0 0 0 154.854045029997 -84.018856688055379 0 -84.018856688055379 32.879733752576442 0 0 0 0 196.53708580141392 -52.831868770906425 0 -52.831868770906425 13.667282024925271 0 0 0 0 199.00811600149609 -44.376529937138493 0 -44.376529937138493 -9.019143461684223 0 0 0 0 196.86494537572435 -31.229625895003096 0 -31.229625895003096 2.0847044510739465 0 0 0 0 182.50747598813177 -69.430576770551198 0 -69.430576770551198 40.561104719259276 0 0 0 0 169.73316068877466 -73.96315390912882 0 -73.96315390912882 70.501164011688502 0 0 0 0 90.634903340484016 -37.65447893693991 0 -37.65447893693991 77.839530664946807 0 0 0 0 118.15194577068905 -29.346175578457562 0 -29.346175578457562 -15.337344225691368 0 0 0 0 200.23258854010055 -80.251497490323345 0 -80.251497490323345 40.373830183389344 0 0 0 0 0.19830997578025134 0.022400591087190946 0 0.022400591087190946 0.83863803325778874 0 0 0 0 67.061142520724388 4.5270134214694053 0 4.5270134214694053 21.304408581157759 0 0 0 0 81.417592966703523 41.746770708462265 0 41.746770708462265 59.246383805193432 0 0 0 0 83.657863599487428 25.116742662507878 0 25.116742662507878 63.437247187014194 0 0 0 0 119.54794905071321 29.008506393280584 0 29.008506393280584 47.449877392351596 0 0 0 0 135.62843627672555 41.956194616587311 0 41.956194616587311 59.88706062305009 0 0 0 0 137.91603354873814 9.8886613171078928 0 9.8886613171078928 60.529266496360435 0 0 0 0 158.6216482321106 21.403682912605035 0 21.403682912605035 46.142048137480302 0 0 0 0 115.99421529013489 1.6062859096839475 0 1.6062859096839475 46.775982176187824 0 0 0 0 162.26539572641195 -13.736712614308615 0 -13.736712614308615 52.643508120331688 0 0 0 0 202.85965876260889 -28.708398551331769 0 -28.708398551331769 36.827364090418428 0 0 0 0 212.06288940555407 -17.071505093853389 0 -17.071505093853389 57.796951559823086 0 0 0 0 208.90834815760172 2.8795928749375577 0 2.8795928749375577 45.595606683297376 0 0 0 0 347.76983652745548 -105.00097822066446 0 -105.00097822066446 27.975218338981421 0 0 0 0 239.75169784492755 -15.483464688826672 0 -15.483464688826672 26.489086823177502 0 0 0 0 231.20307015567232 -63.094441511101877 0 -63.094441511101877 110.05545371540262 0 0 0 0 210.82674718041017 -27.843684649224521 0 -27.843684649224521 -6.7832379757887793 0 0 0 0 158.4338990648539 -28.609434022372767 0 -28.609434022372767 -4.4065636723769046 0 0 0 0 127.33608132708468 -4.2912672180860056 0 -4.2912672180860056 -4.4574275575745901 0 0 0 0 151.06160484531574 -41.755312663981016 0 -41.755312663981016 -26.585910037303506 0 0 0 0 157.64586202941427 -7.6293725617378811 0 -7.6293725617378811 14.619035319615989 0 0 0 0 153.61903269717004 -8.0489316928945698 0 -8.0489316928945698 35.939904756657725 0 0 0 0 111.23402760864701 13.150833227979518 0 13.150833227979518 44.964405613177775 0 0 0 0 114.74095020371169 15.631226573215159 0 15.631226573215159 33.353606845682236 0 0 0 0 70.034854843630455 8.3196435866368859 0 8.3196435866368859 32.701987426017723 0 0 0 0 105.92391013431188 -15.903311817970746 0 -15.903311817970746 14.992370112809084 0 0 0 0 66.693555720645236 -4.0812364502638729 0 -4.0812364502638729 8.6125996015341002 0 0 0 0 108.35649172616741 10.374654166247581 0 10.374654166247581 12.653843726143293 0 0 0 0 42.852567789901514 22.114064866080639 0 22.114064866080639 29.195034175131582 0 0 0 0 72.68596168842123 19.839913924477301 0 19.839913924477301 4.3719844195705946 0 0 0 0 75.252566445473349 22.360633624570596 0 22.360633624570596 47.572479138905095 0 0 0 0 76.763946457678685 30.923191058589538 0 30.923191058589538 30.649264772689605 0 0 0 0 76.440841075047501 20.241572175599686 0 20.241572175599686 37.064236328650964 0 0 0 0 -25.902043246896937 36.88153425284753 0 36.88153425284753 -92.463023340839527 0 0 0 0 15.669551032973686 23.265576516404167 0 23.265576516404167 -89.510999270747632 0 0 0 0 -38.668350264968467 -16.840749307370345 0 -16.840749307370345 -98.604010574769063 0 0 0 0 4.7521967655047774 12.563872650653138 0 12.563872650653138 -81.859970122843322 0 0 0 0 20.945989286832628 -4.6872790539416087 0 -4.6872790539416087 -71.40960666930323 0 0 0 0 -2.3592891880398383 20.533892355809115 0 20.533892355809115 -48.841888753102126 0 0 0 0 12.260024208364484 19.238060722107832 0 19.238060722107832 -14.255565017645154 0 0 0 0 32.041052361091715 19.445538325521738 0 19.445538325521738 -48.844948762219701 0 0 0 0 41.870849268467282 26.34140859690163 0 26.34140859690163 -12.818638332386399 0 0 0 0 33.721364315162646 11.666722782587613 0 11.666722782587613 3.2441127329130666 0 0 0 0 63.043112401093822 0.41784876527651704 0 0.41784876527651704 -20.863127945566703 0 0 0 0 23.653754834966094 -1.8784172985370304 0 -1.8784172985370304 -20.882580926018022 0 0 0 0 66.085541149965138 8.4996085684169316 0 8.4996085684169316 -2.5640401562294812 0 0 0 0 90.376842836049036 -28.713748858259549 0 -28.713748858259549 -17.538323146243386 0 0 0 0 80.989756375471188 -8.8526601258460289 0 -8.8526601258460289 -31.248403505412966 0 0 0 0 28.20330908469623 13.410628574772602 0 13.410628574772602 -45.955997633559264 0 0 0 0 54.169831874605734 -31.110054320858239 0 -31.110054320858239 -48.824505906283377 0 0 0 0 38.565840292067151 -16.239816145075736 0 -16.239816145075736 -133.10388831819733 0 0 0 0 34.695201489710598 9.654178647006006 0 9.654178647006006 -72.109338446875768 0 0 0 0 73.16754613154626 -36.98127522605057 0 -36.98127522605057 -62.976576747495812 0 0 0 0 111.48564967559651 -59.572945744959185 0 -59.572945744959185 -42.903333743459825 0 0 0 0 101.81770392383623 -19.447247701071774 0 -19.447247701071774 -57.00040326068887 0 0 0 0 108.27743861886847 -48.851250325486674 0 -48.851250325486674 -40.775303570350047 0 0 0 0 127.07103046397242 -28.255831466279488 0 -28.255831466279488 -25.033272524407323 0 0 0 0 185.74732683541515 -34.604548187533929 0 -34.604548187533929 -41.129498033083166 0 0 0 0 175.0993009028025 -58.463065417613421 0 -58.463065417613421 -55.630927952018851 0 0 0 0 196.56341085257009 -37.069404398576815 0 -37.069404398576815 -44.331457213201219 0 0 0 0 241.80328398842539 -39.971712061646244 0 -39.971712061646244 -75.614286345254101 0 0 0 0 205.5343575245206 -81.869509256784951 0 -81.869509256784951 -60.223762205136609 0 0 0 0 212.30928263504757 -43.969115688449051 0 -43.969115688449051 -71.46087947549978 0 0 0 0 337.15853467417764 -80.944622942034783 0 -80.944622942034783 -91.357858171007479 0 0 0 0 237.947496071356 -177.5375833906659 0 -177.5375833906659 33.466999559802957 0 0 0 0 676.11600234390062 -197.84137258930042 0 -197.84137258930042 -91.167058180385368 0 0 0 0 273.90434115106837 -88.230749423707081 0 -88.230749423707081 -88.325611430148967 0 0 0 0 188.93974866659846 -289.15198770975815 0 -289.15198770975815 134.83731133333177 0 0 0 0 -120.98376962183102 -26.225068087898908 0 -26.225068087898908 0.13184044677637535 0 0 0 0 -86.379035365433083 -58.170481726182878 0 -58.170481726182878 68.702221142203086 0 0 0 0 -1.8411581937107258 23.785034109338028 0 23.785034109338028 -137.39997357490796 0 0 0 0 46.402165066254383 55.224780137626723 0 55.224780137626723 -65.862785135510848 0 0 0 0 -11.184145865666324 0.68167021534195882 0 0.68167021534195882 0.89806111509166309 0 0 0 0 1.1302243829666168 0.83107022318807156 0 0.83107022318807156 -0.0055930027505056669 0 0 0 0 -3.9313608664670028 -42.804110320815496 0 -42.804110320815496 -51.644567554569242 0 0 0 0 6.7939145569463335 -0.16424071436360244 0 -0.16424071436360244 -0.27378766737412369 0 0 0 0 -3.2686000449466519 42.344487517005604 0 42.344487517005604 -85.972947855074835 0 0 0 0 -6.1508768700587098 -1.9542583902303718 0 -1.9542583902303718 4.912150894551047 0 0 0 0 59.565317611748469 -63.952390986537061 0 -63.952390986537061 -14.313849388779147 0 0 0 0 81.672174092389469 -35.18134233042197 0 -35.18134233042197 -45.158673352634594 0 0 0 0 -0.014540169032045469 0.093574100354943734 0 0.093574100354943734 -0.12315624686563521 0 0 0 0 -47.742982565272541 18.912578567881042 0 18.912578567881042 48.500112257860337 0 0 0 0 67.974421399660059 7.5571567102794006 0 7.5571567102794006 -180.92115304149729 0 0 0 0 6.2033436105730289 0.58010670926299213 0 0.58010670926299213 -0.028676486628912375 0 0 0 0 -3.1416116423351923 1.2088986993445006 0 1.2088986993445006 -0.063445162678588532 0 0 0 0 7.5294217158807442 13.80678514037049 0 13.80678514037049 -6.6484604533959013 0 0 0 0 0.37496998823394279 -0.0066297628593749991 0 -0.0066297628593749991 0.011299474458598019 0 0 0 0 6.274858708755346 31.281596466687368 0 31.281596466687368 -1.3092442193743672 0 0 0 0 -9.7458397104637697 -1.8751414771876647 0 -1.8751414771876647 22.521001139850181 0 0 0 0 8.2848541549756192 1.0655133621655644 0 1.0655133621655644 -4.8010078316420035 0 0 0 0 10.303556077429675 -35.180981825298318 0 -35.180981825298318 -138.2121330735589 0 0 0 0 6.8282718119567676 1.3968951863951133 0 1.3968951863951133 0.17816793866706854 0 0 0 0 57.151183804118773 11.463102209830907 0 11.463102209830907 -38.204564958957903 0 0 0 0 125.99780931470013 9.4014832999996187 0 9.4014832999996187 9.2979581600586272 0 0 0 0 44.258246490644524 35.419804891737314 0 35.419804891737314 3.8295554836827748 0 0 0 0 20.758928796451073 -65.09058403495078 0 -65.09058403495078 16.593781371710552 0 0 0 0 72.410753984702751 -41.912018620454518 0 -41.912018620454518 26.919054246494397 0 0 0 0 84.504279099710402 -53.532880759267584 0 -53.532880759267584 37.689380940758838 0 0 0 0 92.560646377503872 -74.258266099105271 0 -74.258266099105271 66.635452812978144 0 0 0 0 149.25082813794779 -1.4734336885205694 0 -1.4734336885205694 27.910867205527268 0 0 0 0 143.79080224740028 -55.968566657557261 0 -55.968566657557261 35.694116174862586 0 0 0 0 91.790046535288639 8.0957201011237547 0 8.0957201011237547 26.561541637074129 0 0 0 0 141.12459841986129 -6.6571733844958061 0 -6.6571733844958061 55.602358444993421 0 0 0 0 193.72344712226186 5.3695478811743556 0 5.3695478811743556 2.4329539807958156 0 0 0 0 196.17202902999998 -3.2579610480196095 0 -3.2579610480196095 -43.267660949925045 0 0 0 0 244.23712005266862 5.2685362402487925 0 5.2685362402487925 -55.729672635698648 0 0 0 0 233.97136432443222 29.0089478997035 0 29.0089478997035 -83.036833641709208 0 0 0 0 122.60021948847861 47.96784193755456 0 47.96784193755456 -20.951812349409682 0 0 0 0 228.41958961555792 86.974775037477244 0 86.974775037477244 -49.371251588330296 0 0 0 0 25.854607377521461 129.725628204994 0 129.725628204994 32.68863891604974 0 0 0 0 254.03369550834759 89.660339818250037 0 89.660339818250037 -49.887994466325068 0 0 0 0 365.32137187183253 61.72965849710755 0 61.72965849710755 -87.427632509346637 0 0 0 0 260.25666420528432 99.50826782970492 0 99.50826782970492 -90.549200490953808 0 0 0 0 568.16120816624607 128.64642450412944 0 128.64642450412944 -89.225814616530428 0 0 0 0 3.2791227893305859 -0.44677808165057176 0 -0.44677808165057176 0.0014231334528688293 0 0 0 0 173.33250394405331 10.338942662269091 0 10.338942662269091 26.818710638668126 0 0 0 0 1121.5399721272697 -35.45630151894278 0 -35.45630151894278 -6.6655269683085763 0 0 0 0 545.35458311255206 108.0281506065603 0 108.0281506065603 -14.269045811104437 0 0 0 0 3.3043312756242074 -0.314768739411873 0 -0.314768739411873 0.022296366685946842 0 0 0 0 841.62964152987115 -50.277395792956639 0 -50.277395792956639 -0.19145372477984091 0 0 0 0 262.97504501567892 183.7829329956223 0 183.7829329956223 15.428939941948524 0 0 0 0 -265.56772266569897 -196.38187232910602 0 -196.38187232910602 115.35985565256453 0 0 0 0 -247.9170393466311 95.155413169967332 0 95.155413169967332 -26.141161139227513 0 0 0 0 5.7063113927346762 -0.4715339636169178 0 -0.4715339636169178 -0.17394712029440135 0 0 0 0 -91.219098468864104 54.929539527170647 0 54.929539527170647 -83.710093832301354 0 0 0 0 -136.97884409334802 41.139591270846275 0 41.139591270846275 0.1574483323924771 0 0 0 0 -43.169865890826259 -54.784160476843383 0 -54.784160476843383 -49.038591401804986 0 0 0 0 64.942815066417097 -29.715739824443403 0 -29.715739824443403 -182.56954992090132 0 0 0 0 -16.475043105354416 27.365002108684592 0 27.365002108684592 -69.627497715626802 0 0 0 0 -0.39089890480681788 13.221526229178155 0 13.221526229178155 -64.779096769682639 0 0 0 0 2.3610345181567709 -0.45600508677644758 0 -0.45600508677644758 0.022624960880749712 0 0 0 0 9.7557357197138117 -26.440336504483273 0 -26.440336504483273 -0.077491975827779766 0 0 0 0 334.96361845362117 -99.088498305336088 0 -99.088498305336088 68.707441864900986 0 0 0 0 275.39544496007875 22.125907322168501 0 22.125907322168501 -33.060835958443676 0 0 0 0 335.25305980125995 -124.86202469429567 0 -124.86202469429567 -2.8144375696216457 0 0 0 0 383.56600685693775 5.4111385609616738 0 5.4111385609616738 -6.2021088951569681 0 0 0 0 133.82672433706466 -158.26445394104417 0 -158.26445394104417 53.585468244443746 0 0 0 0 -31.80489477291303 -80.909733206465106 0 -80.909733206465106 55.44907710074957 0 0 0 0 146.30015603377251 -111.67601544788226 0 -111.67601544788226 17.46915919861793 0 0 0 0 55.847218262251772 -96.485181862128826 0 -96.485181862128826 36.387522034412115 0 0 0 0 153.94967328375787 -131.96975767162348 0 -131.96975767162348 2.7468990860135563 0 0 0 0 259.28932221658033 -61.148128850450263 0 -61.148128850450263 -15.268616861257982 0 0 0 0 198.61090184136992 -65.724246587290253 0 -65.724246587290253 -13.551746594449682 0 0 0 0 158.44082822176279 -40.083605262517381 0 -40.083605262517381 8.927542714259971 0 0 0 0 141.07949406243642 -56.436887052979799 0 -56.436887052979799 -5.6274493311300375 0 0 0 0 113.57396383443847 -82.244106341759476 0 -82.244106341759476 39.896438916611345 0 0 0 0 142.16454736241212 -62.339503395293235 0 -62.339503395293235 22.671896413831234 0 0 0 0 175.13625824074552 12.505445948490376 0 12.505445948490376 -13.378556199768866 0 0 0 0 143.36323679468478 11.395742978375495 0 11.395742978375495 -13.282312895860628 0 0 0 0 141.19294948971947 6.3186364031024596 0 6.3186364031024596 -8.3283057074636986 0 0 0 0 157.54031500528799 -10.944561664744413 0 -10.944561664744413 -12.807891156528569 0 0 0 0 170.42378885377548 -16.05843314411419 0 -16.05843314411419 -11.516903020104706 0 0 0 0 197.23442484137195 27.914205916288402 0 27.914205916288402 11.324405443927368 0 0 0 0 230.42147716206091 -21.543964175717928 0 -21.543964175717928 -10.495283566498831 0 0 0 0 197.99984238980016 -9.7799789862464603 0 -9.7799789862464603 -14.300652270150408 0 0 0 0 221.58875924577296 -29.780728222445635 0 -29.780728222445635 -11.810312248538438 0 0 0 0 167.92604294528428 -0.20709682731711609 0 -0.20709682731711609 -3.1460590501752748 0 0 0 0 150.37169591904603 32.448431930870662 0 32.448431930870662 2.9345068909546796 0 0 0 0 169.34128840305493 22.844002641007481 0 22.844002641007481 36.228339616391366 0 0 0 0 142.56350562533771 -4.4083990590966664 0 -4.4083990590966664 19.200856818065972 0 0 0 0 212.05639121166314 -8.7056833707277548 0 -8.7056833707277548 26.997047538223654 0 0 0 0 232.10834312169754 37.401086193804474 0 37.401086193804474 110.27767487904109 0 0 0 0 255.33283298103197 -23.336223718494828 0 -23.336223718494828 -0.0068429452434297031 0 0 0 0 214.54385823564371 -49.306712229313355 0 -49.306712229313355 41.014824488463155 0 0 0 0 104.18708600473474 -8.4925360903645899 0 -8.4925360903645899 22.973938559207866 0 0 0 0 151.36648540715396 5.3181393462921838 0 5.3181393462921838 0.039296705588615026 0 0 0 0 0.16806291315442934 0.041413093944967727 0 0.041413093944967727 0.048738259171962242 0 0 0 0 39.402723427490855 -6.7209122760398898 0 -6.7209122760398898 -4.8304144524618593 0 0 0 0 77.451714123308193 26.352782923873271 0 26.352782923873271 -0.0090607029157462847 0 0 0 0 0.12255475663408788 0.10742130937418892 0 0.10742130937418892 0.081543668139604619 0 0 0 0 74.80623224478768 28.632770362097922 0 28.632770362097922 7.4687084237816421 0 0 0 0 122.96341741026845 29.81142586722504 0 29.81142586722504 0.067223948326493144 0 0 0 0 44.729577328005689 -2.0112221596092188 0 -2.0112221596092188 -0.0010845687418180934 0 0 0 0 0.0015409228001557196 0.13879120452840255 0 0.13879120452840255 -0.1837813610711348 0 0 0 0 -21.804248296895821 -0.94538137659809962 0 -0.94538137659809962 19.355848780051772 0 0 0 0 28.103934330152697 24.445121967075689 0 24.445121967075689 -0.033274954395242043 0 0 0 0 46.095370891882339 -5.6058615159131406 0 -5.6058615159131406 -11.082504088342887 0 0 0 0 44.900575726271427 -1.8618876674711222 0 -1.8618876674711222 -0.46789431182849883 0 0 0 0 46.53582424272463 -0.48470774365020031 0 -0.48470774365020031 0.21954993543211132 0 0 0 0 53.151169149437692 -1.7214610905553049 0 -1.7214610905553049 -2.4598786772578025 0 0 0 0 0.19768334204809435 0.30229554166511718 0 0.30229554166511718 -0.78783896466931547 0 0 0 0 7.7578446193192576 9.0037223137515845 0 9.0037223137515845 13.969143099229285 0 0 0 0 75.908729629256413 6.8906782926348455 0 6.8906782926348455 -5.8629347516717587 0 0 0 0 46.60652175659925 -2.4973477925879273 0 -2.4973477925879273 -0.33323155609432187 0 0 0 0 75.659260871259903 7.2150949396933086 0 7.2150949396933086 15.233865740245079 0 0 0 0 121.29529389158415 8.9504852187211554 0 8.9504852187211554 -2.5177290239515173 0 0 0 0 109.23579054084257 28.275790342946351 0 28.275790342946351 -2.4362125143158693 0 0 0 0 67.672064721009519 10.996258073002387 0 10.996258073002387 4.5133425202686794 0 0 0 0 0.04609518676463864 0.15360542441932523 0 0.15360542441932523 0.064515289135180343 0 0 0 0 107.8106899002014 10.684134420791537 0 10.684134420791537 -9.5646374963743028 0 0 0 0 116.4620486372005 25.268989905674118 0 25.268989905674118 -2.6275645150762852 0 0 0 0 116.28459693363766 13.990525558985169 0 13.990525558985169 -6.5541600328425602 0 0 0 0 117.83706973560038 8.7721069938304481 0 8.7721069938304481 -9.3360170016308643 0 0 0 0 77.787150504460442 16.528363386954595 0 16.528363386954595 -3.5028430196673241 0 0 0 0 78.485524441099187 4.8364773735456055 0 4.8364773735456055 -4.4382912910243704 0 0 0 0 124.35376620045281 1.2672198951349856 0 1.2672198951349856 -10.804140276651992 0 0 0 0 128.79621085886174 20.250245880384455 0 20.250245880384455 -5.7416302885928872 0 0 0 0 118.86058117283392 13.047854571801111 0 13.047854571801111 -3.8273901754937469 0 0 0 0 59.184690401179751 0.40770890102306556 0 0.40770890102306556 -5.3210832036152143 0 0 0 0 -1.1621206824637245 0.68686727147778015 0 0.68686727147778015 -1.7568335596786233 0 0 0 0 22.397847172287584 17.100489992713676 0 17.100489992713676 2.6921309532314126 0 0 0 0 70.503083334486291 -2.3820037702789421 0 -2.3820037702789421 -5.5917383472892652 0 0 0 0 36.067332800361328 13.682544381181856 0 13.682544381181856 0.070463508806483333 0 0 0 0 77.787158112345423 7.4346983410254381 0 7.4346983410254381 -10.351289375556632 0 0 0 0 9.5745208615709814 0.065889634975434319 0 0.065889634975434319 -3.0422556076188325 0 0 0 0 40.37574925200002 6.5358719028717402 0 6.5358719028717402 -7.6560162493525361 0 0 0 0 61.295876798159497 -1.014451792466736 0 -1.014451792466736 -6.9778410366122259 0 0 0 0 30.402989562120638 9.9757640387746846 0 9.9757640387746846 2.4961336494363877 0 0 0 0 21.977687814296814 30.526175520927382 0 30.526175520927382 -20.966376918559035 0 0 0 0 22.802010488699125 -3.5172954683094346 0 -3.5172954683094346 5.3869449717585667 0 0 0 0 85.795913035733975 5.9149395833881044 0 5.9149395833881044 2.4656229607922882 0 0 0 0 84.131160734585137 -3.7770682707998731 0 -3.7770682707998731 -2.7590835421788142 0 0 0 0 33.721061600127655 5.7923040090521951 0 5.7923040090521951 -2.5549202367381048 0 0 0 0 30.082616089872317 12.124805842444346 0 12.124805842444346 -18.146059689162144 0 0 0 0 46.227715841343411 9.0468328107340206 0 9.0468328107340206 -7.5323517611318893 0 0 0 0 43.344724246433429 1.1053884069933524 0 1.1053884069933524 -5.5366949961455703 0 0 0 0 62.691037311734341 -0.49367397454722095 0 -0.49367397454722095 -11.311667980949482 0 0 0 0 143.3072692915448 34.02985177054677 0 34.02985177054677 11.758319749654902 0 0 0 0 143.3740740126039 -13.918511075145847 0 -13.918511075145847 -15.241672383471041 0 0 0 0 128.81374080963724 21.967868046241506 0 21.967868046241506 26.030789275596703 0 0 0 0 132.16210765103506 17.328256910760619 0 17.328256910760619 -7.0265618391019871 0 0 0 0 85.218288483156357 -5.8387575394518763 0 -5.8387575394518763 -6.539820781112553 0 0 0 0 89.3788704519975 6.4109000705260542 0 6.4109000705260542 -2.6022787567021055 0 0 0 0 -52.504918078426272 93.160911946347142 0 93.160911946347142 126.88493640730485 0 0 0 0 99.521369084890466 -10.469824002637779 0 -10.469824002637779 -22.343273281257439 0 0 0 0 3.7630647403209423 7.0735361255112981 0 7.0735361255112981 -2.0323545125533182 0 0 0 0 73.828157514955592 6.1168020415219431 0 6.1168020415219431 -7.1133184217822176 0 0 0 0 -15.208963351615239 284.34840152845618 0 284.34840152845618 -110.27447591869509 0 0 0 0 515.37141957666609 59.86255784431205 0 59.86255784431205 -215.80415208771501 0 0 0 0 162.85468643435161 18.416286813369425 0 18.416286813369425 -15.526593096005065 0 0 0 0 190.19806774814788 97.764316889562735 0 97.764316889562735 91.949074493809803 0 0 0 0 111.21189828890783 -31.026518513880205 0 -31.026518513880205 -13.53385382432316 0 0 0 0 104.06705379366758 -119.43890847564933 0 -119.43890847564933 249.35631684337272 0 0 0 0 107.63025635147642 -38.753739126539244 0 -38.753739126539244 7.2535342741664408 0 0 0 0 104.06206008648587 1.5922348908305679 0 1.5922348908305679 55.209286734967009 0 0 0 0 120.13248125436075 27.772560956733969 0 27.772560956733969 37.931040645749988 0 0 0 0 130.96429200563216 24.279502590790884 0 24.279502590790884 14.622106189739725 0 0 0 0 114.12656024654279 15.733420601336263 0 15.733420601336263 14.800272695403009 0 0 0 0 115.86249643217889 14.267840705493768 0 14.267840705493768 13.431367758732108 0 0 0 0 127.93040053267032 19.089619998721389 0 19.089619998721389 5.9446541130231481 0 0 0 0 127.73771649858099 17.317129365257415 0 17.317129365257415 -1.3511186259532906 0 0 0 0 131.61128094314836 28.447761778103843 0 28.447761778103843 13.033835248278365 0 0 0 0 113.60648063498957 5.8518811612939317 0 5.8518811612939317 8.6284964199038825 0 0 0 0 110.16925546170387 5.2053641962660322 0 5.2053641962660322 13.390833886220662 0 0 0 0 99.210850353461865 -1.8309373123528871 0 -1.8309373123528871 12.444153211954244 0 0 0 0 101.9640848343297 -9.3507571587838925 0 -9.3507571587838925 12.594110370383305 0 0 0 0 107.0194191703049 9.8721825542329498 0 9.8721825542329498 25.644505367269176 0 0 0 0 102.99263348070963 0.099675607156655133 0 0.099675607156655133 1.0181429808694702 0 0 0 0 101.75063467099972 -5.9124563521953633 0 -5.9124563521953633 0.055934385417685917 0 0 0 0 75.833043560880469 -12.329255098896283 0 -12.329255098896283 -0.8258318995681293 0 0 0 0 88.178713726360002 -10.587102844539345 0 -10.587102844539345 11.063091229533939 0 0 0 0 97.544808413003921 1.8816867567236386 0 1.8816867567236386 7.2736174260056714 0 0 0 0 82.267998338924372 -3.1700173991689553 0 -3.1700173991689553 1.7576998632689822 0 0 0 0 52.126971653669898 -20.268790393604007 0 -20.268790393604007 22.938348454508741 0 0 0 0 89.846822484149016 -24.610075727915103 0 -24.610075727915103 17.800858736555483 0 0 0 0 87.161977013412979 -42.25273514001924 0 -42.25273514001924 12.261430168628522 0 0 0 0 96.418847587745404 -30.725051709463855 0 -30.725051709463855 23.430410054973045 0 0 0 0 100.34002165427955 -6.8751413095363318 0 -6.8751413095363318 12.102250493210562 0 0 0 0 101.0629591696561 -7.1468397566995634 0 -7.1468397566995634 11.482311189418851 0 0 0 0 110.51965877073235 -18.028823377507706 0 -18.028823377507706 10.603802699062157 0 0 0 0 119.43213452181953 -10.064593824017265 0 -10.064593824017265 11.940461309645599 0 0 0 0 138.08405586486333 -10.529740878336327 0 -10.529740878336327 4.2364694922998751 0 0 0 0 102.41993519976677 -29.417003543893543 0 -29.417003543893543 18.621496418367997 0 0 0 0 114.37603980570566 -25.359935144808219 0 -25.359935144808219 15.096335628232396 0 0 0 0 108.45020911167376 -30.233752120731594 0 -30.233752120731594 18.428486645609212 0 0 0 0 106.54469092220825 -23.601389143259212 0 -23.601389143259212 15.078062797830626 0 0 0 0 120.52423847968021 -43.731048612382921 0 -43.731048612382921 28.183583951660012 0 0 0 0 101.57179622315743 -29.621198953913677 0 -29.621198953913677 19.79184376465534 0 0 0 0 131.4491782930927 -26.980492039746053 0 -26.980492039746053 4.6424404115449533 0 0 0 0 126.73360148537904 -21.912024564343994 0 -21.912024564343994 9.4309169264196839 0 0 0 0 132.5403013874602 -0.082290564465154148 0 -0.082290564465154148 -5.6156562969998731 0 0 0 0 155.17255823891901 -7.1291296341701127 0 -7.1291296341701127 -3.4744595562006566 0 0 0 0 142.15879099111771 9.6162674484422723 0 9.6162674484422723 -10.917263349706843 0 0 0 0 131.32457657478517 17.629691691927064 0 17.629691691927064 -13.985443027851218 0 0 0 0 139.30455509007879 8.0634136416250328 0 8.0634136416250328 -8.8140471236546318 0 0 0 0 135.16837760660565 11.512350614996819 0 11.512350614996819 -2.1506233902430267 0 0 0 0 129.88114952036995 12.06599281149596 0 12.06599281149596 -10.2018394631192 0 0 0 0 132.19606322028267 15.978066433861272 0 15.978066433861272 -8.8051163074087508 0 0 0 0 127.52864886823227 13.336254408562922 0 13.336254408562922 -2.4178503801601892 0 0 0 0 124.75330232256238 6.242071230636725 0 6.242071230636725 0.76199663759575742 0 0 0 0 116.84642909458489 -5.1662075664538634 0 -5.1662075664538634 3.0128156605258027 0 0 0 0 120.96198116551386 5.2291754859675166 0 5.2291754859675166 8.6579002431068659 0 0 0 0 132.37389686009192 4.2474500445765813 0 4.2474500445765813 1.166225263385968 0 0 0 0 -149.65391179353173 173.2516721224199 0 173.2516721224199 142.41122479698231 0 0 0 0 8.9275832914771058 5.7675005452843067 0 5.7675005452843067 4.7065064344367453 0 0 0 0 2595.0200682711366 -799.58464559617153 0 -799.58464559617153 110.44634492724951 0 0 0 0 2497.086453230484 -100.80043728913884 0 -100.80043728913884 1103.2983348813377 0 0 0 0 185.92864047300827 380.68529283482036 0 380.68529283482036 222.49144481269414 0 0 0 0 -140.62872372791026 47.764084951176073 0 47.764084951176073 78.428196394038252 0 0 0 0 -151.27703972128802 17.302279739948972 0 17.302279739948972 49.052615032355106 0 0 0 0 -65.969891427856055 71.13532959317422 0 71.13532959317422 -59.626926926050942 0 0 0 0 -69.740143443123088 122.05502484900876 0 122.05502484900876 -73.182097540080861 0 0 0 0 133.97290518414229 -192.68185973066272 0 -192.68185973066272 -438.60522114279718 0 0 0 0 6.272360115290752 1.4397290601295651 0 1.4397290601295651 -4.2617494187298322 0 0 0 0 2842.1071560162236 351.09960716710151 0 351.09960716710151 -597.1608151751459 0 0 0 0 2497.4179979815272 279.23581073764109 0 279.23581073764109 -3.7516045699474669 0 0 0 0 4.5503438203967619 1.3444442470908626 0 1.3444442470908626 -0.43023672830584753 0 0 0 0 1991.1060492527395 0.55262731751570215 0 0.55262731751570215 1.8819595986962232 0 0 0 0 2.8970586612541922 0.39614881612988029 0 0.39614881612988029 0.87924862031656925 0 0 0 0 11.51802720208434 3.1859589759004643 0 3.1859589759004643 0.0045025521309149585 0 0 0 0 5.2899391053631604 6.0776832976216753 0 6.0776832976216753 7.3313383793606093 0 0 0 0 280.93962071619171 -16.822339817420058 0 -16.822339817420058 -10.303374053979724 0 0 0 0 384.82909247009229 66.724961916242947 0 66.724961916242947 -8.0547992525310708 0 0 0 0 317.27486625325764 -65.850149687416945 0 -65.850149687416945 -64.254897639957107 0 0 0 0 129.2285105814226 -82.664006133794828 0 -82.664006133794828 0.16202567056173617 0 0 0 0 -61.199842159323453 -38.328445955323097 0 -38.328445955323097 42.679891155610328 0 0 0 0 207.05760362079309 -50.648170698665581 0 -50.648170698665581 -33.516112267936577 0 0 0 0 125.94356531681842 14.185182280415901 0 14.185182280415901 -28.066540405989798 0 0 0 0 -0.38184395438431551 0.015474668675693692 0 0.015474668675693692 -1.8971698050998584 0 0 0 0 17.897105225110863 8.0561697453546586 0 8.0561697453546586 6.0417827200262764 0 0 0 0 314.69861136260442 -22.511943144436714 0 -22.511943144436714 -120.99719299726746 0 0 0 0 246.3131943289045 10.028785295288799 0 10.028785295288799 -0.10782078008162443 0 0 0 0 249.26696427917341 -106.7977033925207 0 -106.7977033925207 54.315088669808858 0 0 0 0 722.80099051660363 -52.026796171402452 0 -52.026796171402452 -28.819094987037261 0 0 0 0 0.720221776487179 1.4912571598324433 0 1.4912571598324433 3.6433903577925872 0 0 0 0 -160.09801866301132 140.34633123859606 0 140.34633123859606 57.787485894786869 0 0 0 0 91.270173564567813 199.82469388084155 0 199.82469388084155 64.949184287206606 0 0 0 0 347.82401999953436 -231.57920039537021 0 -231.57920039537021 -45.947949199918185 0 0 0 0 30.987750289365067 82.319190244580568 0 82.319190244580568 221.14767473678501 0 0 0 0 6.6662252091833167 -1.4805704997647524 0 -1.4805704997647524 -5.5562569675472009 0 0 0 0 -60.553326598921558 -41.718013928491018 0 -41.718013928491018 149.75144020233984 0 0 0 0 -7.6084213724607253 -50.592611149698428 0 -50.592611149698428 -114.86883973532713 0 0 0 0 33.486208205322328 -0.46088727010898367 0 -0.46088727010898367 -6.7509666150887302 0 0 0 0 39.909663865641051 1.0941572395501589 0 1.0941572395501589 -6.2216927297290443 0 0 0 0 42.144643166837341 -2.1682651021054822 0 -2.1682651021054822 -1.9242573323115746 0 0 0 0 36.455987840363377 -1.357907423135591 0 -1.357907423135591 -1.4574295095569463 0 0 0 0 40.971923060487825 0.60876796378042874 0 0.60876796378042874 -3.0271627302444593 0 0 0 0 39.360301805078052 3.0595783117993518 0 3.0595783117993518 -4.7158684714193946 0 0 0 0 39.717964673276583 0.94998698228925682 0 0.94998698228925682 -0.5983923463132661 0 0 0 0 49.222118159244019 0.74352104710091893 0 0.74352104710091893 -0.71274485082892181 0 0 0 0 0.081000463231738706 -0.25165095027729478 0 -0.25165095027729478 -0.49817399398018058 0 0 0 0 43.356713416447747 -2.1032905089566882 0 -2.1032905089566882 0.0033471589967566341 0 0 0 0 43.259014419454616 -2.001287439662204 0 -2.001287439662204 0.072086674490856151 0 0 0 0 42.167379727907246 -3.0576782652096615 0 -3.0576782652096615 -0.14201191950255199 0 0 0 0 41.89615160869289 -1.6192903455502028 0 -1.6192903455502028 -0.034044456131056 0 0 0 0 43.045773484569509 -2.1630874759526058 0 -2.1630874759526058 -0.00018500160395042153 0 0 0 0 44.448994952312205 -2.7408735547853857 0 -2.7408735547853857 -0.23743386542308809 0 0 0 0 45.82266537140822 -3.684314887945038 0 -3.684314887945038 -2.2729454317656597 0 0 0 0 41.794133524068457 -3.5954100335815546 0 -3.5954100335815546 -3.854756183714962 0 0 0 0 45.252399763514404 -0.22266602687782272 0 -0.22266602687782272 -1.7911102563609644 0 0 0 0 44.340457399841398 0.24072287652315794 0 0.24072287652315794 1.2802249335581557 0 0 0 0 44.903919707547175 2.4389724047294532 0 2.4389724047294532 -9.7697995335100707 0 0 0 0 38.218821961127105 4.053012640960624 0 4.053012640960624 -3.0311394915209227 0 0 0 0 38.52005038454152 4.6513930336057854 0 4.6513930336057854 -6.4737910375914005 0 0 0 0 43.064266131113982 3.0970272920128536 0 3.0970272920128536 -6.4527572331799092 0 0 0 0 45.713739937898936 -0.82450506682050673 0 -0.82450506682050673 -2.4734725810458258 0 0 0 0 45.971317998389139 -0.55983577480200974 0 -0.55983577480200974 -0.86455265260084513 0 0 0 0 43.154782946083287 -2.3166832863186073 0 -2.3166832863186073 -1.4455075781850155 0 0 0 0 45.112766536926529 -2.5215099719509793 0 -2.5215099719509793 0.15059601327872121 0 0 0 0 51.204597545620345 3.1328212209773483 0 3.1328212209773483 -23.823086423371045 0 0 0 0 42.933373593579745 -0.22238749804341751 0 -0.22238749804341751 -2.5310813966007117 0 0 0 0 41.907681734310245 -2.0751896667867982 0 -2.0751896667867982 -1.3018909848260591 0 0 0 0 41.660525019175111 -2.6582602116060343 0 -2.6582602116060343 1.7787787554216266 0 0 0 0 43.909447768102154 0.41950275339988963 0 0.41950275339988963 -1.0727085437143675 0 0 0 0 56.039452789205825 -0.2685527356854891 0 -0.2685527356854891 -7.5921731292885397 0 0 0 0 53.865285936713917 -8.3032755023823483 0 -8.3032755023823483 -17.95674919726542 0 0 0 0 49.431329534498218 -8.9756114785562886 0 -8.9756114785562886 3.198183524520573 0 0 0 0 45.24622919747344 -2.5934421004199066 0 -2.5934421004199066 0.81544296959282292 0 0 0 0 36.037128831325191 3.719542527816067 0 3.719542527816067 -7.082793858597376 0 0 0 0 38.913887948376214 5.0774277881724768 0 5.0774277881724768 -14.422825375468701 0 0 0 0 36.207603551265493 -0.19943046080694238 0 -0.19943046080694238 -5.7345515795465101 0 0 0 0 35.338076437239664 1.2342437271119664 0 1.2342437271119664 -8.349389690946504 0 0 0 0 34.716380468315947 6.1935683754484678 0 6.1935683754484678 -13.745192680486873 0 0 0 0 57.412428715950227 -10.773047495606079 0 -10.773047495606079 2.7990129839283782 0 0 0 0 139.04830410525756 -46.879799759628213 0 -46.879799759628213 -26.392332209379674 0 0 0 0 5.7753251151953187 -19.95666235416941 0 -19.95666235416941 2.4287140606493125 0 0 0 0 5.8245418128379072 -5.0017210240655245 0 -5.0017210240655245 -2.7226670643207824 0 0 0 0 75.779568862155429 -169.40269305322931 0 -169.40269305322931 -39.726466234026702 0 0 0 0 -5.0940636231025564 -33.015189166088931 0 -33.015189166088931 67.023887158812613 0 0 0 0 520.57314053985829 76.760792240675414 0 76.760792240675414 -129.69153562769634 0 0 0 0 187.39128946614801 92.778109919887356 0 92.778109919887356 -130.46125641751297 0 0 0 0 -9.0394409902219195 70.686486134543884 0 70.686486134543884 -34.681463875527697 0 0 0 0 280.03618644105154 -109.1245589022451 0 -109.1245589022451 -49.074051800628695 0 0 0 0 84.997381071152631 -43.987884435644673 0 -43.987884435644673 -23.39662883795063 0 0 0 0 145.24814960061485 -41.859215455907815 0 -41.859215455907815 -82.278377564223774 0 0 0 0 15.12338179999546 -16.675805190122077 0 -16.675805190122077 -8.0471095942424142 0 0 0 0 69.182310835341923 -4.6254173878018037 0 -4.6254173878018037 -7.2475709466332319 0 0 0 0 116.41293894973933 44.328359760363128 0 44.328359760363128 -44.004986533962551 0 0 0 0 57.29996586276684 -1.2611704228256713 0 -1.2611704228256713 -6.8699678180546471 0 0 0 0 113.82159583514294 -32.47997401769635 0 -32.47997401769635 30.16828005102127 0 0 0 0 47.523335088968452 -8.5450740875205611 0 -8.5450740875205611 10.609367785366338 0 0 0 0 48.75481914764714 -17.711074384004988 0 -17.711074384004988 22.858129660184431 0 0 0 0 55.465419799055297 -10.345514678845177 0 -10.345514678845177 -5.0162300857355397 0 0 0 0 38.08578625053633 -8.561864302464528 0 -8.561864302464528 -11.154327131069294 0 0 0 0 67.739068405682445 -8.3040054319327083 0 -8.3040054319327083 11.079446599702042 0 0 0 0 67.510694232767108 -14.40955398892169 0 -14.40955398892169 -16.671255433589948 0 0 0 0 21.279252643129439 -51.767215111169719 0 -51.767215111169719 -69.66674376773517 0 0 0 0 55.985111313304515 -25.487423427966775 0 -25.487423427966775 26.549610171376749 0 0 0 0 34.879206233187404 -8.8058540199400213 0 -8.8058540199400213 10.768857903133316 0 0 0 0 10.707318822578344 -3.4814065842294895 0 -3.4814065842294895 0.48700730928931635 0 0 0 0 -57.280763669987209 -17.816412786030938 0 -17.816412786030938 53.201240143530896 0 0 0 0 29.765166231930323 17.60007586437672 0 17.60007586437672 17.437582926352906 0 0 0 0 -56.620829115820811 -46.277469719747629 0 -46.277469719747629 223.59924144391454 0 0 0 0 389.73137126514484 -237.94382401194798 0 -237.94382401194798 12.548622772563931 0 0 0 0 33.653666006025418 -1.948684151744779 0 -1.948684151744779 1.1060642991546956 0 0 0 0 392.25655408405873 -155.6409110957951 0 -155.6409110957951 -43.782594413023936 0 0 0 0 132.64678403114885 -175.48900202751264 0 -175.48900202751264 378.77899397701896 0 0 0 0 595.12773800261402 875.36046931007718 0 875.36046931007718 679.90419353708 0 0 0 0 902.79784392922738 -1372.3193514531381 0 -1372.3193514531381 1607.6174486826878 0 0 0 0 14.014765757531393 -1.6140514569649598 0 -1.6140514569649598 1.8957008741774426 0 0 0 0 2494.2170910785426 539.3065287752321 0 539.3065287752321 -255.84903973949332 0 0 0 0 2501.4342310202264 -125.64243528832716 0 -125.64243528832716 -365.12821394360594 0 0 0 0 1122.3467971408827 203.32643308119145 0 203.32643308119145 -300.84973862418116 0 0 0 0 628.04419181399135 161.71865283498005 0 161.71865283498005 121.27011591712066 0 0 0 0 943.41533031288418 -9.6605636029881055 0 -9.6605636029881055 -22.648589978229666 0 0 0 0 17.642567346300609 16.588046883376506 0 16.588046883376506 12.042625808828006 0 0 0 0 20.463424046956789 185.30616603398931 0 185.30616603398931 -125.25161542944807 0 0 0 0 -50.054645359101414 4.2719307875643153 0 4.2719307875643153 -74.135815557521255 0 0 0 0 1240.4716517212401 -711.99878850491859 0 -711.99878850491859 155.15505813845635 0 0 0 0 2016.5647735452403 -481.97227020158812 0 -481.97227020158812 -221.09516161816055 0 0 0 0 2091.8845510499923 -247.33780111655724 0 -247.33780111655724 -334.0580627990247 0 0 0 0 966.80846331080102 -0.67656995261830843 0 -0.67656995261830843 -197.90000152315531 0 0 0 0 2500.5092540847108 -363.43601508031725 0 -363.43601508031725 -478.30160651634407 0 0 0 0 1453.0858042912878 -605.11605500832661 0 -605.11605500832661 -229.19073425170879 0 0 0 0 2496.1822379641985 -1288.1977518357558 0 -1288.1977518357558 78.482737783310583 0 0 0 0 625.10352527129726 -701.55199615645881 0 -701.55199615645881 450.73182927196342 0 0 0 0 1794.049726708221 -638.7430141772096 0 -638.7430141772096 -233.24765398574863 0 0 0 0 98.039363421914459 -127.53551513132686 0 -127.53551513132686 112.98147619633301 0 0 0 0 935.30740286826767 -78.635522131307027 0 -78.635522131307027 -193.3348980427956 0 0 0 0 -53.514816773829807 36.949273898030725 0 36.949273898030725 194.20725617305862 0 0 0 0 606.66246773697844 -80.49276388177627 0 -80.49276388177627 -21.293417969210012 0 0 0 0 17.659992937413278 -0.26733636982237385 0 -0.26733636982237385 10.533240262089009 0 0 0 0 20.253324177817788 -20.909273730087044 0 -20.909273730087044 18.772704694341716 0 0 0 0 122.0103081849993 -47.89999198860562 0 -47.89999198860562 28.936480424883484 0 0 0 0 2.4742727373442932 -5.321124595984827 0 -5.321124595984827 8.9501550044568781 0 0 0 0 29.689897278080025 -13.512870779541117 0 -13.512870779541117 11.319457292464904 0 0 0 0 113.26015238993386 -48.653789683742616 0 -48.653789683742616 29.006536691284964 0 0 0 0 1.1577114742164234 -10.852717324644047 0 -10.852717324644047 15.520630914552973 0 0 0 0 25.958534108807726 -18.654522615458632 0 -18.654522615458632 7.8063405864552351 0 0 0 0 15.532998200597831 -16.882814110636843 0 -16.882814110636843 9.724241214513313 0 0 0 0 20.83560243818647 -11.434650697710367 0 -11.434650697710367 13.119209515897523 0 0 0 0 30.006570358869794 -9.0519961310207293 0 -9.0519961310207293 147.60449871567329 0 0 0 0 2.737038383060808 -12.863029763227843 0 -12.863029763227843 10.303591581387511 0 0 0 0 1308.2755699352856 465.07577139006281 0 465.07577139006281 -158.40616302787896 0 0 0 0 5.9309411522299342 -11.511936671084479 0 -11.511936671084479 7.7287975639138589 0 0 0 0 22.841202362709737 -8.3467856470962545 0 -8.3467856470962545 5.9677197127927286 0 0 0 0 20.690323603907927 -15.047702435217801 0 -15.047702435217801 12.334768880542924 0 0 0 0 19.908419300241803 -10.677324110889003 0 -10.677324110889003 3.7401213263101454 0 0 0 0 154.20123209944722 -70.253825886517916 0 -70.253825886517916 30.232098155585845 0 0 0 0 137.70835015123885 -36.114813193652935 0 -36.114813193652935 7.4155926429984902 0 0 0 0 3.901941905937278 -0.83339384915534254 0 -0.83339384915534254 -0.010220614765366065 0 0 0 0 110.97332333450322 -37.349527197445695 0 -37.349527197445695 12.328446773576616 0 0 0 0 118.08321574392903 -43.773350963890152 0 -43.773350963890152 9.7958899345449026 0 0 0 0 116.8200874508766 -45.491373548308502 0 -45.491373548308502 10.936434939548832 0 0 0 0 108.53495619236855 -42.969407027332181 0 -42.969407027332181 30.479588303574928 0 0 0 0 107.02373682241682 -28.58274478118939 0 -28.58274478118939 6.2989746648786422 0 0 0 0 120.78936889435045 -46.322901511624536 0 -46.322901511624536 25.645535354414278 0 0 0 0 -4.6789836293260691 -3.3845954063723553 0 -3.3845954063723553 5.3267152289488635 0 0 0 0 143.46950007159103 -58.799175339437625 0 -58.799175339437625 19.479910513515279 0 0 0 0 118.71101814445137 -51.838583991116138 0 -51.838583991116138 29.663986561688034 0 0 0 0 113.77605226129162 -49.067674432248623 0 -49.067674432248623 28.194480417352679 0 0 0 0 114.95738972366598 -44.655377079337143 0 -44.655377079337143 25.984156147498652 0 0 0 0 40.373985074886264 5.1002477646039921 0 5.1002477646039921 -15.046703518044515 0 0 0 0 40.576245925942203 -2.0766284777524788 0 -2.0766284777524788 -0.12882816078490578 0 0 0 0 29.955797560639525 14.719376784969278 0 14.719376784969278 -14.172195175528165 0 0 0 0 53.22750424251717 -8.4637528360576653 0 -8.4637528360576653 0.64805758186345486 0 0 0 0 48.475134088958839 2.6074345753154944 0 2.6074345753154944 2.4322406004332606 0 0 0 0 50.492605064329837 -5.8155951674849575 0 -5.8155951674849575 -5.6035913238606554 0 0 0 0 50.709583448311605 10.422724765455655 0 10.422724765455655 -7.1715277295062414 0 0 0 0 65.595230977363826 11.046464911706892 0 11.046464911706892 -0.16694681563694758 0 0 0 0 51.797872075792839 0.84143911458190246 0 0.84143911458190246 3.3683018684934041 0 0 0 0 51.876813130904338 0.49871810729993626 0 0.49871810729993626 4.8526866391779322 0 0 0 0 34.225333633352776 16.98120518338844 0 16.98120518338844 -10.77239254246725 0 0 0 0 36.313180564371166 20.001764966885958 0 20.001764966885958 -7.3491134943980576 0 0 0 0 44.255144457667484 13.569818310623177 0 13.569818310623177 8.2473422478914742 0 0 0 0 68.117931330001738 -4.2334161341820504 0 -4.2334161341820504 3.5505988449868937 0 0 0 0 54.915081889557769 -17.239942912092083 0 -17.239942912092083 50.673138098053983 0 0 0 0 109.00242388338575 -41.504276270346217 0 -41.504276270346217 16.384586273878085 0 0 0 0 110.96397769663599 -16.226695910948436 0 -16.226695910948436 -75.226677059510564 0 0 0 0 139.77993256846821 -41.359060744257079 0 -41.359060744257079 -7.1816299088006872 0 0 0 0 91.09715319780662 -45.13344981260974 0 -45.13344981260974 81.994669089355114 0 0 0 0 70.46400186592291 -94.421952817660184 0 -94.421952817660184 39.735468713920255 0 0 0 0 67.10290411169899 254.9765337820109 0 254.9765337820109 -75.230195687167111 0 0 0 0 455.74506593646629 -330.16305111024582 0 -330.16305111024582 196.00472305950836 0 0 0 0 505.66355534335207 342.17818191395554 0 342.17818191395554 -219.41973978812803 0 0 0 0 10.684473193372867 -2.2163618707909514 0 -2.2163618707909514 2.9453322594300033 0 0 0 0 -468.57262417041056 237.85520263602666 0 237.85520263602666 62.69410161273322 0 0 0 0 957.9937680026087 -465.4565693806901 0 -465.4565693806901 -41.405277000058732 0 0 0 0 -6.2615296292533458 22.602137102888634 0 22.602137102888634 24.532433023036617 0 0 0 0 15.904761418833004 18.268557779941744 0 18.268557779941744 -12.35333054585746 0 0 0 0 66.181545509847638 273.8742220204274 0 273.8742220204274 29.206463811423475 0 0 0 0 112.44598171646066 -107.22456102310247 0 -107.22456102310247 88.623228704699812 0 0 0 0 4.914569223161152 -0.87387100678724394 0 -0.87387100678724394 -0.097187606977438667 0 0 0 0 120.57836834459886 197.91339902456491 0 197.91339902456491 60.317169317855132 0 0 0 0 7.9542448912946639 3.1791738226515207 0 3.1791738226515207 1.5031186285074378 0 0 0 0 -6.6884653727747718 -40.37529541766574 0 -40.37529541766574 -71.925168809634101 0 0 0 0 589.00759854592252 -37.366873067825793 0 -37.366873067825793 -71.974325522675827 0 0 0 0 -188.05776245563538 -4.282268441193736 0 -4.282268441193736 247.79092305300102 0 0 0 0 -9.7442039524066786 34.92909294270595 0 34.92909294270595 -114.19760073082557 0 0 0 0 -1.7658713782663753 -23.529415801312325 0 -23.529415801312325 -6.148248673571306 0 0 0 0 2.7348477134027513 -23.701095232625562 0 -23.701095232625562 -12.702801268882624 0 0 0 0 65.261976049601799 -28.430520891636661 0 -28.430520891636661 -106.34676053660746 0 0 0 0 -1.7329202735415947 -12.393699376204978 0 -12.393699376204978 -12.830761585327309 0 0 0 0 133.8838622345902 -63.436997059230663 0 -63.436997059230663 19.657756799247409 0 0 0 0 105.65791404780612 -70.942757413004188 0 -70.942757413004188 49.976376030882079 0 0 0 0 27.009521938911959 5.0903779046988777 0 5.0903779046988777 0.35524027827029669 0 0 0 0 108.09802436235623 -45.007247252506318 0 -45.007247252506318 12.001276619080954 0 0 0 0 2.6217572784072827 -6.035577869718594 0 -6.035577869718594 4.8859254779544754 0 0 0 0 83.206080996189485 -50.243053348706994 0 -50.243053348706994 31.671664715560837 0 0 0 0 27.198462431853955 -10.819063676885991 0 -10.819063676885991 0.66529885057252613 0 0 0 0 71.786420308686502 2.8775366836275893 0 2.8775366836275893 6.6679496729590255 0 0 0 0 102.66723726486816 -36.799941253185807 0 -36.799941253185807 13.958112877048507 0 0 0 0 17.627201899691499 -15.422541603244873 0 -15.422541603244873 1.99240017606849 0 0 0 0 23.548304312840628 -13.822137783013433 0 -13.822137783013433 0.81897409163753698 0 0 0 0 7.5827327516934702 -8.3242761959153633 0 -8.3242761959153633 -4.3149125639943815 0 0 0 0 9.992637062985068 0.80131984276790647 0 0.80131984276790647 1.5298530306259071 0 0 0 0 141.84648361592281 212.04818877246396 0 212.04818877246396 408.37032516393089 0 0 0 0 5.35196380462299 -11.767270566708774 0 -11.767270566708774 0.84320177877434288 0 0 0 0 4.3581266363759035 -4.3697137490121776 0 -4.3697137490121776 7.8355742209724637 0 0 0 0 5.7561478065217671 -21.901241699943284 0 -21.901241699943284 -12.159847861926892 0 0 0 0 702.18805727743347 -45.12101896205715 0 -45.12101896205715 116.18125466078175 0 0 0 0 -3.2649141171787051 -27.231858441550685 0 -27.231858441550685 -0.65145385131199873 0 0 0 0 -4.1804700522807252 -20.327379630037456 0 -20.327379630037456 -26.611762756795542 0 0 0 0 59.941803375368181 -50.610269524074511 0 -50.610269524074511 -13.083002523762502 0 0 0 0 900.23149101915624 8.6469581945073912 0 8.6469581945073912 96.856410732091547 0 0 0 0 -105.94799998886447 -76.686836379654039 0 -76.686836379654039 65.718565349846699 0 0 0 0 0.56310831238760883 -1.7872319576132867 0 -1.7872319576132867 3.6448874463076675 0 0 0 0 -11.111106045080305 -2.360966505788781 0 -2.360966505788781 -33.353904305572996 0 0 0 0 1704.3580191572837 61.369064371731895 0 61.369064371731895 -211.83679850272722 0 0 0 0 1302.1596779854408 461.70685498525228 0 461.70685498525228 571.22451599189787 0 0 0 0 2494.393670792289 1075.4163006205838 0 1075.4163006205838 -51.651782491667966 0 0 0 0 1450.2363179137319 400.07898036429555 0 400.07898036429555 -197.91384220190594 0 0 0 0 1732.5776392333646 397.86644090827269 0 397.86644090827269 -209.65626894365784 0 0 0 0 2501.1332784065235 206.1228026246657 0 206.1228026246657 -351.26773624204537 0 0 0 0 2020.6977304218308 -488.91436262167588 0 -488.91436262167588 -9.6113627274422839 0 0 0 0 2498.7623047193811 -53.998282003090658 0 -53.998282003090658 150.34558773016965 0 0 0 0 2039.9541511543889 299.23332889992275 0 299.23332889992275 -102.86966903933062 0 0 0 0 49.38218009138663 28.842089380239912 0 28.842089380239912 -11.768710606989981 0 0 0 0 93.615809708440793 -1.0952980609077656 0 -1.0952980609077656 -18.08341131129032 0 0 0 0 -60.163918176505831 91.262314949837219 0 91.262314949837219 68.936890966793499 0 0 0 0 161.32369170279344 -109.86386464859498 0 -109.86386464859498 55.501272886082006 0 0 0 0 -66.813045470508541 -76.476549419279067 0 -76.476549419279067 170.64636660590259 0 0 0 0 79.698970950339572 37.071451807969652 0 37.071451807969652 -15.47685753148744 0 0 0 0 45.279716908415139 -21.7792373736836 0 -21.7792373736836 14.664003133315532 0 0 0 0 97.096301253768615 -7.8483932813201136 0 -7.8483932813201136 6.6867842771372352 0 0 0 0 83.344210779316199 0.5451856499510086 0 0.5451856499510086 12.540788810661809 0 0 0 0 38.896465978086781 24.931341808958464 0 24.931341808958464 -23.111797978889399 0 0 0 0 9.1983472575833005 -1.0366466715723277 0 -1.0366466715723277 4.4490622863804523 0 0 0 0 83.890740965143777 0.016874546186386397 0 0.016874546186386397 7.9742930172751585 0 0 0 0 62.777209439409489 0.96406055589329753 0 0.96406055589329753 -4.0514157017173602 0 0 0 0 87.823916976303735 6.6928375499066988 0 6.6928375499066988 -4.336531669000351 0 0 0 0 88.082950987996128 -5.8076906932925709 0 -5.8076906932925709 -11.056352694388124 0 0 0 0 88.079533149670169 -6.3002495945595456 0 -6.3002495945595456 -17.748855322640338 0 0 0 0 51.719542246588389 -14.782305648416269 0 -14.782305648416269 -10.626254772945231 0 0 0 0 63.987375057193276 -8.6218300664031631 0 -8.6218300664031631 -0.13922870906253593 0 0 0 0 57.489923653556616 5.8351782946483581 0 5.8351782946483581 -14.038740962082557 0 0 0 0 73.262745758649544 -0.30842801917424367 0 -0.30842801917424367 -8.6228431177569291 0 0 0 0 89.525677578418254 -5.8352452351063135 0 -5.8352452351063135 -8.2024150345082489 0 0 0 0 88.909745094491882 -1.22009275298619 0 -1.22009275298619 -1.3588198429797558 0 0 0 0 125.57211654851562 0.35299835767091281 0 0.35299835767091281 -6.266953904618731 0 0 0 0 91.853756617412728 5.4263970071354493 0 5.4263970071354493 -5.6896612481432385 0 0 0 0 97.113876561619691 -6.1893684792327122 0 -6.1893684792327122 -11.9187425263558 0 0 0 0 89.740397656292771 -9.0717097600548868 0 -9.0717097600548868 -19.584640279754467 0 0 0 0 58.146710474672702 25.364406786047525 0 25.364406786047525 -10.858150690324806 0 0 0 0 87.804238552624156 93.010932570517724 0 93.010932570517724 -10.090370847824943 0 0 0 0 48.739358310966054 1.2511263082642472 0 1.2511263082642472 5.6171640194718293 0 0 0 0 146.26225179376706 9.1486847437406027 0 9.1486847437406027 -143.1464882477942 0 0 0 0 145.28211256589566 21.321636874143337 0 21.321636874143337 -27.081992258484433 0 0 0 0 113.95596723443305 25.263494709137603 0 25.263494709137603 8.5147719959378776 0 0 0 0 125.05084746878674 -4.1365688717486222 0 -4.1365688717486222 -44.209208136690449 0 0 0 0 124.79010215836752 -18.200042240520588 0 -18.200042240520588 -25.001424020512786 0 0 0 0 109.88138726502075 -73.12573396935602 0 -73.12573396935602 -54.432201031082627 0 0 0 0 -7.7156222090180222 7.3026268062035626 0 7.3026268062035626 0.54289611884108302 0 0 0 0 154.50424173564534 48.23164362568366 0 48.23164362568366 -22.248747715785271 0 0 0 0 -50.445071189838927 295.22887151147302 0 295.22887151147302 -239.9717052215378 0 0 0 0 13.21050441342112 -4.3213971782268601 0 -4.3213971782268601 -2.8217328498321859 0 0 0 0 65.202983121208575 20.411798773297292 0 20.411798773297292 -9.1539670282655194 0 0 0 0 88.610813306018827 7.1157890429844883 0 7.1157890429844883 -39.301422588345304 0 0 0 0 69.10277055242841 -12.04881645307205 0 -12.04881645307205 -4.0000683376929373 0 0 0 0 86.122718095914934 -5.4675378011096427 0 -5.4675378011096427 -1.4552185587622262 0 0 0 0 37.403409064492735 -30.544363872597387 0 -30.544363872597387 7.932447293172288 0 0 0 0 87.545041172568745 -29.752879567997638 0 -29.752879567997638 7.7896526991971768 0 0 0 0 379.72377896055696 56.269554871670607 0 56.269554871670607 -91.624614041200289 0 0 0 0 86.84747106910072 79.974706972584272 0 79.974706972584272 -64.863211297659745 0 0 0 0 8.6697628582829473 6.0077986330233983 0 6.0077986330233983 0.9693505178073849 0 0 0 0 62.985945547414303 1.5247515070125246 0 1.5247515070125246 -1.4186610090991962 0 0 0 0 79.522882655965077 1.3763782883186195 0 1.3763782883186195 0.12355414239868878 0 0 0 0 58.048723645748396 -1.5595403921711295 0 -1.5595403921711295 3.6729293505769647 0 0 0 0 77.493229389980115 0.15953895993658307 0 0.15953895993658307 3.6214555468277467 0 0 0 0 -1.8273971902192763 6.749311969458347 0 6.749311969458347 2.6934235172835956 0 0 0 0 76.975560513958044 6.0367096463137955 0 6.0367096463137955 -4.7249200222635181 0 0 0 0 68.926044714525688 3.5801669666287843 0 3.5801669666287843 -4.3302375884941284 0 0 0 0 70.321853478686535 7.3044046619650089 0 7.3044046619650089 5.525841938155736 0 0 0 0 61.78611527571411 1.5477818091845847 0 1.5477818091845847 -9.090413771925455 0 0 0 0 43.360959267884027 15.071873930427728 0 15.071873930427728 9.0898188214559923 0 0 0 0 91.681452967313817 -1.9606769647092506 0 -1.9606769647092506 -3.6760088193999536 0 0 0 0 3.1833850985942487 6.4267666589095995 0 6.4267666589095995 4.4980788387177295 0 0 0 0 1.541346672437399 -1.2889696265770922 0 -1.2889696265770922 1.3499340632570007 0 0 0 0 -13.309076989462483 -46.201235765253955 0 -46.201235765253955 43.991679318100751 0 0 0 0 89.50194025262681 -89.981355273023837 0 -89.981355273023837 56.013410881596428 0 0 0 0 37.915277289945152 -7.4045159595459324 0 -7.4045159595459324 13.996985925959052 0 0 0 0 61.687240607949207 -7.5767538005433153 0 -7.5767538005433153 13.621585200249683 0 0 0 0 18.527725279192964 -20.798257001614843 0 -20.798257001614843 -8.6038867481843937 0 0 0 0 16.810166439820023 16.376028279335628 0 16.376028279335628 -12.797478669963766 0 0 0 0 344.37920948451938 98.276436792311699 0 98.276436792311699 31.134587217018179 0 0 0 0 122.79849764595565 3.1584105951203583 0 3.1584105951203583 13.341750544796184 0 0 0 0 2.9872339973836972 -4.0643285163716172 0 -4.0643285163716172 4.3343164617009684 0 0 0 0 170.94769011534117 76.593152215379007 0 76.593152215379007 27.048463131795415 0 0 0 0 103.13232685512048 11.945215850343175 0 11.945215850343175 -20.630519999680928 0 0 0 0 95.523037762213789 18.831808670744067 0 18.831808670744067 21.434441581512374 0 0 0 0 85.233638537101797 35.932941138115439 0 35.932941138115439 1.2062015539854656 0 0 0 0 79.992244650701096 -6.5523651142474755 0 -6.5523651142474755 -4.2459586101364195 0 0 0 0 105.6771040124213 -30.074239878867729 0 -30.074239878867729 -50.510559803035903 0 0 0 0 154.21629031277553 -12.641174752358381 0 -12.641174752358381 -16.08912848344653 0 0 0 0 57.16099031831618 28.134216374508242 0 28.134216374508242 24.389871608890132 0 0 0 0 1.6426381982311398 -0.79669466976302772 0 -0.79669466976302772 0.76047745183553994 0 0 0 0 36.118225213225742 11.503884271129238 0 11.503884271129238 3.1194222208637257 0 0 0 0 62.864792285879957 16.465566793761809 0 16.465566793761809 24.350076819842798 0 0 0 0 44.694622789982532 -5.4723581293408188 0 -5.4723581293408188 6.9798665105106465 0 0 0 0 12.676524302741342 -3.6895915677666906 0 -3.6895915677666906 7.4695040429775084 0 0 0 0 107.11741504848942 41.660043729054223 0 41.660043729054223 5.7436591792211402 0 0 0 0 37.396902794535059 21.755454651889309 0 21.755454651889309 -3.8445829422881213 0 0 0 0 19.188374057838118 10.986317062288727 0 10.986317062288727 1.674039032549675 0 0 0 0 40.507275184878381 0.63495583497632424 0 0.63495583497632424 7.2449051605364048 0 0 0 0 78.638606872635137 7.5489550943656241 0 7.5489550943656241 1.4530087448153495 0 0 0 0 10.287112391590199 68.419904430053293 0 68.419904430053293 -157.62470012619406 0 0 0 0 18.239112038844674 -7.2320235634787906 0 -7.2320235634787906 6.0668849866077537 0 0 0 0 -203.12960853229742 413.9477745698498 0 413.9477745698498 101.58068091161977 0 0 0 0 -711.82485462599288 191.7656103588323 0 191.7656103588323 179.71837298058063 0 0 0 0 42.725727675497183 3.2629287485962095 0 3.2629287485962095 2.5160066112819095 0 0 0 0 22.042110657739737 5.8551036507076617 0 5.8551036507076617 5.2649695429195882 0 0 0 0 35.604097151910537 0.59503477461862531 0 0.59503477461862531 7.2492837629618041 0 0 0 0 22.151293157363213 4.8835831015729454 0 4.8835831015729454 4.3947346889970742 0 0 0 0 25.865808038417292 5.2954996838245805 0 5.2954996838245805 1.1321653432813097 0 0 0 0 27.781543510513643 0.65891892935933072 0 0.65891892935933072 0.36151631872916834 0 0 0 0 41.839640302590851 1.8239857104905468 0 1.8239857104905468 5.7874614945167195 0 0 0 0 25.128659156733193 4.114146694585088 0 4.114146694585088 -2.7327705554857857 0 0 0 0 50.04410812813876 -17.283586225336308 0 -17.283586225336308 7.6221754651282936 0 0 0 0 29.577404777501016 5.701782517599348 0 5.701782517599348 5.3458913443562688 0 0 0 0 40.932176468202684 10.650973295257344 0 10.650973295257344 8.2083703259310887 0 0 0 0 32.86228639158017 -2.4810322227856503 0 -2.4810322227856503 0.8920508410286685 0 0 0 0 37.637796363676898 3.6302812757597849 0 3.6302812757597849 -1.4213621308035727 0 0 0 0 42.710735914057295 3.0459331779838408 0 3.0459331779838408 -2.2108619791213187 0 0 0 0 35.168446836608567 4.1911956469447418 0 4.1911956469447418 5.0097354538137813 0 0 0 0 10.053346194701092 -9.7346864271273219 0 -9.7346864271273219 -6.9775649352593829 0 0 0 0 67.909973886307853 6.0821938202844876 0 6.0821938202844876 -4.4029906675132224 0 0 0 0 18.96727576117852 5.2302766760801731 0 5.2302766760801731 -0.88307850044597114 0 0 0 0 29.309173652793106 8.6311465766002158 0 8.6311465766002158 0.12197928683987413 0 0 0 0 22.476587434175599 -7.9397385381114987 0 -7.9397385381114987 -0.23856694872919348 0 0 0 0 42.095269223827927 1.9488518692576235 0 1.9488518692576235 2.4490619299085665 0 0 0 0 38.270776943747478 -4.5409984234790386 0 -4.5409984234790386 -2.9138850320014456 0 0 0 0 7.8871588104441486 -1.4923313658291839 0 -1.4923313658291839 3.0315222189820989 0 0 0 0 38.386898378026672 -11.510579514120934 0 -11.510579514120934 -9.0389462539820329 0 0 0 0 58.496518145413575 1.8406003365933969 0 1.8406003365933969 -1.434406854433 0 0 0 0 8.7417447829483663 0.60010324644130719 0 0.60010324644130719 -0.6120356174542958 0 0 0 0 47.89254599630658 11.312075006560374 0 11.312075006560374 -2.9161697321985685 0 0 0 0 67.303534660058631 9.748825724105501 0 9.748825724105501 -8.1066856247985015 0 0 0 0 78.974506899598055 -45.634418217284804 0 -45.634418217284804 -45.050806209625009 0 0 0 0 76.288190935085964 -4.304938401207119 0 -4.304938401207119 -4.1054831436493213 0 0 0 0 58.129388880548504 -50.796998594094873 0 -50.796998594094873 6.6719928261188102 0 0 0 0 98.252303626759385 -43.096373997700312 0 -43.096373997700312 6.075625898900455 0 0 0 0 -2.8971107624917707 -3.0788862510527721 0 -3.0788862510527721 4.3007218840669577 0 0 0 0 8.4355829225854961 1.7716329437979041 0 1.7716329437979041 -6.6601997626477676 0 0 0 0 39.702339859872154 -64.12387832718855 0 -64.12387832718855 42.814024794197621 0 0 0 0 89.198421108427283 -37.840235142113556 0 -37.840235142113556 14.808644273905202 0 0 0 0 102.0483956214448 -49.846187272501709 0 -49.846187272501709 16.804560592920097 0 0 0 0 130.14692349124743 2.2968194892705469 0 2.2968194892705469 9.2569671492595376 0 0 0 0 108.54301120698801 -11.929517509627004 0 -11.929517509627004 1.5768778381376904 0 0 0 0 117.83820940520673 44.992126092066485 0 44.992126092066485 6.1562221959860324 0 0 0 0 189.22542469606924 22.156533213144485 0 22.156533213144485 -3.4162560792427712 0 0 0 0 191.71901205806353 26.333523093871349 0 26.333523093871349 -21.391119240806844 0 0 0 0 220.36969032370871 25.22611512846224 0 25.22611512846224 -21.966072860022564 0 0 0 0 125.71112446046936 -22.469472597854548 0 -22.469472597854548 17.429382036861256 0 0 0 0 -0.98298578849062324 -10.491971362469116 0 -10.491971362469116 107.89189580974241 0 0 0 0 199.43001741173066 71.659047698984836 0 71.659047698984836 4.2764707148674574 0 0 0 0 86.459567281530326 -70.950995096999137 0 -70.950995096999137 -111.84694557690948 0 0 0 0 282.80966070316208 125.84331883340528 0 125.84331883340528 -38.667889754189105 0 0 0 0 84.119315260465513 -3.7962023210513642 0 -3.7962023210513642 -5.2319823565063324 0 0 0 0 125.60109596051552 8.8498797733962817 0 8.8498797733962817 -73.983033549691584 0 0 0 0 10.1410441501205 8.5626320589010092 0 8.5626320589010092 -0.92332502676200268 0 0 0 0 67.43238498577557 -19.566883976212921 0 -19.566883976212921 -34.162646459745247 0 0 0 0 37.168317060679328 5.1950366151463641 0 5.1950366151463641 -24.409658931785998 0 0 0 0 85.495310814547338 -36.661133243184565 0 -36.661133243184565 -21.513346005310268 0 0 0 0 113.50296193052054 18.245317670392978 0 18.245317670392978 -8.6657675980811746 0 0 0 0 65.848217613893212 9.7632465363017218 0 9.7632465363017218 54.504737864350375 0 0 0 0 98.253118750231806 11.028685957471453 0 11.028685957471453 8.2609593847196265 0 0 0 0 45.49319298860641 9.6893144861694367 0 9.6893144861694367 2.3122119518301494 0 0 0 0 57.334362114605028 9.5282206962988312 0 9.5282206962988312 -11.900465223978017 0 0 0 0 61.457271330424618 2.8711862946257121 0 2.8711862946257121 -5.0537279706742035 0 0 0 0 54.714755354799451 24.289635150172245 0 24.289635150172245 -13.216722572459075 0 0 0 0 53.554512862028787 14.221521824416413 0 14.221521824416413 -33.514044040559384 0 0 0 0 61.982549413936795 -13.202872108106931 0 -13.202872108106931 -26.005691261398226 0 0 0 0 16.007113720771642 4.6125598286680258 0 4.6125598286680258 0.61175003266669137 0 0 0 0 40.441523619587315 42.500612600169518 0 42.500612600169518 25.165186829572121 0 0 0 0 58.102383363380795 22.787776192131901 0 22.787776192131901 -70.156956790979194 0 0 0 0 42.975508225550527 46.03582634920172 0 46.03582634920172 -3.7806170011970366 0 0 0 0 78.058436627994524 4.9320040466878936 0 4.9320040466878936 -31.731354586398993 0 0 0 0 -0.22501731729911967 7.7442527114296533 0 7.7442527114296533 -0.91824147935982414 0 0 0 0 30.512130713090301 77.75127768996299 0 77.75127768996299 44.569107810790229 0 0 0 0 46.207448352666745 21.162826640777208 0 21.162826640777208 -7.8417350402309909 0 0 0 0 34.194280782165151 55.835853562435375 0 55.835853562435375 21.909582380202664 0 0 0 0 94.150615243677748 74.616777673636989 0 74.616777673636989 -32.641620014662749 0 0 0 0 32.859823206337751 26.326574836111831 0 26.326574836111831 61.641159111130037 0 0 0 0 17.799277395867485 33.354180267530268 0 33.354180267530268 7.5234829466078423 0 0 0 0 85.264221413206542 40.293228586588612 0 40.293228586588612 1.0078979517270454 0 0 0 0 25.244506253537423 12.520676523506673 0 12.520676523506673 17.111271484832109 0 0 0 0 58.139874788401357 50.571716524921612 0 50.571716524921612 3.4564261380119206 0 0 0 0 24.496547181686029 7.5163727605870463 0 7.5163727605870463 2.2685822097347241 0 0 0 0 82.600948360402981 -16.071076554942806 0 -16.071076554942806 16.890556185409878 0 0 0 0 40.627465249102869 6.633851708861414 0 6.633851708861414 2.6791899509102541 0 0 0 0 80.36905584303895 33.469904402955194 0 33.469904402955194 -30.078387050060201 0 0 0 0 93.183861005854851 51.917960363413442 0 51.917960363413442 -26.86548509577392 0 0 0 0 85.419204472171259 58.403091753418153 0 58.403091753418153 6.8211346604180108 0 0 0 0 0.31043570109373064 22.125735288057541 0 22.125735288057541 -6.2190715637650049 0 0 0 0 67.099081133430445 27.457826038231673 0 27.457826038231673 -0.010568387923953537 0 0 0 0 -16.706398951451547 26.699289977344851 0 26.699289977344851 -19.13519149798617 0 0 0 0 73.372740484897804 32.962064964800078 0 32.962064964800078 -60.361627770543066 0 0 0 0 90.732366376381833 7.9816195325420267 0 7.9816195325420267 -51.281791229693852 0 0 0 0 108.41069872092885 56.312393934289979 0 56.312393934289979 -32.34800306925527 0 0 0 0 90.859720553951774 0.85329230092276021 0 0.85329230092276021 -43.30559792443978 0 0 0 0 -3.5978229861723623 19.681481091597242 0 19.681481091597242 0.90298094189599265 0 0 0 0 245.95363857010307 57.825393308930643 0 57.825393308930643 -37.873967957213267 0 0 0 0 -3.3956653512698356 20.185380369140866 0 20.185380369140866 8.2843988155245007 0 0 0 0 -90.118896312942525 -126.47139044931214 0 -126.47139044931214 198.61348051100595 0 0 0 0 51.790300977674633 119.33347008465034 0 119.33347008465034 129.33116930468486 0 0 0 0 -0.23618578753293207 0.34376606177909963 0 0.34376606177909963 3.4879762293869447 0 0 0 0 -22.091976262436219 14.816326115956883 0 14.816326115956883 122.92306258895269 0 0 0 0 497.35203595991879 -81.790653391955118 0 -81.790653391955118 -20.480498602278658 0 0 0 0 273.75425898954018 246.59774828594516 0 246.59774828594516 -47.509769391242116 0 0 0 0 -93.385208864048764 94.590470911548778 0 94.590470911548778 100.17774028309259 0 0 0 0 136.59052751927265 23.882828550798195 0 23.882828550798195 -26.520390243830661 0 0 0 0 138.98604935941694 32.119724697700349 0 32.119724697700349 -1.0877990658567285 0 0 0 0 173.94522051432978 21.197292670216939 0 21.197292670216939 -21.991568464914963 0 0 0 0 8.2116238438046736 5.151278510233908 0 5.151278510233908 4.5428331950596821 0 0 0 0 154.66532332739507 63.346880648839559 0 63.346880648839559 -11.059614542910367 0 0 0 0 -3.5973920369360473 21.099603318747093 0 21.099603318747093 13.153599871943126 0 0 0 0 208.04654723132444 58.341275463089232 0 58.341275463089232 0.2858264852523007 0 0 0 0 206.87674509458884 20.853612202901672 0 20.853612202901672 -3.4876365458075611 0 0 0 0 158.01465897918752 76.041845585388103 0 76.041845585388103 2.8421258398902864 0 0 0 0 170.94105548119478 27.512191458008886 0 27.512191458008886 8.8234918103870541 0 0 0 0 165.59993793758622 51.315775143763773 0 51.315775143763773 -69.171097649274543 0 0 0 0 207.1865873530478 44.919748128239178 0 44.919748128239178 -1.5946315415129675 0 0 0 0 242.74794912685184 35.203156189786867 0 35.203156189786867 -14.576719083295757 0 0 0 0 210.44246164674405 16.080597451503827 0 16.080597451503827 -17.189040923079006 0 0 0 0 185.18374366121679 8.4734227633056207 0 8.4734227633056207 -0.34317581660798169 0 0 0 0 163.02264147757887 21.830304461844378 0 21.830304461844378 -1.5782343815083095 0 0 0 0 156.81204266961367 -5.0483717588950157 0 -5.0483717588950157 9.3443711613941787 0 0 0 0 1.7995600590797238 -1.0595112231775836 0 -1.0595112231775836 -0.024919380436162264 0 0 0 0 179.50347227969905 -14.199888492099319 0 -14.199888492099319 -13.318350101114447 0 0 0 0 185.41354369783221 -76.858885483179961 0 -76.858885483179961 34.034344298763756 0 0 0 0 92.173229060645099 -44.194074369327723 0 -44.194074369327723 28.307477296586626 0 0 0 0 -61.966439626444526 119.85119203634173 0 119.85119203634173 -98.82352003894448 0 0 0 0 18.836607547265885 0.96214452054002209 0 0.96214452054002209 -48.372876637560012 0 0 0 0 31.678067068920427 20.036268779186969 0 20.036268779186969 -101.55554045861163 0 0 0 0 41.613259631914843 32.883441359903713 0 32.883441359903713 -110.64414362609966 0 0 0 0 -48.895438067032956 33.75725795782796 0 33.75725795782796 -64.1787141548823 0 0 0 0 -48.895438067018404 33.757257957840125 0 33.757257957840125 -64.178714154882627 0 0 0 0 -48.895438067032956 33.757257957828756 0 33.757257957828756 -64.178714154886393 0 0 0 0 1.8103412721893619 109.90781699639072 0 109.90781699639072 -138.07315354782247 0 0 0 0 106.19633496335155 66.512675936776759 0 66.512675936776759 -143.6023423281631 0 0 0 0 81.241988005076564 21.253877423086806 0 21.253877423086806 -113.83874683738725 0 0 0 0 51.730390591186733 18.162052384865888 0 18.162052384865888 -76.872316623154347 0 0 0 0 0.19574215066520662 0.45450165828893319 0 0.45450165828893319 -0.28835175547231123 0 0 0 0 17.112751118118467 -25.947160956808091 0 -25.947160956808091 -103.542882202371 0 0 0 0 39.297742977385496 22.337200295491783 0 22.337200295491783 -18.052997972449475 0 0 0 0 33.332176675863025 -42.929771449245521 0 -42.929771449245521 -56.278661523385409 0 0 0 0 61.372516101935616 -15.907517899064146 0 -15.907517899064146 -120.4851964323542 0 0 0 0 24.565622408414129 12.127598531382478 0 12.127598531382478 -57.064956951954599 0 0 0 0 61.920663042932574 -5.9451291680396139 0 -5.9451291680396139 -79.244803851781057 0 0 0 0 73.42215188202681 5.6204674449489858 0 5.6204674449489858 -116.24945849140583 0 0 0 0 72.167740891926769 -2.8053758331397205 0 -2.8053758331397205 -101.63607211573026 0 0 0 0 67.717882333854504 -15.481679558940755 0 -15.481679558940755 -100.55223501312787 0 0 0 0 34.671905178751331 -30.084752893964165 0 -30.084752893964165 -105.6694016410338 0 0 0 0 72.858181185289141 -19.373736469017445 0 -19.373736469017445 -74.916961612299133 0 0 0 0 84.011532651617017 -29.283163038708381 0 -29.283163038708381 -89.04150698946205 0 0 0 0 102.72561917310668 -2.0375061261437395 0 -2.0375061261437395 -75.48193499844092 0 0 0 0 86.036515089832392 14.446949344923837 0 14.446949344923837 -90.008827528533288 0 0 0 0 100.48137391437922 15.166468946853115 0 15.166468946853115 -49.182681527048658 0 0 0 0 168.51553897914346 13.663735345739724 0 13.663735345739724 -55.414455780781282 0 0 0 0 145.19967296108553 -34.648682595918103 0 -34.648682595918103 -74.294568930730293 0 0 0 0 110.01680848740943 29.234619593348327 0 29.234619593348327 -41.297455318440143 0 0 0 0 125.44295678596973 87.841052700478144 0 87.841052700478144 -31.582284779914488 0 0 0 0 96.485448918527254 38.435127838127642 0 38.435127838127642 -35.066642514275145 0 0 0 0 101.9674906767776 50.173484281725997 0 50.173484281725997 -60.036092012031759 0 0 0 0 145.47601289967497 73.563779496730831 0 73.563779496730831 -25.593192226574104 0 0 0 0 130.19096926672501 95.833882375199892 0 95.833882375199892 1.8867605627583544 0 0 0 0 132.5635533195539 103.23315405642769 0 103.23315405642769 23.516090003466616 0 0 0 0 124.44375755707779 74.41912625044705 0 74.41912625044705 -9.0245535964377268 0 0 0 0 157.0634060241282 99.945983279145366 0 99.945983279145366 3.5421198889322341 0 0 0 0 132.51353264930003 97.514228511170586 0 97.514228511170586 16.058324914435843 0 0 0 0 177.37638209839679 103.86221924506765 0 103.86221924506765 22.830014018793008 0 0 0 0 182.70787578998352 114.36144253734005 0 114.36144253734005 21.696471522127013 0 0 0 0 151.81594426443189 7.7221432015511482 0 7.7221432015511482 -42.49851389234118 0 0 0 0 238.11766358443856 25.430181001390565 0 25.430181001390565 -41.913391837609836 0 0 0 0 192.58544118501231 -37.14820241758764 0 -37.14820241758764 -71.57684677138036 0 0 0 0 169.98983623620052 59.237398091283609 0 59.237398091283609 -26.282973922727706 0 0 0 0 125.62079215894846 56.697763560619592 0 56.697763560619592 -16.824892176095091 0 0 0 0 213.31215561553654 30.917654794579676 0 30.917654794579676 -25.963523815870758 0 0 0 0 229.58454801091648 88.399558856501244 0 88.399558856501244 -12.527606043563765 0 0 0 0 288.16196226155262 -11.674681583682627 0 -11.674681583682627 -3.8795219129133329 0 0 0 0 338.28107646635181 67.854699391605209 0 67.854699391605209 -15.941921473399589 0 0 0 0 397.34787594546651 25.733376670862071 0 25.733376670862071 -1.236742345580069 0 0 0 0 268.77054177980426 118.8939945425526 0 118.8939945425526 22.339362022086789 0 0 0 0 253.63757335162063 99.562614087059387 0 99.562614087059387 47.217018393499075 0 0 0 0 397.44469432199185 86.190087402708741 0 86.190087402708741 21.518511495978828 0 0 0 0 401.22646083103609 101.12007370109063 0 101.12007370109063 70.467395320678406 0 0 0 0 538.01309582404065 -22.626103383189957 0 -22.626103383189957 8.3734801708587838 0 0 0 0 101.40257392614149 90.598679365496878 0 90.598679365496878 36.78873362415834 0 0 0 0 113.87252529917441 125.93346505196689 0 125.93346505196689 74.521911605163041 0 0 0 0 93.25951954737684 94.500225095230689 0 94.500225095230689 62.44012978596038 0 0 0 0 64.632857258382501 67.445707759556171 0 67.445707759556171 44.253571768072106 0 0 0 0 154.78353876125038 173.02985254789337 0 173.02985254789337 133.81675251467868 0 0 0 0 41.332637360064837 83.863292866672964 0 83.863292866672964 78.421252087147423 0 0 0 0 88.286377752749104 100.43858879996992 0 100.43858879996992 61.243330852070358 0 0 0 0 41.709603423347289 17.887777467320575 0 17.887777467320575 12.651529910729778 0 0 0 0 18.563786435064685 60.696532497768658 0 60.696532497768658 74.501255074258552 0 0 0 0 54.643714286477916 17.283857639325106 0 17.283857639325106 9.9823911654411859 0 0 0 0 70.896869699281524 49.476229932004486 0 49.476229932004486 29.62340594114039 0 0 0 0 83.37666768850977 89.065283078789662 0 89.065283078789662 56.844592262970764 0 0 0 0 96.51756773579109 44.670772492699825 0 44.670772492699825 30.198301844554635 0 0 0 0 62.264120916921456 50.028893122381533 0 50.028893122381533 36.738272028093888 0 0 0 0 0.17601452560898334 23.152294456429459 0 23.152294456429459 17.407192257018234 0 0 0 0 54.064818672531601 30.380302453727495 0 30.380302453727495 6.6131700537498546 0 0 0 0 66.987864606853691 18.485500293887526 0 18.485500293887526 2.480860019206375 0 0 0 0 22.965038940933368 9.9533876804761512 0 9.9533876804761512 -4.4721591220411874 0 0 0 0 4.9241108317458604 5.3330906155640996 0 5.3330906155640996 0.89397579734980681 0 0 0 0 61.206250327348243 21.963560265537126 0 21.963560265537126 2.0224223444110976 0 0 0 0 64.291576861864087 18.858201830720645 0 18.858201830720645 2.4688197718169249 0 0 0 0 86.9191826107417 20.708901470843557 0 20.708901470843557 -1.2544122889157734 0 0 0 0 65.284323635030887 22.731100742685157 0 22.731100742685157 -0.57318425684525209 0 0 0 0 72.165987770187712 13.787351518062223 0 13.787351518062223 1.9153340347345988 0 0 0 0 62.93081832835378 19.900602071579669 0 19.900602071579669 2.1363152322574024 0 0 0 0 69.446949173283429 18.887779920827597 0 18.887779920827597 2.5426312630045231 0 0 0 0 61.829014001948963 13.712152606468408 0 13.712152606468408 1.9245473277381677 0 0 0 0 64.473413844507377 12.431072605225381 0 12.431072605225381 0.077340810852547293 0 0 0 0 67.404124601056537 6.047567124894158 0 6.047567124894158 0.33849646759517782 0 0 0 0 61.219844089166145 6.5421948117791544 0 6.5421948117791544 5.5655131229541439 0 0 0 0 67.449501649406557 8.7714670284369731 0 8.7714670284369731 3.2921621877803773 0 0 0 0 37.207299642960336 -12.496433872498031 0 -12.496433872498031 -20.409371137789705 0 0 0 0 98.840744511559024 25.418588474679893 0 25.418588474679893 15.27391576462378 0 0 0 0 103.05866089940218 42.357704504436924 0 42.357704504436924 -5.8558603145497727 0 0 0 0 66.578596633228244 4.001146834779604 0 4.001146834779604 2.6125969065560639 0 0 0 0 112.34908430112409 28.410299428527651 0 28.410299428527651 15.06877717849602 0 0 0 0 69.274926878311817 16.088011655816445 0 16.088011655816445 4.9882294918351135 0 0 0 0 40.098250029330885 -14.686502683098219 0 -14.686502683098219 -16.511393083506611 0 0 0 0 41.568156249306725 10.105070398021997 0 10.105070398021997 -8.1969125678460717 0 0 0 0 184.45061633146724 -15.954919044325663 0 -15.954919044325663 -12.010615135635817 0 0 0 0 30.381437740077672 4.746339754103019 0 4.746339754103019 -14.221053668486547 0 0 0 0 120.63066571720628 -8.5577368439968495 0 -8.5577368439968495 -3.8075704468210461 0 0 0 0 31.73337989573826 4.0255568457416899 0 4.0255568457416899 -4.666379240999297 0 0 0 0 9.1523124662672473 -8.6643367130434363 0 -8.6643367130434363 -8.1479396798516142 0 0 0 0 57.679085602998384 8.482209915086969 0 8.482209915086969 2.3967817718892093 0 0 0 0 142.91564996015222 23.742696819060711 0 23.742696819060711 -5.3125544903900845 0 0 0 0 129.14655456071341 33.685365790450533 0 33.685365790450533 -12.062088470713661 0 0 0 0 125.95355597713205 26.633086871887826 0 26.633086871887826 0.79837086521388301 0 0 0 0 120.56287698988308 29.432694120157748 0 29.432694120157748 0.060701056188918301 0 0 0 0 101.05537525190448 62.707875637861832 0 62.707875637861832 -27.674855248216318 0 0 0 0 -4.0627818849331323 21.10907946844398 0 21.10907946844398 15.374632651470975 0 0 0 0 134.98456468340009 69.852668089903887 0 69.852668089903887 21.048070417288955 0 0 0 0 135.24137185501968 87.745830296436793 0 87.745830296436793 10.855875448800589 0 0 0 0 137.03923975499492 70.350831828222454 0 70.350831828222454 19.874650548195859 0 0 0 0 113.77498401357161 65.921545974088104 0 65.921545974088104 25.980043615162685 0 0 0 0 105.29678691023219 96.333369845081506 0 96.333369845081506 40.649659594918148 0 0 0 0 59.627051544088317 47.108563979514884 0 47.108563979514884 7.8955279058152428 0 0 0 0 2002.9347308588694 -341.90341182971122 0 -341.90341182971122 166.22421669146431 0 0 0 0 2293.2283813581307 -599.88608365568564 0 -599.88608365568564 325.40044043183627 0 0 0 0 7.4593487885564116 0.2281486834513089 0 0.2281486834513089 -1.1168365523512589 0 0 0 0 834.40812254517368 -81.785244630398566 0 -81.785244630398566 -170.06562185180226 0 0 0 0 1766.6557203852226 -437.94468155471975 0 -437.94468155471975 -34.191974836229093 0 0 0 0 308.31265896091281 -241.84273455929139 0 -241.84273455929139 536.02467779613607 0 0 0 0 1307.6070426513434 -1064.8722207223298 0 -1064.8722207223298 685.63873013136708 0 0 0 0 2501.4023834357613 -693.05528434481755 0 -693.05528434481755 88.762445151920019 0 0 0 0 2357.9154939581204 -708.43173365904568 0 -708.43173365904568 0.50113407520431963 0 0 0 0 1917.3185278747042 -890.73736704171063 0 -890.73736704171063 156.43182771895755 0 0 0 0 2341.6780695982779 -692.83271278831523 0 -692.83271278831523 246.37287692550626 0 0 0 0 2976.2858592315024 -726.18449591787123 0 -726.18449591787123 239.14294830187609 0 0 0 0 2494.0212737112474 -7.435181761078927 0 -7.435181761078927 916.62730466987523 0 0 0 0 2417.613581727348 -1390.9524403148469 0 -1390.9524403148469 779.41306406357353 0 0 0 0 2932.4131092784992 -298.8244319812049 0 -298.8244319812049 -122.63080249788712 0 0 0 0 7.9068683919604723 2.755766749533521 0 2.755766749533521 0.931872088329605 0 0 0 0 977.43461312768341 998.98365789734999 0 998.98365789734999 404.1400044677539 0 0 0 0 -574.76857565922546 90.410367119814339 0 90.410367119814339 499.45141578939558 0 0 0 0 10.89098415636343 1.6576329923378132 0 1.6576329923378132 0.35017219590169379 0 0 0 0 -74.527822402844322 -373.69568722274215 0 -373.69568722274215 -124.44225636998419 0 0 0 0 21.551039996309555 390.00732347259759 0 390.00732347259759 -90.561338284410226 0 0 0 0 -311.67372837515722 364.5993435528917 0 364.5993435528917 96.503903588220282 0 0 0 0 8.114799573053503 2.2653913695753332 0 2.2653913695753332 0.32180207012415141 0 0 0 0 445.46047344988256 -632.12693573877414 0 -632.12693573877414 -42.748970835112118 0 0 0 0 -32.39174378295138 -141.25579395323484 0 -141.25579395323484 111.78012881115205 0 0 0 0 327.72228257205279 -305.43087222971678 0 -305.43087222971678 -284.02510838602245 0 0 0 0 420.02048031025151 -157.96002374575312 0 -157.96002374575312 -132.56979797407951 0 0 0 0 374.58090720640757 304.14660285464333 0 304.14660285464333 -85.24113822844356 0 0 0 0 526.48118729762245 -125.26363128267425 0 -125.26363128267425 -254.56962088670639 0 0 0 0 293.53622586165147 23.098762067095663 0 23.098762067095663 -223.56440235239734 0 0 0 0 76.137290894293983 -17.647466180788797 0 -17.647466180788797 -210.92380100794674 0 0 0 0 -45.956429140394903 177.88885820786936 0 177.88885820786936 -120.94845928903874 0 0 0 0 363.90376339627619 -188.13372863206104 0 -188.13372863206104 -16.299847162256469 0 0 0 0 24.430812610948379 9.0838987739239734 0 9.0838987739239734 2.6172006788258191 0 0 0 0 -35.065979553255602 230.04545061410181 0 230.04545061410181 101.60362298408305 0 0 0 0 253.71868899094625 -847.50916182225433 0 -847.50916182225433 672.45464187099014 0 0 0 0 58.053834591548366 137.07446077760045 0 137.07446077760045 -190.60784451530517 0 0 0 0 3.3243463681029795 -0.88644248669013237 0 -0.88644248669013237 -3.0380466403524906 0 0 0 0 3.4224813562977943 59.540564435433566 0 59.540564435433566 -105.62794166116487 0 0 0 0 35.858568712711005 15.682340045995517 0 15.682340045995517 3.415999362533821 0 0 0 0 40.29193973772999 61.008684303862651 0 61.008684303862651 -137.43050689361144 0 0 0 0 35.287406033021398 60.585522759044466 0 60.585522759044466 -119.127160912303 0 0 0 0 31.304392507583543 49.801033219657484 0 49.801033219657484 -139.74633186136566 0 0 0 0 41.396449138963362 60.088086777794047 0 60.088086777794047 -144.63964264881724 0 0 0 0 22.866376387843047 -19.018209610089116 0 -19.018209610089116 -39.256380982652445 0 0 0 0 31.566804643895011 -64.600879880962282 0 -64.600879880962282 -92.084436909624401 0 0 0 0 -80.98087206184573 167.54760283205724 0 167.54760283205724 -114.23417064019122 0 0 0 0 -37.262777185445884 262.32799879912886 0 262.32799879912886 -314.99795446034796 0 0 0 0 8.5259059844975127 54.056714364343406 0 54.056714364343406 -221.97635683079807 0 0 0 0 24.621178620651335 70.822946506199514 0 70.822946506199514 -205.21982890519985 0 0 0 0 29.809427331325423 95.250069330138331 0 95.250069330138331 -483.81095540379738 0 0 0 0 -139.55146164166217 -122.62600163117395 0 -122.62600163117395 -319.559840690089 0 0 0 0 -189.64482200934435 108.06068700475817 0 108.06068700475817 -318.20626211146828 0 0 0 0 28.620913030317752 -64.192747835218825 0 -64.192747835218825 -302.19817452246571 0 0 0 0 51.51967001974117 -77.671078336103164 0 -77.671078336103164 -602.46072934291169 0 0 0 0 -78.237158960429952 -54.297631718298817 0 -54.297631718298817 12.627730452622018 0 0 0 0 -116.79636283278523 -264.38938977057433 0 -264.38938977057433 -254.54440784993676 0 0 0 0 7.8742082466858374 1.9427612763529893 0 1.9427612763529893 -0.82755732536927962 0 0 0 0 -38.9372899376649 -205.43701526334337 0 -205.43701526334337 -284.41931284433122 0 0 0 0 -78.423488156025996 -118.27709043496475 0 -118.27709043496475 15.868530550330433 0 0 0 0 26.271189172050072 -128.30827852429371 0 -128.30827852429371 -215.56056142411308 0 0 0 0 38.009506218062597 -78.921080289981546 0 -78.921080289981546 -97.518926064548396 0 0 0 0 25.188149093235552 -82.064135758936345 0 -82.064135758936345 -195.46010221352481 0 0 0 0 63.794367261463776 25.788758365726608 0 25.788758365726608 -296.74081400092928 0 0 0 0 105.96463003127428 -85.089448028497827 0 -85.089448028497827 -161.43748863564332 0 0 0 0 129.7152490997687 -10.722346362870667 0 -10.722346362870667 -170.2120609922024 0 0 0 0 86.98125412967056 -46.211945837032545 0 -46.211945837032545 -111.14127849001989 0 0 0 0 172.70127317606966 -46.336655442128631 0 -46.336655442128631 -134.10268189745642 0 0 0 0 183.92063670167045 -25.525886645784567 0 -25.525886645784567 -118.11671920421873 0 0 0 0 112.44302970742001 -51.01781063516222 0 -51.01781063516222 -83.133711724298564 0 0 0 0 119.71646700314886 -12.445648663970928 0 -12.445648663970928 -65.342723474240756 0 0 0 0 197.4176905305867 -41.415890732881053 0 -41.415890732881053 -86.612845745008826 0 0 0 0 216.31818430998101 15.231634702127621 0 15.231634702127621 41.362116694706401 0 0 0 0 87.28371845921356 50.759328066333694 0 50.759328066333694 -16.490664678923054 0 0 0 0 -0.53970103041528983 -23.405082815564207 0 -23.405082815564207 -10.613182612302289 0 0 0 0 -19.827137618322013 -90.936942965998753 0 -90.936942965998753 -169.92581083006007 0 0 0 0 3.6372321025482961 -6.7202758810769581 0 -6.7202758810769581 -19.114338587174188 0 0 0 0 17.366385642209934 13.395078740647023 0 13.395078740647023 -17.990739122072114 0 0 0 0 101.23630521833911 -128.05849012041091 0 -128.05849012041091 -248.44950989064955 0 0 0 0 -43.444483854191049 47.376578567810306 0 47.376578567810306 8.59042124784105 0 0 0 0 -1.4955227278802297 -23.776570332806941 0 -23.776570332806941 -4.7057962931624395 0 0 0 0 -237.75074702493293 46.275401677495466 0 46.275401677495466 580.07708894777738 0 0 0 0 432.98044968202112 -122.97198176365134 0 -122.97198176365134 -33.968606862262959 0 0 0 0 383.97149054748297 102.35390134798592 0 102.35390134798592 -98.072487154442285 0 0 0 0 253.02855858636576 -135.56215359885326 0 -135.56215359885326 11.66800229029991 0 0 0 0 225.81309722914011 -27.309050539338443 0 -27.309050539338443 -44.468865977101046 0 0 0 0 -53.839772046932012 -214.26013938443597 0 -214.26013938443597 -106.54008274643616 0 0 0 0 1.1534970041119905 -0.98361590009807998 0 -0.98361590009807998 0.72660116264347141 0 0 0 0 512.03130771354699 58.768657929369795 0 58.768657929369795 -73.484567355841293 0 0 0 0 201.30572266659146 -4.9238369044699084 0 -4.9238369044699084 -65.256722940436248 0 0 0 0 2.1238191655189382 -2.5831065312327297 0 -2.5831065312327297 1.9903954343796828 0 0 0 0 125.40625830855788 -73.594181891985357 0 -73.594181891985357 63.657198566174998 0 0 0 0 15.644096705978882 -47.834576484412111 0 -47.834576484412111 -98.46794593109621 0 0 0 0 -26.804919733211136 -36.058117639380271 0 -36.058117639380271 -87.619719227290318 0 0 0 0 20.572803935734555 -69.578960623048999 0 -69.578960623048999 -81.883503305326371 0 0 0 0 118.06637661519926 -75.411714402332564 0 -75.411714402332564 -82.956505514523087 0 0 0 0 123.34425473206647 -71.955704614634783 0 -71.955704614634783 -80.960836062288308 0 0 0 0 131.29221923114164 -126.58159288407228 0 -126.58159288407228 -99.778060316138635 0 0 0 0 338.99473459155706 -180.26684816232023 0 -180.26684816232023 -104.50325573870612 0 0 0 0 201.28104841075037 -112.18406422450141 0 -112.18406422450141 -97.146205964417049 0 0 0 0 238.05463950525154 -88.307347926712055 0 -88.307347926712055 -145.63919421807668 0 0 0 0 150.65064369688844 -91.661077628607813 0 -91.661077628607813 -94.019395050957428 0 0 0 0 166.37072914097735 -72.607664812092935 0 -72.607664812092935 -84.559474981180983 0 0 0 0 129.36287198111313 -37.53663704842711 0 -37.53663704842711 -64.934590286369712 0 0 0 0 189.14982041849726 -70.028763299869979 0 -70.028763299869979 -74.5868180505704 0 0 0 0 188.42421993081371 -26.342427600160363 0 -26.342427600160363 -51.79638796943118 0 0 0 0 182.77677492453222 -61.841870615712651 0 -61.841870615712651 -83.088538329689186 0 0 0 0 183.52173500556455 -63.455124149650942 0 -63.455124149650942 -112.14301300862508 0 0 0 0 139.46569177164201 -23.824920023424966 0 -23.824920023424966 -74.597856703096568 0 0 0 0 159.91924896139835 -51.953126045680051 0 -51.953126045680051 -35.080172656545983 0 0 0 0 105.10938935585727 -35.091577396038474 0 -35.091577396038474 -3.5614653787642965 0 0 0 0 159.83055324198449 -50.604350890275043 0 -50.604350890275043 -52.663686861642873 0 0 0 0 123.51957373313053 -55.678141073340385 0 -55.678141073340385 6.2859796997399826 0 0 0 0 205.8350874123862 -66.57467973354801 0 -66.57467973354801 -30.4664946248447 0 0 0 0 136.06298753569354 -79.799380467884021 0 -79.799380467884021 19.873879383975236 0 0 0 0 213.51194716983355 -37.323393175338026 0 -37.323393175338026 -48.899058683823569 0 0 0 0 201.14952966093188 -62.099349941696573 0 -62.099349941696573 -10.201071504330685 0 0 0 0 309.46264634270483 -19.419514141234686 0 -19.419514141234686 -38.754496918101495 0 0 0 0 248.1052210403941 -15.492690141760704 0 -15.492690141760704 -35.903076974703254 0 0 0 0 271.42056820439757 -73.719930302891385 0 -73.719930302891385 -13.058850461772636 0 0 0 0 266.93144596633647 -59.688662430053228 0 -59.688662430053228 1.1618002275781691 0 0 0 0 302.58477103092946 -122.34959722483239 0 -122.34959722483239 36.795035621996249 0 0 0 0 202.03892947121858 -121.91869383313315 0 -121.91869383313315 40.13291894863778 0 0 0 0 316.22912888286737 -98.047649712930024 0 -98.047649712930024 30.064808334844201 0 0 0 0 464.7970532198342 -155.93606692383969 0 -155.93606692383969 120.51436482466488 0 0 0 0 21.10677533195485 -138.89489204303572 0 -138.89489204303572 208.98339565302467 0 0 0 0 417.7105399984066 -185.81881665348919 0 -185.81881665348919 102.39577650146066 0 0 0 0 308.31130319586373 -58.89064598065579 0 -58.89064598065579 74.627075360312574 0 0 0 0 4.897679471674877 -0.37149583499584793 0 -0.37149583499584793 -0.25123923012406557 0 0 0 0 86.173462254379956 -30.787112989295338 0 -30.787112989295338 69.248284614863223 0 0 0 0 91.297947787938028 -21.059934630154203 0 -21.059934630154203 13.446445609229727 0 0 0 0 14.276658829749834 3.4501524816954117 0 3.4501524816954117 -8.0661585496267207 0 0 0 0 107.43523014069433 -103.5580413538853 0 -103.5580413538853 58.906194168882848 0 0 0 0 177.02122892764783 -77.753224049054211 0 -77.753224049054211 19.309203929657997 0 0 0 0 1299.1477385666549 -358.12313693248859 0 -358.12313693248859 274.60872515385239 0 0 0 0 61.74163126910571 -52.913961101485256 0 -52.913961101485256 62.779883637067542 0 0 0 0 14.029138764953572 2.4533645388615213 0 2.4533645388615213 -5.8804459766733386 0 0 0 0 56.944403344554303 -62.291879985092237 0 -62.291879985092237 52.208586929494686 0 0 0 0 492.28685905606471 -718.94597165900518 0 -718.94597165900518 264.34978556376853 0 0 0 0 -42.088755636887072 -279.3429355126417 0 -279.3429355126417 105.85154745252908 0 0 0 0 705.36490449047142 -201.16993226272794 0 -201.16993226272794 -123.00614843765334 0 0 0 0 421.16794102853964 -222.05701591659783 0 -222.05701591659783 -92.484150633619834 0 0 0 0 409.22024551389404 -247.45768873905558 0 -247.45768873905558 -2.6198522582485566 0 0 0 0 414.46768706769399 -184.88109856213347 0 -184.88109856213347 -44.617653856049856 0 0 0 0 534.58280721202755 -224.06503396132257 0 -224.06503396132257 -113.43866348963547 0 0 0 0 454.86278355570357 -145.4657242077094 0 -145.4657242077094 -59.396634653229739 0 0 0 0 203.34623359666875 247.03403006799076 0 247.03403006799076 -91.055727348836299 0 0 0 0 539.88524762269662 -142.96556480328695 0 -142.96556480328695 -82.564972815920214 0 0 0 0 6.4071261349262443 0.66113214439473111 0 0.66113214439473111 -1.2679584163817421 0 0 0 0 524.67337038221012 -875.43868193055027 0 -875.43868193055027 766.55575548010313 0 0 0 0 84.280519891548465 -7.8783211393233614 0 -7.8783211393233614 -45.637856987129453 0 0 0 0 49.472680302576919 32.645623084468298 0 32.645623084468298 43.698919699652606 0 0 0 0 48.652044017209846 -31.425951509299466 0 -31.425951509299466 78.896245835726859 0 0 0 0 65.943942149286158 -29.474883821895219 0 -29.474883821895219 17.269575826182063 0 0 0 0 98.505337338225218 -60.667599987984886 0 -60.667599987984886 47.04335057449498 0 0 0 0 105.60985586877359 -32.19741096934149 0 -32.19741096934149 6.9877491442380233 0 0 0 0 81.430274952732361 13.412663786721737 0 13.412663786721737 -42.610501279272285 0 0 0 0 69.126877823733594 -12.509899605318196 0 -12.509899605318196 -32.404935119988295 0 0 0 0 139.47765791613347 -23.830112268409721 0 -23.830112268409721 -93.904698656268238 0 0 0 0 176.72397204876324 -43.154812624532724 0 -43.154812624532724 -160.36831757210757 0 0 0 0 101.22145417776119 29.267896853707043 0 29.267896853707043 -186.77692636091615 0 0 0 0 110.06620372970065 3.6305686854238957 0 3.6305686854238957 -113.59672435239872 0 0 0 0 95.7459747262983 -37.614352334897831 0 -37.614352334897831 -170.94266809268993 0 0 0 0 21.01251250464702 -13.047744950745255 0 -13.047744950745255 -109.52619004308281 0 0 0 0 23.160187233430406 -89.03964399539899 0 -89.03964399539899 -51.608391851521901 0 0 0 0 -42.662971994439431 -27.502782606826713 0 -27.502782606826713 -196.56117720843031 0 0 0 0 -13.935466055532743 37.654579138133386 0 37.654579138133386 -173.36416001886255 0 0 0 0 -34.531208178217639 -8.1894632533756067 0 -8.1894632533756067 -201.67774071122949 0 0 0 0 -12.229571095696883 -48.948442000814339 0 -48.948442000814339 -186.53794472450232 0 0 0 0 0.17539313909946941 -32.042188737349534 0 -32.042188737349534 -109.05486467339597 0 0 0 0 -80.51720728132932 -81.983760904896144 0 -81.983760904896144 -139.05961570500131 0 0 0 0 -13.778204311121954 -56.329178968312362 0 -56.329178968312362 -69.561927455638397 0 0 0 0 60.010670333445887 28.787082324293351 0 28.787082324293351 -87.130657832241923 0 0 0 0 8.9130856085909116 -0.051640535587974767 0 -0.051640535587974767 -5.9370371249718996 0 0 0 0 794.65584941151246 -387.51313883385188 0 -387.51313883385188 373.31345348227387 0 0 0 0 -4.7796958189028373 18.053876928976706 0 18.053876928976706 -50.932121128729932 0 0 0 0 -33.046798602959825 -86.165731595827367 0 -86.165731595827367 -39.729429718882329 0 0 0 0 658.94797286666108 -485.17243229573552 0 -485.17243229573552 294.02838284163465 0 0 0 0 537.99205526545848 -888.57355823198623 0 -888.57355823198623 -10.180712584903105 0 0 0 0 12.854168974399599 1.6417902714038775 0 1.6417902714038775 -2.6795427385383794 0 0 0 0 760.4299103377416 -387.8067432423598 0 -387.8067432423598 2.2433956524831729 0 0 0 0 562.06656818108968 -584.13542572975587 0 -584.13542572975587 672.96514789354933 0 0 0 0 334.95313073491707 -476.7594259515929 0 -476.7594259515929 15.404520865751266 0 0 0 0 101.51609128662312 -139.56937177845498 0 -139.56937177845498 382.4916352986686 0 0 0 0 753.91564218491476 -465.46291486228756 0 -465.46291486228756 132.42620098925443 0 0 0 0 22.631542732849994 -97.482767843979161 0 -97.482767843979161 564.54976263924164 0 0 0 0 1317.8092406942524 24.518945079127434 0 24.518945079127434 222.65780650599322 0 0 0 0 463.62243584200405 -232.81298424964291 0 -232.81298424964291 -57.170995362586183 0 0 0 0 1158.21346314121 33.279915347390613 0 33.279915347390613 -247.32310125605591 0 0 0 0 403.83830242685508 180.98171940035775 0 180.98171940035775 -260.96535257068422 0 0 0 0 757.98873550505596 -955.80220691104978 0 -955.80220691104978 -474.17967755093287 0 0 0 0 676.76150340886488 463.50237565260829 0 463.50237565260829 -406.46062109205411 0 0 0 0 8.7657473915348234 -1.692156459506938 0 -1.692156459506938 -0.44899913913272782 0 0 0 0 1081.2464295039163 -679.8792232318882 0 -679.8792232318882 -281.186960316963 0 0 0 0 -345.54498841192253 -563.86930177631189 0 -563.86930177631189 65.075865235085189 0 0 0 0 -46.611921587646066 156.08471291662997 0 156.08471291662997 -32.651642063904774 0 0 0 0 1256.545729720372 -838.74667892705656 0 -838.74667892705656 -474.65986607401817 0 0 0 0 1331.6612877392654 918.99042820548459 0 918.99042820548459 -554.78350144761851 0 0 0 0 2495.1824647174126 242.99998458915087 0 242.99998458915087 -562.85847659286958 0 0 0 0 9.0788025813272526 -1.0272512511820766 0 -1.0272512511820766 -0.88192268182754574 0 0 0 0 1418.9863499711319 325.66253678233318 0 325.66253678233318 -360.82984722264626 0 0 0 0 1606.6774264935266 -583.30466822410733 0 -583.30466822410733 142.04424077035074 0 0 0 0 866.25549431797117 -339.9661112025629 0 -339.9661112025629 105.55170237858073 0 0 0 0 696.5460407308874 -606.06040561353996 0 -606.06040561353996 566.96322574062083 0 0 0 0 1926.2736816082361 -1126.7977829226916 0 -1126.7977829226916 713.87527575384865 0 0 0 0 2499.8893014070723 -272.29789505656868 0 -272.29789505656868 -31.855464493766121 0 0 0 0 2495.5948305678876 -822.63434721096382 0 -822.63434721096382 -451.1623878936137 0 0 0 0 618.03156506302821 675.53525267528141 0 675.53525267528141 -497.35802832051382 0 0 0 0 9.5874215721576164 2.2021993789361041 0 2.2021993789361041 -0.58087788558941378 0 0 0 0 -243.69095070719504 -71.141871590599862 0 -71.141871590599862 -100.5485446324742 0 0 0 0 7.0584460126311868 2.4083748890405872 0 2.4083748890405872 0.13906168685726022 0 0 0 0 682.55263551233656 845.58359321174305 0 845.58359321174305 -103.39543537301543 0 0 0 0 772.92015051534509 24.815499785533063 0 24.815499785533063 -254.43640222844951 0 0 0 0 2453.3579297193355 883.52748449021033 0 883.52748449021033 -514.10200061568878 0 0 0 0 1760.3344580502635 870.36028723579761 0 870.36028723579761 -297.20448695913643 0 0 0 0 2496.7036039602799 723.11379803218153 0 723.11379803218153 -6.4074400889282099 0 0 0 0 2340.5454051650695 386.00639948757527 0 386.00639948757527 -599.5290135823841 0 0 0 0 2496.1289186553086 -248.44578086949141 0 -248.44578086949141 -837.05841342087842 0 0 0 0 1451.6091458918072 277.52952178130477 0 277.52952178130477 -600.05700403421895 0 0 0 0 625.57374389056713 90.291575379484755 0 90.291575379484755 -37.362670770928872 0 0 0 0 1451.0108965528505 263.98319703858624 0 263.98319703858624 -227.19994934930139 0 0 0 0 480.30506378792779 435.21481887379116 0 435.21481887379116 -208.93161945834629 0 0 0 0 -387.49191873456584 109.03062491385469 0 109.03062491385469 0.068408470647888464 0 0 0 0 566.91940618126591 299.19100459615538 0 299.19100459615538 -29.525112092716711 0 0 0 0 171.40039821921528 195.44957865507575 0 195.44957865507575 47.230801632598855 0 0 0 0 453.37548365208204 296.42987009711817 0 296.42987009711817 -41.247750609654076 0 0 0 0 187.0300369896064 -66.687362905422191 0 -66.687362905422191 -130.27484246871211 0 0 0 0 626.91764542140481 -16.048721628888359 0 -16.048721628888359 -127.16887405999944 0 0 0 0 350.89179069903184 -79.934238559612993 0 -79.934238559612993 -230.16744643070655 0 0 0 0 35.217096353075249 41.577528249246143 0 41.577528249246143 -185.05312858365019 0 0 0 0 14.647918311671631 3.3120794178084862 0 3.3120794178084862 -0.45120336507036463 0 0 0 0 -44.637772495701938 45.300219667182091 0 45.300219667182091 -483.37536584873931 0 0 0 0 227.57364879261513 13.68928056861602 0 13.68928056861602 -758.36993296699848 0 0 0 0 -223.91280693463159 -50.817187661529914 0 -50.817187661529914 -288.55537137197848 0 0 0 0 -120.35084208895205 -98.214090335328706 0 -98.214090335328706 -273.84315800738807 0 0 0 0 -69.303069766507178 -158.94846720223848 0 -158.94846720223848 -279.08310602962405 0 0 0 0 492.91536888259543 568.35117578312122 0 568.35117578312122 -256.94064373173444 0 0 0 0 7.2644209259242629 1.4480909423065924 0 1.4480909423065924 -0.25848468781216871 0 0 0 0 1.286460441225703 1.388867658943056 0 1.388867658943056 -4.0932499497557497 0 0 0 0 1041.8927439703966 73.552007090111147 0 73.552007090111147 357.19880254458155 0 0 0 0 449.14663112633934 225.15938470098575 0 225.15938470098575 48.471153809231282 0 0 0 0 1135.0010144416381 485.65121494874745 0 485.65121494874745 -77.159827864452382 0 0 0 0 657.99197255738545 209.87077493418388 0 209.87077493418388 -171.01665372756054 0 0 0 0 116.60065390903401 -199.64567691934027 0 -199.64567691934027 -139.92369489136115 0 0 0 0 1076.9734962089533 -335.85838352809719 0 -335.85838352809719 -254.46807401611994 0 0 0 0 436.44366662681568 -326.59047095235934 0 -326.59047095235934 -211.80527566201135 0 0 0 0 325.4315092449433 -212.68000177952192 0 -212.68000177952192 -117.07774482723426 0 0 0 0 500.23617951700362 -260.4002043585831 0 -260.4002043585831 -183.45790605829629 0 0 0 0 466.04320903420921 -203.88084189077796 0 -203.88084189077796 -124.32050621248914 0 0 0 0 462.79885000631475 -215.834979764737 0 -215.834979764737 -96.490237246962806 0 0 0 0 474.19356403716347 -105.89547323782207 0 -105.89547323782207 -63.582392605724635 0 0 0 0 474.13073200685903 -191.1732731636223 0 -191.1732731636223 -144.79621448920136 0 0 0 0 250.39120894667576 -152.21562657575623 0 -152.21562657575623 -51.168952534047094 0 0 0 0 780.13673485937579 -169.86399980550576 0 -169.86399980550576 -286.62086565725428 0 0 0 0 665.81118986371803 117.72026874787296 0 117.72026874787296 -30.977530697453858 0 0 0 0 504.2655726140859 -167.84354037132772 0 -167.84354037132772 -130.23131525621648 0 0 0 0 332.6105078933906 -18.995512427072526 0 -18.995512427072526 -82.669384881658857 0 0 0 0 298.32293788137031 -56.050649841858728 0 -56.050649841858728 -15.556031442957647 0 0 0 0 274.3367041761303 -54.507409147430053 0 -54.507409147430053 -8.4605866776987568 0 0 0 0 3.0478070898225553 3.8803711330812796 0 3.8803711330812796 -14.203850935878727 0 0 0 0 760.41591682831131 -270.79895090192281 0 -270.79895090192281 106.99080543010473 0 0 0 0 4.5713042388721234 4.3535518996134854 0 4.3535518996134854 1.4556126525296378 0 0 0 0 22.508438144465799 66.082190653454745 0 66.082190653454745 244.48150022995151 0 0 0 0 424.65093234231608 360.60763890626936 0 360.60763890626936 128.28879242070889 0 0 0 0 275.65720083567976 246.23973437291352 0 246.23973437291352 40.505023399577567 0 0 0 0 243.80179225231223 188.86638351466411 0 188.86638351466411 74.849914285157411 0 0 0 0 0.34641839773249217 2.0462143116687024 0 2.0462143116687024 -8.1477535988224012 0 0 0 0 322.32416407764867 191.24187158007149 0 191.24187158007149 63.025830468348431 0 0 0 0 390.34845414960364 147.77898522118949 0 147.77898522118949 58.979751371228076 0 0 0 0 367.95184995568707 214.16827526047086 0 214.16827526047086 21.133293432515757 0 0 0 0 311.58333895245914 133.90381757131274 0 133.90381757131274 -47.261949349550832 0 0 0 0 154.62587453015658 76.266028481657983 0 76.266028481657983 52.534251253442747 0 0 0 0 352.38871009730531 186.53653639897647 0 186.53653639897647 126.41766001329779 0 0 0 0 347.85296220384771 126.66077710919933 0 126.66077710919933 8.6052018421801222 0 0 0 0 311.18097791062746 128.00358817006298 0 128.00358817006298 18.542226899597527 0 0 0 0 317.56114787211982 105.89673768207254 0 105.89673768207254 80.42042604620633 0 0 0 0 229.40297535766149 139.27852993614184 0 139.27852993614184 57.655918758124848 0 0 0 0 99.148660931667109 -8.8812966323609963 0 -8.8812966323609963 22.390716990625929 0 0 0 0 1.7104155067697207 -1.8714897941141224 0 -1.8714897941141224 -0.65483060342165089 0 0 0 0 -803.47876147968782 -364.18186456018339 0 -364.18186456018339 -298.10152329730772 0 0 0 0 239.17522915948939 71.886033279694857 0 71.886033279694857 -21.922273211011998 0 0 0 0 -802.83551175344201 -395.41719781509369 0 -395.41719781509369 -171.74820771795999 0 0 0 0 63.256941916102974 -30.569489845593168 0 -30.569489845593168 -19.112592319141655 0 0 0 0 142.4941880463939 65.158508012999846 0 65.158508012999846 82.515305923485357 0 0 0 0 183.86144276426785 14.127787924330732 0 14.127787924330732 4.6702681220122031 0 0 0 0 132.3286813200757 -18.049464595596874 0 -18.049464595596874 45.430859355194116 0 0 0 0 112.3623118648029 -27.355641291933352 0 -27.355641291933352 41.128464464487479 0 0 0 0 69.576342574589944 32.164488670376159 0 32.164488670376159 120.58001583836085 0 0 0 0 23.875185941735253 -26.204808375629682 0 -26.204808375629682 58.893812274629454 0 0 0 0 39.291770050287596 -7.8717492626383319 0 -7.8717492626383319 55.382208972097942 0 0 0 0 36.552757004850719 -35.538157867877089 0 -35.538157867877089 19.883652366504975 0 0 0 0 81.263189005781896 -94.671368359592634 0 -94.671368359592634 24.29603845654492 0 0 0 0 26.980383479709417 -71.175954369759893 0 -71.175954369759893 49.642606093362701 0 0 0 0 101.26426651120664 -42.936629470679804 0 -42.936629470679804 60.282522275148949 0 0 0 0 21.228124888188177 -10.491321718720428 0 -10.491321718720428 106.9289147947311 0 0 0 0 58.31465226197512 -25.190405496045912 0 -25.190405496045912 -23.5111006055076 0 0 0 0 91.93626425092225 -52.699551236470029 0 -52.699551236470029 42.120215869353387 0 0 0 0 331.41257841443803 140.04934018487938 0 140.04934018487938 14.824218516018846 0 0 0 0 -113.24883081315056 -337.5984513786243 0 -337.5984513786243 -258.53274438339395 0 0 0 0 272.45127621786196 174.91490921287385 0 174.91490921287385 74.348126652725114 0 0 0 0 356.9742048046428 94.138096831780103 0 94.138096831780103 92.072236846678607 0 0 0 0 299.46073747944865 133.70776908355629 0 133.70776908355629 135.60519056912176 0 0 0 0 207.58723389786473 241.06864618211441 0 241.06864618211441 174.1384382355709 0 0 0 0 1.3725552734215061 -0.41441430941680579 0 -0.41441430941680579 -0.88937467623631328 0 0 0 0 632.85777614478684 325.55648477498733 0 325.55648477498733 59.094990437582936 0 0 0 0 85.037869698415307 213.04834376983496 0 213.04834376983496 -32.96180184809549 0 0 0 0 634.1743826094189 313.66786487259776 0 313.66786487259776 623.37954314562637 0 0 0 0 916.64399972261162 432.65127262075362 0 432.65127262075362 -23.781414514088382 0 0 0 0 1.1710993744781248 0.90365237701439582 0 0.90365237701439582 -1.5649394901131537 0 0 0 0 496.98491595373343 245.76640807110005 0 245.76640807110005 74.668503871607697 0 0 0 0 1059.7415624845821 431.04533086031256 0 431.04533086031256 -275.56968802150448 0 0 0 0 1040.1374068936038 606.73173862022225 0 606.73173862022225 -108.22309230969637 0 0 0 0 735.54361272421738 -89.999659712278742 0 -89.999659712278742 -29.863380346104691 0 0 0 0 -3.7272881501030497 116.12165881779072 0 116.12165881779072 -73.283266312564649 0 0 0 0 16.056828868289152 6.1263206902313554 0 6.1263206902313554 0.4349135753470772 0 0 0 0 577.99424252897552 411.59943822433911 0 411.59943822433911 46.307904394050126 0 0 0 0 -332.9897498438545 134.9256342464472 0 134.9256342464472 -32.814187333920472 0 0 0 0 529.89524902996391 847.50624259429514 0 847.50624259429514 79.816553329902092 0 0 0 0 6.5213193392506064 3.7715960136598383 0 3.7715960136598383 1.4550871063165474 0 0 0 0 -64.039474652812714 975.81227865242454 0 975.81227865242454 53.027260170264128 0 0 0 0 63.545851782320824 742.09007690462954 0 742.09007690462954 82.585364791690722 0 0 0 0 148.15760787239742 545.3087669164762 0 545.3087669164762 251.71979609290713 0 0 0 0 95.989976669952739 300.13121136179336 0 300.13121136179336 258.44485530149166 0 0 0 0 55.326305495137603 516.16315626326445 0 516.16315626326445 389.25168990256043 0 0 0 0 343.15581556606048 544.49880931324094 0 544.49880931324094 479.59397003982815 0 0 0 0 108.87745023722346 390.0029886706601 0 390.0029886706601 715.52138382141993 0 0 0 0 148.09783882735564 404.70039508410218 0 404.70039508410218 421.46667945954204 0 0 0 0 -83.243359901364329 614.99797918091372 0 614.99797918091372 382.75933948783177 0 0 0 0 1003.194277810313 791.60329521674294 0 791.60329521674294 238.95333945354187 0 0 0 0 354.59366247119397 512.82772782096799 0 512.82772782096799 547.14835409003365 0 0 0 0 1211.9436470725864 1282.9762447318506 0 1282.9762447318506 1155.2780691403195 0 0 0 0 2498.8245294354324 1297.1166979148468 0 1297.1166979148468 1432.5750154467037 0 0 0 0 2129.9390613166056 581.85583536223839 0 581.85583536223839 76.701294156017227 0 0 0 0 1164.8075290095953 315.09161166897576 0 315.09161166897576 11.570594212057756 0 0 0 0 2500.1649073085082 192.12582109980545 0 192.12582109980545 -594.85824344633772 0 0 0 0 702.55766939509181 -150.85974310183116 0 -150.85974310183116 -536.17964800334812 0 0 0 0 744.83751626155208 530.10418092354007 0 530.10418092354007 -853.86351474166167 0 0 0 0 138.37615798765 42.550064498114807 0 42.550064498114807 10.76939225058959 0 0 0 0 29.480870403981044 25.939874188521571 0 25.939874188521571 17.591029775925563 0 0 0 0 95.625327009883677 21.509115143407598 0 21.509115143407598 88.99810098526541 0 0 0 0 -33.776637864211807 63.318648053013021 0 63.318648053013021 77.903749232517839 0 0 0 0 16.302116227196393 41.603177913283616 0 41.603177913283616 83.909044207905026 0 0 0 0 0.28059492611689008 2.6169927433464704 0 2.6169927433464704 1.1962349908501091 0 0 0 0 0.96743611506910554 -26.470067594897955 0 -26.470067594897955 83.914450082593248 0 0 0 0 12.138533303527936 -31.272362905754562 0 -31.272362905754562 -7.6650412085309654 0 0 0 0 15.37531919070716 -17.792197297409984 0 -17.792197297409984 15.192287343530552 0 0 0 0 3.067279417210985 2.8614310421889737 0 2.8614310421889737 0.3054713117656549 0 0 0 0 7.4941781634443032 5.5757909106650914 0 5.5757909106650914 0.62817278617785632 0 0 0 0 -3.4544415504913104 18.246298645245361 0 18.246298645245361 1.1871858244458053 0 0 0 0 5.3460692589978862 4.3967763685941463 0 4.3967763685941463 -2.5424400618103391 0 0 0 0 52.578738771453573 -0.57240229191393155 0 -0.57240229191393155 7.5694532581674139 0 0 0 0 29.713538112862331 10.371486964434798 0 10.371486964434798 -0.61562123000093649 0 0 0 0 48.388890824052055 82.815494221415975 0 82.815494221415975 -10.908167201405831 0 0 0 0 2.7686845264015574 5.2308468966884902 0 5.2308468966884902 16.73145793864569 0 0 0 0 47.901285596792377 18.540587185469747 0 18.540587185469747 7.7073541230656701 0 0 0 0 37.43335158748171 21.874889098927529 0 21.874889098927529 9.2808271278705483 0 0 0 0 54.231613529203969 18.790110500905485 0 18.790110500905485 7.2811416585191182 0 0 0 0 56.557975630978035 6.1322368069440927 0 6.1322368069440927 3.1240602015659533 0 0 0 0 58.72933788599039 11.77223947402581 0 11.77223947402581 6.3182358497988389 0 0 0 0 46.655849256361762 10.346804055972939 0 10.346804055972939 6.1562213365614298 0 0 0 0 58.372589402044468 14.962070499531819 0 14.962070499531819 17.236967211181764 0 0 0 0 63.176984300196636 0.88942226464405394 0 0.88942226464405394 11.137442575909517 0 0 0 0 52.579474060579741 17.192856901136565 0 17.192856901136565 6.1423605205654894 0 0 0 0 62.86548795357794 11.291412326637897 0 11.291412326637897 5.8985213419000502 0 0 0 0 49.293903978235903 24.927462577618826 0 24.927462577618826 3.6823570168597826 0 0 0 0 55.136370490460912 30.605499675459768 0 30.605499675459768 10.718895539677305 0 0 0 0 53.43427538153901 34.125035022904285 0 34.125035022904285 -2.1073267427564133 0 0 0 0 62.889951644854591 20.390872752689575 0 20.390872752689575 3.2478418549908383 0 0 0 0 62.59660517032512 29.780564003958261 0 29.780564003958261 -1.3695298221828125 0 0 0 0 110.81425582914972 43.258700632713044 0 43.258700632713044 -27.338444577274458 0 0 0 0 109.41899333871055 28.776913926632972 0 28.776913926632972 15.355855147688999 0 0 0 0 62.61564213223452 -20.28117108924171 0 -20.28117108924171 -28.819970819114317 0 0 0 0 -5.0868517994458671 37.285533764311594 0 37.285533764311594 -41.085554129804223 0 0 0 0 21.76201420895957 -5.6027506134051777 0 -5.6027506134051777 -16.051279443310641 0 0 0 0 16.612216964742402 -2.4758372527371648 0 -2.4758372527371648 10.889942821827844 0 0 0 0 -70.851653545301815 -106.18482025170238 0 -106.18482025170238 2.8960052099475888 0 0 0 0 89.619633539599818 89.534734947896709 0 89.534734947896709 57.773848172015732 0 0 0 0 122.96372922157025 48.554992534687472 0 48.554992534687472 90.183955486798141 0 0 0 0 -83.488454087324499 -9.0841553963305159 0 -9.0841553963305159 164.69246168716381 0 0 0 0 341.76172739094363 -37.251881878873064 0 -37.251881878873064 -11.349477379863174 0 0 0 0 316.89825156294683 7.6173755797478861 0 7.6173755797478861 628.63547397809566 0 0 0 0 865.25408570949003 134.94954333784517 0 134.94954333784517 9.5507370166001238 0 0 0 0 190.18722900765897 204.90523634454894 0 204.90523634454894 357.59589417885036 0 0 0 0 181.13242576330958 -198.46718538390775 0 -198.46718538390775 -179.79564671550372 0 0 0 0 23.201544543177079 56.125216024770339 0 56.125216024770339 157.93982373801964 0 0 0 0 211.20680124413775 86.104810209579284 0 86.104810209579284 8.805732586611839 0 0 0 0 663.05415817592075 156.12576705919241 0 156.12576705919241 -95.013993730944094 0 0 0 0 288.67837097202028 52.351739337862227 0 52.351739337862227 -84.705663411856762 0 0 0 0 76.617153656648156 -415.13385021305794 0 -415.13385021305794 229.33174037664867 0 0 0 0 70.401899650535441 -35.121152626570854 0 -35.121152626570854 -17.283903339407384 0 0 0 0 30.457194095226441 -175.25941005624429 0 -175.25941005624429 -103.73827130577001 0 0 0 0 127.8744550356887 61.643585411567074 0 61.643585411567074 -139.2415268844743 0 0 0 0 128.84884881437392 33.647992618202807 0 33.647992618202807 16.537796143514015 0 0 0 0 66.28797776660447 -30.845686600662098 0 -30.845686600662098 -22.821318635786589 0 0 0 0 185.4893987557121 360.72228030333844 0 360.72228030333844 31.435158316466186 0 0 0 0 27.86071179767896 165.99273562541475 0 165.99273562541475 239.65336080698353 0 0 0 0 339.86943246968076 -57.344839969566237 0 -57.344839969566237 -189.46416494475397 0 0 0 0 4.8718883407134292 3.3387593606633263 0 3.3387593606633263 1.2897939334440753 0 0 0 0 403.15874360444195 10.888275256031875 0 10.888275256031875 -253.96228261047418 0 0 0 0 375.51500848873729 129.15592904550567 0 129.15592904550567 -128.17108808405601 0 0 0 0 253.94969715282787 10.87895829035142 0 10.87895829035142 151.0591897253662 0 0 0 0 259.10227179881667 37.599648261479643 0 37.599648261479643 -38.21841491093528 0 0 0 0 38.986635587134515 -53.64141736322199 0 -53.64141736322199 -71.187438298032703 0 0 0 0 173.45311593002407 -39.169447315282873 0 -39.169447315282873 -140.73991209392887 0 0 0 0 365.1895120096724 63.436694174843751 0 63.436694174843751 -282.05599546647954 0 0 0 0 -73.56397009779721 140.9755157506338 0 140.9755157506338 -187.31918684809625 0 0 0 0 449.47654340683221 -110.53878027081009 0 -110.53878027081009 -140.39833448428726 0 0 0 0 15.802203892711987 -195.54284109527407 0 -195.54284109527407 95.290613370337269 0 0 0 0 58.579852723192744 -193.43657324627748 0 -193.43657324627748 -128.97238546914105 0 0 0 0 68.81484556398614 -34.684848996447116 0 -34.684848996447116 -16.487685587688116 0 0 0 0 211.73869633582945 -421.91431948766331 0 -421.91431948766331 -325.66681076202804 0 0 0 0 -129.53137206802569 -296.02063250563003 0 -296.02063250563003 -16.907108808920384 0 0 0 0 207.20597785152495 30.275082518768613 0 30.275082518768613 -24.585820936882556 0 0 0 0 181.87552658103232 1.1546220707787143 0 1.1546220707787143 -31.310272890097622 0 0 0 0 197.96540242223273 1.4021882574925257 0 1.4021882574925257 -60.897279959484877 0 0 0 0 169.49861898731979 -6.4206523393213502 0 -6.4206523393213502 -64.971033741345309 0 0 0 0 190.23806069722923 -17.931492666411941 0 -17.931492666411941 -57.629933372463256 0 0 0 0 175.76499646571028 5.1933901099255309 0 5.1933901099255309 -84.088709486768494 0 0 0 0 182.79168438531633 13.452193762193929 0 13.452193762193929 -62.461728722053522 0 0 0 0 147.37994591637835 0.42694139276682108 0 0.42694139276682108 -59.417800565926882 0 0 0 0 205.60762103809611 -8.9612784710952837 0 -8.9612784710952837 -79.3764880782619 0 0 0 0 204.19764918897272 -4.7952058017672243 0 -4.7952058017672243 -90.260293848230503 0 0 0 0 238.01517726609018 44.969207571906736 0 44.969207571906736 -56.795138022645915 0 0 0 0 240.86539082585659 23.349969401646376 0 23.349969401646376 -79.010276098280883 0 0 0 0 276.15745199456433 23.446994633137365 0 23.446994633137365 -98.999792460912431 0 0 0 0 282.28055567446063 -11.515619075375525 0 -11.515619075375525 -104.44444020610536 0 0 0 0 259.36042340141648 -39.008098012142 0 -39.008098012142 -89.743183058668365 0 0 0 0 202.02396235043489 -46.231511692955792 0 -46.231511692955792 -89.549651816378173 0 0 0 0 147.15765597647987 -29.089765029071714 0 -29.089765029071714 -73.231942921502196 0 0 0 0 244.44371614160627 3.1675350684836303 0 3.1675350684836303 -92.751151904969447 0 0 0 0 167.89251662963579 -68.341209655132843 0 -68.341209655132843 -66.034315901420996 0 0 0 0 143.93258863541269 -18.67351190579393 0 -18.67351190579393 -65.752566958435636 0 0 0 0 60.836690143667511 -80.56642008052404 0 -80.56642008052404 -53.125131739991048 0 0 0 0 -34.121656431347219 -31.760729371501839 0 -31.760729371501839 -4.0341564984737488 0 0 0 0 54.874027801863122 21.231019449871383 0 21.231019449871383 -36.098302185539069 0 0 0 0 121.9521992698792 -35.599910964956507 0 -35.599910964956507 -64.919008759842541 0 0 0 0 115.92659235338942 23.859410614841181 0 23.859410614841181 -40.005854150152118 0 0 0 0 118.07919704797678 8.0902581990339968 0 8.0902581990339968 -58.335474143208558 0 0 0 0 583.99329770542909 32.493405782717787 0 32.493405782717787 -5.893589831146528 0 0 0 0 -158.11371550054173 -17.492886021342201 0 -17.492886021342201 63.02386196174848 0 0 0 0 545.73857751241758 180.28531671563684 0 180.28531671563684 23.442594665087199 0 0 0 0 2.9290162622458489 -2.551667768951333 0 -2.551667768951333 1.5465618555255887 0 0 0 0 -30.448888768184588 -79.387521692706542 0 -79.387521692706542 78.982022445054099 0 0 0 0 402.67882150191508 58.48996685800671 0 58.48996685800671 -21.345380669385122 0 0 0 0 78.183564298826241 27.214430777327834 0 27.214430777327834 53.139184713054419 0 0 0 0 291.36670652793691 168.8089520042638 0 168.8089520042638 66.826158844473866 0 0 0 0 117.57464214510401 88.877514253147638 0 88.877514253147638 44.231602149056016 0 0 0 0 -83.784028440240036 342.46064049063034 0 342.46064049063034 -84.769399496421102 0 0 0 0 46.795251437331899 76.846613523111955 0 76.846613523111955 -61.78941265038884 0 0 0 0 91.766325253433024 39.940348615476978 0 39.940348615476978 -49.183667761470133 0 0 0 0 177.41412884435704 66.247655546906572 0 66.247655546906572 -174.3162882959441 0 0 0 0 332.2946720992768 -34.667386016022647 0 -34.667386016022647 -138.56962542789006 0 0 0 0 710.34979554231541 -124.96550478500831 0 -124.96550478500831 -180.95799713373162 0 0 0 0 228.95747983713227 102.68642247070238 0 102.68642247070238 -288.50516985498689 0 0 0 0 279.2755607020772 -143.39996039030575 0 -143.39996039030575 -43.446741764913895 0 0 0 0 572.34635011703358 486.79087633301424 0 486.79087633301424 -479.97430278848697 0 0 0 0 711.56280676794995 -239.89747776753575 0 -239.89747776753575 98.277715913092834 0 0 0 0 262.92797777579835 -188.21639158113976 0 -188.21639158113976 -6.3951467222850624 0 0 0 0 125.80450382424169 -126.81267392390146 0 -126.81267392390146 -8.4051654567856531 0 0 0 0 104.59487030714808 -88.415847045514965 0 -88.415847045514965 20.547023562929098 0 0 0 0 107.93425793359347 -79.269200232882213 0 -79.269200232882213 12.84243582783165 0 0 0 0 136.5604470881226 -69.742334520262375 0 -69.742334520262375 14.789397520135026 0 0 0 0 155.88671816902206 -46.211283177386576 0 -46.211283177386576 -2.7262117454411054 0 0 0 0 207.50280585972359 -125.89373106238054 0 -125.89373106238054 -12.419398959711543 0 0 0 0 140.16057828678458 -102.32837747351914 0 -102.32837747351914 -11.15931256443946 0 0 0 0 239.28494101707111 -103.85129862759277 0 -103.85129862759277 -49.295828118225472 0 0 0 0 185.29699256153981 -43.192822334034645 0 -43.192822334034645 -76.796490963204633 0 0 0 0 219.52560986633762 -24.889828032264177 0 -24.889828032264177 -69.711136316978809 0 0 0 0 191.39407741718605 -9.3229963568264793 0 -9.3229963568264793 -39.923131451356312 0 0 0 0 182.85620015703898 -45.758248009497947 0 -45.758248009497947 -21.395654289222875 0 0 0 0 101.47490792970166 -25.185067299080401 0 -25.185067299080401 82.216134348879677 0 0 0 0 216.01958037993973 -45.826078555087861 0 -45.826078555087861 58.567932577795091 0 0 0 0 467.73462818833104 -99.177713058277277 0 -99.177713058277277 60.304078213877347 0 0 0 0 277.54942657531137 -31.56116383963581 0 -31.56116383963581 78.911047579001206 0 0 0 0 405.60194107799907 -6.5714154371385121 0 -6.5714154371385121 20.646386928078755 0 0 0 0 375.62485773807202 45.490021272809827 0 45.490021272809827 19.141818657486056 0 0 0 0 294.55331113571083 30.698004771262731 0 30.698004771262731 9.3834624737555714 0 0 0 0 266.64442007886373 -3.515696138924568 0 -3.515696138924568 57.921430708955086 0 0 0 0 227.11306660072842 -28.68685842807804 0 -28.68685842807804 67.213767250761521 0 0 0 0 131.79140053252377 20.059967957994104 0 20.059967957994104 70.030059141767197 0 0 0 0 201.30083872408795 1.4913390948809138 0 1.4913390948809138 101.71866479199412 0 0 0 0 178.67118854250293 -22.886457008049092 0 -22.886457008049092 76.397922776645828 0 0 0 0 140.57075126421978 46.190634928780014 0 46.190634928780014 89.03931302404817 0 0 0 0 45.477155787981246 7.1268395108336335 0 7.1268395108336335 80.388697104976472 0 0 0 0 41.560755680154557 71.173147824268256 0 71.173147824268256 67.544606172341446 0 0 0 0 -9.5145431867513253 27.188631745510975 0 27.188631745510975 29.67149062469241 0 0 0 0 7.8872103785098489 105.9508868392378 0 105.9508868392378 12.540385314182458 0 0 0 0 38.931362437530879 12.869280613903356 0 12.869280613903356 -19.055633476207731 0 0 0 0 85.768382622562058 66.966285406362204 0 66.966285406362204 41.371009362141876 0 0 0 0 138.68616880882655 14.149977320235848 0 14.149977320235848 31.42105559909669 0 0 0 0 -2.1107955247225618 121.56271093671967 0 121.56271093671967 -43.153755238800386 0 0 0 0 44.010737582289494 90.673925413850839 0 90.673925413850839 -195.90697671409271 0 0 0 0 -32.843342777645375 65.231034299689327 0 65.231034299689327 -28.737034890235009 0 0 0 0 17.583496740485806 -53.136288371955288 0 -53.136288371955288 27.40509741988717 0 0 0 0 121.13121042768216 53.025284629825933 0 53.025284629825933 -98.065992152469335 0 0 0 0 13.381876809613086 6.5708580208211593 0 6.5708580208211593 2.3255458345007218 0 0 0 0 -23.872930380039179 -2.4503898184525497 0 -2.4503898184525497 -40.346573248027198 0 0 0 0 0.97860033590436091 -1.8786306747043673 0 -1.8786306747043673 -2.1516814926288603 0 0 0 0 26.771455598473494 -6.6065467676430671 0 -6.6065467676430671 -13.606693697055562 0 0 0 0 27.0275542197096 -4.424643732164327 0 -4.424643732164327 0.68701956859149504 0 0 0 0 10.464767557365121 -8.738734584152283 0 -8.738734584152283 -10.348424787227547 0 0 0 0 11.070891099720029 -20.010340237893615 0 -20.010340237893615 9.7033088718962972 0 0 0 0 22.986648945875459 -31.839066996719339 0 -31.839066996719339 -1.1435907983450306 0 0 0 0 43.720382142015524 -32.457084069196526 0 -32.457084069196526 -80.250539982229839 0 0 0 0 18.991310634211423 7.2587802648799009 0 7.2587802648799009 0.74694075848287689 0 0 0 0 -24.426134890913318 64.121409361560154 0 64.121409361560154 -54.421308770364703 0 0 0 0 67.457761654842557 32.006262157216725 0 32.006262157216725 21.926629126030093 0 0 0 0 51.882554714567959 1.400457007364821 0 1.400457007364821 -70.727733204565084 0 0 0 0 4.0812493044383613 0.066556407322940991 0 0.066556407322940991 -2.8514146611015612 0 0 0 0 -37.507363043026089 39.035899809712646 0 39.035899809712646 -30.980676520137877 0 0 0 0 0.4436086974310518 -0.97507605657289043 0 -0.97507605657289043 -1.3299447994533544 0 0 0 0 -187.35451972561532 48.191912215676439 0 48.191912215676439 25.878329157106236 0 0 0 0 118.52085941216956 39.192390793350569 0 39.192390793350569 4.224835956586503 0 0 0 0 -35.521037070345301 63.199459823655616 0 63.199459823655616 -28.927964857784559 0 0 0 0 -39.618768004587764 68.056365908452335 0 68.056365908452335 6.9796609975564934 0 0 0 0 -40.314179136169059 102.94291347115541 0 102.94291347115541 6.2601155258194012 0 0 0 0 152.20400618322583 80.500213325303321 0 80.500213325303321 -19.663029773587368 0 0 0 0 134.36710759395999 51.522260084221898 0 51.522260084221898 13.578402203795122 0 0 0 0 2.3620724796560792 -0.80621138715711105 0 -0.80621138715711105 -1.370889599967688 0 0 0 0 155.03063684088801 112.76108341818158 0 112.76108341818158 41.236067856400041 0 0 0 0 109.78513687324583 19.178938442144471 0 19.178938442144471 9.7480774770483549 0 0 0 0 4.8259027768882792 -1.2314537012406968 0 -1.2314537012406968 -0.51446816957393082 0 0 0 0 106.6000558136097 58.91363289733232 0 58.91363289733232 22.255938234779023 0 0 0 0 113.50945172414185 66.685681539942379 0 66.685681539942379 30.449612894445409 0 0 0 0 122.69496172922663 65.36563721811126 0 65.36563721811126 20.484485010329081 0 0 0 0 0.30270172905767939 11.813941894760745 0 11.813941894760745 2.7377169006961601 0 0 0 0 173.97906341586622 -0.17144679521470607 0 -0.17144679521470607 -3.9753187502665241 0 0 0 0 -3.3615471983608245 2.7158659752233927 0 2.7158659752233927 4.4693875946888806 0 0 0 0 -25.642113890018663 5.8642524731351386 0 5.8642524731351386 6.721017104088105 0 0 0 0 17.937010981830099 14.58192928017138 0 14.58192928017138 2.5803917520337336 0 0 0 0 22.288016566815941 12.146931521387501 0 12.146931521387501 3.0625151551403178 0 0 0 0 1.2846972702608355 8.3765616760307751 0 8.3765616760307751 7.0317149905585765 0 0 0 0 -4.9922503962337714 6.5430579760397904 0 6.5430579760397904 8.2881740333050402 0 0 0 0 13.286499404708024 6.500061755236402 0 6.500061755236402 4.0907434473080571 0 0 0 0 97.104724287160025 28.86859372073188 0 28.86859372073188 16.127923516326064 0 0 0 0 2.1359111098952255 7.2414937124760357 0 7.2414937124760357 6.493102608855355 0 0 0 0 166.51239720217745 2.870084333879845 0 2.870084333879845 -2.5761800838513409 0 0 0 0 79.6335599051298 14.605606168589333 0 14.605606168589333 15.429375521021484 0 0 0 0 4.8699446044747674 10.476350729567457 0 10.476350729567457 9.1857890782735012 0 0 0 0 -2.1136840691683565 5.1703241444097046 0 5.1703241444097046 8.9505550139197769 0 0 0 0 148.34936143645973 56.462032995916729 0 56.462032995916729 13.324749212450854 0 0 0 0 -1.3425805273557556 -0.82042919826825766 0 -0.82042919826825766 2.6388769537070154 0 0 0 0 -47.420544178877776 103.1127590007859 0 103.1127590007859 4.7780308843903185 0 0 0 0 225.49000157468777 28.958793335214068 0 28.958793335214068 0.18790039410032477 0 0 0 0 1.0530353936307728 5.4577048699887474 0 5.4577048699887474 9.0483113285262107 0 0 0 0 -1.4120938420438733 -130.41348056271715 0 -130.41348056271715 -279.18734737287741 0 0 0 0 4.2974073749175243 1.9575152954539092 0 1.9575152954539092 0.84103753010792026 0 0 0 0 44.331618306700193 172.04634661192358 0 172.04634661192358 295.18310157202268 0 0 0 0 60.838556139450134 354.49638135526084 0 354.49638135526084 191.85818894274598 0 0 0 0 337.25944516286791 206.03894241237276 0 206.03894241237276 -285.67153485108975 0 0 0 0 -52.677286216909579 94.84044919601871 0 94.84044919601871 -45.097426441899188 0 0 0 0 -3.2379035146473019 8.4291031521030142 0 8.4291031521030142 23.87015081940773 0 0 0 0 -211.47506829265876 25.185223561589737 0 25.185223561589737 671.8610235305423 0 0 0 0 3.383476759981761 4.3005594947218331 0 4.3005594947218331 1.4766167575889009 0 0 0 0 59.369738633513407 31.607145975591493 0 31.607145975591493 18.550108257548345 0 0 0 0 80.542893474452171 58.321855739469356 0 58.321855739469356 36.239846844329804 0 0 0 0 108.55927125018854 74.481321535313327 0 74.481321535313327 38.235315974841797 0 0 0 0 84.179834176463373 57.187370017301873 0 57.187370017301873 35.833700748382398 0 0 0 0 0.92765748676983861 -1.3937049458949904 0 -1.3937049458949904 -1.4330030292789111 0 0 0 0 69.522869934968185 -14.354475048236054 0 -14.354475048236054 -37.64092502436506 0 0 0 0 94.162318114427762 13.462312837786158 0 13.462312837786158 -16.267421785847546 0 0 0 0 102.89192141858757 47.125059678035541 0 47.125059678035541 9.6898993480544959 0 0 0 0 93.459531557641185 60.945570890894942 0 60.945570890894942 30.856617144287156 0 0 0 0 113.44805111188174 64.333498452976073 0 64.333498452976073 36.573565006683566 0 0 0 0 123.86620357589203 62.278412871350611 0 62.278412871350611 23.867969472470577 0 0 0 0 120.08936653843728 57.855587604416542 0 57.855587604416542 19.995417724506297 0 0 0 0 181.08492799912779 22.662321378324123 0 22.662321378324123 7.45450210629906 0 0 0 0 221.66219723698077 80.813357457484017 0 80.813357457484017 12.763637411178934 0 0 0 0 108.35184370272941 84.733761389621577 0 84.733761389621577 48.224912588211737 0 0 0 0 177.18673441254771 68.200964649007801 0 68.200964649007801 24.212991494439621 0 0 0 0 1.7456349002662395 -1.2573200038750088 0 -1.2573200038750088 1.3708059414912306 0 0 0 0 98.486531632035167 86.016836971271914 0 86.016836971271914 58.936902707405352 0 0 0 0 49.060364751240741 58.380542028244236 0 58.380542028244236 46.725473166599841 0 0 0 0 176.89146222709633 106.58643423695867 0 106.58643423695867 44.182553748694772 0 0 0 0 80.876604058122282 -33.46302738040157 0 -33.46302738040157 -13.209553140599382 0 0 0 0 228.76902687543151 100.18371769545809 0 100.18371769545809 20.257147536423872 0 0 0 0 47.099180941761915 188.28782920628691 0 188.28782920628691 323.52060214791345 0 0 0 0 28.045782956319272 36.761987812569714 0 36.761987812569714 28.559734329945059 0 0 0 0 19.7400513243972 -0.58159134185189032 0 -0.58159134185189032 4.9212582129257498 0 0 0 0 18.90987361257703 11.382366864530923 0 11.382366864530923 22.578211288964155 0 0 0 0 49.848908164693967 21.977914894102469 0 21.977914894102469 22.531821110133023 0 0 0 0 48.097699424818529 24.971551371182159 0 24.971551371182159 16.979510792622023 0 0 0 0 29.720661966362513 35.071281675347564 0 35.071281675347564 39.416013011090399 0 0 0 0 66.915261052362894 62.863610790629536 0 62.863610790629536 55.840803514522122 0 0 0 0 31.558412935462911 -7.3910165213237633 0 -7.3910165213237633 16.879526242486463 0 0 0 0 38.503477129063867 20.402117017982164 0 20.402117017982164 25.85735821009439 0 0 0 0 37.080979145995514 -5.097011871212942 0 -5.097011871212942 15.977230247026455 0 0 0 0 10.731504561199017 -11.772286627250651 0 -11.772286627250651 -7.2959332426253241 0 0 0 0 6.1142289709559918 -11.566730948867189 0 -11.566730948867189 18.495772481671338 0 0 0 0 16.076122996658341 -9.8083581591781694 0 -9.8083581591781694 6.1816315165197011 0 0 0 0 -2.4445741729496149 -25.029001288177824 0 -25.029001288177824 -28.145608428632841 0 0 0 0 5.4675563622276968 -0.8563143280625809 0 -0.8563143280625809 4.992606530732246 0 0 0 0 8.442831718827847 -20.303273199598152 0 -20.303273199598152 -39.094639380215085 0 0 0 0 3.7346097621539229 -4.6870218555995962 0 -4.6870218555995962 4.1385690530805732 0 0 0 0 19.467016084541676 -9.7316358606137392 0 -9.7316358606137392 -10.354188773448477 0 0 0 0 38.454243765987485 0.70629958136851201 0 0.70629958136851201 -59.323047976231464 0 0 0 0 11.441555287458868 -27.319782333885087 0 -27.319782333885087 -69.185492435011838 0 0 0 0 23.953172713460603 -2.4627609609574712 0 -2.4627609609574712 -9.0073747150553896 0 0 0 0 42.224149357223723 -7.9890638283395674 0 -7.9890638283395674 -76.933401068868989 0 0 0 0 16.190670079740997 -9.8075695534162186 0 -9.8075695534162186 -2.4194580272666926 0 0 0 0 20.709799934644252 -9.9013814303580148 0 -9.9013814303580148 -7.4422520389953206 0 0 0 0 31.531297396463252 -0.28990251995088734 0 -0.28990251995088734 -6.2191444425347981 0 0 0 0 23.939870524712205 -12.614378612190194 0 -12.614378612190194 11.928715895632195 0 0 0 0 -30.629245266607541 -41.209469497262035 0 -41.209469497262035 -37.052178459831339 0 0 0 0 12.703384237473074 2.4203154886954508 0 2.4203154886954508 -7.0076651263298118 0 0 0 0 23.908256321344197 -15.274877674999516 0 -15.274877674999516 4.6965578879289751 0 0 0 0 8.8171960870669661 -8.3951933313917912 0 -8.3951933313917912 -1.8358337093401147 0 0 0 0 33.211195324471191 1.6699007710856222 0 1.6699007710856222 3.4360675575408095 0 0 0 0 9.3145397849888845 -6.5018284545966232 0 -6.5018284545966232 3.9751968014807879 0 0 0 0 33.98872949295037 -2.2775438606186071 0 -2.2775438606186071 1.1798512201712583 0 0 0 0 23.703346251737116 -14.615963795606149 0 -14.615963795606149 7.9989696746815753 0 0 0 0 42.619872367258722 -5.2187391962152105 0 -5.2187391962152105 -7.3682487070655043 0 0 0 0 62.680199050211741 -8.9132133597281609 0 -8.9132133597281609 -0.25889681642365758 0 0 0 0 33.952195901205414 -14.205736969373902 0 -14.205736969373902 11.750719426240721 0 0 0 0 12.802495672681902 3.4329398113107441 0 3.4329398113107441 1.4702175228419581 0 0 0 0 39.304370540341552 -14.075994445292963 0 -14.075994445292963 9.3856934173927584 0 0 0 0 37.481564487943615 -10.403820869196352 0 -10.403820869196352 4.6357488512958298 0 0 0 0 46.336262682803408 -25.462031626490443 0 -25.462031626490443 6.9729130777868704 0 0 0 0 42.553932680736693 -11.221007382097469 0 -11.221007382097469 7.9223431057907874 0 0 0 0 132.09242523610919 -157.02159798070807 0 -157.02159798070807 152.87651348104419 0 0 0 0 268.41553781390712 -145.93845625494896 0 -145.93845625494896 -175.89796839128758 0 0 0 0 177.30867289039907 98.868450164065507 0 98.868450164065507 -213.65371947808057 0 0 0 0 75.291661077735398 -32.378881355986778 0 -32.378881355986778 4.0179533944574359 0 0 0 0 32.427597120040446 165.78189464754814 0 165.78189464754814 13.565180511479355 0 0 0 0 114.57594238794263 -128.29545498313155 0 -128.29545498313155 60.762928457655107 0 0 0 0 -137.47836299918868 -55.556963318593262 0 -55.556963318593262 186.25797427606449 0 0 0 0 -2.1401597804393009 9.6813556531072091 0 9.6813556531072091 18.096440891818283 0 0 0 0 -41.974645929006783 64.791297601272618 0 64.791297601272618 98.863939358272546 0 0 0 0 208.58776202253716 -32.646678729918676 0 -32.646678729918676 -36.031419232298504 0 0 0 0 7.3673838250861081 47.183853926427219 0 47.183853926427219 -12.485802280299666 0 0 0 0 -0.52087222462013649 0.10895535178203097 0 0.10895535178203097 1.3246126731763965 0 0 0 0 174.05736014658714 47.438315493037408 0 47.438315493037408 -12.50478058900444 0 0 0 0 12.264854365036395 0.50078877211928274 0 0.50078877211928274 0.55651823344888385 0 0 0 0 5.9585106174055156 10.637291839193171 0 10.637291839193171 6.3911226859061294 0 0 0 0 -22.493133732339402 13.139078222802482 0 13.139078222802482 35.198834492170135 0 0 0 0 59.024042555561664 11.584577626371811 0 11.584577626371811 0.49604203921876433 0 0 0 0 11.122541127478639 1.3385848400411895 0 1.3385848400411895 -0.21623269459479388 0 0 0 0 41.649706866781884 2.5474955014697667 0 2.5474955014697667 -0.93087428479535683 0 0 0 0 49.778389790437359 8.4668637263357596 0 8.4668637263357596 -6.0739756120193533 0 0 0 0 81.81367472649481 5.0134201544451571 0 5.0134201544451571 -7.1875993161911538 0 0 0 0 12.38561453239577 -0.81257117472074647 0 -0.81257117472074647 -0.82063984763291309 0 0 0 0 57.145188476624753 20.11274999494708 0 20.11274999494708 5.2957789613938075 0 0 0 0 93.336231981584206 26.299514006977915 0 26.299514006977915 0.95445545566508372 0 0 0 0 77.169380825830558 -13.332679579052638 0 -13.332679579052638 -5.9237823556013609 0 0 0 0 -0.14690155985249476 -2.9110537592669949 0 -2.9110537592669949 0.33888654070055835 0 0 0 0 43.424473306045911 -1.8191187977904519 0 -1.8191187977904519 4.9713102999339753 0 0 0 0 22.618330087488175 2.5597877006248382 0 2.5597877006248382 3.4790843581266699 0 0 0 0 3.2403964404736527 -5.1738271066101831 0 -5.1738271066101831 0.10460676992676099 0 0 0 0 14.428463764577423 -5.4196312064968879 0 -5.4196312064968879 -2.7135816044101375 0 0 0 0 50.066342313013138 7.0102820364090803 0 7.0102820364090803 -15.598820959849945 0 0 0 0 22.57715666832064 2.2328631025316099 0 2.2328631025316099 1.1271321955628082 0 0 0 0 382.37278013585092 309.39583075336805 0 309.39583075336805 -191.42293962699841 0 0 0 0 177.07763513792088 322.49609990828048 0 322.49609990828048 121.38612778359311 0 0 0 0 698.33943049919617 325.48509363388257 0 325.48509363388257 100.80408213980809 0 0 0 0 -256.61500957380849 293.61042149467994 0 293.61042149467994 -275.69621738268052 0 0 0 0 -89.095189238220883 -613.95960415419574 0 -613.95960415419574 55.886166595999384 0 0 0 0 288.11780616796023 57.54650144936204 0 57.54650144936204 66.456032606532972 0 0 0 0 595.81954788177973 -88.054975897880468 0 -88.054975897880468 -104.92837387126747 0 0 0 0 901.63601222921716 -229.17637607624647 0 -229.17637607624647 193.12918057649949 0 0 0 0 799.82552369077166 -68.024557622331486 0 -68.024557622331486 240.16594012576843 0 0 0 0 1412.9489499890929 302.08430730316252 0 302.08430730316252 244.52047960236087 0 0 0 0 150.04161154800022 -562.77538944955813 0 -562.77538944955813 235.98293544621993 0 0 0 0 370.68425934564038 -355.34218369567998 0 -355.34218369567998 315.56968017781037 0 0 0 0 323.89675602819261 -78.926282744191667 0 -78.926282744191667 396.38310359857132 0 0 0 0 595.1603593564214 -100.27171039040513 0 -100.27171039040513 550.6047316557233 0 0 0 0 313.01166360048228 -295.52319195020482 0 -295.52319195020482 673.0740107739548 0 0 0 0 384.32822341017891 -195.63834060592308 0 -195.63834060592308 616.85181728954194 0 0 0 0 1399.6648957959246 -446.5951438020187 0 -446.5951438020187 463.18477429685663 0 0 0 0 606.89884053640708 -168.85419386446119 0 -168.85419386446119 950.14217596289382 0 0 0 0 890.14784699497977 -91.937880987472454 0 -91.937880987472454 771.30252288136035 0 0 0 0 686.94547309499103 606.81237650287858 0 606.81237650287858 583.67176512889091 0 0 0 0 942.23437321982055 220.86654543545592 0 220.86654543545592 -175.17259725109943 0 0 0 0 140.72453923681678 412.88203186547253 0 412.88203186547253 783.61734393149709 0 0 0 0 6.7063470186799492 2.1156950930882417 0 2.1156950930882417 0.17410477538973002 0 0 0 0 618.57463521986938 377.56556139641907 0 377.56556139641907 263.99558805975903 0 0 0 0 180.26153014834199 364.54498213337502 0 364.54498213337502 513.97758969248389 0 0 0 0 1.3376141358785389 32.394991745870357 0 32.394991745870357 77.14159201419443 0 0 0 0 209.95054602887467 328.72790575657109 0 328.72790575657109 159.62364575813262 0 0 0 0 32.767873882319691 167.59827168484753 0 167.59827168484753 600.44441634771829 0 0 0 0 24.848480909808131 29.901607490497554 0 29.901607490497554 -53.383194355945761 0 0 0 0 93.796477401534503 34.11044162120379 0 34.11044162120379 10.326360004676758 0 0 0 0 18.254723848075216 5.1606862389081076 0 5.1606862389081076 0.17793238955041346 0 0 0 0 16.181500997423427 30.379849511393331 0 30.379849511393331 -52.138747093624261 0 0 0 0 118.86413224763237 5.0191775184548533 0 5.0191775184548533 -55.696006313326507 0 0 0 0 178.29318424499979 168.89754593918701 0 168.89754593918701 103.59834734757169 0 0 0 0 187.47838313093234 249.34058330578091 0 249.34058330578091 -43.673526390019106 0 0 0 0 189.13535370252794 283.0292259728667 0 283.0292259728667 156.00233072249608 0 0 0 0 163.5621469777343 286.17141862786048 0 286.17141862786048 72.192188984703989 0 0 0 0 424.10637634895647 361.8195633458555 0 361.8195633458555 90.125490808954055 0 0 0 0 401.5845654310142 226.3026394425965 0 226.3026394425965 -43.638546405289752 0 0 0 0 199.91580413391966 99.71714855143091 0 99.71714855143091 -66.765463880066477 0 0 0 0 231.40445722311233 62.979738200251859 0 62.979738200251859 -25.431494196890526 0 0 0 0 755.59985713499009 32.30832166468781 0 32.30832166468781 -32.942248113002734 0 0 0 0 124.29969151924956 -232.077074395712 0 -232.077074395712 313.81956310320857 0 0 0 0 466.36803843862435 112.84633079548189 0 112.84633079548189 -170.49420881510332 0 0 0 0 3.0958260689985764 83.677184578577453 0 83.677184578577453 383.89998736805831 0 0 0 0 98.732521734147667 -394.74971478438465 0 -394.74971478438465 -172.7150570698027 0 0 0 0 407.3801027587981 -111.53934099134395 0 -111.53934099134395 59.065045015363921 0 0 0 0 7.1332658025643951 -0.83972812646914718 0 -0.83972812646914718 -0.99952202847060789 0 0 0 0 343.22711203274048 129.03291017027823 0 129.03291017027823 -330.73551178405842 0 0 0 0 -129.91630752757737 32.165040870350936 0 32.165040870350936 104.64219210135798 0 0 0 0 372.88317204176928 -107.33881457198549 0 -107.33881457198549 -633.2553986881494 0 0 0 0 13.757693431014133 -2.8424969732746987 0 -2.8424969732746987 -1.4995355409339401 0 0 0 0 -14.361132158857799 47.305797495315801 0 47.305797495315801 -98.564755098399928 0 0 0 0 31.540614098376864 161.93129933432203 0 161.93129933432203 -48.379785837524651 0 0 0 0 226.75866719531768 -223.66841578569893 0 -223.66841578569893 -395.71700923514311 0 0 0 0 532.59618725326982 416.60722755765175 0 416.60722755765175 137.914669759107 0 0 0 0 100.73211715905745 37.48958587693528 0 37.48958587693528 170.54522440104984 0 0 0 0 11.461358077740442 72.879396904870305 0 72.879396904870305 51.30911112305148 0 0 0 0 -26.411423480362828 -29.128243241633442 0 -29.128243241633442 106.59040960251059 0 0 0 0 3.6787507566196567 -1.873782511562549 0 -1.873782511562549 0.78832078432991981 0 0 0 0 200.28600273573102 -153.07045400471691 0 -153.07045400471691 93.841882762963451 0 0 0 0 25.112925086861651 -67.951289685727943 0 -67.951289685727943 128.09922959261507 0 0 0 0 -14.079870872765241 123.31937422543967 0 123.31937422543967 314.18660607104061 0 0 0 0 362.63580109835061 -136.79442481458429 0 -136.79442481458429 130.86397845400779 0 0 0 0 367.13435344265872 -66.461149719349805 0 -66.461149719349805 -62.087775276814682 0 0 0 0 213.28273585252828 -7.685771784058602 0 -7.685771784058602 -82.432411708408097 0 0 0 0 193.54552379892334 -70.871298672102824 0 -70.871298672102824 -0.15163848315751238 0 0 0 0 91.552287728576175 161.58141605946753 0 161.58141605946753 -11.532911283477915 0 0 0 0 290.3698012105142 56.2606064700974 0 56.2606064700974 -14.56553636722856 0 0 0 0 273.81392567231342 40.535396352367343 0 40.535396352367343 15.629627981792453 0 0 0 0 0.32315907862500737 0.27903124724186412 0 0.27903124724186412 0.80271198810594679 0 0 0 0 217.30151145065429 -7.0047841485759363 0 -7.0047841485759363 7.7251228036170687 0 0 0 0 352.71257630093214 -2.9186411256784481 0 -2.9186411256784481 -26.200851216548472 0 0 0 0 242.59290534795582 32.769614827358851 0 32.769614827358851 -25.635557129032804 0 0 0 0 148.09719472900906 59.001213544595089 0 59.001213544595089 7.5590552050658744 0 0 0 0 196.77303989842767 34.989405467599795 0 34.989405467599795 -25.112234036457721 0 0 0 0 166.56858868003474 20.850765526392138 0 20.850765526392138 -20.010942468665007 0 0 0 0 195.92819224045161 37.437701378183021 0 37.437701378183021 -32.166609974404992 0 0 0 0 214.47483538069025 33.675276080742876 0 33.675276080742876 -35.534304251145841 0 0 0 0 214.25990522591712 5.4236584226774758 0 5.4236584226774758 -15.039418991203547 0 0 0 0 180.66401743587267 -6.0967760148910202 0 -6.0967760148910202 -7.0072222646495419 0 0 0 0 0.72866276604689517 0.95509726321942878 0 0.95509726321942878 1.0368875325195406 0 0 0 0 140.81778398104871 22.827802355639164 0 22.827802355639164 -3.878072205154524 0 0 0 0 188.04193943372229 18.311588250862769 0 18.311588250862769 -48.185128950880085 0 0 0 0 185.37296069833064 -20.361626404901472 0 -20.361626404901472 9.7614809518443053 0 0 0 0 179.10152318498058 18.492323770197828 0 18.492323770197828 -4.8940691145758137 0 0 0 0 94.770050868901308 -16.508998776449516 0 -16.508998776449516 14.654352829802065 0 0 0 0 86.065025736930693 2.403441169403095 0 2.403441169403095 -0.43342529383687634 0 0 0 0 70.101351891036757 13.579964040751179 0 13.579964040751179 6.0580454807836759 0 0 0 0 83.226642013998571 -10.024628645825601 0 -10.024628645825601 -5.2044222945932717 0 0 0 0 97.916510116665449 -25.184753424049404 0 -25.184753424049404 -6.5813765657744625 0 0 0 0 10.860315086294577 -4.6595905109513751 0 -4.6595905109513751 5.2443527954278579 0 0 0 0 75.2259539187271 -30.12349900668454 0 -30.12349900668454 -1.2198828340669934 0 0 0 0 37.167485835783737 -18.46262235929612 0 -18.46262235929612 -2.1414448439250009 0 0 0 0 -8.1289327504910034 -6.0638417781863154 0 -6.0638417781863154 14.900397089850003 0 0 0 0 27.873172209052427 -12.579277375239599 0 -12.579277375239599 16.053004619679996 0 0 0 0 27.962840954627836 -15.470595482680309 0 -15.470595482680309 -3.1029328489721593 0 0 0 0 -8.8160432473461015 -12.646322945523089 0 -12.646322945523089 -9.5551976386941533 0 0 0 0 -34.861587223056631 -27.366587161601387 0 -27.366587161601387 0.70565398316557548 0 0 0 0 4.4315570808921834 -3.0296685990676835 0 -3.0296685990676835 -1.7877271099771761 0 0 0 0 244.63733509928807 44.47667023673057 0 44.47667023673057 1.1702933992251019 0 0 0 0 196.75866928030518 50.723401825348901 0 50.723401825348901 15.175913011428293 0 0 0 0 208.47387575242283 52.607006218632932 0 52.607006218632932 23.780327400271744 0 0 0 0 210.05980680643734 53.208188684500328 0 53.208188684500328 6.4178126749857256 0 0 0 0 9.6971878196209218 -7.0957935667378251 0 -7.0957935667378251 -17.028478351567628 0 0 0 0 2.5221254876462957 -2.4304406353551435 0 -2.4304406353551435 1.5558494696461986 0 0 0 0 209.20551026376415 59.251597453371915 0 59.251597453371915 18.681343855850855 0 0 0 0 -1.3431798078145221 -22.338409189887102 0 -22.338409189887102 -4.3354284452177581 0 0 0 0 1.5039829218314953 -0.98846602159291308 0 -0.98846602159291308 -2.8755772673751583 0 0 0 0 -47.081311096548234 -6.4096228624986225 0 -6.4096228624986225 10.464518445333056 0 0 0 0 -0.26593407741540531 -0.31584684781549655 0 -0.31584684781549655 -1.1387262790822632 0 0 0 0 -70.018262076636347 -2.7183599808838323 0 -2.7183599808838323 19.014439811934153 0 0 0 0 -1.9609328676579025 6.7408929548201968 0 6.7408929548201968 17.166475167267436 0 0 0 0 -12.188421360808661 -38.112835430776443 0 -38.112835430776443 32.59298239142845 0 0 0 0 16.298616725842294 8.3765286555947114 0 8.3765286555947114 -10.218656125842813 0 0 0 0 201.19600793788231 -70.289101680294834 0 -70.289101680294834 -13.986373022191174 0 0 0 0 67.044145059409544 -82.191982481250903 0 -82.191982481250903 45.282561631579938 0 0 0 0 69.905167381641405 11.687954886419753 0 11.687954886419753 -10.392474795101407 0 0 0 0 13.958714512094957 -32.924885000448398 0 -32.924885000448398 33.28575097152293 0 0 0 0 24.351533724448018 4.2167075965923573 0 4.2167075965923573 1.2582718679027494 0 0 0 0 -17.841576780716423 17.72091035146309 0 17.72091035146309 -22.452159725198044 0 0 0 0 -15.515688097020757 -1.6442748998520074 0 -1.6442748998520074 34.762058798162343 0 0 0 0 46.540370040420385 -36.233759547345699 0 -36.233759547345699 50.613238672936177 0 0 0 0 10.007922302309453 14.548860691745631 0 14.548860691745631 33.11678534478915 0 0 0 0 37.981787720229477 6.5371079277285844 0 6.5371079277285844 22.113447646349641 0 0 0 0 60.065065068654803 -17.680111275617946 0 -17.680111275617946 38.219494042707609 0 0 0 0 65.362784473738429 -36.65271175885232 0 -36.65271175885232 7.5361672925944276 0 0 0 0 -12.029430321250402 14.048585896804298 0 14.048585896804298 -3.1653031435511423 0 0 0 0 -1.5044571264043043 -22.210635057775107 0 -22.210635057775107 29.381558163360069 0 0 0 0 81.201183098088222 -33.52456015929215 0 -33.52456015929215 -11.603491706008754 0 0 0 0 68.975225209847849 -28.568118593515237 0 -28.568118593515237 2.4697098893943803 0 0 0 0 13.16099629334758 -28.944681658394387 0 -28.944681658394387 7.2417182133094684 0 0 0 0 66.34476485785126 -40.930540401459666 0 -40.930540401459666 -19.945487262272081 0 0 0 0 7.8360080149800524 -40.307069126224633 0 -40.307069126224633 -3.5555102722460106 0 0 0 0 60.121405686499202 -38.97731396477775 0 -38.97731396477775 -19.163179758131264 0 0 0 0 24.983279217870404 -39.473816834469687 0 -39.473816834469687 -6.428652260787203 0 0 0 0 61.950672561184547 -31.766499382340783 0 -31.766499382340783 -7.2122860791196217 0 0 0 0 80.538402970074458 -43.653858274973345 0 -43.653858274973345 -17.303796131564923 0 0 0 0 117.91531629349629 -21.255476235292008 0 -21.255476235292008 -6.9158838118100903 0 0 0 0 104.61123112580572 -43.463333741560291 0 -43.463333741560291 -18.064982703379656 0 0 0 0 98.050449791376195 -34.430190357018773 0 -34.430190357018773 -12.695593233369436 0 0 0 0 128.60996418907234 -37.271389751609149 0 -37.271389751609149 -18.535136531155331 0 0 0 0 138.95518913804153 -21.463341074820164 0 -21.463341074820164 -14.818142415579132 0 0 0 0 144.1744141144809 -39.365166525398081 0 -39.365166525398081 -3.8072421225460857 0 0 0 0 150.97918882002705 -9.2922090923220821 0 -9.2922090923220821 3.6577122694097852 0 0 0 0 129.24409625571025 -43.614984452537328 0 -43.614984452537328 -5.6111091970631151 0 0 0 0 85.963911249065859 -15.277623127935613 0 -15.277623127935613 25.811556632724205 0 0 0 0 227.54435721378468 20.574219938864871 0 20.574219938864871 21.80521470421229 0 0 0 0 222.8424618951758 -11.734224888433118 0 -11.734224888433118 -0.50002645894596753 0 0 0 0 197.71248477003064 -38.49358189330087 0 -38.49358189330087 10.499753364315893 0 0 0 0 184.99812113936423 -17.417952640805879 0 -17.417952640805879 -15.112799641676247 0 0 0 0 146.66308998544264 -27.821106218966634 0 -27.821106218966634 -12.767090677723445 0 0 0 0 170.89339295729292 -22.319812350887375 0 -22.319812350887375 -20.4002809732483 0 0 0 0 194.23630417051754 -10.280873132423949 0 -10.280873132423949 -13.124024347356453 0 0 0 0 169.86359441339096 -5.7359858233202488 0 -5.7359858233202488 -10.353608201724455 0 0 0 0 179.52781361419375 -1.3603567572693578 0 -1.3603567572693578 2.2170212059622827 0 0 0 0 217.66737902966997 14.132599386936818 0 14.132599386936818 -13.848966010942149 0 0 0 0 200.0880581391898 17.108546896662546 0 17.108546896662546 -5.5782109560759636 0 0 0 0 187.8091289665972 5.8512234993900165 0 5.8512234993900165 -12.799038840680623 0 0 0 0 192.7607485837957 30.144325455490133 0 30.144325455490133 0.68997739272163017 0 0 0 0 197.39841926885492 31.699725302863044 0 31.699725302863044 -5.5071058734083635 0 0 0 0 208.69230918711946 52.205064789579069 0 52.205064789579069 7.7649075635413283 0 0 0 0 223.66086214951429 45.369212102488063 0 45.369212102488063 0.22402182047926544 0 0 0 0 244.43438642335241 61.3584999457712 0 61.3584999457712 8.1979600134287978 0 0 0 0 213.93621231773386 67.191666404734292 0 67.191666404734292 16.442499246606985 0 0 0 0 263.05399456810483 30.912522452747453 0 30.912522452747453 -7.6571476416659152 0 0 0 0 350.16040908783134 -15.758468577759714 0 -15.758468577759714 4.5607810685805816 0 0 0 0 401.13420925192622 146.18705877014338 0 146.18705877014338 44.488919043206806 0 0 0 0 0.97936326420529696 -0.68791645904881804 0 -0.68791645904881804 0.72839731612979985 0 0 0 0 257.61064427870679 38.80995053498043 0 38.80995053498043 34.732443639258008 0 0 0 0 209.12381384269429 9.0672434073857175 0 9.0672434073857175 24.658224781981062 0 0 0 0 238.8572379211746 42.716131945878601 0 42.716131945878601 56.176996023288083 0 0 0 0 188.40983454450452 16.56740550344972 0 16.56740550344972 38.61435541562696 0 0 0 0 235.28887428704002 -28.374271407254355 0 -28.374271407254355 64.092297900344676 0 0 0 0 164.7870092458993 -31.398403271941163 0 -31.398403271941163 6.6865931917809576 0 0 0 0 96.147026701491995 -18.157611248025887 0 -18.157611248025887 39.004463499984922 0 0 0 0 230.73293538997495 -18.30485452359153 0 -18.30485452359153 15.183111932115935 0 0 0 0 3.7420375870315183 -39.252489719535561 0 -39.252489719535561 62.731047467104872 0 0 0 0 96.996117457527362 -23.042199984663057 0 -23.042199984663057 13.474840348933412 0 0 0 0 12.408333509488557 -28.117252748428214 0 -28.117252748428214 26.609752771019885 0 0 0 0 5.4431336365651077 5.7538118889669931 0 5.7538118889669931 48.382722381046733 0 0 0 0 56.64451320363878 -56.0757170174615 0 -56.0757170174615 70.613557002161997 0 0 0 0 23.938208738189132 -2.9588866280346338 0 -2.9588866280346338 44.698641602707482 0 0 0 0 242.37695372086091 -101.98190636919242 0 -101.98190636919242 66.500645273080409 0 0 0 0 2.0636209180839629 0.25780182566836318 0 0.25780182566836318 0.11545557666739681 0 0 0 0 318.53584719455557 23.703467488952469 0 23.703467488952469 -11.840476980750736 0 0 0 0 108.33111246796398 113.44112518995212 0 113.44112518995212 68.209018040423189 0 0 0 0 249.68825138224747 -79.274926982008196 0 -79.274926982008196 70.867663838010174 0 0 0 0 234.50829871349197 54.269239968076818 0 54.269239968076818 119.8644524204185 0 0 0 0 314.66546733190853 41.624996954406015 0 41.624996954406015 22.765433106573255 0 0 0 0 205.14323080247186 -10.025449674270988 0 -10.025449674270988 7.7147190273606157 0 0 0 0 139.04346985609118 -0.098008950239204751 0 -0.098008950239204751 41.716090034149374 0 0 0 0 159.87249531332054 -50.067114384267825 0 -50.067114384267825 31.644694821817893 0 0 0 0 169.20934630584634 -35.84567960201457 0 -35.84567960201457 3.0407918038722528 0 0 0 0 198.25199188236002 -43.598872979709881 0 -43.598872979709881 -0.037269408924885283 0 0 0 0 187.23505983563427 -33.009525833128691 0 -33.009525833128691 -1.6825126783771793 0 0 0 0 161.77282108303734 -41.576013314996771 0 -41.576013314996771 19.462585418828439 0 0 0 0 174.13244713728272 -42.053725687671204 0 -42.053725687671204 0.86591072475039255 0 0 0 0 171.96716771199499 -20.601091541638198 0 -20.601091541638198 24.864213012959965 0 0 0 0 179.34326432351008 -11.078246714254419 0 -11.078246714254419 -21.532765274124586 0 0 0 0 225.61946255498333 -33.668779982504589 0 -33.668779982504589 -10.982617763379039 0 0 0 0 194.22458304265274 -26.332075796350637 0 -26.332075796350637 22.025075646428604 0 0 0 0 170.17465418560641 42.272362494450363 0 42.272362494450363 -8.9996516064389738 0 0 0 0 145.64432882875644 22.687124570724677 0 22.687124570724677 1.3694005427646516 0 0 0 0 100.26704327359585 23.164785159960047 0 23.164785159960047 2.4287990024989767 0 0 0 0 76.3695538855427 4.2441061637109669 0 4.2441061637109669 0.92803834012011066 0 0 0 0 60.991975763156006 49.992421081583188 0 49.992421081583188 50.678646895302961 0 0 0 0 -5.5780322462524055 -5.4611819254446345 0 -5.4611819254446345 20.907279566611123 0 0 0 0 -6.2067070938373945 -0.62015160658552304 0 -0.62015160658552304 -2.6308587432031345 0 0 0 0 404.86194035448079 186.27611379915629 0 186.27611379915629 -90.628403709714803 0 0 0 0 7.8788653257549512 -6.7360520759148699 0 -6.7360520759148699 4.4350634093324661 0 0 0 0 3.7580232961809088 -5.3992206447758235 0 -5.3992206447758235 1.9737381880408975 0 0 0 0 2.9102367419321311 -0.85910728500344646 0 -0.85910728500344646 -1.1202824722565943 0 0 0 0 66.669190364285896 -23.572018021421172 0 -23.572018021421172 -71.619689616272808 0 0 0 0 4.0277512097904093 9.6693831894820939 0 9.6693831894820939 7.1038322577096551 0 0 0 0 35.184664204272849 1.4930869355166578 0 1.4930869355166578 0.18628823655762972 0 0 0 0 46.633339793279447 22.054679051062521 0 22.054679051062521 35.957155133048261 0 0 0 0 -4.3151340711838202 22.810146006665775 0 22.810146006665775 4.7919519215952278 0 0 0 0 5.2066529075364087 4.3551127137902768 0 4.3551127137902768 12.060479213349481 0 0 0 0 -31.878559729839253 3.645797844645017 0 3.645797844645017 19.68174488761133 0 0 0 0 -62.479076708395951 25.369941274912776 0 25.369941274912776 27.015752576112391 0 0 0 0 -0.033662810471348337 -0.036793972277241238 0 -0.036793972277241238 -0.19393864135460426 0 0 0 0 109.47770818289973 -38.45985238308981 0 -38.45985238308981 23.630667639184765 0 0 0 0 79.858133999276106 -0.72456236198524948 0 -0.72456236198524948 33.728869105063495 0 0 0 0 119.64446777478224 -30.174831661162443 0 -30.174831661162443 7.2471812363987738 0 0 0 0 23.424608547715252 -19.369825120698806 0 -19.369825120698806 31.652845333067262 0 0 0 0 7.8113530159007496 8.19079691237323 0 8.19079691237323 21.857575520456521 0 0 0 0 -3.8786503547962639 -12.946532822482368 0 -12.946532822482368 25.09743886114552 0 0 0 0 64.313210837855877 18.749097223613035 0 18.749097223613035 -20.158028296401426 0 0 0 0 49.813362445616804 7.43003555273026 0 7.43003555273026 8.259645096886743 0 0 0 0 50.941922916671274 -5.7180353290904407 0 -5.7180353290904407 4.3652197219212212 0 0 0 0 -12.193033237083 23.499991248955666 0 23.499991248955666 10.885257072154445 0 0 0 0 124.45458987276106 -21.020297602384517 0 -21.020297602384517 9.6286973156550175 0 0 0 0 132.68650178148528 -31.454868592840739 0 -31.454868592840739 1.8188032866560206 0 0 0 0 134.82411674657124 -27.942800681866174 0 -27.942800681866174 -11.747956342688667 0 0 0 0 165.188530349129 -44.866793658173947 0 -44.866793658173947 -0.94047756628799561 0 0 0 0 138.04325654279455 -46.698221699119586 0 -46.698221699119586 24.118558568682374 0 0 0 0 162.48147620906093 -44.451792679099981 0 -44.451792679099981 -4.4700691087763289 0 0 0 0 -58.940260702913292 45.685500779271024 0 45.685500779271024 97.713165449392818 0 0 0 0 1.0164779838606854 -0.99666356023204372 0 -0.99666356023204372 1.2536976327967899 0 0 0 0 133.95876844756276 -19.642392675143014 0 -19.642392675143014 -7.0762613591050467 0 0 0 0 -668.39335347829228 -128.26976731370462 0 -128.26976731370462 126.77731964419854 0 0 0 0 -10.737385825319507 -43.445663256654143 0 -43.445663256654143 -1.2327614311016077 0 0 0 0 6.2233517375930241 -10.978651414750608 0 -10.978651414750608 16.284436331610969 0 0 0 0 -417.11203037288215 97.937110418819429 0 97.937110418819429 80.745657431461041 0 0 0 0 -7.5110153380592237 -13.832613798742386 0 -13.832613798742386 -105.60640809949928 0 0 0 0 116.905327854598 -90.961030909337751 0 -90.961030909337751 -58.016629273130093 0 0 0 0 -364.77508870419479 602.68894930478928 0 602.68894930478928 -607.99534566107468 0 0 0 0 -23.642528995136672 -3.756853105929622 0 -3.756853105929622 26.988804819114193 0 0 0 0 -38.483307666287146 -2.5778169219850042 0 -2.5778169219850042 34.472742789865606 0 0 0 0 588.21020650983701 -659.89163533290866 0 -659.89163533290866 329.44806386898563 0 0 0 0 -26.974285700875043 -25.434186546882529 0 -25.434186546882529 17.234745561982891 0 0 0 0 9.0437491674415398 -9.514245390609684 0 -9.514245390609684 8.6292985294737257 0 0 0 0 1.3874992368932837 -3.0529234289384526 0 -3.0529234289384526 4.274526506845084 0 0 0 0 588.82414753629564 9.217187726721022 0 9.217187726721022 -722.13775628466101 0 0 0 0 79.0262802887828 201.66934045777407 0 201.66934045777407 -22.876769401855199 0 0 0 0 7.1465526341902077 -1.5256600197567636 0 -1.5256600197567636 -0.75796296043380273 0 0 0 0 212.46143515254516 -678.53811777000919 0 -678.53811777000919 -182.74593338844988 0 0 0 0 778.78771195001354 -656.32333693548344 0 -656.32333693548344 -251.21931452054741 0 0 0 0 285.58257120061899 -505.01150616828818 0 -505.01150616828818 -55.184969337478833 0 0 0 0 232.78874832435395 -297.7111758402516 0 -297.7111758402516 293.210722156683 0 0 0 0 248.91795218145853 -409.90765776007811 0 -409.90765776007811 135.305254251316 0 0 0 0 246.0359415642597 -384.59604643205967 0 -384.59604643205967 98.517576474820089 0 0 0 0 234.94040972538642 -342.71654028121611 0 -342.71654028121611 -112.19055435729024 0 0 0 0 176.05501154372178 -143.79190182899401 0 -143.79190182899401 -432.75617224909547 0 0 0 0 121.52725630533678 -129.4903374126261 0 -129.4903374126261 51.5420132571453 0 0 0 0 -1.7146122462231688 -60.553075335486824 0 -60.553075335486824 23.900368972972501 0 0 0 0 187.77503752803295 -145.19530890419696 0 -145.19530890419696 198.1847144865169 0 0 0 0 125.21840199542203 -102.82941507444775 0 -102.82941507444775 199.50934546111012 0 0 0 0 194.33640369489876 -90.1147853482762 0 -90.1147853482762 498.14507508311362 0 0 0 0 187.27546076950784 121.26944076706377 0 121.26944076706377 294.49338965101924 0 0 0 0 206.69385589314516 60.156062545984696 0 60.156062545984696 410.12403560802341 0 0 0 0 -82.887345586365882 94.102145239179777 0 94.102145239179777 156.087263464633 0 0 0 0 78.915993554626766 1.6441644066944718 0 1.6441644066944718 177.89515490204553 0 0 0 0 -30.508590021872806 79.667767154197463 0 79.667767154197463 126.91697050362382 0 0 0 0 186.95364207373495 198.59460952665268 0 198.59460952665268 153.17543281065798 0 0 0 0 244.38579492126519 91.603056271160767 0 91.603056271160767 192.06446175313795 0 0 0 0 134.86401230725642 194.44929181718362 0 194.44929181718362 93.598058287238018 0 0 0 0 229.95352547226139 69.436280125906706 0 69.436280125906706 -7.5515368059595858 0 0 0 0 -119.49125061209452 27.385134080933767 0 27.385134080933767 37.949367358196469 0 0 0 0 -14.869176109397813 83.4265493853718 0 83.4265493853718 49.376940918442301 0 0 0 0 -172.85478004563629 36.362648517299021 0 36.362648517299021 86.841728657790327 0 0 0 0 -45.698038231090322 112.47990057223751 0 112.47990057223751 77.649313692721989 0 0 0 0 -122.39424471206803 7.6651439110621595 0 7.6651439110621595 -42.994438056068248 0 0 0 0 -195.19121893707006 -121.36557849521523 0 -121.36557849521523 -80.448057257062828 0 0 0 0 -35.387470458475946 97.830094244856809 0 97.830094244856809 59.340751128665943 0 0 0 0 -254.33355647328426 44.851760732834009 0 44.851760732834009 146.21476247400278 0 0 0 0 -95.331169082422548 -2.8824977539819656 0 -2.8824977539819656 56.524419535169727 0 0 0 0 -375.06739611596959 -205.91897572398062 0 -205.91897572398062 16.715292943408713 0 0 0 0 204.69172245876143 -117.71659892424714 0 -117.71659892424714 -42.392828864275089 0 0 0 0 147.11921783983416 0.43258228746492478 0 0.43258228746492478 120.56207159422593 0 0 0 0 148.35350612125194 -2.0676926224314514 0 -2.0676926224314514 10.596805326232698 0 0 0 0 196.95950025740058 48.543659782465966 0 48.543659782465966 4.4163439552546606 0 0 0 0 141.03222574729443 6.7619612261833026 0 6.7619612261833026 -26.757819712526725 0 0 0 0 173.68752212626532 51.02461335199007 0 51.02461335199007 -32.53803513710227 0 0 0 0 36.83423965680231 80.011766523773531 0 80.011766523773531 -54.254449690688489 0 0 0 0 49.236115841053106 29.168425524859231 0 29.168425524859231 -3.9562664803906955 0 0 0 0 177.21306866269515 50.003956374849622 0 50.003956374849622 -48.871510248636696 0 0 0 0 99.574222622724847 77.86042889329542 0 77.86042889329542 -35.293154606268217 0 0 0 0 134.53041075196234 44.940275319691409 0 44.940275319691409 -22.708699295151746 0 0 0 0 144.63618535179194 56.556905610162175 0 56.556905610162175 -71.036513177780762 0 0 0 0 127.377817323817 29.885138486065898 0 29.885138486065898 -33.590652665345544 0 0 0 0 23.305689017583063 -83.789607051133999 0 -83.789607051133999 4.071707501527726 0 0 0 0 -159.88106877599648 -19.928483148873227 0 -19.928483148873227 30.15987395009779 0 0 0 0 -141.79112113625888 41.748125991788584 0 41.748125991788584 34.6986797156178 0 0 0 0 4.6936349638854651 -8.6052310166891282 0 -8.6052310166891282 13.808245475027574 0 0 0 0 -55.51477553683435 20.62638538970441 0 20.62638538970441 5.8359901189066932 0 0 0 0 -91.815953687138062 31.731802052288458 0 31.731802052288458 17.953567632859631 0 0 0 0 -4.1548321637995969 -1.8180648777703894 0 -1.8180648777703894 4.9422349204171203 0 0 0 0 -1.2179362598185435 1.3783802297614898 0 1.3783802297614898 6.9474737982332044 0 0 0 0 -79.070263641746806 1.9099699857655423 0 1.9099699857655423 -3.4234901298041223 0 0 0 0 -43.795951860012792 53.572008782925082 0 53.572008782925082 22.697061898121319 0 0 0 0 -1.2499798045419084 1.5076263319057546 0 1.5076263319057546 11.277828226345264 0 0 0 0 113.40164533121788 33.797478278871722 0 33.797478278871722 35.93819573108749 0 0 0 0 0.55519568285180654 -1.6322258855276672 0 -1.6322258855276672 3.6378824811160175 0 0 0 0 162.43790638849532 35.619869029485926 0 35.619869029485926 -30.750351359135948 0 0 0 0 134.63132526083791 54.456950197695733 0 54.456950197695733 -1.2356624753350616 0 0 0 0 99.385419496626128 3.5586805054499564 0 3.5586805054499564 -11.386391657501008 0 0 0 0 0.58255392576662146 -1.0319832747039897 0 -1.0319832747039897 1.2984295245508992 0 0 0 0 -1.5201032836703234 -5.0452577908540661 0 -5.0452577908540661 12.327856176175828 0 0 0 0 -1.5131990561858402 -5.002305406257392 0 -5.002305406257392 6.8730227526831253 0 0 0 0 0.79177070528021432 23.284837035570035 0 23.284837035570035 -37.748475091282899 0 0 0 0 -3.7913561315708506 -4.5643236352011964 0 -4.5643236352011964 0.41046818969823207 0 0 0 0 -13.094433771664626 35.768968488298015 0 35.768968488298015 -36.088875585229687 0 0 0 0 70.460490883739112 -0.89176001626083234 0 -0.89176001626083234 -88.077633660345555 0 0 0 0 -2.6419597505191632 -30.036463036877194 0 -30.036463036877194 -78.468093359952036 0 0 0 0 -0.36536345901534872 0.8581606665962056 0 0.8581606665962056 0.7850154563823164 0 0 0 0 238.08913695464798 131.99523671406314 0 131.99523671406314 -21.307263462531409 0 0 0 0 184.91046419311533 52.985649066224823 0 52.985649066224823 -69.883282171525934 0 0 0 0 55.255409612953372 139.19187385726764 0 139.19187385726764 48.211461722409751 0 0 0 0 -18.915784817838357 57.155653900358857 0 57.155653900358857 -2.444397207914335 0 0 0 0 -51.444242231184035 76.110899284156858 0 76.110899284156858 45.885382732030507 0 0 0 0 35.333162987823016 83.642959158914891 0 83.642959158914891 0.12176285710302182 0 0 0 0 167.42679606268575 -112.38229256175168 0 -112.38229256175168 15.980102882445095 0 0 0 0 7.3843694006172882 74.489345321324663 0 74.489345321324663 20.813552551826888 0 0 0 0 572.05795748814126 328.82838449437622 0 328.82838449437622 -1097.6362857884196 0 0 0 0 4.2126035293054755 2.9837084067893969 0 2.9837084067893969 2.7205192894067429 0 0 0 0 95.04398826506258 13.589904291938296 0 13.589904291938296 -4.6144023513838874 0 0 0 0 103.61328087314541 -6.1661418074446317 0 -6.1661418074446317 -18.712466797488105 0 0 0 0 147.67172420097268 14.535546558915712 0 14.535546558915712 -19.196276421373113 0 0 0 0 -6.1000638629502646 -17.017644739195703 0 -17.017644739195703 -6.0100898563748615 0 0 0 0 162.56783226055995 -11.585713587497992 0 -11.585713587497992 -10.884844140264249 0 0 0 0 0.25211109624453698 -0.091676311669534272 0 -0.091676311669534272 -0.22989929044504009 0 0 0 0 203.77147038292969 -33.623403095901722 0 -33.623403095901722 -21.233975114516852 0 0 0 0 146.25296957483079 -47.529919588418124 0 -47.529919588418124 -13.91650675168853 0 0 0 0 199.25571089277446 -14.978942843118176 0 -14.978942843118176 -41.441593957368696 0 0 0 0 223.99168213939265 1.345910133383768 0 1.345910133383768 -32.202143205682091 0 0 0 0 162.32986807585621 -14.425839010918935 0 -14.425839010918935 -24.923058108729492 0 0 0 0 149.25763621534014 -21.342400590731437 0 -21.342400590731437 -12.103087322389911 0 0 0 0 181.94053039056826 -6.5308236540816154 0 -6.5308236540816154 -26.774917456344156 0 0 0 0 184.94629708046887 -16.77169005224232 0 -16.77169005224232 -32.678703312880771 0 0 0 0 184.29791372573163 0.51802046559237169 0 0.51802046559237169 -12.41025188972327 0 0 0 0 173.29669991381525 -16.658376554646338 0 -16.658376554646338 -17.649861683284826 0 0 0 0 174.77919356331768 9.6872680770627539 0 9.6872680770627539 13.039329280853963 0 0 0 0 174.28096110033766 46.850662139113467 0 46.850662139113467 -8.8276825195184756 0 0 0 0 214.20990782565059 36.963706414343051 0 36.963706414343051 -36.010659572430995 0 0 0 0 205.38021365393433 23.331236816165301 0 23.331236816165301 -42.406660992262005 0 0 0 0 231.02235326523441 20.34388543403702 0 20.34388543403702 -42.063640771815301 0 0 0 0 232.32915967941517 60.831377985341078 0 60.831377985341078 -35.991332439413782 0 0 0 0 175.82005315259039 41.710101106725403 0 41.710101106725403 -34.728765307380854 0 0 0 0 249.16216402216742 93.717183117742479 0 93.717183117742479 16.095700293106347 0 0 0 0 163.36726597291909 39.153967973084093 0 39.153967973084093 -18.456984647845275 0 0 0 0 267.62066807126394 34.162418145902166 0 34.162418145902166 -46.340287934485787 0 0 0 0 241.28071229834677 35.483514421322297 0 35.483514421322297 -40.894467358112479 0 0 0 0 412.14400626437782 100.19642359928366 0 100.19642359928366 -21.86316713849169 0 0 0 0 112.74999297467264 51.028150074854686 0 51.028150074854686 52.143920194449493 0 0 0 0 1.0809808585023148 -0.960960127623121 0 -0.960960127623121 0.86903052178574569 0 0 0 0 378.506182501691 -4.882910215835409 0 -4.882910215835409 46.477135684807024 0 0 0 0 216.44369151359206 122.76707176503623 0 122.76707176503623 85.564563858036308 0 0 0 0 401.37048944391336 15.470763283190649 0 15.470763283190649 -32.229804753716508 0 0 0 0 58.104085056264012 -93.908948716634541 0 -93.908948716634541 22.546720095634214 0 0 0 0 2.067631007960685 -1.0176937820387177 0 -1.0176937820387177 0.4567702798079023 0 0 0 0 323.70936334181533 79.050852254007623 0 79.050852254007623 -11.951480641778062 0 0 0 0 235.89816808001888 -111.07198276856798 0 -111.07198276856798 10.374127453521851 0 0 0 0 75.735479288239731 -67.832134776185967 0 -67.832134776185967 16.86595726121368 0 0 0 0 395.80108370402081 -60.415576575759957 0 -60.415576575759957 -48.480452500526098 0 0 0 0 218.63782697836723 -47.298784064499841 0 -47.298784064499841 -43.128363921994605 0 0 0 0 270.68342800391838 -27.578352743546247 0 -27.578352743546247 -44.491114327106743 0 0 0 0 219.15954906875874 -70.155199291247513 0 -70.155199291247513 -13.884008301032736 0 0 0 0 23.293612010387733 -0.33318996556829461 0 -0.33318996556829461 26.871839989331647 0 0 0 0 126.71671673132323 -3.2187587036481204 0 -3.2187587036481204 -11.224598885461546 0 0 0 0 27.491413707262836 16.749952642313929 0 16.749952642313929 13.782614631737715 0 0 0 0 57.571439893315983 5.8310665081021398 0 5.8310665081021398 16.267919674274253 0 0 0 0 -25.28371545111122 40.009032195180623 0 40.009032195180623 8.9087874071053648 0 0 0 0 33.731877241485563 8.5930042592569862 0 8.5930042592569862 -47.961639429835486 0 0 0 0 -68.107378857062713 1.6580207971545917 0 1.6580207971545917 14.692833041026461 0 0 0 0 1.303402198754565 6.55795264108135 0 6.55795264108135 -11.2926649516567 0 0 0 0 20.094755490351417 25.066456337561021 0 25.066456337561021 -73.985611814150616 0 0 0 0 13.495692747499561 2.0544358270034877 0 2.0544358270034877 29.682126801831146 0 0 0 0 25.713097660427593 80.300076638003702 0 80.300076638003702 -43.853913899690724 0 0 0 0 271.50948336563306 -383.94571353076753 0 -383.94571353076753 776.42176495370222 0 0 0 0 10.084875525340067 84.828635861512225 0 84.828635861512225 10.505247795790183 0 0 0 0 10.506950313983907 71.443338874273593 0 71.443338874273593 19.978849718492256 0 0 0 0 0.015953091685570797 0.90066642133336217 0 0.90066642133336217 -4.8610897135859243 0 0 0 0 -102.6721954508921 95.968338489997222 0 95.968338489997222 16.832510596417876 0 0 0 0 17.579695667069377 17.44684720227357 0 17.44684720227357 1.6822197241040273 0 0 0 0 -102.42677384753188 102.77620692544565 0 102.77620692544565 118.95357500344517 0 0 0 0 -63.433847219104791 -33.555976722432433 0 -33.555976722432433 45.889540652459345 0 0 0 0 -96.46601137192738 11.346994515720326 0 11.346994515720326 -4.7718375897020451 0 0 0 0 6.2094297696167473 -0.41068195804862384 0 -0.41068195804862384 -0.43561047570252143 0 0 0 0 -11.726585179421818 -77.51612173739386 0 -77.51612173739386 -53.959280479066365 0 0 0 0 -85.743328074837336 -52.115448268068576 0 -52.115448268068576 -61.282932733956841 0 0 0 0 -123.66490175296713 -30.372832283203479 0 -30.372832283203479 -18.578241061928566 0 0 0 0 -12.338214694882481 -23.179966059385151 0 -23.179966059385151 -17.879864168261975 0 0 0 0 -50.067997928068507 6.0428921121788335 0 6.0428921121788335 -40.451802375437637 0 0 0 0 58.306750262301193 110.61018869045768 0 110.61018869045768 21.756540807105011 0 0 0 0 -8.7433171156480967 7.3664227234785358 0 7.3664227234785358 64.455735851972577 0 0 0 0 -23.942930216966488 -91.474982719307945 0 -91.474982719307945 13.766339094767773 0 0 0 0 126.85951620235392 -82.020996994699203 0 -82.020996994699203 88.751368885154079 0 0 0 0 3.29575171184716 1.2140055830012173 0 1.2140055830012173 0.5462268114077764 0 0 0 0 322.76279281759435 95.867931697181945 0 95.867931697181945 51.361859653631655 0 0 0 0 340.52589600732608 57.856596500332671 0 57.856596500332671 -43.19438764580309 0 0 0 0 204.79335228115997 204.95292208151079 0 204.95292208151079 -49.315366421410772 0 0 0 0 84.360282075898795 -128.72402391077449 0 -128.72402391077449 -36.241535182575717 0 0 0 0 94.737634284887463 -139.92631025457649 0 -139.92631025457649 204.72277657421563 0 0 0 0 25.953276831346557 -26.988494210812974 0 -26.988494210812974 19.448291153800938 0 0 0 0 32.7807190695803 -92.470060706619961 0 -92.470060706619961 -17.309827768990544 0 0 0 0 22.037135589783901 2.1399677745698789 0 2.1399677745698789 -4.8286200174423994 0 0 0 0 -6.7946937610804525 -72.940914232704415 0 -72.940914232704415 -26.715974028127903 0 0 0 0 122.25263360679673 -78.956807513950025 0 -78.956807513950025 -100.84721348893072 0 0 0 0 117.64928422171033 -22.625328594900452 0 -22.625328594900452 -76.81652989343047 0 0 0 0 224.12435923530211 -43.312710478063536 0 -43.312710478063536 -81.267903364085441 0 0 0 0 126.87011896799277 -28.295255830657368 0 -28.295255830657368 -73.624523551484799 0 0 0 0 197.23142238661785 56.678611244107117 0 56.678611244107117 -82.383696131535089 0 0 0 0 312.20723346705199 -132.02119557849528 0 -132.02119557849528 6.5153931853387803 0 0 0 0 373.24347702035311 23.369752838143057 0 23.369752838143057 -85.722903175721967 0 0 0 0 125.53096776168968 -42.580525300559543 0 -42.580525300559543 -27.076255949933511 0 0 0 0 97.057951265105658 177.08339704572211 0 177.08339704572211 203.99537829649239 0 0 0 0 18.444153324711806 7.2328170972165253 0 7.2328170972165253 -83.80323247142951 0 0 0 0 9.7026544414884484 164.17190398680592 0 164.17190398680592 28.03053987791327 0 0 0 0 60.444083284050066 -4.132854813114136 0 -4.132854813114136 -83.038097082696595 0 0 0 0 198.80807180681222 20.704947286840707 0 20.704947286840707 -111.690353170447 0 0 0 0 22.250740057825396 17.702505407172637 0 17.702505407172637 2.5449036465214561 0 0 0 0 17.471855811021669 35.279799321559153 0 35.279799321559153 1.615863552029964 0 0 0 0 10.972490626827977 21.340855789608078 0 21.340855789608078 2.5172764474411857 0 0 0 0 27.350342210117439 15.363606365871263 0 15.363606365871263 -1.3866423898268798 0 0 0 0 29.960464602596716 18.296183918731668 0 18.296183918731668 5.1042907763317675 0 0 0 0 27.587362482394383 20.155746407224001 0 20.155746407224001 -11.977162022985226 0 0 0 0 16.489781490912719 8.4952599452684581 0 8.4952599452684581 0.41499708436913352 0 0 0 0 35.212532543711859 17.522373687867912 0 17.522373687867912 -3.4549650413064228 0 0 0 0 26.660973117195681 3.2487048405401993 0 3.2487048405401993 -0.5655296771922167 0 0 0 0 24.226017101129401 2.6417491224477772 0 2.6417491224477772 -0.70403645836327655 0 0 0 0 23.584423260537733 0.49909618581227733 0 0.49909618581227733 -0.93683188282685137 0 0 0 0 13.152127888267188 5.5580144254188326 0 5.5580144254188326 -1.115170477771489 0 0 0 0 26.019379276611289 1.1060519039014025 0 1.1060519039014025 -0.79832510165505255 0 0 0 0 219.10673937273532 -2.3390354194040128 0 -2.3390354194040128 -0.16483168670401938 0 0 0 0 114.83169341351459 0.32333507736882439 0 0.32333507736882439 0.10792705634912636 0 0 0 0 -6.6035413093541138 -11.087660739211515 0 -11.087660739211515 2.2578219594911388 0 0 0 0 15.63780518052544 -8.7554491794562495 0 -8.7554491794562495 -1.8904276353644613 0 0 0 0 -11.97344690736827 -30.624201856660875 0 -30.624201856660875 -0.2697743609387544 0 0 0 0 -6.0998825832448347 -6.6538181124834495 0 -6.6538181124834495 18.169363718656768 0 0 0 0 -10.428999549675154 -24.86726081323593 0 -24.86726081323593 17.560462568808816 0 0 0 0 -3.5355371564965026 -64.248149633141338 0 -64.248149633141338 99.481196038945882 0 0 0 0 3.0849891205207314 23.357223983494919 0 23.357223983494919 76.16180481039919 0 0 0 0 60.692308108864381 -38.452492088283634 0 -38.452492088283634 -140.05670076030742 0 0 0 0 7.2128782549480093 -32.618972729582538 0 -32.618972729582538 -23.522149722112104 0 0 0 0 -4.7180743190619978 -45.243122311721663 0 -45.243122311721663 -22.613423034732477 0 0 0 0 21.444810396896315 -3.3574821664629617 0 -3.3574821664629617 -5.42814438422183 0 0 0 0 48.771617862581479 -27.312906640648748 0 -27.312906640648748 -23.469396697354796 0 0 0 0 1.4697489847094403 -45.883555608205711 0 -45.883555608205711 14.923716888665126 0 0 0 0 11.293624190973688 -4.7180497249668081 0 -4.7180497249668081 -3.3859189426759624 0 0 0 0 41.918466789994405 -12.696111401186975 0 -12.696111401186975 -11.911672133059692 0 0 0 0 32.645478904763877 -43.188814164855557 0 -43.188814164855557 -4.9025426714384253 0 0 0 0 64.64709304011194 -36.486255283075025 0 -36.486255283075025 -71.566566786106932 0 0 0 0 41.527199785390529 -18.892886797781767 0 -18.892886797781767 -8.0462074628121218 0 0 0 0 101.74402305959666 -41.572167292999325 0 -41.572167292999325 -1.3070967764326724 0 0 0 0 50.691865403563497 -12.098138468506363 0 -12.098138468506363 -16.445589577216879 0 0 0 0 38.008374130706216 -19.527148882891879 0 -19.527148882891879 -13.793698229167148 0 0 0 0 106.70339125339137 51.083861453657512 0 51.083861453657512 38.574891523633596 0 0 0 0 34.150786187336337 3.4342938495643311 0 3.4342938495643311 -2.1549558173764987 0 0 0 0 82.965079756358136 8.8718081101890789 0 8.8718081101890789 -60.008648382208094 0 0 0 0 26.241166791845899 -0.52004983243850234 0 -0.52004983243850234 -10.314824021771472 0 0 0 0 9.102489764611164 65.188436717317288 0 65.188436717317288 78.313712830971099 0 0 0 0 88.22662347543519 50.782467690493718 0 50.782467690493718 -15.948923057168258 0 0 0 0 -97.024371222578338 3.9496337599459821 0 3.9496337599459821 302.8453328589319 0 0 0 0 355.10146154510585 464.86845958542597 0 464.86845958542597 640.82299501844068 0 0 0 0 305.95274646853795 330.82528358644925 0 330.82528358644925 242.86304277455429 0 0 0 0 413.76923648620141 182.33118915579186 0 182.33118915579186 83.196597087578539 0 0 0 0 2.7764161519291406 -0.7162903628978512 0 -0.7162903628978512 -0.40699340432294573 0 0 0 0 1078.6966824131378 504.72828170554544 0 504.72828170554544 224.2877126449423 0 0 0 0 430.40919831300744 -438.92385444221082 0 -438.92385444221082 368.02615081245835 0 0 0 0 8.6894499353465449 2.087693865589749 0 2.087693865589749 0.28391686968286134 0 0 0 0 12.24404911158787 4.752355490773585 0 4.752355490773585 -1.2418376342967283 0 0 0 0 15.583328086193433 6.2297994892711586 0 6.2297994892711586 -3.4899080171247761 0 0 0 0 14.374190918756625 5.3363552920635904 0 5.3363552920635904 1.97747255254101 0 0 0 0 159.69569214197327 -70.569626907714223 0 -70.569626907714223 95.009074354476468 0 0 0 0 287.68096496879298 -178.83796604004294 0 -178.83796604004294 51.698302066635847 0 0 0 0 421.30802392508849 -87.60319115325035 0 -87.60319115325035 -73.766229410763117 0 0 0 0 427.50234072516105 -106.59492808578507 0 -106.59492808578507 -27.602358026742849 0 0 0 0 327.2459189087167 -78.783508836496594 0 -78.783508836496594 -72.565355241107682 0 0 0 0 381.19775750791086 -57.064178977634811 0 -57.064178977634811 -124.14718356975345 0 0 0 0 133.41982466103582 -88.731971078839706 0 -88.731971078839706 11.428090832018597 0 0 0 0 322.94469036579903 -75.589165687087643 0 -75.589165687087643 -52.393469633011591 0 0 0 0 278.5274516878726 -3.8702804999811065 0 -3.8702804999811065 -119.11797194293877 0 0 0 0 66.971909669457091 87.488987722381125 0 87.488987722381125 -9.1840909060560563 0 0 0 0 292.74378339042596 17.805846155878953 0 17.805846155878953 -101.51319835071868 0 0 0 0 542.56262181571583 -3.9020541237234774 0 -3.9020541237234774 -100.63103319815315 0 0 0 0 344.05644386559834 224.691770014322 0 224.691770014322 70.703639172620285 0 0 0 0 202.50129816712615 64.673920098257724 0 64.673920098257724 -11.226778586418504 0 0 0 0 51.294305532515864 164.41804238631426 0 164.41804238631426 81.800520857461834 0 0 0 0 178.09208934256458 141.60147189799346 0 141.60147189799346 81.103570779125931 0 0 0 0 244.51796612170801 27.606218600214959 0 27.606218600214959 152.64161691957503 0 0 0 0 1060.7155532443212 -96.135596365171295 0 -96.135596365171295 -33.451396539958239 0 0 0 0 557.77360686181783 446.59319890438445 0 446.59319890438445 592.59568375329332 0 0 0 0 165.54608535635998 -124.84564339253018 0 -124.84564339253018 376.52316970272591 0 0 0 0 1073.5657169263552 -532.37917333383541 0 -532.37917333383541 523.02561877965172 0 0 0 0 -285.85587546970783 -24.219666091482367 0 -24.219666091482367 360.90912007201729 0 0 0 0 299.88863537091675 -171.83601922844986 0 -171.83601922844986 -215.99126757250522 0 0 0 0 -260.4005074235356 -265.86347329554513 0 -265.86347329554513 -23.592783915283718 0 0 0 0 88.093600010614466 -37.120650809480026 0 -37.120650809480026 -22.443421944542006 0 0 0 0 35.880146789433127 42.238321674594303 0 42.238321674594303 26.178642641361542 0 0 0 0 376.45037944569776 562.56460411206615 0 562.56460411206615 381.68402153772877 0 0 0 0 183.07465367852274 46.858397751612756 0 46.858397751612756 6.5210700052162451 0 0 0 0 33.079804670847253 -5.7326755064720558 0 -5.7326755064720558 -2.1439500837805525 0 0 0 0 1112.6707775757895 189.54261959536609 0 189.54261959536609 -399.53453976253445 0 0 0 0 -202.23532963097387 51.335903916930874 0 51.335903916930874 39.419035676123741 0 0 0 0 -97.431509512811317 78.404189812157313 0 78.404189812157313 141.33138597162986 0 0 0 0 18.445231130739558 38.677776760838739 0 38.677776760838739 -92.11118908137459 0 0 0 0 8.572594383454998 35.791543056723057 0 35.791543056723057 -33.550818352385036 0 0 0 0 -5.0603536291237106 85.320966462094702 0 85.320966462094702 43.380046928565434 0 0 0 0 3.4612542198177039 3.2297626292144628 0 3.2297626292144628 3.52747262507491 0 0 0 0 -74.811736086921883 126.70182056750241 0 126.70182056750241 78.321317383884207 0 0 0 0 318.13188557374815 -251.04075609461381 0 -251.04075609461381 6.5902504715111121 0 0 0 0 -118.65804312783439 33.64389764021351 0 33.64389764021351 23.885235070235467 0 0 0 0 75.941266571237065 -102.948975633195 0 -102.948975633195 -199.12993242612549 0 0 0 0 -21.754298499479773 169.39759037191288 0 169.39759037191288 108.71231715800513 0 0 0 0 0.28674649736785796 206.20319928287745 0 206.20319928287745 108.02392172779363 0 0 0 0 21.980767063541862 106.99993603247503 0 106.99993603247503 21.142647189385229 0 0 0 0 -2.5996332321037698 146.34961374501526 0 146.34961374501526 46.712085687633135 0 0 0 0 -70.718972909038712 107.00998367910228 0 107.00998367910228 65.538906569451001 0 0 0 0 24.565500162185344 66.166507804028925 0 66.166507804028925 40.462006786861451 0 0 0 0 -17.362471959531831 70.268264197320832 0 70.268264197320832 41.574315415304909 0 0 0 0 16.048992441290466 70.739390720095571 0 70.739390720095571 41.885726626715041 0 0 0 0 43.720351795233 33.738730149696494 0 33.738730149696494 58.520383050461874 0 0 0 0 17.268373186134298 -6.4124713802956421 0 -6.4124713802956421 -11.277850432173686 0 0 0 0 41.782047148546553 47.473179976114125 0 47.473179976114125 3.8369066184009171 0 0 0 0 82.130826651620737 82.59340992985517 0 82.59340992985517 26.488501497855395 0 0 0 0 59.442939575337732 72.591799386928173 0 72.591799386928173 -6.2998353548259729 0 0 0 0 33.049374301594071 -17.666128115045922 0 -17.666128115045922 -17.630998537254129 0 0 0 0 29.186323534808253 32.457585931671701 0 32.457585931671701 8.3822633545214558 0 0 0 0 31.393241964924528 7.2795776081104577 0 7.2795776081104577 5.6605846793027013 0 0 0 0 16.717479425809827 0.42708928436871219 0 0.42708928436871219 -17.74577775296185 0 0 0 0 0.75441466678603319 57.742291579281869 0 57.742291579281869 -12.835380738975914 0 0 0 0 -115.74163169793837 -18.952989766881061 0 -18.952989766881061 59.082110847932881 0 0 0 0 94.992342593337526 6.9927218261217376 0 6.9927218261217376 28.403763811878321 0 0 0 0 24.990817335035342 1.5244680054542528 0 1.5244680054542528 -2.9608483600317412 0 0 0 0 -11.608347516710637 -8.8683969701228307 0 -8.8683969701228307 26.319054009457943 0 0 0 0 40.905915807613383 -5.5709277102428132 0 -5.5709277102428132 -27.780992849067843 0 0 0 0 -37.458158737817939 45.295844954523034 0 45.295844954523034 -15.766147920593994 0 0 0 0 18.054988017396681 18.782909069717789 0 18.782909069717789 -30.908022840037688 0 0 0 0 25.691965990408789 49.376227436957606 0 49.376227436957606 -19.969706931629162 0 0 0 0 1.5906367451207188 92.380745626289922 0 92.380745626289922 13.799413159255437 0 0 0 0 66.681469309947715 83.473632287315922 0 83.473632287315922 -51.290133523607437 0 0 0 0 28.420233069675305 -8.6842856482018078 0 -8.6842856482018078 -57.029872085314764 0 0 0 0 -1.4951970404890034 1.1113002621354013 0 1.1113002621354013 0.53511837658725625 0 0 0 0 48.887933904934471 58.285771535796584 0 58.285771535796584 -79.121177864039055 0 0 0 0 24.889283494543633 31.279270403728788 0 31.279270403728788 -12.975304909119131 0 0 0 0 34.310123235940409 4.6958306247906876 0 4.6958306247906876 -7.5565670783794303 0 0 0 0 27.341732136424071 6.4855693875782094 0 6.4855693875782094 -1.1815975776635241 0 0 0 0 32.67304183752276 7.3917266011467291 0 7.3917266011467291 -1.3552309727069769 0 0 0 0 36.732907475241518 3.7758472325620005 0 3.7758472325620005 1.1942051934038318 0 0 0 0 40.870570961167687 12.356811386673598 0 12.356811386673598 -3.5121750935236378 0 0 0 0 36.055626711515288 13.380136036807698 0 13.380136036807698 1.2465938893483326 0 0 0 0 28.159570848433077 16.017745624026787 0 16.017745624026787 -4.5566259278648431 0 0 0 0 8.6625176838168727 5.687580409796368 0 5.687580409796368 0.50549002723208147 0 0 0 0 37.157170974594919 17.980933816849074 0 17.980933816849074 16.370470806552476 0 0 0 0 56.70848967909842 13.610768482881667 0 13.610768482881667 -13.837169595754858 0 0 0 0 28.899611080048153 5.8671966333646353 0 5.8671966333646353 -12.427347875838063 0 0 0 0 36.230443842388922 18.038493751669648 0 18.038493751669648 -13.465286346477285 0 0 0 0 57.661037262153968 2.6380011239428711 0 2.6380011239428711 -10.889907807714735 0 0 0 0 -0.36370858286434782 1.0994757823744337 0 1.0994757823744337 0.060229637867450947 0 0 0 0 39.851436473967624 4.5568006646738013 0 4.5568006646738013 -10.49578553269447 0 0 0 0 7.7539251214130154 2.5529179756582892 0 2.5529179756582892 -0.43984700303617785 0 0 0 0 32.780046571748244 7.808925206622007 0 7.808925206622007 0.25715979931328548 0 0 0 0 40.624465437540493 9.8439168547308782 0 9.8439168547308782 -4.0208799763222487 0 0 0 0 31.181019628627389 7.9278975322484904 0 7.9278975322484904 0.096789774353849722 0 0 0 0 45.38064164608295 10.293797319982559 0 10.293797319982559 -8.7335251862305086 0 0 0 0 25.662420193792059 5.1772297701622847 0 5.1772297701622847 -0.47882228584694531 0 0 0 0 24.313008838119856 8.4900667137280905 0 8.4900667137280905 -0.5326392600846992 0 0 0 0 62.848883234142704 9.2116994225721101 0 9.2116994225721101 -2.592884687948299 0 0 0 0 57.476777479954762 14.3495535255297 0 14.3495535255297 3.5006682080183964 0 0 0 0 17.007408500289969 11.731349886600636 0 11.731349886600636 -0.46312411288355548 0 0 0 0 37.098596435076615 5.7786301584492321 0 5.7786301584492321 0.33471344899680844 0 0 0 0 43.583175030275015 6.5613427776625031 0 6.5613427776625031 -11.478348062300938 0 0 0 0 45.597584108104456 10.373319476171559 0 10.373319476171559 -4.4609274470549281 0 0 0 0 14.351319151804129 1.1418541469826167 0 1.1418541469826167 -3.3533297573419851 0 0 0 0 14.671367950758871 8.8053885600507833 0 8.8053885600507833 -1.0646404311325597 0 0 0 0 56.695608392750728 9.4598165872778281 0 9.4598165872778281 0.2485544929477328 0 0 0 0 20.777002218948837 -1.6989280243524263 0 -1.6989280243524263 -1.5274299429702864 0 0 0 0 43.599549677684536 7.8225771153444157 0 7.8225771153444157 5.1882897854502517 0 0 0 0 4.9741633219043848 2.0994470118908346 0 2.0994470118908346 0.031397590662585628 0 0 0 0 110.10137694625882 64.545048460917315 0 64.545048460917315 37.462494218656502 0 0 0 0 27.322744491157877 10.590707150405004 0 10.590707150405004 2.5190810518864186 0 0 0 0 35.437725858319027 38.264425131956159 0 38.264425131956159 -10.099555480946151 0 0 0 0 27.624829257900274 26.069309863190938 0 26.069309863190938 82.395992557007958 0 0 0 0 5.0745743387803444 -3.0967775115743761 0 -3.0967775115743761 -4.6783426438243971 0 0 0 0 41.439339694582486 30.512782095251396 0 30.512782095251396 -11.020278639373828 0 0 0 0 42.837968020212429 10.035662699780005 0 10.035662699780005 -4.0895652910016906 0 0 0 0 40.528607787946385 31.213858497191723 0 31.213858497191723 11.942731765591816 0 0 0 0 25.426472158360411 15.129030596290249 0 15.129030596290249 -5.5706838037012858 0 0 0 0 30.609287807913901 6.2039575482422089 0 6.2039575482422089 -2.1181533510273045 0 0 0 0 8.3549125828892699 1.1776453912739626 0 1.1776453912739626 -5.7656802509343414 0 0 0 0 52.649679697502506 15.64867403687731 0 15.64867403687731 -15.919165311734105 0 0 0 0 14.667086809410161 -0.34798968131950758 0 -0.34798968131950758 -1.7669764814809916 0 0 0 0 53.772098231454947 27.06278251324602 0 27.06278251324602 13.241211759494036 0 0 0 0 69.546354873731616 38.226161445291837 0 38.226161445291837 -60.548131422179722 0 0 0 0 31.554489049492986 -9.2042272698381566 0 -9.2042272698381566 -20.817396039663436 0 0 0 0 -4.730015551635006 10.592006950287214 0 10.592006950287214 -13.369442546685605 0 0 0 0 128.60947248813318 66.934929278964773 0 66.934929278964773 5.1818213656133594 0 0 0 0 52.293757289829955 27.962212328775422 0 27.962212328775422 -78.030558366041078 0 0 0 0 13.141389064920986 32.593028707648841 0 32.593028707648841 -49.655267996611656 0 0 0 0 -13.173086547260027 -14.427331027575747 0 -14.427331027575747 29.188772057730603 0 0 0 0 43.157710053677874 4.8241214290201242 0 4.8241214290201242 -34.785115930839311 0 0 0 0 -10.284130048848056 0.91941874003987323 0 0.91941874003987323 -1.3286056865545106 0 0 0 0 -17.842535646013857 -29.63612790931802 0 -29.63612790931802 -5.2034900962605661 0 0 0 0 59.342271239756883 -80.126909457877446 0 -80.126909457877446 -20.764039074794709 0 0 0 0 25.871590875100992 -34.677091951913894 0 -34.677091951913894 25.302367246697031 0 0 0 0 122.81412930075749 -34.527152623060829 0 -34.527152623060829 7.1877589301770968 0 0 0 0 35.360750273515805 13.641027184620498 0 13.641027184620498 17.988332466511565 0 0 0 0 6.7195432209846331 31.799957782204729 0 31.799957782204729 12.10165370001414 0 0 0 0 109.86346912265435 -41.55297816791699 0 -41.55297816791699 16.492534018270817 0 0 0 0 118.26001286633254 -33.339352379721731 0 -33.339352379721731 22.805921141492945 0 0 0 0 118.98554649069411 -65.994261628186905 0 -65.994261628186905 46.435532391024935 0 0 0 0 18.603922263178177 5.4658401264063556 0 5.4658401264063556 1.6730828432607652 0 0 0 0 -38.935258568479185 45.884708610717098 0 45.884708610717098 5.3659692622723014 0 0 0 0 -11.402568888989663 1.2942040211405583 0 1.2942040211405583 31.539858180700321 0 0 0 0 22.800465374886699 -31.975807606752142 0 -31.975807606752142 -12.584081286863693 0 0 0 0 910.72763712950837 -354.3150600323288 0 -354.3150600323288 214.27252551770991 0 0 0 0 7.0401065981311746 1.3126874923874174 0 1.3126874923874174 0.32532563331589692 0 0 0 0 572.75998287289985 -367.98087260113698 0 -367.98087260113698 214.47757041390454 0 0 0 0 494.90527902655595 189.1050328091078 0 189.1050328091078 224.50718419701843 0 0 0 0 529.86498925305204 288.20769527501852 0 288.20769527501852 505.38556074825101 0 0 0 0 369.2005486613416 -12.277681888512234 0 -12.277681888512234 316.23141047434183 0 0 0 0 401.84998696463299 98.062624219361169 0 98.062624219361169 652.45454648336931 0 0 0 0 616.35337381207501 94.168880452172743 0 94.168880452172743 411.63586656941334 0 0 0 0 1298.817970994598 279.29274453032122 0 279.29274453032122 276.06010403802247 0 0 0 0 652.3575009326978 243.23120501595531 0 243.23120501595531 1008.8957919802742 0 0 0 0 850.19447163763107 12.719354552815275 0 12.719354552815275 117.66492455064144 0 0 0 0 735.78309674775301 125.05448360999708 0 125.05448360999708 67.384100057667638 0 0 0 0 486.37044587666605 35.944611934024124 0 35.944611934024124 -73.525667110516679 0 0 0 0 460.62613740059896 226.08639071590733 0 226.08639071590733 70.530008983159405 0 0 0 0 548.59531880323902 -17.099243920845424 0 -17.099243920845424 -38.674891652650331 0 0 0 0 156.34278799665617 -154.27865360084218 0 -154.27865360084218 110.8946352052717 0 0 0 0 497.28633127115609 -197.51396777923355 0 -197.51396777923355 -35.172099455910484 0 0 0 0 275.96809465699698 -82.991783290722651 0 -82.991783290722651 -87.594000890891493 0 0 0 0 363.47369182398211 -85.968228681793263 0 -85.968228681793263 -100.81968011266599 0 0 0 0 319.9473149561336 -43.463949385566593 0 -43.463949385566593 -97.011807432027126 0 0 0 0 220.42363383342717 -4.630174746424899 0 -4.630174746424899 -98.60664897853394 0 0 0 0 370.07322614568329 -26.869371621213077 0 -26.869371621213077 -140.00668211368725 0 0 0 0 294.34730035034227 -42.449249468131711 0 -42.449249468131711 -121.14183862645433 0 0 0 0 292.2996404718815 -37.703813484954708 0 -37.703813484954708 -80.003896440123754 0 0 0 0 183.14614193778834 51.945529120232095 0 51.945529120232095 -125.99413713150909 0 0 0 0 66.465895874092894 42.368119559477009 0 42.368119559477009 -11.872188648980682 0 0 0 0 143.72223131621286 -32.591235192960085 0 -32.591235192960085 1.4367992806828624 0 0 0 0 86.86370557371265 14.377053769127087 0 14.377053769127087 0.41806449060140949 0 0 0 0 74.890306510395021 10.624676027050555 0 10.624676027050555 8.5138246386159153 0 0 0 0 62.632826267710698 -20.402353888386187 0 -20.402353888386187 12.72023252773397 0 0 0 0 160.419285462056 -21.400753042225915 0 -21.400753042225915 -63.56304520981098 0 0 0 0 269.36327248186899 -98.115838540592449 0 -98.115838540592449 -14.512807056758902 0 0 0 0 
</DataArray>
<DataArray type="Float64" Name="cross_section_updated" format="ascii">
1 1 1 0.010091803081033218 0.01009318544244478 1 1 1 1 1 1 1 1 1 1 1 1 1 1 1 1 1 1 1 1 1 1 1 1 1 1 1 1 1 1 1 1 1 0.01074107591333175 1 1 1 1 1 1 1 0.013429048790223323 1 1 1 1 1 1 0.0099891276030804558 1 1 1 1 1 1 1 0.010259777869647798 1 1 0.0098485625231575884 1 1 1 1 1 1 1 0.0097977707764663156 1 0.010953687401522187 1 1 0.012313798109847078 1 1 1 1 1 1 1 1 0.010821179572697454 1 1 1 1 1 1 1 0.011045744345037902 1 1 1 1 1 1 1 0.011782997595294588 1 1 0.010265232251581092 1 1 1 0.010149146445742364 1 1 1 1 1 1 0.010048867653824758 1 1 1 1 1 1 1 1 1 1 1 1 1 1 1 1 0.011525958374980307 1 1 1 1 1 1 1 1 1 1 1 1 1 1 1 1 1 1 0.012165121088488006 1 1 0.010777336290341751 1 1 1 1 1 0.010086878333638352 1 1 1 1 0.010401006715155632 1 1 1 1 1 1 1 1 1 1 1 1 1 0.012438611485161786 1 0.0090745515534975466 1 1 1 1 1 1 0.01092799184274984 1 1 1 1 1 0.010186351769885931 1 1 1 1 1 1 1 1 1 1 1 1 1 1 1 1 1 1 1 1 1 1 1 1 1 1 0.011379366360353384 1 1 1 1 1 1 1 1 1 1 0.010525625240338161 1 1 1 1 1 1 0.01023894928769402 1 1 1 0.013031389708692913 1 1 1 1 1 1 1 1 0.010058196550408632 0.012922701330882479 1 1 1 1 1 1 0.011149711750019595 1 1 1 1 1 1 1 1 1 1 1 1 1 1 1 1 1 1 1 1 1 1 1 1 1 1 1 0.0075406747578330765 1 0.008589562806268115 1 1 1 1 0.0095483274624657936 1 1 1 1 1 1 1 0.01201986298579551 1 1 1 1 0.010093826835199495 1 1 1 1 0.012536510706582318 1 1 1 0.0097995208105152859 1 1 1 1 1 1 1 1 1 1 1 1 1 1 1 1 0.010068074466011675 1 1 1 1 1 1 1 1 1 0.010604209144933577 1 1 1 1 1 1 0.01206510129149 1 1 1 1 1 1 1 1 1 1 0.011787699001449827 1 1 1 1 1 1 1 1 1 1 1 1 1 1 1 1 1 1 1 1 1 1 0.012065968277902123 1 0.011875883909686353 1 1 1 1 1 0.010713772868687479 1 1 1 1 1 1 0.010685440964247618 1 1 1 1 1 1 1 1 0.0098296799658542603 1 1 1 1 1 0.011097587795214647 1 0.011960463939643012 0.011307227523252479 1 1 1 1 1 1 1 0.013210317938495503 1 1 1 1 1 1 1 1 1 1 1 1 1 1 1 1 1 1 1 1 0.010857708521099499 1 1 1 1 1 1 1 1 1 1 1 1 1 1 1 1 1 1 1 1 1 1 1 1 1 0.011103416507790282 1 1 1 1 1 0.011816546830242287 1 1 1 1 1 1 1 0.012709820354484907 1 1 1 1 1 1 1 1 1 1 1 1 0.016568662461367466 1 1 1 1 1 1 1 1 1 1 1 1 1 1 1 1 1 1 1 1 1 1 1 1 1 1 1 1 1 0.010952941159745253 1 1 1 0.012236066172379104 1 1 1 0.0099859247020494465 0.011273576363448575 1 1 1 1 1 1 0.011285568280156838 1 1 1 1 0.010591187534598184 1 1 1 1 1 1 0.0094021871420855822 1 1 1 1 1 1 1 0.0098306496345129148 1 1 1 1 1 1 1 1 1 1 1 1 0.0088962682988034322 1 0.010538128131996257 1 1 1 0.011230267856952848 0.010396350590144106 1 0.012317663091002578 1 1 1 1 0.012220282876841352 1 1 1 1 1 1 1 1 0.010210479142079652 0.010200491506103835 1 1 1 1 0.010456474449209011 1 1 1 1 1 1 1 1 1 1 1 0.011951333496513204 1 1 1 0.01030998117208163 1 1 1 1 1 1 1 1 1 1 1 1 1 1 1 1 1 1 1 1 1 1 0.01812873302952081 1 1 1 1 1 0.0098941875842230697 1 0.018584010241185854 1 1 1 0.010993075174490779 1 0.017240096592767359 1 0.017377474442132106 1 1 0.010598424058933988 0.010329653770989398 1 1 1 1 1 1 1 1 0.0093213426066061419 1 1 1 1 1 0.020180232032138489 0.0072924917806453868 1 1 1 1 1 1 1 1 1 1 1 1 1 1 1 1 1 0.009812400931389114 1 0.010930748084495869 1 1 0.012257672584234335 1 0.0096614905184852894 1 1 1 0.011637420074972048 0.013138270164395395 0.010042271880705564 1 1 1 1 1 1 0.012810254766336057 1 0.011298044467877622 1 1 1 1 1 1 1 1 1 1 0.010996857840809265 1 1 1 1 1 1 0.0098279416261333567 1 1 1 0.016732399659923944 1 1 1 1 1 1 1 1 1 1 1 1 0.012427837416967792 1 1 1 1 1 1 1 1 1 1 1 1 1 1 1 1 1 1 0.010463102036384314 1 1 1 0.011262176879988792 1 1 1 1 1 1 1 1 1 1 1 1 1 1 1 1 1 1 1 1 0.015623658548502863 1 1 1 1 1 1 0.01643883742163256 1 0.0098554673995983472 1 1 1 1 1 1 1 0.010299104494076092 0.010240679400995344 1 1 1 1 1 1 1 1 1 1 1 1 1 1 1 1 1 1 1 1 1 1 1 1 1 1 1 1 1 1 1 1 0.010426142375683496 1 1 0.0099840344491260759 1 1 1 1 1 1 1 1 1 1 1 1 1 1 1 0.01492238295423539 1 1 1 0.013780905879174899 1 1 1 1 1 1 1 1 1 1 0.010527533098755983 1 1 1 1 1 1 1 1 1 1 1 1 1 1 1 1 1 1 1 1 1 1 0.010169364347336771 1 1 1 1 1 1 1 1 1 1 1 1 1 1 1 1 1 1 1 1 1 1 1 1 1 1 1 1 1 1 1 1 1 1 1 1 1 1 1 1 1 1 1 1 1 1 1 1 1 1 1 1 1 1 1 1 1 1 1 1 0.011609878215334062 1 1 1 1 0.011879875694356034 1 1 1 1 1 1 1 1 1 1 1 1 1 1 1 1 1 0.010300213940760998 1 1 0.0099955234126089428 1 1 1 1 1 1 1 1 1 1 1 1 1 1 0.0099505417013599027 1 1 1 1 1 1 0.012386265345450637 1 1 1 1 0.0098624645189032516 1 0.01096633758737452 1 1 1 1 1 1 1 1 1 1 1 1 0.010608246245622757 1 0.0087452948124368372 0.0091485237066907775 1 1 1 1 0.010879156290131749 1 1 1 1 1 0.010024018822997832 1 0.013020703156347862 1 1 1 1 0.01006408897658574 0.0098006116945198382 1 1 1 1 0.0088495576730861225 1 1 1 1 1 1 1 1 1 1 1 0.012726257150042865 1 0.012056572910493623 1 1 1 1 1 1 1 0.013381405777980667 0.010369935544853539 1 1 1 1 1 1 1 1 1 1 0.010045311390846684 1 1 1 1 1 1 1 1 1 0.010156568763741561 1 0.010417698616568516 1 1 1 1 1 1 1 1 0.0099974507812174013 1 1 0.0106057637045553 1 1 1 1 1 1 1 1 1 0.010051035106994807 1 1 1 1 1 1 1 1 1 1 1 1 1 1 1 1 1 1 1 1 1 1 1 1 1 1 1 1 1 1 1 1 1 1 1 1 1 1 0.010682647923609305 0.010441633426441273 1 1 1 1 1 1 1 1 1 0.01038467890601311 1 1 1 1 1 1 1 0.011148430501916802 1 0.010268772200467416 1 1 1 1 1 1 1 0.011502458941458391 1 1 1 1 1 1 0.011491983261353176 1 1 1 0.012117615822106336 1 1 1 1 0.010425564541345078 1 1 1 0.011650045802338024 1 1 0.010477459060715037 1 0.01259468675972486 1 1 1 1 1 1 1 0.010920218584594261 1 1 1 1 1 1 1 1 1 1 1 0.012397338403778886 1 1 1 1 1 1 0.013494351115093504 1 1 1 1 0.013581415282075203 1 1 0.010053076629176172 1 0.012262227746894332 1 1 1 1 0.0099035839852572166 1 0.010255656800765751 1 0.011870604274692633 1 1 1 0.010067099598771371 1 1 1 1 1 0.010218133384556807 1 1 0.010031810034620794 1 1 1 1 1 1 0.012088376281680789 1 1 0.012098826755952412 1 1 0.010663632881954811 0.011733488147815375 0.012605040708728286 1 1 1 0.011950220687215863 1 1 1 1 1 0.011041100991005104 1 1 1 1 1 0.010025111596169693 1 1 1 1 1 1 1 1 1 1 1 1 1 1 1 1 1 1 1 1 1 1 1 1 1 1 1 1 1 1 1 1 1 1 1 1 1 1 1 0.010740093959621898 1 1 1 1 1 1 1 0.011468240772726283 1 1 0.010740466639474543 0.010298626838952451 1 1 1 1 1 1 1 1 1 1 1 1 1 1 1 1 1 1 0.010128548238254143 1 1 1 1 1 1 0.011354786345812164 1 1 1 1 1 1 1 0.016423906626237616 1 1 1 1 1 1 1 1 0.016792346311745709 1 1 0.010273735541350524 1 0.011061717818059041 1 0.01151790645552285 0.010057505750260593 1 1 1 1 0.010007040925281235 0.010854492450221968 1 0.015907388099758286 1 0.017524922908353096 1 1 1 1 0.018013296987296944 1 0.012534131709556119 1 1 1 1 0.010009528124874975 1 1 1 1 1 1 1 1 1 0.013171295582225686 1 1 0.015711172888015473 0.01122238576097076 1 1 0.015592722928236494 1 1 1 0.010944053963379601 1 0.011320600238938057 1 1 1 0.011900010615137313 1 0.010303767224474543 1 1 1 1 1 1 1 1 1 1 1 1 1 1 1 1 1 1 1 1 1 1 1 1 1 1 1 1 1 1 1 1 1 1 1 1 1 1 1 1 1 1 1 1 1 1 1 1 1 1 1 1 1 1 1 1 1 1 1 1 1 1 1 1 1 1 0.012171323744226428 1 1 1 1 1 1 1 1 1 1 1 1 1 1 1 1 1 1 1 1 1 1 1 1 1 1 1 1 1 1 1 1 1 1 1 1 1 1 1 1 1 1 1 1 1 1 1 1 1 1 1 1 1 1 1 1 1 1 1 1 1 1 1 1 1 1 1 1 1 1 1 1 1 1 1 1 1 1 1 1 1 1 1 1 1 1 0.010074222054481474 1 1 1 1 0.010344904530516792 1 1 1 1 1 1 0.0099946602917008968 1 1 1 1 1 1 0.010026459329754099 1 1 1 1 0.011625127679691429 1 1 1 0.012572578790344978 1 1 1 1 1 0.011834636001947278 1 0.012532338965503906 1 0.0099968992971272378 1 1 1 1 1 1 1 1 1 1 1 1 1 1 1 0.010055807169234859 1 1 1 1 0.010169896102589563 1 1 1 1 1 1 1 1 1 1 1 1 1 1 1 1 1 1 1 1 1 1 1 0.0097091661485583132 1 1 1 1 1 1 1 1 1 1 0.020542061601016841 1 0.014896483438999932 1 1 0.0092115524700504357 1 0.012688890266398379 0.013405781934730347 1 0.013288723054006961 1 1 1 1 1 0.012694963154848001 0.013587976273036649 1 0.010217838735613518 1 1 1 1 0.010054582340480735 1 1 1 1 1 1 0.0099182627334417506 1 1 1 1 1 1 1 1 1 1 1 1 1 1 0.022127595033841201 1 1 0.010016969585977618 1 1 1 0.016020846386961961 1 0.012570322232589644 1 1 1 1 1 0.021384494720372273 1 1 1 1 0.010443620670378202 1 1 1 1 1 0.010094226786582082 1 1 1 1 1 1 1 1 0.0099943327649903105 1 1 1 1 0.011070284889542772 1 1 1 1 0.010058665276574782 1 1 1 1 1 1 1 1 0.010773152671952245 1 1 0.010043259598235196 1 1 1 1 1 0.010002273636166147 1 1 0.011287803643434643 1 1 1 1 1 1 1 1 1 1 1 1 1 1 1 0.010002692470246103 1 1 1 0.020309335882658971 0.019715071102498791 1 1 1 1 1 1 1 0.010166526366924134 1 1 1 1 0.016839441638285414 1 0.013106962495042507 1 1 0.0099786886559225987 1 1 0.010917037741687128 0.009963188292396629 1 0.0097436271312779134 1 1 0.012141669154152084 1 1 0.010790202643375661 1 1 1 1 1 1 1 1 0.010018515891479077 0.012204808025896555 0.0097841406733775709 1 1 1 0.010008613647981709 1 1 0.0099357419277575354 1 1 1 1 1 0.010724936790116865 1 1 0.011779413699971687 1 0.011729858873912277 0.011330978366615828 1 1 0.011754122696882256 1 1 1 1 1 0.011480791437822808 1 1 1 0.011206379143468849 1 1 0.01169147739387923 1 0.0099567260606430626 0.010203521394801674 0.00981273852824616 0.011275755996571339 1 1 1 1 1 0.012446868645229498 1 0.013064366222509819 1 0.010005312444197549 0.01470917123216434 1 1 1 0.011552799614258841 1 1 1 1 1 1 1 0.012095668595513373 1 1 1 1 1 0.01237917844043789 1 0.010742914008900116 0.011139130531841651 1 1 1 0.010008231678336896 0.012047362473387335 1 1 1 1 1 1 1 1 1 1 1 1 1 1 1 1 1 1 1 0.012042035356607033 1 0.010006058861919857 0.011055738744609377 0.01092706649729923 1 1 1 1 1 0.010617786403034287 1 1 1 1 1 1 1 1 1 1 0.0097843108543081356 1 1 1 1 1 1 1 0.015474757359039006 1 0.01247838486638316 1 1 1 1 1 1 1 1 0.012678722931270427 1 0.01051889945907113 1 1 1 1 1 1 1 1 0.010550066419482779 1 1 1 1 1 1 1 1 1 1 1 1 1 1 0.0098001728158961382 1 1 1 1 1 1 1 0.013227919454775833 1 1 0.012333988395007234 1 1 1 1 1 1 1 1 1 1 1 1 1 1 1 1 1 1 1 1 1 1 1 1 1 0.011571307800056583 1 1 1 1 1 1 1 1 1 1 0.019000386736313851 1 0.010294111788053124 1 1 1 1 1 1 1 1 1 1 1 1 1 1 1 1 1 1 0.018315492936607246 1 1 1 1 1 0.017442273135895997 1 1 1 1 1 1 1 1 1 1 1 1 1 0.014828524033148497 1 0.010161355630132637 1 1 0.010364635796711499 0.01408193298390051 1 0.012517724705840373 1 1 0.0099937880251033898 1 0.01630044111254466 1 1 0.011043137731929985 1 1 1 1 1 1 0.010433514359689491 0.009999368615236072 1 0.014364494288822 1 1 0.010081181060547428 1 1 1 0.013053268147386185 1 1 0.014352714773382217 1 1 1 1 1 1 1 1 0.011147529445470105 1 1 1 0.010001883368404445 1 1 1 1 1 1 1 1 1 1 1 1 0.012483171035056714 1 0.010018768713935733 1 1 1 1 1 0.011593545325178587 1 1 1 1 1 1 1 1 1 1 1 1 1 1 1 1 1 1 1 1 0.010102159953703217 1 1 1 1 1 1 1 1 0.009185405827488391 1 1 1 1 1 1 1 1 1 0.008395132909918817 1 1 1 1 1 1 1 1 1 0.0078131673218848046 1 0.01474385410229441 1 1 0.0098964931947446398 1 1 0.011631496398772484 1 0.01204758762473877 0.010395146628593721 1 0.0096763598738655379 1 1 1 1 1 1 0.0099762861757406937 0.010124763864604185 1 1 1 1 1 1 1 1 1 1 1 1 1 1 0.014077897116502191 1 1 1 1 1 1 1 1 1 1 1 0.0093082908911930537 1 1 0.008735677872747892 1 1 1 1 1 0.012648893945280459 1 1 0.0095913878350999213 1 1 1 1 1 1 1 1 1 1 1 0.011741433570915156 1 1 1 1 1 0.0099492006415331253 1 1 0.0098176689793242674 1 1 1 1 0.0099943457757671779 1 1 1 1 1 1 1 1 1 1 1 1 0.0096465393412966567 1 1 1 1 1 1 1 1 1 1 0.010101729058701497 1 1 1 1 1 1 1 1 1 1 0.010284556566313533 1 1 0.010581824037723514 1 1 1 1 1 1 1 1 1 1 1 1 1 1 1 1 1 0.010297267471409978 1 0.011088231376888438 1 1 1 0.011772944999204737 1 0.0098657625755194586 1 1 1 1 1 1 1 1 1 1 1 0.010053028012543581 1 1 0.010031865944114086 1 1 0.010377399725017764 1 1 1 1 1 1 1 0.010000898697705813 1 0.01107863747904389 1 1 1 1 1 1 1 1 1 1 1 1 1 1 1 1 1 1 1 0.0099660019851422563 0.009335134239709289 1 1 1 1 1 1 0.0096537781443613163 0.0099985436079108297 1 1 1 1 1 1 1 1 1 1 0.01194798413368321 1 1 0.0097901210244863961 0.010148059749738987 1 1 0.010015349067475197 1 1 0.009883869364617397 1 1 0.012437905585273901 1 0.010431957443561488 1 0.011313288378411305 1 1 1 1 1 0.010473570142625751 1 1 1 1 1 1 1 1 0.011110623078706274 1 1 1 1 1 1 1 1 1 1 1 1 1 1 0.010243258774829837 1 1 1 1 0.010439031698984838 1 1 1 1 1 1 1 1 1 1 0.01048436336879841 1 1 1 1 1 0.011473475590856944 1 0.010283301127668962 1 0.010335468481468291 0.010006074623963225 1 1 1 0.01111519776720562 1 1 1 0.0095740572042700579 1 1 1 1 0.0099680457899043173 1 1 1 1 1 1 0.009842374871016097 1 1 0.0099774464876493177 1 1 1 1 1 1 1 1 1 1 1 1 0.010040723683858704 1 1 1 0.010017568403409845 1 1 1 1 1 1 1 1 1 0.010017713853843093 1 1 0.010160221870347567 1 0.010022879631017709 1 0.010810737978444642 1 1 1 1 1 1 1 0.0089673566098972847 1 0.011058727654102912 1 1 1 1 1 1 0.0091437681820443293 1 1 1 0.010026841345742124 1 1 1 1 1 1 1 1 1 1 1 1 1 1 1 1 1 1 1 1 1 1 0.010078352986276431 1 1 1 1 1 1 0.010110042119110842 1 1 1 1 1 0.010043544991732534 1 0.010080072358596887 1 1 1 1 1 1 1 1 1 0.010125705142251517 1 1 1 1 1 0.010190631151455272 1 1 1 1 1 1 1 1 1 1 1 1 1 1 1 1 0.010004210708388507 1 1 1 1 0.010080589032344427 1 1 1 1 1 1 1 1 1 0.010091185624247634 1 1 1 1 1 1 1 1 1 1 0.010173345774766611 1 1 1 1 1 1 1 1 1 1 1 1 1 1 1 1 1 1 1 0.0097752304573047819 1 1 0.011010094494235317 1 1 0.0098339089794684947 1 0.011144334310802452 1 1 1 1 1 0.0099310866151663974 1 1 1 1 1 1 1 1 1 1 1 1 1 1 1 1 0.01032204268738402 1 1 1 1 1 1 0.010406209602666179 1 1 1 1 1 1 0.010312978326408566 1 1 1 1 0.010314092955065716 1 1 1 1 1 1 0.010102843687358656 1 1 1 1 0.0099621425376169581 1 1 1 1 1 1 1 1 1 1 1 1 1 1 1 1 1 1 0.011063460053953044 1 1 1 1 1 1 1 1 1 1 1 1 0.0099992410773228416 0.010111613075691101 0.0099234324518588986 1 1 1 1 1 0.01016033482594334 1 1 1 1 1 1 0.010356508334541329 1 1 1 0.010012853543802096 0.010032722280929699 1 1 1 1 1 0.010005474453167424 1 1 1 1 0.0096808250097326631 1 1 1 1 1 1 1 0.010231909036607171 1 1 0.0098504054979707736 1 0.0094765821867392273 1 1 1 1 1 1 1 0.0090278310808100271 1 1 1 1 1 0.009774385267827845 1 1 1 1 1 0.0097094407737312836 0.0098572292293718188 1 1 1 1 1 1 1 1 0.0099243543636057825 1 1 1 1 1 1 1 1 1 1 1 1 1 1 1 1 1 1 1 1 1 0.012323431916487272 1 1 1 1 1 1 1 1 1 0.010925573624348749 1 1 1 1 1 1 1 1 1 1 1 1 1 1 1 0.0099630096269646539 1 1 1 1 1 1 1 1 1 1 1 1 1 1 1 1 1 1 1 1 1 1 1 1 1 1 1 1 1 1 1 1 1 1 0.010550941409198589 0.011432518315798832 1 1 1 1 1 1 1 1 1 1 0.013165864984812663 0.0097405262767718149 1 1 1 1 0.010116061516643481 1 1 1 1 0.009993818633945703 1 1 1 1 1 1 0.010018601713960722 1 1 1 1 1 1 1 0.010254700911077604 0.010094639545480368 1 1 1 1 0.010002440609773825 0.0099813692264488219 1 1 1 1 1 1 1 1 0.01053124737105663 1 1 1 1 1 1 1 1 0.011138951855259507 1 1 1 0.011407219631090126 1 1 1 1 0.011251273368394583 1 1 1 1 1 0.012265835469468815 1 1 1 1 1 1 1 1 1 1 1 1 0.010024993960325319 1 0.011608344976200408 1 1 1 0.010435857388839218 1 1 0.010094377254015494 1 1 1 0.013166887545703608 1 0.010023712664103861 1 1 1 1 1 1 1 1 1 1 1 1 1 1 1 1 1 1 1 1 1 0.011476746761419158 1 1 1 1 1 0.010971101638581839 1 1 1 1 1 1 1 1 1 0.010149069206263664 1 1 1 1 1 1 1 1 1 1 0.010187132811019781 1 1 1 1 0.010336202017283446 1 1 1 1 1 1 1 1 1 1 1 1 1 1 1 1 1 1 1 0.011553180619425374 1 1 0.010002587245415164 1 1 0.0099186759307530233 1 0.013926117981304652 1 1 0.01163111777630238 1 1 0.010076096382310912 1 1 1 1 1 1 0.011195503104352371 1 1 1 1 1 1 1 1 1 1 0.013863936922400566 1 1 1 1 0.012877271192814602 1 1 1 1 1 1 1 0.010673789579147967 1 1 1 1 1 1 0.014177825487724061 1 1 1 1 1 1 1 1 0.0098541125092985252 1 1 1 0.010373945470006394 1 1 1 1 1 1 0.010014366245254808 1 1 1 1 1 1 1 1 1 1 1 0.010074722100638457 1 1 1 1 1 1 0.010228692163583479 1 1 1 0.014047620114198833 1 1 1 1 0.009973952769890564 1 0.0095747629481648128 1 0.010061187749353717 1 1 1 1 1 1 1 1 1 1 1 1 1 1 0.01079388159292822 1 1 1 0.010319365701506135 1 1 1 1 1 1 1 1 1 1 1 1 1 1 1 1 1 1 1 1 1 0.0095109904907764112 1 1 1 1 1 1 1 1 1 1 1 1 0.011458755957706438 1 1 1 0.0095764706384674995 1 1 1 1 1 0.010106656375752813 1 0.0097531950962082021 1 1 1 0.0095717267570854664 1 1 1 1 1 1 0.0089580039756216329 1 0.010146550019800032 1 1 1 0.0091969958625856378 0.0094570656154336456 1 1 1 1 1 1 1 1 1 1 0.0099485510791176898 0.0091745368403025884 0.014008651916155584 1 1 1 1 0.0099825730773770421 0.009433075761429096 0.01289694270454146 1 1 0.009717865381325571 0.013141639890029052 1 1 0.015692966286965128 1 1 1 1 1 1 0.0086175132832253878 1 1 1 1 1 1 0.012029174684957962 1 1 1 1 1 1 0.010389690306882284 1 1 0.011103873369746376 1 1 1 1 1 1 1 1 1 1 0.011033548764370234 1 1 1 1 1 1 1 1 1 1 1 1 1 0.010745894469009618 1 1 1 1 1 1 1 0.010103352666106777 1 1 1 0.01084283731788515 1 1 1 1 0.011256724903900225 1 1 1 1 1 1 1 1 0.013234221289330677 1 0.01162217238995423 1 1 1 0.010924362607172331 1 0.0098747596235082766 1 1 1 1 1 1 1 1 0.0099723788325864725 1 1 1 0.012535212915716309 0.013822986290966503 1 1 1 1 1 0.012220294169512189 0.0097556492155224401 1 1 1 1 1 1 1 1 0.012354664257490806 0.01289130989139177 1 1 1 1 1 1 1 0.0099899041627108751 1 1 1 1 1 1 1 1 0.013245905186400956 1 1 0.013473071647082851 1 1 1 0.013172466728230275 1 1 1 1 0.012778230318308235 1 1 1 1 1 1 1 1 1 1 1 0.010418992627293046 1 1 1 1 1 1 0.012661600090297351 1 0.013451364961719146 1 1 0.0098829109295576738 1 1 1 1 1 1 1 0.01250210853004988 1 1 1 1 1 1 1 0.010769523226893816 1 0.013277805947991533 1 0.010232242323396893 1 1 1 0.014276657626936454 1 1 1 1 0.01047976136576644 0.010289611703595413 1 1 1 0.01341856197841276 1 1 1 0.010675320916513053 1 1 1 0.010156485951627249 1 1 1 1 1 1 1 1 1 1 1 1 1 1 1 1 1 1 1 1 1 1 1 1 1 1 1 1 1 1 1 0.010045508547309349 1 1 1 1 1 1 1 1 1 1 1 1 1 1 1 1 1 1 1 1 1 1 1 1 1 1 1 1 1 0.010104218460469969 1 1 1 1 0.0099918692426028896 0.0099799687107340641 1 1 1 1 1 1 0.010166897180752003 1 1 1 1 1 1 1 1 1 0.010130418137325707 1 1 1 1 1 1 1 1 1 1 1 1 1 0.01000244167897324 1 1 1 1 1 1 1 1 1 1 1 1 1 1 1 1 1 1 0.013056643538048231 1 1 1 0.012584121579845323 0.013824186751772336 1 1 0.010107443948866994 1 1 1 0.010081987590735631 1 1 1 0.011520713374492538 0.010218733227805445 1 1 1 1 0.015086873744653249 1 1 0.014752853997489327 0.012240365010367342 1 1 0.010417714147749019 1 1 1 1 1 1 1 1 1 1 1 1 1 0.011457415146332129 1 0.010003107370848361 1 1 1 1 1 0.012245425943766337 1 0.010673930047076723 1 1 1 1 1 1 1 1 1 1 1 1 1 1 1 1 1 1 1 1 0.0099762712751949815 1 1 1 1 1 1 1 1 1 1 1 1 1 1 1 1 1 1 1 1 1 1 1 1 1 1 1 0.010920858828146831 1 1 1 1 0.012286861266856389 1 1 1 1 1 0.010788952595534416 1 1 1 1 1 1 1 1 0.0099944671486939269 1 1 1 1 1 1 1 1 0.010549684814480513 1 1 1 1 0.010556243864202595 1 1 1 1 0.0099874554499636368 1 1 1 1 1 1 0.011954870787885945 1 1 1 0.013132771011299208 1 1 1 1 1 0.011193791658419548 0.012425357370797157 1 0.0092440187202010721 1 1 0.010340852247274733 1 1 1 1 1 1 0.00994183546355068 1 1 1 1 1 0.011007687377666157 1 1 1 1 1 1 1 1 1 1 1 1 1 1 1 1 1 1 1 1 1 1 0.010634321724648912 0.010956907526547497 1 1 1 0.010002908962152961 1 1 1 1 1 1 0.010063713170676426 0.010063870197028812 1 1 1 1 1 1 1 1 1 1 1 1 1 1 1 1 1 1 1 1 1 1 1 1 1 0.010923870763571739 1 1 1 1 1 1 1 1 1 1 1 1 1 1 1 0.011592141346221163 1 1 1 0.011040134668602423 1 1 1 1 1 1 1 1 1 1 0.010382914764641017 1 1 1 1 0.011730253138568349 1 0.010177026212244852 1 1 0.0099332748698368906 1 1 1 1 1 1 1 1 1 1 1 1 1 1 1 0.010106725160505904 1 1 1 1 1 1 1 1 1 1 1 1 1 1 1 1 1 1 0.010991442287245804 1 1 1 1 1 1 0.010307547131394007 1 1 1 1 1 1 1 1 1 1 1 1 1 1 1 1 1 1 1 1 1 1 1 0.0112213181465417 1 1 1 1 1 1 1 1 1 0.012494199970109279 1 1 1 1 1 0.012155354434599797 1 1 1 0.01000097054343249 1 1 1 1 1 1 1 1 0.0099992832048589018 1 0.01084132169701523 1 1 1 1 1 1 1 1 0.010791908159666696 1 0.0099582097455500965 0.011494380468519621 0.010616351894716568 1 1 0.011297400173308037 1 1 0.01141966550328034 1 1 1 1 0.011306823987603042 0.011472828795021206 1 1 1 1 0.011866121063624254 0.010681367246385553 1 0.011674330508601368 1 1 0.011525279432808726 1 0.011115648063445694 1 1 1 1 1 1 1 0.010657320858004606 0.011487538472535001 1 0.011071725924423735 1 1 0.010527226131793958 1 1 0.011223403660801027 1 1 1 1 1 1 1 1 1 0.012576976440209938 1 1 1 0.012752962225480601 1 1 1 1 1 1 0.011160410473305722 1 1 1 1 0.010039610725813036 1 1 1 1 1 1 1 1 0.012788694705755516 1 1 1 1 1 1 1 1 1 1 1 1 1 1 1 1 1 1 1 1 1 1 1 1 1 1 1 1 1 1 0.010320319332214081 1 1 1 1 1 1 1 1 1 1 1 1 1 1 1 1 1 1 1 1 0.010028779373079709 1 1 0.010514837342375977 1 1 0.011045341266943356 1 0.010270278070125189 1 0.010635416821459536 1 0.012952392335296046 0.013424455430950076 0.010676528207886841 1 1 1 1 1 1 0.013973845494028466 1 0.0099563846676488446 1 1 1 1 1 0.010375286236683004 1 0.011953279607699981 1 0.012449312781127764 1 1 0.0094269387824330118 1 0.011610788740334829 0.012360109637172663 1 0.013170158025719123 1 1 1 0.011919136557424305 0.010002205212355061 0.010820850490397939 1 1 1 0.011666697581182972 0.011769078430653702 1 1 0.010021522732362825 1 0.012573029679414514 1 1 1 1 0.010002159832584161 1 0.01278536217706547 1 1 1 1 1 1 1 1 1 1 1 1 1 1 1 1 1 1 1 1 1 1 0.0099844867639994617 1 1 1 1 1 1 1 1 1 1 0.010118119877838498 1 1 1 1 1 0.010917819186605364 1 1 1 0.01348033750700469 1 0.013169748899673834 1 1 0.012604952566522663 1 1 0.013059324201425037 0.013367315474748216 0.010849947230029043 1 1 1 1 1 1 1 1 1 1 1 1 1 1 1 1 1 1 1 0.0098731023556254544 0.015711866668334039 1 1 1 1 0.014890539859420052 1 1 0.010233831144888418 1 1 1 1 1 0.013233139887157635 1 1 1 1 1 1 1 0.01271500246049132 1 1 0.01297123891065002 1 1 1 1 1 1 1 1 1 1 1 1 1 1 1 0.010858244438274565 1 1 1 1 1 1 1 1 0.010532794324090393 1 1 1 1 1 1 1 1 1 0.010187935858844765 1 1 1 1 1 1 1 1 1 1 1 1 1 1 1 1 0.0098539630701490692 1 1 1 1 1 1 0.0097245540382370627 1 1 1 0.01527301464136321 0.015690262036383792 1 1 1 1 0.0099715520413545967 1 1 0.021870717518477273 1 1 1 0.010614238331317447 1 1 1 1 1 1 1 1 1 1 1 1 1 1 1 0.010272644272761726 1 1 1 1 1 1 1 1 1 1 1 1 1 1 1 1 1 1 1 1 1 1 1 1 1 1 0.010427189238363386 1 1 1 0.0090089740403088512 1 0.010949265945305575 1 1 1 1 0.010046089813758643 1 1 1 1 1 1 1 1 1 1 1 1 1 1 1 1 1 1 1 0.010458781157030817 1 1 1 1 0.011786298597055806 1 1 1 1 1 1 1 0.009899025174147022 1 1 1 1 1 1 1 1 0.011337589775476022 1 1 1 1 1 1 1 1 1 1 1 1 1 1 0.012117762221177976 1 1 1 1 1 0.012433629256114275 0.012798137132602702 1 1 0.013232664988244375 1 1 1 0.013397571985041264 1 0.010763823531203425 1 1 0.01314335886280873 1 0.010051454649316477 1 1 1 0.0090582395478375766 0.0090758311679652211 1 0.013216521005065361 0.012680862622052515 0.010006259604561973 1 1 1 1 1 1 0.010001529212617131 1 1 1 1 1 1 1 1 1 1 1 1 1 1 0.010159982562401207 1 1 1 0.010302744433262611 1 1 1 1 1 1 1 1 0.01021635580708463 1 1 0.011768231076028394 1 0.010631786624309325 1 1 1 1 1 1 1 0.0097917364619245217 1 0.009921593632080495 1 1 1 1 1 1 1 1 1 1 1 1 1 1 1 1 1 1 1 1 1 1 1 1 1 1 1 1 1 1 1 1 1 1 1 1 1 1 1 1 1 1 1 0.010066097585603548 0.0093108164550530486 1 1 1 1 1 0.0096558322194514202 1 1 1 1 1 1 0.011970960084037349 1 0.0090180574121574084 1 1 0.012506950439407418 1 1 1 0.010878494869311891 1 0.010298602581431573 1 1 1 1 1 1 1 1 1 1 1 1 1 1 1 1 1 1 1 1 1 1 1 1 1 1 1 1 1 1 1 0.0097085397768143112 0.010048186595985347 1 0.011240225927769035 1 1 1 1 1 0.011339253480521143 1 1 0.011655478076897112 0.010596264761784017 0.010057402636750446 1 1 1 0.010197407749862594 1 0.010765201300125668 0.011152662803621986 1 1 1 1 1 0.010139742385188623 1 0.010000033498102436 1 0.0098714996847992509 1 1 0.010180751737488447 1 0.0096696127763907964 0.012059886683375836 1 0.012171934509888276 1 1 0.011651753285911668 1 1 0.01000096762580955 0.011710631833365738 1 1 0.0157092643272129 1 1 1 0.013536439275746701 1 1 1 1 1 1 1 1 1 1 1 1 1 1 0.012015175524612899 1 1 1 1 0.011236094000355024 1 1 1 0.012741392635092632 1 1 0.010003181094127215 1 1 1 1 1 1 1 1 1 1 0.010321875697790387 1 1 1 0.010481636445725537 1 1 1 0.010041591027412032 1 1 1 1 0.010255623163049718 1 0.01254183405113244 1 1 0.010114130501709681 1 1 1 1 1 0.011187721212839306 1 1 1 1 1 1 1 1 1 1 1 1 0.011358285212561317 1 1 1 1 1 1 1 1 1 1 1 1 1 0.0099873640427988637 0.013240546561849035 1 1 0.009776547428668958 1 1 0.01245307993061995 0.011357686186867803 1 0.010524438500401337 0.011008973883584627 1 1 1 1 1 1 1 1 1 0.01136320022286837 1 1 1 0.010193935418991256 1 0.012117982050813419 0.011606121480785098 1 1 0.009962834966960793 1 1 1 0.011825502650335797 1 1 1 0.010806586266851751 1 1 1 1 1 1 1 1 1 0.010381936572529147 1 1 1 1 1 1 1 0.011003016947002776 1 1 1 1 0.009444827424549428 0.010094593159884256 0.0083921662251816923 1 0.013701915929348383 1 1 1 0.010045236828178658 1 1 1 1 1 0.0073422342631242164 1 1 1 0.0099248579583419167 1 0.0093444299484197711 1 1 1 1 1 1 0.010002534854080852 1 0.011822934235203241 1 1 1 1 1 1 1 0.010632127217641632 1 0.013516179860162755 1 0.011365843316035585 1 1 1 1 1 1 1 0.013343913032638779 1 1 0.010555397408445884 1 1 1 1 1 1 1 1 0.0098381796732634526 1 1 0.01055466876844598 1 1 1 1 1 0.0099183621427824404 1 1 1 0.0090664226479454137 1 1 1 1 1 1 1 1 1 1 1 1 1 1 0.013976971700784529 1 1 0.010113382265365822 1 1 1 1 0.0092489204614305126 1 1 1 0.010419936122921834 1 0.012752161556091265 1 1 1 1 1 1 1 1 1 1 1 1 1 1 1 1 1 1 0.0098954104844372372 1 1 1 1 1 1 1 1 1 1 1 1 1 0.011007498634429144 1 1 1 1 1 1 1 1 1 1 1 1 1 1 1 1 1 1 1 0.009542195853680659 1 0.0098745318421983516 1 1 0.012423394630458237 1 0.009743793619020294 1 1 1 0.012138715752119151 0.0098301270354286419 1 1 0.011488128189269489 1 1 1 1 0.0096264751456179992 1 1 1 0.010050795774071785 1 1 0.0099514946714025464 1 1 1 1 0.010143920739651665 1 1 1 1 1 1 1 1 1 1 1 1 1 1 1 1 1 1 1 1 1 1 1 1 1 1 0.011734659765120899 1 1 1 1 1 0.010737160441794395 1 1 0.010390859882890485 1 1 1 1 1 1 1 0.010698373731983724 0.010003207169183702 1 1 1 0.0091746856080207086 1 1 1 0.010079256723297521 1 1 0.010045033499176825 1 1 1 1 0.010008391795449312 0.012486778265809231 0.0099708592698124938 1 1 1 1 0.0094475545843955688 0.0116934919846564 1 0.011441926138656444 1 0.009545592875570684 0.011074598792987 0.011625865166770003 0.014277001880306339 1 0.011710911073308523 1 1 1 1 1 0.016537560450519413 1 1 1 0.02152529225913502 1 1 1 1 1 1 1 1 1 1 1 0.010829766171014363 1 1 1 1 0.010026043215880747 1 0.010232385169025617 1 1 1 1 0.011702358395235675 1 1 1 1 1 0.010800998399695718 1 1 1 0.0095684310985873645 1 1 0.0099961517304850873 1 1 1 1 0.01343434200284808 1 1 0.012417119143185891 1 1 0.017576007868993843 1 1 1 1 1 1 1 1 1 1 1 1 1 1 1 1 0.012395884621055784 1 1 1 1 1 1 1 1 1 1 1 1 0.010371962433464848 0.011148368579981126 0.019815963324256711 1 1 1 1 1 0.010708376545761226 0.012351064733024109 1 1 1 1 1 1 0.0094689795675806619 0.018709390951611869 0.0099600322187168334 1 1 1 1 0.011574085664859509 1 1 1 1 0.012184586746006077 1 0.012101112354563764 1 1 1 1 0.0099929728591506631 1 1 1 1 1 1 1 1 1 1 1 1 1 1 1 1 1 1 1 1 1 1 1 1 1 0.010796922541913282 1 1 1 0.015745002494840718 1 1 0.0082686875708492986 1 0.0075700487785097994 1 1 1 1 0.014600575624514691 0.013307129970457309 1 0.011028338223464296 1 0.0092793564434052352 1 1 1 1 0.010004051820239567 1 0.0083830699913918748 1 1 1 0.0082832906150502161 1 1 1 1 1 1 1 1 1 1 1 1 0.013406222150914009 1 1 0.010018481512470933 1 1 1 0.016608285769126312 1 0.0080765615656122631 1 1 1 1 1 0.018484271606642035 1 1 1 1 1 1 1 1 1 1 1 1 1 1 1 1 0.0094579208869088379 1 1 1 1 0.010581166606660608 1 1 1 1 1 1 1 1 1 1 1 1 1 1 1 1 1 1 0.010354548816571904 1 1 1 1 1 0.0098904569704340757 1 1 0.011125595157844769 1 1 0.020030426252811089 1 1 1 1 0.010310014303346982 1 0.012985072669388384 1 1 1 1 1 1 1 1 1 1 1 1 1 0.0122364034748797 1 1 1 1 1 0.012312379073230077 1 1 1 1 1 1 1 1 1 1 1 1 1 0.012393679416253888 1 1 1 0.012326924518306659 1 0.010631298951954159 1 1 1 0.0102377800823816 1 1 1 1 1 1 1 1 1 1 1 1 1 0.0099627298702306792 1 1 1 1 1 1 1 1 1 1 1 1 1 1 1 1 1 0.012929131613838001 0.012275021059914539 1 1 0.00982308771072158 1 1 1 1 0.010499357373903886 1 1 1 0.019611648439277842 0.0070539998884321846 1 1 0.019482758870892052 1 1 1 1 1 1 1 1 1 1 1 1 0.016033924812595746 1 0.010073893916314018 1 1 0.011967311955489265 0.011167843277878417 0.013747144456182112 1 1 0.010326453642414189 1 1 1 1 1 0.010278070642462401 1 0.016619671251920348 1 0.015939128936590923 1 0.0098387482092164563 1 1 1 1 1 0.012561048087506479 1 0.011214936216539757 1 1 1 1 0.013674914741219669 1 1 0.010095390434671371 0.010003158993826911 0.0091835457242736406 1 1 0.010029300599427728 1 1 1 1 1 0.013048239320222813 1 1 1 1 1 1 1 1 1 1 1 0.0099891990594915513 0.010884655839836256 1 0.010093432838693043 1 1 1 0.010829312686176202 1 1 1 0.011220773093554485 0.015066527723074666 1 1 0.0099984983617724451 1 0.010243705041069152 1 1 1 0.010455577929380353 1 1 1 1 1 0.010862105648696252 0.010282305359390382 1 0.0103664686769184 1 1 1 1 1 1 1 1 1 1 1 1 0.011310822657442821 1 1 1 0.010577378951961593 1 1 1 1 1 1 1 1 1 1 0.010329321620723489 1 1 1 1 1 1 1 1 1 1 0.011350692064951378 1 1 1 1 1 1 1 1 0.010095651386551019 1 0.010800413707197211 1 1 1 1 0.011169961340555987 0.011245121766791979 1 1 0.011172627289531773 1 1 0.0099213536186874667 1 0.010492467635306712 1 1 1 1 1 0.010103768509322267 1 1 1 1 1 1 1 1 0.010512420350719164 1 1 1 1 0.010684934900964338 1 0.011625159942136826 0.010542228681073396 1 1 1 1 1 1 0.015023549311207538 1 0.011102596976785218 1 1 1 1 0.010295511952749532 1 0.010038168322976593 1 0.0080498081790486772 1 1 1 0.010012167079059581 1 1 1 1 1 0.011251161070669907 0.011133150213490827 0.010353042656909721 1 0.009999783971038647 1 1 1 1 1 0.010008283532635449 1 1 1 1 1 1 1 1 1 1 1 1 1 1 1 1 1 1 1 1 1 0.010934822112714947 1 1 1 1 1 1 1 0.01038238849790217 1 1 0.010982616546234133 1 1 1 1 1 1 1 1 1 0.015108160871358415 1 1 1 1 1 1 0.010400837090428904 1 1 1 0.015073215106589266 1 1 1 1 1 1 1 1 0.011414709762630341 1 1 1 0.01212455584349828 1 1 1 1 1 1 0.010698411057421257 1 0.010239352047340868 1 1 0.012479475726097748 1 1 1 0.012105845910055247 1 1 1 1 1 0.016949002105876465 1 0.0099323892680514749 1 0.011899514447934849 0.010004612604978452 1 1 1 0.01296017285055953 1 1 0.010212280498902647 0.011478299508786349 1 0.014227765440507066 1 0.013418407846631264 1 1 1 0.011463564697709063 1 1 1 1 1 1 0.0088494882229876934 1 1 1 1 1 0.01289703412709485 0.012382910666674473 1 1 1 1 1 1 1 0.012752599896731697 1 0.011317070337145966 1 0.015022920330826776 1 1 1 0.013389495749314062 1 1 1 1 1 1 0.016829637213633508 1 0.014962277961113499 1 1 1 0.011106343082493746 1 1 1 1 1 1 1 1 1 1 1 0.011967865199301425 1 1 1 1 1 1 1 1 1 1 1 1 1 0.013449526827713987 1 1 0.010210877513771628 1 1 1 1 1 1 1 1 1 1 1 1 1 1 0.010527120203935116 1 1 1 1 0.0092931883723253415 1 1 1 1 1 1 1 1 1 1 1 0.013668286423456107 1 1 1 1 1 1 1 1 0.011472245698525674 0.0085084589660520196 1 1 1 1 1 1 0.0073400947265504952 1 1 0.0098911504019965919 1 1 1 1 1 1 1 1 1 1 1 1 1 1 1 1 1 1 1 1 1 1 0.0099752325194557151 1 0.0091645471841390654 1 1 1 1 1 1 1 1 1 1 1 1 0.010131370862079639 1 1 1 1 1 1 1 1 1 1 1 1 1 1 1 1 1 1 1 1 0.015855529701566073 1 1 1 0.0079659801750137441 1 1 1 1 1 0.0080635954484908658 1 1 1 1 0.010775872653104809 1 1 1 0.012415703467232659 1 1 1 0.010637326449658872 1 0.013977225930615317 1 0.009198009530045315 0.010166803539387861 1 1 1 1 1 1 1 0.0095561434159780502 0.0089009839137997177 1 0.011029739614398133 0.0092423196474065213 0.011601700560977103 1 0.010760729612786272 0.01135759516055356 0.009995156198180595 1 1 1 1 1 1 1 1 1 1 1 1 1 1 0.011088711206749268 1 1 1 0.010000939354036389 1 1 1 1 0.010108637215661673 1 1 0.010499743118187362 0.010580527369998887 1 0.010839737909333165 1 1 1 1 0.0091079954752220065 0.010952828468468886 0.014053173841396314 1 1 1 1 1 1 1 1 0.011312711603228243 1 1 1 1 1 1 0.010449774110169136 1 1 1 1 1 0.012004147158852074 1 0.010649811524292341 1 0.01108709260636931 1 1 1 1 1 0.010992144468480744 1 1 0.010846764877171971 1 1 1 1 0.01003402375675006 1 1 0.011787586319421627 1 1 1 1 1 1 1 0.012678057064127692 1 0.009815580839805849 1 0.011180359719001529 1 0.013555123161307414 1 1 0.0086116826492288866 1 1 1 1 1 0.011579679590264546 0.013608795470823944 1 1 1 1 1 0.01069203124801241 1 1 0.013959406532600681 1 1 1 1 1 0.012724009410507504 1 1 1 1 1 1 1 1 0.011236089904974886 1 1 1 1 1 0.0099134161628909485 1 1 1 1 1 1 0.013322923413763716 1 1 1 1 1 0.010664517064283393 1 1 1 1 1 1 1 1 1 1 1 1 1 1 1 1 0.0099340663640805488 1 1 0.012131101172327826 1 1 0.011941414031480775 1 0.012261020508620523 1 1 1 1 1 1 1 1 0.0088467701866201693 1 1 1 0.012292634453470076 0.011866684984629883 1 0.0095827255865283366 1 0.012580920467743797 1 0.011169911898719739 1 1 1 0.014696030180348419 1 1 1 1 0.0097906886684801693 0.0099992048879313424 1 1 1 1 0.013543443807030946 1 1 1 1 1 1 0.009195565106996241 1 0.010039048993189102 0.0095600171959324166 1 1 1 0.011970104268031342 1 1 1 1 1 0.0096769032505713021 0.012015113415149502 1 0.0097502674109482285 0.011924809540873509 1 0.011354709459102164 1 1 0.010209828307202462 1 0.013046223242312882 1 1 1 0.011963547236473086 1 1 1 1 1 1 1 1 1 1 1 1 1 0.0099698771900503975 1 0.01056596437394699 0.010885272850154455 1 1 0.009090590125540074 1 1 1 0.01048375540922717 1 1 1 1 1 0.0093377862296525824 0.0099868376288700725 1 0.010771690809374566 1 1 1 0.010059214566733241 1 1 1 0.010161712947755027 1 1 1 0.011506407611279492 1 1 0.0089893744447221511 1 1 0.011068708251615473 1 1 1 1 1 1 1 1 1 0.010838846150405564 1 1 1 1 1 1 1 1 1 0.010036442731774061 1 1 1 0.011824281271023999 0.010120859443629823 1 1 1 1 1 1 1 1 1 1 0.0085778809415262801 1 1 0.008795260608867277 0.011270747339275227 0.011777212580323264 1 1 1 1 1 1 1 1 1 1 1 1 1 1 0.01016015674401312 1 1 1 1 0.01043079945128845 1 0.010442225714815744 1 0.010162200818829731 1 1 1 1 1 1 1 1 1 1 1 1 1 1 1 1 1 1 1 1 1 1 1 1 1 1 1 1 1 1 1 1 0.014303366560937336 1 1 1 1 1 1 1 1 1 1 1 0.013396168499419743 1 1 1 1 1 1 1 1 1 1 1 0.011237242878786295 1 1 1 1 0.010390018178641139 1 1 1 0.017612182471292408 1 1 1 0.015731068828008579 1 0.014406087553205736 1 0.016895584833035864 0.011226758798083148 1 1 1 1 1 1 1 1 1 1 1 1 1 1 0.013182153276876407 1 1 1 1 1 1 1 1 0.010478734923268004 0.010052819878982589 1 1 1 1 1 1 0.014513317956458147 1 1 1 1 1 1 0.018400744223903573 0.007898645390029593 1 1 0.011782909718189814 0.01065861166468249 1 1 1 1 1 0.010167565307075081 1 1 1 1 1 0.010867519051813986 1 0.010002075226318994 1 1 1 1 1 0.011601874255637069 1 0.0098926050272402505 1 0.010434168281952943 1 1 1 1 1 1 0.013406775786874863 0.011796584091306088 0.010254424111916509 1 0.014065469793696562 1 0.011808970866095973 1 1 1 1 0.010748683539481866 1 1 1 1 1 1 0.010248804731305926 1 1 1 1 1 1 1 1 1 1 1 1 1 0.0093612756070105378 1 1 1 1 1 0.010793710616871555 1 1 1 1 1 1 0.011056041197451592 1 1 0.010080394283665098 0.0093039907255539501 1 1 1 1 1 1 1 1 1 1 0.011599190705679581 1 1 1 1 1 1 1 1 1 1 1 1 1 0.010927793468588513 1 1 1 1 1 1 1 0.010730154392363182 1 1 1 1 0.01430976075936761 0.013503770692754548 0.0098222946992364158 1 0.01320306973572616 1 1 1 0.012448366605154148 1 1 0.01051749136092826 1 1 1 1 1 1 1 1 0.01303094886852 1 1 0.011600025360012355 1 1 1 1 0.012062089283885725 1 1 1 1 1 1 1 0.013146376610383134 1 0.012645256682714552 1 0.01003646388598925 1 1 1 0.0097674648029174894 0.013897530169845351 1 1 1 0.012888434529333942 1 0.010178696083919086 1 1 1 0.0073295040703211115 1 1 1 0.016501590079121872 1 1 1 1 1 0.012938260845060391 1 1 1 1 1 1 0.012220389496696887 0.01300550324678711 1 1 0.01459712555896823 1 1 1 1 0.0099870103922919846 0.016825854133035154 1 1 0.01008358485524628 1 0.0082532548098101267 1 1 0.0081865280317112831 0.013861486567280248 1 1 1 1 1 0.015472807492373088 1 1 1 1 1 1 0.010659322344136751 1 0.011249013146476264 1 1 1 1 1 1 1 1 1 1 1 1 1 1 1 0.0058416247985397613 1 0.0095337229248265518 1 1 1 1 1 1 0.011466167538798434 1 0.0076499234377124352 1 0.01233575670556173 1 1 1 0.0095878954096013883 0.010080971204717952 1 1 1 1 1 1 1 1 1 1 0.010047980900331212 1 1 1 1 1 1 1 1 1 1 1 1 1 1 1 1 1 1 1 1 1 1 1 1 1 1 1 1 1 1 1 1 1 1 1 1 1 1 1 1 1 1 1 1 1 1 1 1 1 1 1 1 1 1 1 1 1 1 1 1 1 1 1 1 1 1 1 0.010303694546037251 0.010248891613161386 1 1 1 1 1 1 1 1 0.010751924375456703 1 1 0.011012052492841658 1 1 0.011181605943720386 1 1 1 1 1 1 0.010976235464482105 1 1 0.0099265351061432715 1 1 1 1 1 1 1 1 1 1 0.010559147716030275 1 1 1 1 1 1 1 1 0.010396664136930116 1 1 1 1 1 1 1 1 1 1 1 1 0.010655102784984117 1 1 1 1 1 1 1 1 1 0.010246886226106294 1 1 1 0.010258438648054004 1 1 1 1 1 1 1 1 0.011518121532149147 1 1 1 1 1 1 1 1 1 1 1 1 1 1 1 1 1 1 1 1 1 1 0.009868040305627903 1 1 1 1 1 1 1 1 1 1 1 1 0.010202115906631452 0.0095837779270523168 1 0.011627951722144717 1 1 1 1 1 1 1 1 0.009785230940889348 1 1 1 1 1 1 1 1 1 1 1 1 1 1 1 1 1 1 1 0.010064955109338922 1 1 1 1 1 1 0.011640927160307721 1 1 1 1 1 1 1 1 0.010455146128167529 1 1 1 1 1 1 1 1 1 1 1 1 0.011038805014740517 1 0.010781225634628822 1 1 1 0.010583658886572988 1 1 1 1 1 1 1 0.010499456345176761 1 1 1 1 1 1 1 1 1 1 1 0.01170728446679953 1 1 1 1 1 0.011853021087561564 1 1 0.013295532413981428 1 1 1 1 1 1 1 1 0.011588247947181905 1 1 1 1 1 1 1 1 1 0.014009679706141398 1 0.011352503083797958 1 1 1 1 1 1 1 1 1 1 1 1 1 1 1 1 0.012874903072864059 0.012942238358075819 1 1 1 1 1 1 0.011496311128462472 1 0.010140643816505833 1 1 1 1 1 1 1 1 1 0.011041009034876762 1 1 1 1 1 1 1 1 0.010984492481591113 1 1 1 1 0.010823780837098364 0.010479388517189861 1 1 1 1 1 1 1 1 1 1 1 1 1 1 1 1 1 1 1 1 1 1 0.010440445228851725 1 1 1 0.010668706022286019 1 1 1 1 1 1 1 1 0.011494091240194296 1 1 1 1 0.0098409939568032765 1 1 1 0.013824108814365048 1 1 1 1 1 1 0.0093947685841818118 1 1 1 1 1 1 1 1 1 1 1 1 1 1 0.0099523531271044664 1 1 1 1 1 1 1 1 0.010376472009288224 1 1 1 0.010971205444098568 1 1 1 1 0.01042531436673085 1 1 1 1 1 1 1 1 1 1 1 0.010390690562776363 0.010136401605972532 1 0.010935327401670391 1 1 0.0097606324259503809 1 1 1 1 1 1 1 1 1 1 1 1 1 1 1 1 1 1 1 1 1 1 1 0.010365058167648811 1 1 1 1 1 1 1 1 1 1 1 1 1 1 1 1 1 1 1 1 1 1 1 1 1 1 1 1 1 1 1 1 1 1 1 1 1 1 1 1 1 1 1 1 1 1 1 1 1 1 1 0.010812391234048762 1 1 1 1 1 1 1 1 1 0.010561874570995833 1 1 1 1 1 1 1 1 1 0.010860621644690852 1 1 1 1 1 1 1 1 1 1 1 0.0099509181098633246 0.010018034061285073 1 1 1 1 1 0.0096961177342896662 1 0.011733420628920525 1 1 0.011159920753527619 1 1 0.0099167162245441583 1 1 1 1 1 1 1 1 1 1 0.010373617794186343 1 1 1 1 1 1 1 1 1 1 1 1 1 1 1 1 1 1 1 1 1 1 1 1 1 1 1 0.011941271961227537 0.010131560596280379 1 0.0099758879157825237 0.0098130595097141761 1 1 1 1 1 1 1 1 1 1 1 1 1 1 1 1 1 0.011104499719056663 1 0.012927962377960071 1 0.012096103665505377 1 1 1 1 1 1 1 0.0071418167021625187 0.014310503138110484 1 0.011425635132980966 1 1 1 1 1 1 1 1 0.011548625868041716 1 1 1 1 1 1 1 1 1 1 0.011141385219402116 1 1 1 1 1 1 1 1 1 1 1 1 1 0.010262729076057084 1 1 1 1 1 1 1 0.0098916064989495525 1 1 0.010807699531946319 1 1 1 1 1 1 1 0.0098675054650836039 1 0.0099758989661340534 1 1 0.010596414763512889 1 1 1 1 0.011274989538085676 1 1 1 1 1 1 1 1 1 1 1 1 1 1 0.013575267263586667 1 0.012696306461202256 0.0099876479187119664 1 1 0.013542398255184749 1 1 1 1 0.014276810723413132 1 1 1 1 1 1 1 1 0.013357320818076449 1 0.0099837588262884878 1 1 1 1 1 1 1 1 1 0.011991658976990734 1 1 0.012376914021336831 1 1 0.011308002428675029 1 1 1 1 1 1 0.01163420748883035 0.009145069143850347 1 1 0.0099971611184408744 1 0.010094147206537597 1 1 1 1 1 1 1 1 1 1 1 1 0.010456172618660829 1 1 1 1 0.010106205389879667 1 1 1 1 1 1 1 1 1 1 1 1 1 1 1 1 1 1 1 1 0.010303518271291133 1 1 1 0.010014830663820504 1 1 1 1 0.01009321101519446 1 1 0.0098177499881311713 1 1 0.010105462586282941 0.010965984839644179 1 1 1 1 1 1 1 1 1 1 1 1 1 1 1 1 1 0.010647931518276612 1 1 1 1 1 1 1 1 1 0.0097101842369319447 1 0.0099151990947282977 1 1 0.0099458957205607271 0.010149695702316483 1 1 1 1 1 1 1 0.010365805533281678 1 1 1 0.010216109830965187 1 1 1 0.013187510145163499 1 0.012637891949592367 0.015191397606722074 1 1 1 1 1 1 1 1 1 1 1 1 1 1 1 0.010630778338344613 1 1 1 1 1 1 0.01192253134158772 1 1 0.014325970596028699 1 1 1 0.01324737867234731 1 1 1 1 1 1 1 1 1 1 1 1 1 1 1 1 1 1 1 1 1 1 1 1 1 1 1 1 1 1 1 0.010158004687909164 1 1 1 1 1 1 0.0099881156211506835 1 1 1 1 1 1 1 1 1 1 1 1 0.010423179383384856 1 0.010388438608548883 1 1 1 1 1 1 1 1 1 1 1 1 1 1 1 0.010192745462745154 1 1 1 1 1 1 1 1 1 1 1 1 1 1 1 1 1 1 1 1 1 1 1 0.010332844108086686 1 1 1 1 1 1 1 1 1 1 1 1 1 1 1 1 1 1 1 1 1 1 1 1 1 1 1 1 1 1 1 1 0.010179639069261934 1 1 1 1 1 1 1 0.010421258979974162 1 1 1 1 0.010126884981635454 1 1 1 1 1 0.010810017649326044 1 1 1 1 1 1 1 1 1 0.010511777061263912 1 0.010162354547047845 1 1 1 1 1 1 1 1 1 1 1 1 1 0.010285107287930147 1 1 0.0099899811475289719 1 0.010465935582201019 1 0.010300198082969373 1 1 1 1 1 1 1 1 1 1 1 1 1 1 1 1 1 1 1 1 1 1 1 1 1 1 1 1 1 1 1 0.010251120036172014 1 1 1 1 1 1 1 1 1 1 1 1 1 1 1 1 1 1 1 1 1 0.010438965993998748 1 1 1 1 1 1 0.0099728463792916576 1 1 0.010218031654825467 1 1 1 1 0.01016149061268813 1 1 1 1 1 0.010141333936160485 1 1 1 1 1 1 1 1 1 1 1 1 1 1 1 1 1 1 1 0.010028923843962643 1 1 0.010068378718307722 1 1 1 1 1 1 1 1 0.010559444251299874 1 1 1 0.010440723319473089 1 1 1 1 1 1 0.010161217063661226 0.0099347086597163983 0.013147633085393689 1 1 1 1 1 1 1 1 1 1 1 1 0.0091061364987575447 1 1 1 1 1 1 1 1 1 1 1 1 1 1 1 1 1 1 1 1 1 1 1 1 1 1 1 1 1 1 0.010039454874345074 1 1 1 1 1 1 1 1 1 1 1 0.010019567838302428 1 1 1 0.010019592817554584 0.010044238271157862 1 1 1 1 1 0.010014728252324493 0.010000007769902239 0.010140781495011984 1 1 0.010039896197675055 1 1 0.010000166292310099 1 1 1 1 1 1 1 1 1 1 1 1 0.010147646539596289 1 1 1 1 1 1 1 1 1 1 1 1 1 1 1 1 0.010275616560028766 1 1 1 1 1 1 0.010191074006380911 1 1 1 1 1 1 0.010260489426732118 0.010106204242374685 1 0.010722817961182428 0.0099735368575802896 1 1 1 1 1 1 1 1 1 1 0.010274235770348278 1 0.01036092020663712 0.0098817166864066767 0.0099161195118019265 1 1 1 1 1 1 1 1 1 0.010197239086311071 1 1 1 1 1 1 1 1 0.01005360189025236 1 1 1 1 1 0.0099964083005225496 1 1 1 1 1 1 1 1 1 1 1 1 1 1 1 1 1 1 1 1 1 1 1 1 1 0.011889242769252512 1 1 1 1 1 1 1 1 1 1 1 1 1 1 0.010414152158323265 1 1 1 0.010209515191931459 1 0.0099218349925737116 0.010710628606409072 1 1 0.01063007046471879 1 1 1 1 1 1 1 1 1 1 1 1 1 1 1 1 1 0.0097081783505063579 1 1 1 1 1 0.01080085245552161 1 1 1 0.011550949227813013 1 0.011746178165407968 1 1 1 1 1 1 0.010350475304503344 0.010082357330480926 1 1 1 0.010361638039174562 0.010273140519585165 1 1 1 0.010179125419998684 0.010157614712720411 1 1 1 1 1 0.010006033897254598 0.011387492745652769 1 0.011955791797459096 1 1 1 1 1 1 1 1 1 0.012776642739188252 1 1 1 1 1 1 1 1 1 1 1 1 0.010451129506875325 0.010700173378168986 1 1 1 1 1 1 0.012285989591436465 1 1 1 1 0.010444790951398952 1 1 1 1 1 0.020734620464091028 1 1 1 1 1 1 1 1 1 1 0.011061802380967149 1 1 0.019110823221900483 1 1 0.010001113052373882 1 1 1 1 1 1 1 0.014425531903772489 1 1 1 0.012547743010584689 1 1 1 1 1 1 1 1 1 1 1 1 1 1 0.010088379773103843 0.0099433189172106733 1 1 1 1 0.014471311422495973 1 1 1 1 1 1 1 1 1 1 0.01625161189151289 1 1 0.010105967153176215 1 1 0.009993818562262443 0.017629082834472662 1 1 1 1 1 0.01233492499675687 0.013040374741825744 1 0.010049600294747963 1 1 1 1 1 1 0.011839727963142503 1 1 1 0.012142654123743244 0.011931567331274231 1 1 0.01007358630856948 1 1 1 0.0099993861830081632 1 1 1 0.010455176918077314 1 0.010632217161732493 1 1 0.01111510802169424 0.011609190269207273 1 1 0.010430898543089005 0.0097533941795460762 1 1 1 1 1 1 1 1 0.012278979427391578 1 0.014781359939710735 1 0.010584620075812932 1 0.01031085093510878 1 1 1 1 1 1 1 1 1 1 1 1 1 1 0.010242280250710882 1 1 1 1 0.013170574029967139 1 1 1 0.010973431173196808 1 1 1 0.015501890983847771 1 1 1 1 1 0.011711366944704586 1 1 1 1 0.017237249488761611 1 1 1 1 1 0.011970252824716667 1 1 1 1 0.013284859337791877 1 1 1 1 1 0.017359187301999111 1 1 1 1 1 1 1 1 1 1 1 0.017729544458735348 1 1 1 0.017921825508397923 1 1 1 1 1 1 1 1 1 0.017124482260132908 1 1 1 1 0.010069630349576041 1 1 0.010040370487025146 1 1 1 1 1 1 1 1 1 1 1 1 1 1 1 1 1 1 1 1 0.010343936191145292 1 1 1 1 1 0.010181577594442069 1 1 1 1 1 1 1 1 1 1 1 1 1 1 0.01076708759023756 1 1 1 1 1 1 0.012112537514974974 1 1 1 1 1 1 1 0.010380386206512044 0.010026910127007982 1 1 1 1 0.010130374517353153 1 0.010146519334564022 1 1 1 1 1 1 1 0.010187163055952176 1 1 1 1 0.010162358596703225 1 1 1 1 1 1 1 1 1 1 1 1 0.010083698665607009 1 1 1 1 1 1 1 1 1 1 1 1 1 1 1 1 1 1 1 1 1 1 1 1 1 1 1 1 1 1 1 1 1 1 1 1 1 1 1 1 1 1 1 1 1 1 1 1 1 1 1 1 1 1 1 1 1 1 1 1 1 1 1 1 1 1 1 1 1 1 1 1 0.010106691053317133 1 0.010679635034721269 1 1 1 1 0.0099987853669051968 1 1 0.01059836595600659 1 1 0.01003749600100245 1 1 1 1 0.01070649885168581 1 1 1 1 1 1 1 1 1 1 1 1 1 1 1 1 1 1 1 1 1 1 0.01033077868759937 1 1 1 0.010333161457295802 1 1 1 1 0.010574290361414898 1 1 1 1 1 1 0.010241128904119087 1 1 1 1 1 1 1 1 1 1 1 1 1 1 1 1 1 1 1 1 1 1 1 1 1 1 1 1 1 1 1 1 1 1 1 0.010003733840144713 1 1 0.010004143687890842 1 1 1 0.009980893904504606 1 1 1 1 1 1 0.0099196720797636202 1 1 1 1 1 1 1 0.010000414107666691 1 1 1 1 1 1 1 1 1 1 0.0098206910229451504 1 1 1 1 0.0096963227395363318 0.013460675823282958 1 1 1 1 1 1 0.013009063401252931 1 0.014643033991501341 1 0.0088767494168531628 1 1 1 1 1 1 1 1 0.010392636795151107 0.01599499502680438 1 1 1 1 1 1 1 1 1 1 1 1 1 1 1 1 1 1 1 1 1 1 1 1 1 1 1 1 1 1 1 1 1 1 1 1 1 1 1 1 1 1 1 1 1 1 1 1 1 1 1 1 1 1 1 1 1 0.011195237598579807 1 1 1 1 1 1 1 1 0.0098523065054526102 1 1 0.010209905333418517 1 0.010129483437157454 1 0.011217046024617797 1 1 1 1 1 1 1 0.0098118019264989316 1 1 1 1 1 0.01041802339672214 1 1 1 1 0.0094919758583957899 1 1 1 1 1 1 1 1 1 1 0.0099564346646180673 1 1 1 1 1 1 1 1 1 1 1 1 0.013186734959232158 1 1 0.014595203032980841 1 0.014504822652397883 1 1 1 1 0.014391312695287622 1 1 1 1 0.012903501856424573 1 1 0.012609286388648087 1 1 1 0.010686418564588232 0.0099565624429668667 1 1 1 1 1 1 1 1 0.0095909211273794426 1 1 1 1 1 1 0.010826424097033558 1 0.011360330969128371 0.016716511380119467 1 1 0.013467169537838516 0.009960543744534537 1 0.013933534144471833 1 1 0.013360408393925795 1 1 1 1 0.011397569453553781 1 1 1 1 1 0.013035716029180151 1 1 1 1 1 1 1 1 1 1 1 1 1 1 1 0.011153814982869225 0.012339503859897476 1 0.010386548114565408 1 1 0.011773410255394636 1 1 1 1 0.01130431354807507 1 1 1 1 1 1 1 0.010002661762047 1 1 1 1 1 1 0.010109692422420907 1 1 1 1 0.011131947040777055 1 0.011719984512792646 1 1 1 1 1 1 1 0.012313788196666864 0.012898669654400072 1 1 1 1 1 1 1 1 1 1 1 0.011126488748811414 1 1 1 1 1 1 0.010496144521742816 1 0.010925749523587634 1 1 1 1 0.0092648273895598876 0.0086092189112858038 1 1 1 1 0.01267022077604606 1 0.010475812780585243 1 1 1 1 1 1 0.0099948451721197044 0.010931852508149195 1 0.010348965459609741 0.010875509658704418 1 1 1 1 1 1 1 0.010400061034914747 1 1 1 1 1 1 1 1 1 1 0.013936437616156212 1 1 1 1 1 1 1 1 1 0.010531025121162385 1 1 1 1 1 1 1 1 1 1 1 1 1 1 1 0.013987502006268786 1 1 1 1 1 1 1 1 0.010042816566540368 1 1 0.0099056414470666699 0.016500892127834427 1 1 1 1 1 1 1 0.010065401226509242 1 1 1 1 0.0102329767025771 1 1 1 1 1 1 0.010415393458901585 0.010263090388749802 1 1 1 1 1 1 1 1 0.010771980712188083 1 1 1 1 0.017610286375810531 1 1 1 0.010029187779474917 1 1 1 0.011269735756559394 1 0.01332640765993922 0.011519796536968127 1 1 1 0.010646177859150965 1 1 1 0.010496426157168597 1 0.01160064516532444 0.010442069933899158 0.012430719692223292 1 1 1 0.012409704280395525 0.012506570644886066 0.011082107421085226 1 1 0.011115858508957306 0.008878429975504195 1 0.011187471303998921 1 1 1 1 0.010606734561622973 1 1 0.009936259092493873 1 1 1 0.017145618348431552 1 1 0.0099965907327358768 0.010089391193990665 1 1 1 1 1 1 1 1 1 1 1 1 1 1 0.017818068077641486 1 0.010124048389764433 1 1 1 1 1 1 0.01005641699785912 1 0.015376147254985803 0.013606740504686354 1 1 0.009992804867236596 1 1 0.011225971581277179 1 0.010030008677720637 1 0.011904846759961616 1 1 1 0.010181279769305265 1 0.013233697050846042 1 0.010007420005029175 1 0.012348302200593689 1 1 1 0.0089990526571302239 1 1 1 1 1 1 0.0097453088801694628 1 0.010469258132144282 1 1 0.010308470055451296 1 1 1 1 1 1 1 0.01091499059125799 1 0.010936464202184118 1 1 1 1 1 1 1 1 1 1 1 0.0099647905778535335 1 1 1 1 1 1 1 1 1 1 1 1 1 1 0.0099687722045790385 1 1 1 1 1 1 1 1 1 1 1 1 1 1 1 1 1 1 1 1 1 1 1 1 1 1 1 1 1 1 1 1 1 1 1 1 1 1 1 1 1 1 1 1 1 1 1 1 1 1 1 1 1 1 1 1 1 1 0.011325834423338586 1 1 0.0097036773485395765 0.0099998991150131254 1 1 1 1 1 1 1 1 1 1 1 1 0.011563740528633581 1 1 1 1 1 0.012127634360154883 0.014098918179030497 1 1 1 0.01063717372554362 0.0100003871527585 1 1 1 1 1 1 0.011156364680145338 1 1 1 1 1 1 1 1 0.010435010768038875 1 1 1 1 1 1 1 1 1 1 1 1 0.010872840197869146 1 1 0.010942620815815356 1 1 1 0.010870030018897994 1 1 1 1 1 1 1 1 1 1 0.012647757081579383 1 1 1 0.0099368200753494392 1 0.014085371691960233 1 1 1 1 1 1 1 1 1 1 1 1 1 1 1 1 1 0.0099277770762976423 1 1 1 1 1 1 1 1 1 1 1 1 1 1 1 1 0.0088193456967630337 1 1 1 1 1 0.0094077283832714065 1 1 1 1 1 1 0.010179821146661263 1 1 0.010447364452991969 1 1 1 1 1 1 1 1 1 1 1 1 1 1 1 1 1 1 1 1 1 1 1 1 1 1 1 1 1 1 1 1 1 1 1 1 1 0.010060678073295271 1 1 0.01069429408029416 1 1 1 1 0.010687342233799666 1 1 1 1 1 1 1 1 1 1 1 0.010407001656236299 1 1 1 1 1 1 1 1 1 1 1 1 1 1 1 1 1 1 1 1 1 1 1 1 0.010169538704717233 1 1 1 1 1 0.010842012424275174 1 1 1 1 1 1 1 1 1 1 1 1 0.010905959799259492 1 1 1 1 1 1 0.010908001510813597 1 1 1 1 1 1 1 1 0.010889096474944741 1 0.010780367361624854 1 1 1 1 1 1 1 1 1 1 1 1 1 1 1 1 1 1 1 0.011527908238299318 1 1 1 1 1 1 0.010747540876674462 0.0095649200334950047 1 1 1 1 1 1 1 1 1 1 1 1 1 1 1 1 1 1 1 1 0.008534264858851056 1 0.010741869621133517 1 1 1 1 0.0091540868453330679 1 1 1 1 1 1 1 1 1 1 1 0.010158320751426544 1 1 1 0.014492699324484432 1 1 1 1 1 1 1 1 1 1 1 1 0.013500903769292227 1 1 1 1 1 1 1 0.0099650699475855222 1 1 1 1 0.0098175947077424677 1 1 1 1 1 0.011738719633908368 1 1 1 0.01085146216994377 1 1 1 1 1 1 1 1 1 1 1 1 1 1 1 1 1 1 1 1 1 1 1 0.010132008962844306 1 1 1 0.010405976734483475 1 1 1 1 0.012688060638761264 1 1 1 0.014693838434258852 1 1 1 1 1 1 1 1 1 0.016626148091789084 1 1 1 1 1 0.012882775671605801 1 0.0099867589558017798 1 1 1 1 1 1 1 1 1 1 1 1 1 1 1 0.015342741803908757 1 1 1 0.014426774298435334 1 1 1 0.010621603480096518 1 1 1 1 1 1 1 1 1 1 1 0.015281193452284998 1 1 1 1 1 1 1 1 1 1 1 1 1 1 1 1 1 1 1 1 1 1 1 1 1 1 1 1 1 1 1 0.010413875723141886 1 1 1 1 1 1 1 1 1 1 1 1 1 1 1 1 1 1 1 1 1 1 1 1 1 1 1 1 1 1 1 1 1 1 1 1 1 1 1 1 1 1 1 1 1 1 1 1 1 1 1 1 1 0.011579877047133636 1 0.010009575106826199 1 1 0.0094124184452600412 1 1 1 0.01213173698592589 1 1 1 0.009742324585830511 1 0.0099145220173613522 1 1 1 1 1 1 1 0.010099498400261234 1 1 0.01029472442831765 1 1 1 0.010106624721556646 1 0.010487599930820596 1 1 1 0.011283873196964073 1 1 1 0.010545435609169061 1 1 1 0.010816948111909903 1 0.010094603017964077 1 1 0.010029751504600604 1 0.010491636467428837 1 1 1 1 0.012255181753284246 1 0.0098032628282151528 1 1 1 1 0.010014669825089761 1 1 1 1 1 1 1 1 1 1 1 0.010033791739492514 1 1 1 1 1 1 1 1 1 1 1 1 1 1 1 1 1 1 1 1 1 1 1 0.0094915823110840129 1 1 0.012174573993441483 1 0.0098430109137741598 1 0.009554269227449284 1 1 1 1 0.010858095337675323 1 0.010686119702067703 1 1 1 1 1 0.01136861357825476 1 1 1 1 1 1 1 1 1 1 1 0.011663627593916072 1 1 1 0.010107769245822656 1 0.010328240158201041 0.010489485230691264 1 1 0.0099651953373293186 0.014134546810606814 1 1 0.011243137118229539 1 1 1 0.010010853109477386 1 1 0.010235268450367983 0.01055578880706576 1 1 1 1 1 1 1 1 1 1 1 1 1 1 1 1 1 1 1 1 1 1 1 1 0.01065088736551301 1 1 1 1 1 1 1 0.011776893613859637 1 1 1 1 1 1 1 1 1 1 1 1 1 1 1 1 0.010624879312561569 1 1 1 0.011309206063535721 1 1 1 1 1 1 1 0.010391649258032078 1 1 1 1 1 1 1 1 1 1 0.010090489814111996 1 1 1 1 1 1 1 1 1 1 0.010146296983346854 1 1 1 1 1 1 1 1 1 1 1 1 1 1 1 1 1 0.010276275643877677 1 1 1 1 1 0.010404082387359731 1 1 0.0096931852767034414 1 0.0098788421922539494 1 1 1 1 1 1 1 1 1 1 1 1 1 1 1 1 1 1 1 1 1 1 1 1 1 1 1 1 1 1 1 1 1 1 1 1 1 1 1 1 1 1 1 1 1 1 1 1 1 1 1 1 1 1 1 1 1 0.010142522174019524 1 1 1 1 1 1 1 1 1 1 1 1 1 1 1 0.010205366381482003 1 1 1 1 1 1 1 1 1 1 1 1 1 1 1 1 1 1 1 1 1 1 1 1 1 0.011263184675981851 1 0.010048132512703993 1 1 1 1 1 1 1 1 0.0099798834246562669 1 1 1 1 1 1 1 1 1 1 1 1 1 1 1 1 1 0.010213877555047365 1 1 1 0.012316959757187766 1 1 1 1 1 1 1 1 0.011661095237378395 0.010603756648216365 1 1 0.010684326750974152 1 1 1 1 1 1 1 1 1 1 1 1 1 1 1 1 1 1 1 1 1 1 1 1 1 1 1 1 1 1 1 1 1 1 1 1 1 1 1 1 1 1 1 1 1 1 1 1 0.011893390890492435 1 1 0.0099100747485028652 1 1 1 1 1 0.010431144810470243 1 1 1 0.0099955513513602413 1 1 1 0.0094011584619191069 1 1 1 0.0099443757935995126 1 1 1 1 1 1 1 1 1 0.010645306367850767 1 1 1 1 1 0.0099930748377754196 1 1 1 1 1 1 1 1 1 1 1 1 1 1 1 1 1 1 1 1 1 1 1 0.010171271779645493 1 1 1 1 0.010255446560631066 1 1 1 1 1 1 1 1 1 1 1 1 1 1 0.0085945608584832769 1 1 1 1 1 1 0.0095343229521217057 1 0.012078238399590723 1 1 1 0.010547844410494656 1 1 1 1 1 1 1 1 1 0.010362867108525541 1 1 1 1 1 1 1 0.0099701842088538301 1 1 1 1 1 1 1 1 1 1 1 1 1 1 0.012282043078755831 1 0.012389956195622861 0.011825445625839825 0.013889968987659205 1 1 1 1 1 1 0.011073563759420691 1 1 1 1 0.011427124640911283 1 1 1 1 1 1 1 1 0.010938958012717642 1 1 0.010923095323833188 0.012367821742432249 1 1 0.01318545537465508 1 1 1 1 0.013422789409568344 1 1 1 1 1 1 1 1 0.01002933107501627 1 1 0.010915050364218769 0.010946186316412277 1 0.011582817239397273 1 1 1 1 1 1 1 1 1 1 1 1 1 1 1 1 1 1 1 1 1 1 1 1 0.015965367473155738 0.014643023045936607 1 1 0.011801583385550589 1 1 1 1 1 1 0.010663556653222044 1 1 1 1 1 1 1 1 1 1 1 1 1 0.010679921413436643 1 1 1 1 1 1 0.0096036719077369978 1 1 1 0.0099361697699956435 1 1 1 1 1 1 1 1 0.009916628762982542 1 1 1 1 1 1 1 1 1 0.0097588114451233228 1 1 0.0099472121473250623 1 1 0.0099593051789413599 1 0.0098874977000162241 1 1 0.01323383330684463 1 1 0.012655516168799844 1 1 0.01116611477857514 1 1 1 0.0096951451473775707 0.010809682292341929 1 1 1 0.0099389756072983046 1 0.013119259207656234 1 1 0.010065708061737139 1 1 1 1 0.013034281106976808 0.0096370351112443457 1 0.010214380084875097 1 1 1 1 1 1 1 1 1 1 1 1 1 1 1 1 1 1 1 0.012001284996079022 1 1 1 1 0.010700117134239372 1 1 1 1 1 1 1 1 1 1 1 1 1 1 1 1 1 1 1 1 1 1 1 1 1 1 1 1 1 1 
</DataArray>
</CellData>
</Piece>
</UnstructuredGrid>
</VTKFile>
